 <VTKFile type="UnstructuredGrid"  version="0.1"   >
 <UnstructuredGrid>
 <Piece  NumberOfPoints="          1600 "  NumberOfCells="         1024 ">
 <Points>
 <DataArray  type="Float64" NumberOfComponents="3"  format="ascii" >
   0.0000000000000000        0.0000000000000000        0.0000000000000000     
   3.1250000000000000E-002   0.0000000000000000        0.0000000000000000     
   6.2500000000000000E-002   0.0000000000000000        0.0000000000000000     
   9.3750000000000000E-002   0.0000000000000000        0.0000000000000000     
  0.12500000000000000        0.0000000000000000        0.0000000000000000     
   0.0000000000000000        3.1250000000000000E-002   0.0000000000000000     
   3.1250000000000000E-002   3.1250000000000000E-002   0.0000000000000000     
   6.2500000000000000E-002   3.1250000000000000E-002   0.0000000000000000     
   9.3750000000000000E-002   3.1250000000000000E-002   0.0000000000000000     
  0.12500000000000000        3.1250000000000000E-002   0.0000000000000000     
   0.0000000000000000        6.2500000000000000E-002   0.0000000000000000     
   3.1250000000000000E-002   6.2500000000000000E-002   0.0000000000000000     
   6.2500000000000000E-002   6.2500000000000000E-002   0.0000000000000000     
   9.3750000000000000E-002   6.2500000000000000E-002   0.0000000000000000     
  0.12500000000000000        6.2500000000000000E-002   0.0000000000000000     
   0.0000000000000000        9.3750000000000000E-002   0.0000000000000000     
   3.1250000000000000E-002   9.3750000000000000E-002   0.0000000000000000     
   6.2500000000000000E-002   9.3750000000000000E-002   0.0000000000000000     
   9.3750000000000000E-002   9.3750000000000000E-002   0.0000000000000000     
  0.12500000000000000        9.3750000000000000E-002   0.0000000000000000     
   0.0000000000000000       0.12500000000000000        0.0000000000000000     
   3.1250000000000000E-002  0.12500000000000000        0.0000000000000000     
   6.2500000000000000E-002  0.12500000000000000        0.0000000000000000     
   9.3750000000000000E-002  0.12500000000000000        0.0000000000000000     
  0.12500000000000000       0.12500000000000000        0.0000000000000000     
  0.12500000000000000        0.0000000000000000        0.0000000000000000     
  0.15625000000000000        0.0000000000000000        0.0000000000000000     
  0.18750000000000000        0.0000000000000000        0.0000000000000000     
  0.21875000000000000        0.0000000000000000        0.0000000000000000     
  0.25000000000000000        0.0000000000000000        0.0000000000000000     
  0.12500000000000000        3.1250000000000000E-002   0.0000000000000000     
  0.15625000000000000        3.1250000000000000E-002   0.0000000000000000     
  0.18750000000000000        3.1250000000000000E-002   0.0000000000000000     
  0.21875000000000000        3.1250000000000000E-002   0.0000000000000000     
  0.25000000000000000        3.1250000000000000E-002   0.0000000000000000     
  0.12500000000000000        6.2500000000000000E-002   0.0000000000000000     
  0.15625000000000000        6.2500000000000000E-002   0.0000000000000000     
  0.18750000000000000        6.2500000000000000E-002   0.0000000000000000     
  0.21875000000000000        6.2500000000000000E-002   0.0000000000000000     
  0.25000000000000000        6.2500000000000000E-002   0.0000000000000000     
  0.12500000000000000        9.3750000000000000E-002   0.0000000000000000     
  0.15625000000000000        9.3750000000000000E-002   0.0000000000000000     
  0.18750000000000000        9.3750000000000000E-002   0.0000000000000000     
  0.21875000000000000        9.3750000000000000E-002   0.0000000000000000     
  0.25000000000000000        9.3750000000000000E-002   0.0000000000000000     
  0.12500000000000000       0.12500000000000000        0.0000000000000000     
  0.15625000000000000       0.12500000000000000        0.0000000000000000     
  0.18750000000000000       0.12500000000000000        0.0000000000000000     
  0.21875000000000000       0.12500000000000000        0.0000000000000000     
  0.25000000000000000       0.12500000000000000        0.0000000000000000     
  0.25000000000000000        0.0000000000000000        0.0000000000000000     
  0.28125000000000000        0.0000000000000000        0.0000000000000000     
  0.31250000000000000        0.0000000000000000        0.0000000000000000     
  0.34375000000000000        0.0000000000000000        0.0000000000000000     
  0.37500000000000000        0.0000000000000000        0.0000000000000000     
  0.25000000000000000        3.1250000000000000E-002   0.0000000000000000     
  0.28125000000000000        3.1250000000000000E-002   0.0000000000000000     
  0.31250000000000000        3.1250000000000000E-002   0.0000000000000000     
  0.34375000000000000        3.1250000000000000E-002   0.0000000000000000     
  0.37500000000000000        3.1250000000000000E-002   0.0000000000000000     
  0.25000000000000000        6.2500000000000000E-002   0.0000000000000000     
  0.28125000000000000        6.2500000000000000E-002   0.0000000000000000     
  0.31250000000000000        6.2500000000000000E-002   0.0000000000000000     
  0.34375000000000000        6.2500000000000000E-002   0.0000000000000000     
  0.37500000000000000        6.2500000000000000E-002   0.0000000000000000     
  0.25000000000000000        9.3750000000000000E-002   0.0000000000000000     
  0.28125000000000000        9.3750000000000000E-002   0.0000000000000000     
  0.31250000000000000        9.3750000000000000E-002   0.0000000000000000     
  0.34375000000000000        9.3750000000000000E-002   0.0000000000000000     
  0.37500000000000000        9.3750000000000000E-002   0.0000000000000000     
  0.25000000000000000       0.12500000000000000        0.0000000000000000     
  0.28125000000000000       0.12500000000000000        0.0000000000000000     
  0.31250000000000000       0.12500000000000000        0.0000000000000000     
  0.34375000000000000       0.12500000000000000        0.0000000000000000     
  0.37500000000000000       0.12500000000000000        0.0000000000000000     
  0.37500000000000000        0.0000000000000000        0.0000000000000000     
  0.40625000000000000        0.0000000000000000        0.0000000000000000     
  0.43750000000000000        0.0000000000000000        0.0000000000000000     
  0.46875000000000000        0.0000000000000000        0.0000000000000000     
  0.50000000000000000        0.0000000000000000        0.0000000000000000     
  0.37500000000000000        3.1250000000000000E-002   0.0000000000000000     
  0.40625000000000000        3.1250000000000000E-002   0.0000000000000000     
  0.43750000000000000        3.1250000000000000E-002   0.0000000000000000     
  0.46875000000000000        3.1250000000000000E-002   0.0000000000000000     
  0.50000000000000000        3.1250000000000000E-002   0.0000000000000000     
  0.37500000000000000        6.2500000000000000E-002   0.0000000000000000     
  0.40625000000000000        6.2500000000000000E-002   0.0000000000000000     
  0.43750000000000000        6.2500000000000000E-002   0.0000000000000000     
  0.46875000000000000        6.2500000000000000E-002   0.0000000000000000     
  0.50000000000000000        6.2500000000000000E-002   0.0000000000000000     
  0.37500000000000000        9.3750000000000000E-002   0.0000000000000000     
  0.40625000000000000        9.3750000000000000E-002   0.0000000000000000     
  0.43750000000000000        9.3750000000000000E-002   0.0000000000000000     
  0.46875000000000000        9.3750000000000000E-002   0.0000000000000000     
  0.50000000000000000        9.3750000000000000E-002   0.0000000000000000     
  0.37500000000000000       0.12500000000000000        0.0000000000000000     
  0.40625000000000000       0.12500000000000000        0.0000000000000000     
  0.43750000000000000       0.12500000000000000        0.0000000000000000     
  0.46875000000000000       0.12500000000000000        0.0000000000000000     
  0.50000000000000000       0.12500000000000000        0.0000000000000000     
  0.50000000000000000        0.0000000000000000        0.0000000000000000     
  0.53125000000000000        0.0000000000000000        0.0000000000000000     
  0.56250000000000000        0.0000000000000000        0.0000000000000000     
  0.59375000000000000        0.0000000000000000        0.0000000000000000     
  0.62500000000000000        0.0000000000000000        0.0000000000000000     
  0.50000000000000000        3.1250000000000000E-002   0.0000000000000000     
  0.53125000000000000        3.1250000000000000E-002   0.0000000000000000     
  0.56250000000000000        3.1250000000000000E-002   0.0000000000000000     
  0.59375000000000000        3.1250000000000000E-002   0.0000000000000000     
  0.62500000000000000        3.1250000000000000E-002   0.0000000000000000     
  0.50000000000000000        6.2500000000000000E-002   0.0000000000000000     
  0.53125000000000000        6.2500000000000000E-002   0.0000000000000000     
  0.56250000000000000        6.2500000000000000E-002   0.0000000000000000     
  0.59375000000000000        6.2500000000000000E-002   0.0000000000000000     
  0.62500000000000000        6.2500000000000000E-002   0.0000000000000000     
  0.50000000000000000        9.3750000000000000E-002   0.0000000000000000     
  0.53125000000000000        9.3750000000000000E-002   0.0000000000000000     
  0.56250000000000000        9.3750000000000000E-002   0.0000000000000000     
  0.59375000000000000        9.3750000000000000E-002   0.0000000000000000     
  0.62500000000000000        9.3750000000000000E-002   0.0000000000000000     
  0.50000000000000000       0.12500000000000000        0.0000000000000000     
  0.53125000000000000       0.12500000000000000        0.0000000000000000     
  0.56250000000000000       0.12500000000000000        0.0000000000000000     
  0.59375000000000000       0.12500000000000000        0.0000000000000000     
  0.62500000000000000       0.12500000000000000        0.0000000000000000     
  0.62500000000000000        0.0000000000000000        0.0000000000000000     
  0.65625000000000000        0.0000000000000000        0.0000000000000000     
  0.68750000000000000        0.0000000000000000        0.0000000000000000     
  0.71875000000000000        0.0000000000000000        0.0000000000000000     
  0.75000000000000000        0.0000000000000000        0.0000000000000000     
  0.62500000000000000        3.1250000000000000E-002   0.0000000000000000     
  0.65625000000000000        3.1250000000000000E-002   0.0000000000000000     
  0.68750000000000000        3.1250000000000000E-002   0.0000000000000000     
  0.71875000000000000        3.1250000000000000E-002   0.0000000000000000     
  0.75000000000000000        3.1250000000000000E-002   0.0000000000000000     
  0.62500000000000000        6.2500000000000000E-002   0.0000000000000000     
  0.65625000000000000        6.2500000000000000E-002   0.0000000000000000     
  0.68750000000000000        6.2500000000000000E-002   0.0000000000000000     
  0.71875000000000000        6.2500000000000000E-002   0.0000000000000000     
  0.75000000000000000        6.2500000000000000E-002   0.0000000000000000     
  0.62500000000000000        9.3750000000000000E-002   0.0000000000000000     
  0.65625000000000000        9.3750000000000000E-002   0.0000000000000000     
  0.68750000000000000        9.3750000000000000E-002   0.0000000000000000     
  0.71875000000000000        9.3750000000000000E-002   0.0000000000000000     
  0.75000000000000000        9.3750000000000000E-002   0.0000000000000000     
  0.62500000000000000       0.12500000000000000        0.0000000000000000     
  0.65625000000000000       0.12500000000000000        0.0000000000000000     
  0.68750000000000000       0.12500000000000000        0.0000000000000000     
  0.71875000000000000       0.12500000000000000        0.0000000000000000     
  0.75000000000000000       0.12500000000000000        0.0000000000000000     
  0.75000000000000000        0.0000000000000000        0.0000000000000000     
  0.78125000000000000        0.0000000000000000        0.0000000000000000     
  0.81250000000000000        0.0000000000000000        0.0000000000000000     
  0.84375000000000000        0.0000000000000000        0.0000000000000000     
  0.87500000000000000        0.0000000000000000        0.0000000000000000     
  0.75000000000000000        3.1250000000000000E-002   0.0000000000000000     
  0.78125000000000000        3.1250000000000000E-002   0.0000000000000000     
  0.81250000000000000        3.1250000000000000E-002   0.0000000000000000     
  0.84375000000000000        3.1250000000000000E-002   0.0000000000000000     
  0.87500000000000000        3.1250000000000000E-002   0.0000000000000000     
  0.75000000000000000        6.2500000000000000E-002   0.0000000000000000     
  0.78125000000000000        6.2500000000000000E-002   0.0000000000000000     
  0.81250000000000000        6.2500000000000000E-002   0.0000000000000000     
  0.84375000000000000        6.2500000000000000E-002   0.0000000000000000     
  0.87500000000000000        6.2500000000000000E-002   0.0000000000000000     
  0.75000000000000000        9.3750000000000000E-002   0.0000000000000000     
  0.78125000000000000        9.3750000000000000E-002   0.0000000000000000     
  0.81250000000000000        9.3750000000000000E-002   0.0000000000000000     
  0.84375000000000000        9.3750000000000000E-002   0.0000000000000000     
  0.87500000000000000        9.3750000000000000E-002   0.0000000000000000     
  0.75000000000000000       0.12500000000000000        0.0000000000000000     
  0.78125000000000000       0.12500000000000000        0.0000000000000000     
  0.81250000000000000       0.12500000000000000        0.0000000000000000     
  0.84375000000000000       0.12500000000000000        0.0000000000000000     
  0.87500000000000000       0.12500000000000000        0.0000000000000000     
  0.87500000000000000        0.0000000000000000        0.0000000000000000     
  0.90625000000000000        0.0000000000000000        0.0000000000000000     
  0.93750000000000000        0.0000000000000000        0.0000000000000000     
  0.96875000000000000        0.0000000000000000        0.0000000000000000     
   1.0000000000000000        0.0000000000000000        0.0000000000000000     
  0.87500000000000000        3.1250000000000000E-002   0.0000000000000000     
  0.90625000000000000        3.1250000000000000E-002   0.0000000000000000     
  0.93750000000000000        3.1250000000000000E-002   0.0000000000000000     
  0.96875000000000000        3.1250000000000000E-002   0.0000000000000000     
   1.0000000000000000        3.1250000000000000E-002   0.0000000000000000     
  0.87500000000000000        6.2500000000000000E-002   0.0000000000000000     
  0.90625000000000000        6.2500000000000000E-002   0.0000000000000000     
  0.93750000000000000        6.2500000000000000E-002   0.0000000000000000     
  0.96875000000000000        6.2500000000000000E-002   0.0000000000000000     
   1.0000000000000000        6.2500000000000000E-002   0.0000000000000000     
  0.87500000000000000        9.3750000000000000E-002   0.0000000000000000     
  0.90625000000000000        9.3750000000000000E-002   0.0000000000000000     
  0.93750000000000000        9.3750000000000000E-002   0.0000000000000000     
  0.96875000000000000        9.3750000000000000E-002   0.0000000000000000     
   1.0000000000000000        9.3750000000000000E-002   0.0000000000000000     
  0.87500000000000000       0.12500000000000000        0.0000000000000000     
  0.90625000000000000       0.12500000000000000        0.0000000000000000     
  0.93750000000000000       0.12500000000000000        0.0000000000000000     
  0.96875000000000000       0.12500000000000000        0.0000000000000000     
   1.0000000000000000       0.12500000000000000        0.0000000000000000     
   0.0000000000000000       0.12500000000000000        0.0000000000000000     
   3.1250000000000000E-002  0.12500000000000000        0.0000000000000000     
   6.2500000000000000E-002  0.12500000000000000        0.0000000000000000     
   9.3750000000000000E-002  0.12500000000000000        0.0000000000000000     
  0.12500000000000000       0.12500000000000000        0.0000000000000000     
   0.0000000000000000       0.15625000000000000        0.0000000000000000     
   3.1250000000000000E-002  0.15625000000000000        0.0000000000000000     
   6.2500000000000000E-002  0.15625000000000000        0.0000000000000000     
   9.3750000000000000E-002  0.15625000000000000        0.0000000000000000     
  0.12500000000000000       0.15625000000000000        0.0000000000000000     
   0.0000000000000000       0.18750000000000000        0.0000000000000000     
   3.1250000000000000E-002  0.18750000000000000        0.0000000000000000     
   6.2500000000000000E-002  0.18750000000000000        0.0000000000000000     
   9.3750000000000000E-002  0.18750000000000000        0.0000000000000000     
  0.12500000000000000       0.18750000000000000        0.0000000000000000     
   0.0000000000000000       0.21875000000000000        0.0000000000000000     
   3.1250000000000000E-002  0.21875000000000000        0.0000000000000000     
   6.2500000000000000E-002  0.21875000000000000        0.0000000000000000     
   9.3750000000000000E-002  0.21875000000000000        0.0000000000000000     
  0.12500000000000000       0.21875000000000000        0.0000000000000000     
   0.0000000000000000       0.25000000000000000        0.0000000000000000     
   3.1250000000000000E-002  0.25000000000000000        0.0000000000000000     
   6.2500000000000000E-002  0.25000000000000000        0.0000000000000000     
   9.3750000000000000E-002  0.25000000000000000        0.0000000000000000     
  0.12500000000000000       0.25000000000000000        0.0000000000000000     
  0.12500000000000000       0.12500000000000000        0.0000000000000000     
  0.15625000000000000       0.12500000000000000        0.0000000000000000     
  0.18750000000000000       0.12500000000000000        0.0000000000000000     
  0.21875000000000000       0.12500000000000000        0.0000000000000000     
  0.25000000000000000       0.12500000000000000        0.0000000000000000     
  0.12500000000000000       0.15625000000000000        0.0000000000000000     
  0.15625000000000000       0.15625000000000000        0.0000000000000000     
  0.18750000000000000       0.15625000000000000        0.0000000000000000     
  0.21875000000000000       0.15625000000000000        0.0000000000000000     
  0.25000000000000000       0.15625000000000000        0.0000000000000000     
  0.12500000000000000       0.18750000000000000        0.0000000000000000     
  0.15625000000000000       0.18750000000000000        0.0000000000000000     
  0.18750000000000000       0.18750000000000000        0.0000000000000000     
  0.21875000000000000       0.18750000000000000        0.0000000000000000     
  0.25000000000000000       0.18750000000000000        0.0000000000000000     
  0.12500000000000000       0.21875000000000000        0.0000000000000000     
  0.15625000000000000       0.21875000000000000        0.0000000000000000     
  0.18750000000000000       0.21875000000000000        0.0000000000000000     
  0.21875000000000000       0.21875000000000000        0.0000000000000000     
  0.25000000000000000       0.21875000000000000        0.0000000000000000     
  0.12500000000000000       0.25000000000000000        0.0000000000000000     
  0.15625000000000000       0.25000000000000000        0.0000000000000000     
  0.18750000000000000       0.25000000000000000        0.0000000000000000     
  0.21875000000000000       0.25000000000000000        0.0000000000000000     
  0.25000000000000000       0.25000000000000000        0.0000000000000000     
  0.25000000000000000       0.12500000000000000        0.0000000000000000     
  0.28125000000000000       0.12500000000000000        0.0000000000000000     
  0.31250000000000000       0.12500000000000000        0.0000000000000000     
  0.34375000000000000       0.12500000000000000        0.0000000000000000     
  0.37500000000000000       0.12500000000000000        0.0000000000000000     
  0.25000000000000000       0.15625000000000000        0.0000000000000000     
  0.28125000000000000       0.15625000000000000        0.0000000000000000     
  0.31250000000000000       0.15625000000000000        0.0000000000000000     
  0.34375000000000000       0.15625000000000000        0.0000000000000000     
  0.37500000000000000       0.15625000000000000        0.0000000000000000     
  0.25000000000000000       0.18750000000000000        0.0000000000000000     
  0.28125000000000000       0.18750000000000000        0.0000000000000000     
  0.31250000000000000       0.18750000000000000        0.0000000000000000     
  0.34375000000000000       0.18750000000000000        0.0000000000000000     
  0.37500000000000000       0.18750000000000000        0.0000000000000000     
  0.25000000000000000       0.21875000000000000        0.0000000000000000     
  0.28125000000000000       0.21875000000000000        0.0000000000000000     
  0.31250000000000000       0.21875000000000000        0.0000000000000000     
  0.34375000000000000       0.21875000000000000        0.0000000000000000     
  0.37500000000000000       0.21875000000000000        0.0000000000000000     
  0.25000000000000000       0.25000000000000000        0.0000000000000000     
  0.28125000000000000       0.25000000000000000        0.0000000000000000     
  0.31250000000000000       0.25000000000000000        0.0000000000000000     
  0.34375000000000000       0.25000000000000000        0.0000000000000000     
  0.37500000000000000       0.25000000000000000        0.0000000000000000     
  0.37500000000000000       0.12500000000000000        0.0000000000000000     
  0.40625000000000000       0.12500000000000000        0.0000000000000000     
  0.43750000000000000       0.12500000000000000        0.0000000000000000     
  0.46875000000000000       0.12500000000000000        0.0000000000000000     
  0.50000000000000000       0.12500000000000000        0.0000000000000000     
  0.37500000000000000       0.15625000000000000        0.0000000000000000     
  0.40625000000000000       0.15625000000000000        0.0000000000000000     
  0.43750000000000000       0.15625000000000000        0.0000000000000000     
  0.46875000000000000       0.15625000000000000        0.0000000000000000     
  0.50000000000000000       0.15625000000000000        0.0000000000000000     
  0.37500000000000000       0.18750000000000000        0.0000000000000000     
  0.40625000000000000       0.18750000000000000        0.0000000000000000     
  0.43750000000000000       0.18750000000000000        0.0000000000000000     
  0.46875000000000000       0.18750000000000000        0.0000000000000000     
  0.50000000000000000       0.18750000000000000        0.0000000000000000     
  0.37500000000000000       0.21875000000000000        0.0000000000000000     
  0.40625000000000000       0.21875000000000000        0.0000000000000000     
  0.43750000000000000       0.21875000000000000        0.0000000000000000     
  0.46875000000000000       0.21875000000000000        0.0000000000000000     
  0.50000000000000000       0.21875000000000000        0.0000000000000000     
  0.37500000000000000       0.25000000000000000        0.0000000000000000     
  0.40625000000000000       0.25000000000000000        0.0000000000000000     
  0.43750000000000000       0.25000000000000000        0.0000000000000000     
  0.46875000000000000       0.25000000000000000        0.0000000000000000     
  0.50000000000000000       0.25000000000000000        0.0000000000000000     
  0.50000000000000000       0.12500000000000000        0.0000000000000000     
  0.53125000000000000       0.12500000000000000        0.0000000000000000     
  0.56250000000000000       0.12500000000000000        0.0000000000000000     
  0.59375000000000000       0.12500000000000000        0.0000000000000000     
  0.62500000000000000       0.12500000000000000        0.0000000000000000     
  0.50000000000000000       0.15625000000000000        0.0000000000000000     
  0.53125000000000000       0.15625000000000000        0.0000000000000000     
  0.56250000000000000       0.15625000000000000        0.0000000000000000     
  0.59375000000000000       0.15625000000000000        0.0000000000000000     
  0.62500000000000000       0.15625000000000000        0.0000000000000000     
  0.50000000000000000       0.18750000000000000        0.0000000000000000     
  0.53125000000000000       0.18750000000000000        0.0000000000000000     
  0.56250000000000000       0.18750000000000000        0.0000000000000000     
  0.59375000000000000       0.18750000000000000        0.0000000000000000     
  0.62500000000000000       0.18750000000000000        0.0000000000000000     
  0.50000000000000000       0.21875000000000000        0.0000000000000000     
  0.53125000000000000       0.21875000000000000        0.0000000000000000     
  0.56250000000000000       0.21875000000000000        0.0000000000000000     
  0.59375000000000000       0.21875000000000000        0.0000000000000000     
  0.62500000000000000       0.21875000000000000        0.0000000000000000     
  0.50000000000000000       0.25000000000000000        0.0000000000000000     
  0.53125000000000000       0.25000000000000000        0.0000000000000000     
  0.56250000000000000       0.25000000000000000        0.0000000000000000     
  0.59375000000000000       0.25000000000000000        0.0000000000000000     
  0.62500000000000000       0.25000000000000000        0.0000000000000000     
  0.62500000000000000       0.12500000000000000        0.0000000000000000     
  0.65625000000000000       0.12500000000000000        0.0000000000000000     
  0.68750000000000000       0.12500000000000000        0.0000000000000000     
  0.71875000000000000       0.12500000000000000        0.0000000000000000     
  0.75000000000000000       0.12500000000000000        0.0000000000000000     
  0.62500000000000000       0.15625000000000000        0.0000000000000000     
  0.65625000000000000       0.15625000000000000        0.0000000000000000     
  0.68750000000000000       0.15625000000000000        0.0000000000000000     
  0.71875000000000000       0.15625000000000000        0.0000000000000000     
  0.75000000000000000       0.15625000000000000        0.0000000000000000     
  0.62500000000000000       0.18750000000000000        0.0000000000000000     
  0.65625000000000000       0.18750000000000000        0.0000000000000000     
  0.68750000000000000       0.18750000000000000        0.0000000000000000     
  0.71875000000000000       0.18750000000000000        0.0000000000000000     
  0.75000000000000000       0.18750000000000000        0.0000000000000000     
  0.62500000000000000       0.21875000000000000        0.0000000000000000     
  0.65625000000000000       0.21875000000000000        0.0000000000000000     
  0.68750000000000000       0.21875000000000000        0.0000000000000000     
  0.71875000000000000       0.21875000000000000        0.0000000000000000     
  0.75000000000000000       0.21875000000000000        0.0000000000000000     
  0.62500000000000000       0.25000000000000000        0.0000000000000000     
  0.65625000000000000       0.25000000000000000        0.0000000000000000     
  0.68750000000000000       0.25000000000000000        0.0000000000000000     
  0.71875000000000000       0.25000000000000000        0.0000000000000000     
  0.75000000000000000       0.25000000000000000        0.0000000000000000     
  0.75000000000000000       0.12500000000000000        0.0000000000000000     
  0.78125000000000000       0.12500000000000000        0.0000000000000000     
  0.81250000000000000       0.12500000000000000        0.0000000000000000     
  0.84375000000000000       0.12500000000000000        0.0000000000000000     
  0.87500000000000000       0.12500000000000000        0.0000000000000000     
  0.75000000000000000       0.15625000000000000        0.0000000000000000     
  0.78125000000000000       0.15625000000000000        0.0000000000000000     
  0.81250000000000000       0.15625000000000000        0.0000000000000000     
  0.84375000000000000       0.15625000000000000        0.0000000000000000     
  0.87500000000000000       0.15625000000000000        0.0000000000000000     
  0.75000000000000000       0.18750000000000000        0.0000000000000000     
  0.78125000000000000       0.18750000000000000        0.0000000000000000     
  0.81250000000000000       0.18750000000000000        0.0000000000000000     
  0.84375000000000000       0.18750000000000000        0.0000000000000000     
  0.87500000000000000       0.18750000000000000        0.0000000000000000     
  0.75000000000000000       0.21875000000000000        0.0000000000000000     
  0.78125000000000000       0.21875000000000000        0.0000000000000000     
  0.81250000000000000       0.21875000000000000        0.0000000000000000     
  0.84375000000000000       0.21875000000000000        0.0000000000000000     
  0.87500000000000000       0.21875000000000000        0.0000000000000000     
  0.75000000000000000       0.25000000000000000        0.0000000000000000     
  0.78125000000000000       0.25000000000000000        0.0000000000000000     
  0.81250000000000000       0.25000000000000000        0.0000000000000000     
  0.84375000000000000       0.25000000000000000        0.0000000000000000     
  0.87500000000000000       0.25000000000000000        0.0000000000000000     
  0.87500000000000000       0.12500000000000000        0.0000000000000000     
  0.90625000000000000       0.12500000000000000        0.0000000000000000     
  0.93750000000000000       0.12500000000000000        0.0000000000000000     
  0.96875000000000000       0.12500000000000000        0.0000000000000000     
   1.0000000000000000       0.12500000000000000        0.0000000000000000     
  0.87500000000000000       0.15625000000000000        0.0000000000000000     
  0.90625000000000000       0.15625000000000000        0.0000000000000000     
  0.93750000000000000       0.15625000000000000        0.0000000000000000     
  0.96875000000000000       0.15625000000000000        0.0000000000000000     
   1.0000000000000000       0.15625000000000000        0.0000000000000000     
  0.87500000000000000       0.18750000000000000        0.0000000000000000     
  0.90625000000000000       0.18750000000000000        0.0000000000000000     
  0.93750000000000000       0.18750000000000000        0.0000000000000000     
  0.96875000000000000       0.18750000000000000        0.0000000000000000     
   1.0000000000000000       0.18750000000000000        0.0000000000000000     
  0.87500000000000000       0.21875000000000000        0.0000000000000000     
  0.90625000000000000       0.21875000000000000        0.0000000000000000     
  0.93750000000000000       0.21875000000000000        0.0000000000000000     
  0.96875000000000000       0.21875000000000000        0.0000000000000000     
   1.0000000000000000       0.21875000000000000        0.0000000000000000     
  0.87500000000000000       0.25000000000000000        0.0000000000000000     
  0.90625000000000000       0.25000000000000000        0.0000000000000000     
  0.93750000000000000       0.25000000000000000        0.0000000000000000     
  0.96875000000000000       0.25000000000000000        0.0000000000000000     
   1.0000000000000000       0.25000000000000000        0.0000000000000000     
   0.0000000000000000       0.25000000000000000        0.0000000000000000     
   3.1250000000000000E-002  0.25000000000000000        0.0000000000000000     
   6.2500000000000000E-002  0.25000000000000000        0.0000000000000000     
   9.3750000000000000E-002  0.25000000000000000        0.0000000000000000     
  0.12500000000000000       0.25000000000000000        0.0000000000000000     
   0.0000000000000000       0.28125000000000000        0.0000000000000000     
   3.1250000000000000E-002  0.28125000000000000        0.0000000000000000     
   6.2500000000000000E-002  0.28125000000000000        0.0000000000000000     
   9.3750000000000000E-002  0.28125000000000000        0.0000000000000000     
  0.12500000000000000       0.28125000000000000        0.0000000000000000     
   0.0000000000000000       0.31250000000000000        0.0000000000000000     
   3.1250000000000000E-002  0.31250000000000000        0.0000000000000000     
   6.2500000000000000E-002  0.31250000000000000        0.0000000000000000     
   9.3750000000000000E-002  0.31250000000000000        0.0000000000000000     
  0.12500000000000000       0.31250000000000000        0.0000000000000000     
   0.0000000000000000       0.34375000000000000        0.0000000000000000     
   3.1250000000000000E-002  0.34375000000000000        0.0000000000000000     
   6.2500000000000000E-002  0.34375000000000000        0.0000000000000000     
   9.3750000000000000E-002  0.34375000000000000        0.0000000000000000     
  0.12500000000000000       0.34375000000000000        0.0000000000000000     
   0.0000000000000000       0.37500000000000000        0.0000000000000000     
   3.1250000000000000E-002  0.37500000000000000        0.0000000000000000     
   6.2500000000000000E-002  0.37500000000000000        0.0000000000000000     
   9.3750000000000000E-002  0.37500000000000000        0.0000000000000000     
  0.12500000000000000       0.37500000000000000        0.0000000000000000     
  0.12500000000000000       0.25000000000000000        0.0000000000000000     
  0.15625000000000000       0.25000000000000000        0.0000000000000000     
  0.18750000000000000       0.25000000000000000        0.0000000000000000     
  0.21875000000000000       0.25000000000000000        0.0000000000000000     
  0.25000000000000000       0.25000000000000000        0.0000000000000000     
  0.12500000000000000       0.28125000000000000        0.0000000000000000     
  0.15625000000000000       0.28125000000000000        0.0000000000000000     
  0.18750000000000000       0.28125000000000000        0.0000000000000000     
  0.21875000000000000       0.28125000000000000        0.0000000000000000     
  0.25000000000000000       0.28125000000000000        0.0000000000000000     
  0.12500000000000000       0.31250000000000000        0.0000000000000000     
  0.15625000000000000       0.31250000000000000        0.0000000000000000     
  0.18750000000000000       0.31250000000000000        0.0000000000000000     
  0.21875000000000000       0.31250000000000000        0.0000000000000000     
  0.25000000000000000       0.31250000000000000        0.0000000000000000     
  0.12500000000000000       0.34375000000000000        0.0000000000000000     
  0.15625000000000000       0.34375000000000000        0.0000000000000000     
  0.18750000000000000       0.34375000000000000        0.0000000000000000     
  0.21875000000000000       0.34375000000000000        0.0000000000000000     
  0.25000000000000000       0.34375000000000000        0.0000000000000000     
  0.12500000000000000       0.37500000000000000        0.0000000000000000     
  0.15625000000000000       0.37500000000000000        0.0000000000000000     
  0.18750000000000000       0.37500000000000000        0.0000000000000000     
  0.21875000000000000       0.37500000000000000        0.0000000000000000     
  0.25000000000000000       0.37500000000000000        0.0000000000000000     
  0.25000000000000000       0.25000000000000000        0.0000000000000000     
  0.28125000000000000       0.25000000000000000        0.0000000000000000     
  0.31250000000000000       0.25000000000000000        0.0000000000000000     
  0.34375000000000000       0.25000000000000000        0.0000000000000000     
  0.37500000000000000       0.25000000000000000        0.0000000000000000     
  0.25000000000000000       0.28125000000000000        0.0000000000000000     
  0.28125000000000000       0.28125000000000000        0.0000000000000000     
  0.31250000000000000       0.28125000000000000        0.0000000000000000     
  0.34375000000000000       0.28125000000000000        0.0000000000000000     
  0.37500000000000000       0.28125000000000000        0.0000000000000000     
  0.25000000000000000       0.31250000000000000        0.0000000000000000     
  0.28125000000000000       0.31250000000000000        0.0000000000000000     
  0.31250000000000000       0.31250000000000000        0.0000000000000000     
  0.34375000000000000       0.31250000000000000        0.0000000000000000     
  0.37500000000000000       0.31250000000000000        0.0000000000000000     
  0.25000000000000000       0.34375000000000000        0.0000000000000000     
  0.28125000000000000       0.34375000000000000        0.0000000000000000     
  0.31250000000000000       0.34375000000000000        0.0000000000000000     
  0.34375000000000000       0.34375000000000000        0.0000000000000000     
  0.37500000000000000       0.34375000000000000        0.0000000000000000     
  0.25000000000000000       0.37500000000000000        0.0000000000000000     
  0.28125000000000000       0.37500000000000000        0.0000000000000000     
  0.31250000000000000       0.37500000000000000        0.0000000000000000     
  0.34375000000000000       0.37500000000000000        0.0000000000000000     
  0.37500000000000000       0.37500000000000000        0.0000000000000000     
  0.37500000000000000       0.25000000000000000        0.0000000000000000     
  0.40625000000000000       0.25000000000000000        0.0000000000000000     
  0.43750000000000000       0.25000000000000000        0.0000000000000000     
  0.46875000000000000       0.25000000000000000        0.0000000000000000     
  0.50000000000000000       0.25000000000000000        0.0000000000000000     
  0.37500000000000000       0.28125000000000000        0.0000000000000000     
  0.40625000000000000       0.28125000000000000        0.0000000000000000     
  0.43750000000000000       0.28125000000000000        0.0000000000000000     
  0.46875000000000000       0.28125000000000000        0.0000000000000000     
  0.50000000000000000       0.28125000000000000        0.0000000000000000     
  0.37500000000000000       0.31250000000000000        0.0000000000000000     
  0.40625000000000000       0.31250000000000000        0.0000000000000000     
  0.43750000000000000       0.31250000000000000        0.0000000000000000     
  0.46875000000000000       0.31250000000000000        0.0000000000000000     
  0.50000000000000000       0.31250000000000000        0.0000000000000000     
  0.37500000000000000       0.34375000000000000        0.0000000000000000     
  0.40625000000000000       0.34375000000000000        0.0000000000000000     
  0.43750000000000000       0.34375000000000000        0.0000000000000000     
  0.46875000000000000       0.34375000000000000        0.0000000000000000     
  0.50000000000000000       0.34375000000000000        0.0000000000000000     
  0.37500000000000000       0.37500000000000000        0.0000000000000000     
  0.40625000000000000       0.37500000000000000        0.0000000000000000     
  0.43750000000000000       0.37500000000000000        0.0000000000000000     
  0.46875000000000000       0.37500000000000000        0.0000000000000000     
  0.50000000000000000       0.37500000000000000        0.0000000000000000     
  0.50000000000000000       0.25000000000000000        0.0000000000000000     
  0.53125000000000000       0.25000000000000000        0.0000000000000000     
  0.56250000000000000       0.25000000000000000        0.0000000000000000     
  0.59375000000000000       0.25000000000000000        0.0000000000000000     
  0.62500000000000000       0.25000000000000000        0.0000000000000000     
  0.50000000000000000       0.28125000000000000        0.0000000000000000     
  0.53125000000000000       0.28125000000000000        0.0000000000000000     
  0.56250000000000000       0.28125000000000000        0.0000000000000000     
  0.59375000000000000       0.28125000000000000        0.0000000000000000     
  0.62500000000000000       0.28125000000000000        0.0000000000000000     
  0.50000000000000000       0.31250000000000000        0.0000000000000000     
  0.53125000000000000       0.31250000000000000        0.0000000000000000     
  0.56250000000000000       0.31250000000000000        0.0000000000000000     
  0.59375000000000000       0.31250000000000000        0.0000000000000000     
  0.62500000000000000       0.31250000000000000        0.0000000000000000     
  0.50000000000000000       0.34375000000000000        0.0000000000000000     
  0.53125000000000000       0.34375000000000000        0.0000000000000000     
  0.56250000000000000       0.34375000000000000        0.0000000000000000     
  0.59375000000000000       0.34375000000000000        0.0000000000000000     
  0.62500000000000000       0.34375000000000000        0.0000000000000000     
  0.50000000000000000       0.37500000000000000        0.0000000000000000     
  0.53125000000000000       0.37500000000000000        0.0000000000000000     
  0.56250000000000000       0.37500000000000000        0.0000000000000000     
  0.59375000000000000       0.37500000000000000        0.0000000000000000     
  0.62500000000000000       0.37500000000000000        0.0000000000000000     
  0.62500000000000000       0.25000000000000000        0.0000000000000000     
  0.65625000000000000       0.25000000000000000        0.0000000000000000     
  0.68750000000000000       0.25000000000000000        0.0000000000000000     
  0.71875000000000000       0.25000000000000000        0.0000000000000000     
  0.75000000000000000       0.25000000000000000        0.0000000000000000     
  0.62500000000000000       0.28125000000000000        0.0000000000000000     
  0.65625000000000000       0.28125000000000000        0.0000000000000000     
  0.68750000000000000       0.28125000000000000        0.0000000000000000     
  0.71875000000000000       0.28125000000000000        0.0000000000000000     
  0.75000000000000000       0.28125000000000000        0.0000000000000000     
  0.62500000000000000       0.31250000000000000        0.0000000000000000     
  0.65625000000000000       0.31250000000000000        0.0000000000000000     
  0.68750000000000000       0.31250000000000000        0.0000000000000000     
  0.71875000000000000       0.31250000000000000        0.0000000000000000     
  0.75000000000000000       0.31250000000000000        0.0000000000000000     
  0.62500000000000000       0.34375000000000000        0.0000000000000000     
  0.65625000000000000       0.34375000000000000        0.0000000000000000     
  0.68750000000000000       0.34375000000000000        0.0000000000000000     
  0.71875000000000000       0.34375000000000000        0.0000000000000000     
  0.75000000000000000       0.34375000000000000        0.0000000000000000     
  0.62500000000000000       0.37500000000000000        0.0000000000000000     
  0.65625000000000000       0.37500000000000000        0.0000000000000000     
  0.68750000000000000       0.37500000000000000        0.0000000000000000     
  0.71875000000000000       0.37500000000000000        0.0000000000000000     
  0.75000000000000000       0.37500000000000000        0.0000000000000000     
  0.75000000000000000       0.25000000000000000        0.0000000000000000     
  0.78125000000000000       0.25000000000000000        0.0000000000000000     
  0.81250000000000000       0.25000000000000000        0.0000000000000000     
  0.84375000000000000       0.25000000000000000        0.0000000000000000     
  0.87500000000000000       0.25000000000000000        0.0000000000000000     
  0.75000000000000000       0.28125000000000000        0.0000000000000000     
  0.78125000000000000       0.28125000000000000        0.0000000000000000     
  0.81250000000000000       0.28125000000000000        0.0000000000000000     
  0.84375000000000000       0.28125000000000000        0.0000000000000000     
  0.87500000000000000       0.28125000000000000        0.0000000000000000     
  0.75000000000000000       0.31250000000000000        0.0000000000000000     
  0.78125000000000000       0.31250000000000000        0.0000000000000000     
  0.81250000000000000       0.31250000000000000        0.0000000000000000     
  0.84375000000000000       0.31250000000000000        0.0000000000000000     
  0.87500000000000000       0.31250000000000000        0.0000000000000000     
  0.75000000000000000       0.34375000000000000        0.0000000000000000     
  0.78125000000000000       0.34375000000000000        0.0000000000000000     
  0.81250000000000000       0.34375000000000000        0.0000000000000000     
  0.84375000000000000       0.34375000000000000        0.0000000000000000     
  0.87500000000000000       0.34375000000000000        0.0000000000000000     
  0.75000000000000000       0.37500000000000000        0.0000000000000000     
  0.78125000000000000       0.37500000000000000        0.0000000000000000     
  0.81250000000000000       0.37500000000000000        0.0000000000000000     
  0.84375000000000000       0.37500000000000000        0.0000000000000000     
  0.87500000000000000       0.37500000000000000        0.0000000000000000     
  0.87500000000000000       0.25000000000000000        0.0000000000000000     
  0.90625000000000000       0.25000000000000000        0.0000000000000000     
  0.93750000000000000       0.25000000000000000        0.0000000000000000     
  0.96875000000000000       0.25000000000000000        0.0000000000000000     
   1.0000000000000000       0.25000000000000000        0.0000000000000000     
  0.87500000000000000       0.28125000000000000        0.0000000000000000     
  0.90625000000000000       0.28125000000000000        0.0000000000000000     
  0.93750000000000000       0.28125000000000000        0.0000000000000000     
  0.96875000000000000       0.28125000000000000        0.0000000000000000     
   1.0000000000000000       0.28125000000000000        0.0000000000000000     
  0.87500000000000000       0.31250000000000000        0.0000000000000000     
  0.90625000000000000       0.31250000000000000        0.0000000000000000     
  0.93750000000000000       0.31250000000000000        0.0000000000000000     
  0.96875000000000000       0.31250000000000000        0.0000000000000000     
   1.0000000000000000       0.31250000000000000        0.0000000000000000     
  0.87500000000000000       0.34375000000000000        0.0000000000000000     
  0.90625000000000000       0.34375000000000000        0.0000000000000000     
  0.93750000000000000       0.34375000000000000        0.0000000000000000     
  0.96875000000000000       0.34375000000000000        0.0000000000000000     
   1.0000000000000000       0.34375000000000000        0.0000000000000000     
  0.87500000000000000       0.37500000000000000        0.0000000000000000     
  0.90625000000000000       0.37500000000000000        0.0000000000000000     
  0.93750000000000000       0.37500000000000000        0.0000000000000000     
  0.96875000000000000       0.37500000000000000        0.0000000000000000     
   1.0000000000000000       0.37500000000000000        0.0000000000000000     
   0.0000000000000000       0.37500000000000000        0.0000000000000000     
   3.1250000000000000E-002  0.37500000000000000        0.0000000000000000     
   6.2500000000000000E-002  0.37500000000000000        0.0000000000000000     
   9.3750000000000000E-002  0.37500000000000000        0.0000000000000000     
  0.12500000000000000       0.37500000000000000        0.0000000000000000     
   0.0000000000000000       0.40625000000000000        0.0000000000000000     
   3.1250000000000000E-002  0.40625000000000000        0.0000000000000000     
   6.2500000000000000E-002  0.40625000000000000        0.0000000000000000     
   9.3750000000000000E-002  0.40625000000000000        0.0000000000000000     
  0.12500000000000000       0.40625000000000000        0.0000000000000000     
   0.0000000000000000       0.43750000000000000        0.0000000000000000     
   3.1250000000000000E-002  0.43750000000000000        0.0000000000000000     
   6.2500000000000000E-002  0.43750000000000000        0.0000000000000000     
   9.3750000000000000E-002  0.43750000000000000        0.0000000000000000     
  0.12500000000000000       0.43750000000000000        0.0000000000000000     
   0.0000000000000000       0.46875000000000000        0.0000000000000000     
   3.1250000000000000E-002  0.46875000000000000        0.0000000000000000     
   6.2500000000000000E-002  0.46875000000000000        0.0000000000000000     
   9.3750000000000000E-002  0.46875000000000000        0.0000000000000000     
  0.12500000000000000       0.46875000000000000        0.0000000000000000     
   0.0000000000000000       0.50000000000000000        0.0000000000000000     
   3.1250000000000000E-002  0.50000000000000000        0.0000000000000000     
   6.2500000000000000E-002  0.50000000000000000        0.0000000000000000     
   9.3750000000000000E-002  0.50000000000000000        0.0000000000000000     
  0.12500000000000000       0.50000000000000000        0.0000000000000000     
  0.12500000000000000       0.37500000000000000        0.0000000000000000     
  0.15625000000000000       0.37500000000000000        0.0000000000000000     
  0.18750000000000000       0.37500000000000000        0.0000000000000000     
  0.21875000000000000       0.37500000000000000        0.0000000000000000     
  0.25000000000000000       0.37500000000000000        0.0000000000000000     
  0.12500000000000000       0.40625000000000000        0.0000000000000000     
  0.15625000000000000       0.40625000000000000        0.0000000000000000     
  0.18750000000000000       0.40625000000000000        0.0000000000000000     
  0.21875000000000000       0.40625000000000000        0.0000000000000000     
  0.25000000000000000       0.40625000000000000        0.0000000000000000     
  0.12500000000000000       0.43750000000000000        0.0000000000000000     
  0.15625000000000000       0.43750000000000000        0.0000000000000000     
  0.18750000000000000       0.43750000000000000        0.0000000000000000     
  0.21875000000000000       0.43750000000000000        0.0000000000000000     
  0.25000000000000000       0.43750000000000000        0.0000000000000000     
  0.12500000000000000       0.46875000000000000        0.0000000000000000     
  0.15625000000000000       0.46875000000000000        0.0000000000000000     
  0.18750000000000000       0.46875000000000000        0.0000000000000000     
  0.21875000000000000       0.46875000000000000        0.0000000000000000     
  0.25000000000000000       0.46875000000000000        0.0000000000000000     
  0.12500000000000000       0.50000000000000000        0.0000000000000000     
  0.15625000000000000       0.50000000000000000        0.0000000000000000     
  0.18750000000000000       0.50000000000000000        0.0000000000000000     
  0.21875000000000000       0.50000000000000000        0.0000000000000000     
  0.25000000000000000       0.50000000000000000        0.0000000000000000     
  0.25000000000000000       0.37500000000000000        0.0000000000000000     
  0.28125000000000000       0.37500000000000000        0.0000000000000000     
  0.31250000000000000       0.37500000000000000        0.0000000000000000     
  0.34375000000000000       0.37500000000000000        0.0000000000000000     
  0.37500000000000000       0.37500000000000000        0.0000000000000000     
  0.25000000000000000       0.40625000000000000        0.0000000000000000     
  0.28125000000000000       0.40625000000000000        0.0000000000000000     
  0.31250000000000000       0.40625000000000000        0.0000000000000000     
  0.34375000000000000       0.40625000000000000        0.0000000000000000     
  0.37500000000000000       0.40625000000000000        0.0000000000000000     
  0.25000000000000000       0.43750000000000000        0.0000000000000000     
  0.28125000000000000       0.43750000000000000        0.0000000000000000     
  0.31250000000000000       0.43750000000000000        0.0000000000000000     
  0.34375000000000000       0.43750000000000000        0.0000000000000000     
  0.37500000000000000       0.43750000000000000        0.0000000000000000     
  0.25000000000000000       0.46875000000000000        0.0000000000000000     
  0.28125000000000000       0.46875000000000000        0.0000000000000000     
  0.31250000000000000       0.46875000000000000        0.0000000000000000     
  0.34375000000000000       0.46875000000000000        0.0000000000000000     
  0.37500000000000000       0.46875000000000000        0.0000000000000000     
  0.25000000000000000       0.50000000000000000        0.0000000000000000     
  0.28125000000000000       0.50000000000000000        0.0000000000000000     
  0.31250000000000000       0.50000000000000000        0.0000000000000000     
  0.34375000000000000       0.50000000000000000        0.0000000000000000     
  0.37500000000000000       0.50000000000000000        0.0000000000000000     
  0.37500000000000000       0.37500000000000000        0.0000000000000000     
  0.40625000000000000       0.37500000000000000        0.0000000000000000     
  0.43750000000000000       0.37500000000000000        0.0000000000000000     
  0.46875000000000000       0.37500000000000000        0.0000000000000000     
  0.50000000000000000       0.37500000000000000        0.0000000000000000     
  0.37500000000000000       0.40625000000000000        0.0000000000000000     
  0.40625000000000000       0.40625000000000000        0.0000000000000000     
  0.43750000000000000       0.40625000000000000        0.0000000000000000     
  0.46875000000000000       0.40625000000000000        0.0000000000000000     
  0.50000000000000000       0.40625000000000000        0.0000000000000000     
  0.37500000000000000       0.43750000000000000        0.0000000000000000     
  0.40625000000000000       0.43750000000000000        0.0000000000000000     
  0.43750000000000000       0.43750000000000000        0.0000000000000000     
  0.46875000000000000       0.43750000000000000        0.0000000000000000     
  0.50000000000000000       0.43750000000000000        0.0000000000000000     
  0.37500000000000000       0.46875000000000000        0.0000000000000000     
  0.40625000000000000       0.46875000000000000        0.0000000000000000     
  0.43750000000000000       0.46875000000000000        0.0000000000000000     
  0.46875000000000000       0.46875000000000000        0.0000000000000000     
  0.50000000000000000       0.46875000000000000        0.0000000000000000     
  0.37500000000000000       0.50000000000000000        0.0000000000000000     
  0.40625000000000000       0.50000000000000000        0.0000000000000000     
  0.43750000000000000       0.50000000000000000        0.0000000000000000     
  0.46875000000000000       0.50000000000000000        0.0000000000000000     
  0.50000000000000000       0.50000000000000000        0.0000000000000000     
  0.50000000000000000       0.37500000000000000        0.0000000000000000     
  0.53125000000000000       0.37500000000000000        0.0000000000000000     
  0.56250000000000000       0.37500000000000000        0.0000000000000000     
  0.59375000000000000       0.37500000000000000        0.0000000000000000     
  0.62500000000000000       0.37500000000000000        0.0000000000000000     
  0.50000000000000000       0.40625000000000000        0.0000000000000000     
  0.53125000000000000       0.40625000000000000        0.0000000000000000     
  0.56250000000000000       0.40625000000000000        0.0000000000000000     
  0.59375000000000000       0.40625000000000000        0.0000000000000000     
  0.62500000000000000       0.40625000000000000        0.0000000000000000     
  0.50000000000000000       0.43750000000000000        0.0000000000000000     
  0.53125000000000000       0.43750000000000000        0.0000000000000000     
  0.56250000000000000       0.43750000000000000        0.0000000000000000     
  0.59375000000000000       0.43750000000000000        0.0000000000000000     
  0.62500000000000000       0.43750000000000000        0.0000000000000000     
  0.50000000000000000       0.46875000000000000        0.0000000000000000     
  0.53125000000000000       0.46875000000000000        0.0000000000000000     
  0.56250000000000000       0.46875000000000000        0.0000000000000000     
  0.59375000000000000       0.46875000000000000        0.0000000000000000     
  0.62500000000000000       0.46875000000000000        0.0000000000000000     
  0.50000000000000000       0.50000000000000000        0.0000000000000000     
  0.53125000000000000       0.50000000000000000        0.0000000000000000     
  0.56250000000000000       0.50000000000000000        0.0000000000000000     
  0.59375000000000000       0.50000000000000000        0.0000000000000000     
  0.62500000000000000       0.50000000000000000        0.0000000000000000     
  0.62500000000000000       0.37500000000000000        0.0000000000000000     
  0.65625000000000000       0.37500000000000000        0.0000000000000000     
  0.68750000000000000       0.37500000000000000        0.0000000000000000     
  0.71875000000000000       0.37500000000000000        0.0000000000000000     
  0.75000000000000000       0.37500000000000000        0.0000000000000000     
  0.62500000000000000       0.40625000000000000        0.0000000000000000     
  0.65625000000000000       0.40625000000000000        0.0000000000000000     
  0.68750000000000000       0.40625000000000000        0.0000000000000000     
  0.71875000000000000       0.40625000000000000        0.0000000000000000     
  0.75000000000000000       0.40625000000000000        0.0000000000000000     
  0.62500000000000000       0.43750000000000000        0.0000000000000000     
  0.65625000000000000       0.43750000000000000        0.0000000000000000     
  0.68750000000000000       0.43750000000000000        0.0000000000000000     
  0.71875000000000000       0.43750000000000000        0.0000000000000000     
  0.75000000000000000       0.43750000000000000        0.0000000000000000     
  0.62500000000000000       0.46875000000000000        0.0000000000000000     
  0.65625000000000000       0.46875000000000000        0.0000000000000000     
  0.68750000000000000       0.46875000000000000        0.0000000000000000     
  0.71875000000000000       0.46875000000000000        0.0000000000000000     
  0.75000000000000000       0.46875000000000000        0.0000000000000000     
  0.62500000000000000       0.50000000000000000        0.0000000000000000     
  0.65625000000000000       0.50000000000000000        0.0000000000000000     
  0.68750000000000000       0.50000000000000000        0.0000000000000000     
  0.71875000000000000       0.50000000000000000        0.0000000000000000     
  0.75000000000000000       0.50000000000000000        0.0000000000000000     
  0.75000000000000000       0.37500000000000000        0.0000000000000000     
  0.78125000000000000       0.37500000000000000        0.0000000000000000     
  0.81250000000000000       0.37500000000000000        0.0000000000000000     
  0.84375000000000000       0.37500000000000000        0.0000000000000000     
  0.87500000000000000       0.37500000000000000        0.0000000000000000     
  0.75000000000000000       0.40625000000000000        0.0000000000000000     
  0.78125000000000000       0.40625000000000000        0.0000000000000000     
  0.81250000000000000       0.40625000000000000        0.0000000000000000     
  0.84375000000000000       0.40625000000000000        0.0000000000000000     
  0.87500000000000000       0.40625000000000000        0.0000000000000000     
  0.75000000000000000       0.43750000000000000        0.0000000000000000     
  0.78125000000000000       0.43750000000000000        0.0000000000000000     
  0.81250000000000000       0.43750000000000000        0.0000000000000000     
  0.84375000000000000       0.43750000000000000        0.0000000000000000     
  0.87500000000000000       0.43750000000000000        0.0000000000000000     
  0.75000000000000000       0.46875000000000000        0.0000000000000000     
  0.78125000000000000       0.46875000000000000        0.0000000000000000     
  0.81250000000000000       0.46875000000000000        0.0000000000000000     
  0.84375000000000000       0.46875000000000000        0.0000000000000000     
  0.87500000000000000       0.46875000000000000        0.0000000000000000     
  0.75000000000000000       0.50000000000000000        0.0000000000000000     
  0.78125000000000000       0.50000000000000000        0.0000000000000000     
  0.81250000000000000       0.50000000000000000        0.0000000000000000     
  0.84375000000000000       0.50000000000000000        0.0000000000000000     
  0.87500000000000000       0.50000000000000000        0.0000000000000000     
  0.87500000000000000       0.37500000000000000        0.0000000000000000     
  0.90625000000000000       0.37500000000000000        0.0000000000000000     
  0.93750000000000000       0.37500000000000000        0.0000000000000000     
  0.96875000000000000       0.37500000000000000        0.0000000000000000     
   1.0000000000000000       0.37500000000000000        0.0000000000000000     
  0.87500000000000000       0.40625000000000000        0.0000000000000000     
  0.90625000000000000       0.40625000000000000        0.0000000000000000     
  0.93750000000000000       0.40625000000000000        0.0000000000000000     
  0.96875000000000000       0.40625000000000000        0.0000000000000000     
   1.0000000000000000       0.40625000000000000        0.0000000000000000     
  0.87500000000000000       0.43750000000000000        0.0000000000000000     
  0.90625000000000000       0.43750000000000000        0.0000000000000000     
  0.93750000000000000       0.43750000000000000        0.0000000000000000     
  0.96875000000000000       0.43750000000000000        0.0000000000000000     
   1.0000000000000000       0.43750000000000000        0.0000000000000000     
  0.87500000000000000       0.46875000000000000        0.0000000000000000     
  0.90625000000000000       0.46875000000000000        0.0000000000000000     
  0.93750000000000000       0.46875000000000000        0.0000000000000000     
  0.96875000000000000       0.46875000000000000        0.0000000000000000     
   1.0000000000000000       0.46875000000000000        0.0000000000000000     
  0.87500000000000000       0.50000000000000000        0.0000000000000000     
  0.90625000000000000       0.50000000000000000        0.0000000000000000     
  0.93750000000000000       0.50000000000000000        0.0000000000000000     
  0.96875000000000000       0.50000000000000000        0.0000000000000000     
   1.0000000000000000       0.50000000000000000        0.0000000000000000     
   0.0000000000000000       0.50000000000000000        0.0000000000000000     
   3.1250000000000000E-002  0.50000000000000000        0.0000000000000000     
   6.2500000000000000E-002  0.50000000000000000        0.0000000000000000     
   9.3750000000000000E-002  0.50000000000000000        0.0000000000000000     
  0.12500000000000000       0.50000000000000000        0.0000000000000000     
   0.0000000000000000       0.53125000000000000        0.0000000000000000     
   3.1250000000000000E-002  0.53125000000000000        0.0000000000000000     
   6.2500000000000000E-002  0.53125000000000000        0.0000000000000000     
   9.3750000000000000E-002  0.53125000000000000        0.0000000000000000     
  0.12500000000000000       0.53125000000000000        0.0000000000000000     
   0.0000000000000000       0.56250000000000000        0.0000000000000000     
   3.1250000000000000E-002  0.56250000000000000        0.0000000000000000     
   6.2500000000000000E-002  0.56250000000000000        0.0000000000000000     
   9.3750000000000000E-002  0.56250000000000000        0.0000000000000000     
  0.12500000000000000       0.56250000000000000        0.0000000000000000     
   0.0000000000000000       0.59375000000000000        0.0000000000000000     
   3.1250000000000000E-002  0.59375000000000000        0.0000000000000000     
   6.2500000000000000E-002  0.59375000000000000        0.0000000000000000     
   9.3750000000000000E-002  0.59375000000000000        0.0000000000000000     
  0.12500000000000000       0.59375000000000000        0.0000000000000000     
   0.0000000000000000       0.62500000000000000        0.0000000000000000     
   3.1250000000000000E-002  0.62500000000000000        0.0000000000000000     
   6.2500000000000000E-002  0.62500000000000000        0.0000000000000000     
   9.3750000000000000E-002  0.62500000000000000        0.0000000000000000     
  0.12500000000000000       0.62500000000000000        0.0000000000000000     
  0.12500000000000000       0.50000000000000000        0.0000000000000000     
  0.15625000000000000       0.50000000000000000        0.0000000000000000     
  0.18750000000000000       0.50000000000000000        0.0000000000000000     
  0.21875000000000000       0.50000000000000000        0.0000000000000000     
  0.25000000000000000       0.50000000000000000        0.0000000000000000     
  0.12500000000000000       0.53125000000000000        0.0000000000000000     
  0.15625000000000000       0.53125000000000000        0.0000000000000000     
  0.18750000000000000       0.53125000000000000        0.0000000000000000     
  0.21875000000000000       0.53125000000000000        0.0000000000000000     
  0.25000000000000000       0.53125000000000000        0.0000000000000000     
  0.12500000000000000       0.56250000000000000        0.0000000000000000     
  0.15625000000000000       0.56250000000000000        0.0000000000000000     
  0.18750000000000000       0.56250000000000000        0.0000000000000000     
  0.21875000000000000       0.56250000000000000        0.0000000000000000     
  0.25000000000000000       0.56250000000000000        0.0000000000000000     
  0.12500000000000000       0.59375000000000000        0.0000000000000000     
  0.15625000000000000       0.59375000000000000        0.0000000000000000     
  0.18750000000000000       0.59375000000000000        0.0000000000000000     
  0.21875000000000000       0.59375000000000000        0.0000000000000000     
  0.25000000000000000       0.59375000000000000        0.0000000000000000     
  0.12500000000000000       0.62500000000000000        0.0000000000000000     
  0.15625000000000000       0.62500000000000000        0.0000000000000000     
  0.18750000000000000       0.62500000000000000        0.0000000000000000     
  0.21875000000000000       0.62500000000000000        0.0000000000000000     
  0.25000000000000000       0.62500000000000000        0.0000000000000000     
  0.25000000000000000       0.50000000000000000        0.0000000000000000     
  0.28125000000000000       0.50000000000000000        0.0000000000000000     
  0.31250000000000000       0.50000000000000000        0.0000000000000000     
  0.34375000000000000       0.50000000000000000        0.0000000000000000     
  0.37500000000000000       0.50000000000000000        0.0000000000000000     
  0.25000000000000000       0.53125000000000000        0.0000000000000000     
  0.28125000000000000       0.53125000000000000        0.0000000000000000     
  0.31250000000000000       0.53125000000000000        0.0000000000000000     
  0.34375000000000000       0.53125000000000000        0.0000000000000000     
  0.37500000000000000       0.53125000000000000        0.0000000000000000     
  0.25000000000000000       0.56250000000000000        0.0000000000000000     
  0.28125000000000000       0.56250000000000000        0.0000000000000000     
  0.31250000000000000       0.56250000000000000        0.0000000000000000     
  0.34375000000000000       0.56250000000000000        0.0000000000000000     
  0.37500000000000000       0.56250000000000000        0.0000000000000000     
  0.25000000000000000       0.59375000000000000        0.0000000000000000     
  0.28125000000000000       0.59375000000000000        0.0000000000000000     
  0.31250000000000000       0.59375000000000000        0.0000000000000000     
  0.34375000000000000       0.59375000000000000        0.0000000000000000     
  0.37500000000000000       0.59375000000000000        0.0000000000000000     
  0.25000000000000000       0.62500000000000000        0.0000000000000000     
  0.28125000000000000       0.62500000000000000        0.0000000000000000     
  0.31250000000000000       0.62500000000000000        0.0000000000000000     
  0.34375000000000000       0.62500000000000000        0.0000000000000000     
  0.37500000000000000       0.62500000000000000        0.0000000000000000     
  0.37500000000000000       0.50000000000000000        0.0000000000000000     
  0.40625000000000000       0.50000000000000000        0.0000000000000000     
  0.43750000000000000       0.50000000000000000        0.0000000000000000     
  0.46875000000000000       0.50000000000000000        0.0000000000000000     
  0.50000000000000000       0.50000000000000000        0.0000000000000000     
  0.37500000000000000       0.53125000000000000        0.0000000000000000     
  0.40625000000000000       0.53125000000000000        0.0000000000000000     
  0.43750000000000000       0.53125000000000000        0.0000000000000000     
  0.46875000000000000       0.53125000000000000        0.0000000000000000     
  0.50000000000000000       0.53125000000000000        0.0000000000000000     
  0.37500000000000000       0.56250000000000000        0.0000000000000000     
  0.40625000000000000       0.56250000000000000        0.0000000000000000     
  0.43750000000000000       0.56250000000000000        0.0000000000000000     
  0.46875000000000000       0.56250000000000000        0.0000000000000000     
  0.50000000000000000       0.56250000000000000        0.0000000000000000     
  0.37500000000000000       0.59375000000000000        0.0000000000000000     
  0.40625000000000000       0.59375000000000000        0.0000000000000000     
  0.43750000000000000       0.59375000000000000        0.0000000000000000     
  0.46875000000000000       0.59375000000000000        0.0000000000000000     
  0.50000000000000000       0.59375000000000000        0.0000000000000000     
  0.37500000000000000       0.62500000000000000        0.0000000000000000     
  0.40625000000000000       0.62500000000000000        0.0000000000000000     
  0.43750000000000000       0.62500000000000000        0.0000000000000000     
  0.46875000000000000       0.62500000000000000        0.0000000000000000     
  0.50000000000000000       0.62500000000000000        0.0000000000000000     
  0.50000000000000000       0.50000000000000000        0.0000000000000000     
  0.53125000000000000       0.50000000000000000        0.0000000000000000     
  0.56250000000000000       0.50000000000000000        0.0000000000000000     
  0.59375000000000000       0.50000000000000000        0.0000000000000000     
  0.62500000000000000       0.50000000000000000        0.0000000000000000     
  0.50000000000000000       0.53125000000000000        0.0000000000000000     
  0.53125000000000000       0.53125000000000000        0.0000000000000000     
  0.56250000000000000       0.53125000000000000        0.0000000000000000     
  0.59375000000000000       0.53125000000000000        0.0000000000000000     
  0.62500000000000000       0.53125000000000000        0.0000000000000000     
  0.50000000000000000       0.56250000000000000        0.0000000000000000     
  0.53125000000000000       0.56250000000000000        0.0000000000000000     
  0.56250000000000000       0.56250000000000000        0.0000000000000000     
  0.59375000000000000       0.56250000000000000        0.0000000000000000     
  0.62500000000000000       0.56250000000000000        0.0000000000000000     
  0.50000000000000000       0.59375000000000000        0.0000000000000000     
  0.53125000000000000       0.59375000000000000        0.0000000000000000     
  0.56250000000000000       0.59375000000000000        0.0000000000000000     
  0.59375000000000000       0.59375000000000000        0.0000000000000000     
  0.62500000000000000       0.59375000000000000        0.0000000000000000     
  0.50000000000000000       0.62500000000000000        0.0000000000000000     
  0.53125000000000000       0.62500000000000000        0.0000000000000000     
  0.56250000000000000       0.62500000000000000        0.0000000000000000     
  0.59375000000000000       0.62500000000000000        0.0000000000000000     
  0.62500000000000000       0.62500000000000000        0.0000000000000000     
  0.62500000000000000       0.50000000000000000        0.0000000000000000     
  0.65625000000000000       0.50000000000000000        0.0000000000000000     
  0.68750000000000000       0.50000000000000000        0.0000000000000000     
  0.71875000000000000       0.50000000000000000        0.0000000000000000     
  0.75000000000000000       0.50000000000000000        0.0000000000000000     
  0.62500000000000000       0.53125000000000000        0.0000000000000000     
  0.65625000000000000       0.53125000000000000        0.0000000000000000     
  0.68750000000000000       0.53125000000000000        0.0000000000000000     
  0.71875000000000000       0.53125000000000000        0.0000000000000000     
  0.75000000000000000       0.53125000000000000        0.0000000000000000     
  0.62500000000000000       0.56250000000000000        0.0000000000000000     
  0.65625000000000000       0.56250000000000000        0.0000000000000000     
  0.68750000000000000       0.56250000000000000        0.0000000000000000     
  0.71875000000000000       0.56250000000000000        0.0000000000000000     
  0.75000000000000000       0.56250000000000000        0.0000000000000000     
  0.62500000000000000       0.59375000000000000        0.0000000000000000     
  0.65625000000000000       0.59375000000000000        0.0000000000000000     
  0.68750000000000000       0.59375000000000000        0.0000000000000000     
  0.71875000000000000       0.59375000000000000        0.0000000000000000     
  0.75000000000000000       0.59375000000000000        0.0000000000000000     
  0.62500000000000000       0.62500000000000000        0.0000000000000000     
  0.65625000000000000       0.62500000000000000        0.0000000000000000     
  0.68750000000000000       0.62500000000000000        0.0000000000000000     
  0.71875000000000000       0.62500000000000000        0.0000000000000000     
  0.75000000000000000       0.62500000000000000        0.0000000000000000     
  0.75000000000000000       0.50000000000000000        0.0000000000000000     
  0.78125000000000000       0.50000000000000000        0.0000000000000000     
  0.81250000000000000       0.50000000000000000        0.0000000000000000     
  0.84375000000000000       0.50000000000000000        0.0000000000000000     
  0.87500000000000000       0.50000000000000000        0.0000000000000000     
  0.75000000000000000       0.53125000000000000        0.0000000000000000     
  0.78125000000000000       0.53125000000000000        0.0000000000000000     
  0.81250000000000000       0.53125000000000000        0.0000000000000000     
  0.84375000000000000       0.53125000000000000        0.0000000000000000     
  0.87500000000000000       0.53125000000000000        0.0000000000000000     
  0.75000000000000000       0.56250000000000000        0.0000000000000000     
  0.78125000000000000       0.56250000000000000        0.0000000000000000     
  0.81250000000000000       0.56250000000000000        0.0000000000000000     
  0.84375000000000000       0.56250000000000000        0.0000000000000000     
  0.87500000000000000       0.56250000000000000        0.0000000000000000     
  0.75000000000000000       0.59375000000000000        0.0000000000000000     
  0.78125000000000000       0.59375000000000000        0.0000000000000000     
  0.81250000000000000       0.59375000000000000        0.0000000000000000     
  0.84375000000000000       0.59375000000000000        0.0000000000000000     
  0.87500000000000000       0.59375000000000000        0.0000000000000000     
  0.75000000000000000       0.62500000000000000        0.0000000000000000     
  0.78125000000000000       0.62500000000000000        0.0000000000000000     
  0.81250000000000000       0.62500000000000000        0.0000000000000000     
  0.84375000000000000       0.62500000000000000        0.0000000000000000     
  0.87500000000000000       0.62500000000000000        0.0000000000000000     
  0.87500000000000000       0.50000000000000000        0.0000000000000000     
  0.90625000000000000       0.50000000000000000        0.0000000000000000     
  0.93750000000000000       0.50000000000000000        0.0000000000000000     
  0.96875000000000000       0.50000000000000000        0.0000000000000000     
   1.0000000000000000       0.50000000000000000        0.0000000000000000     
  0.87500000000000000       0.53125000000000000        0.0000000000000000     
  0.90625000000000000       0.53125000000000000        0.0000000000000000     
  0.93750000000000000       0.53125000000000000        0.0000000000000000     
  0.96875000000000000       0.53125000000000000        0.0000000000000000     
   1.0000000000000000       0.53125000000000000        0.0000000000000000     
  0.87500000000000000       0.56250000000000000        0.0000000000000000     
  0.90625000000000000       0.56250000000000000        0.0000000000000000     
  0.93750000000000000       0.56250000000000000        0.0000000000000000     
  0.96875000000000000       0.56250000000000000        0.0000000000000000     
   1.0000000000000000       0.56250000000000000        0.0000000000000000     
  0.87500000000000000       0.59375000000000000        0.0000000000000000     
  0.90625000000000000       0.59375000000000000        0.0000000000000000     
  0.93750000000000000       0.59375000000000000        0.0000000000000000     
  0.96875000000000000       0.59375000000000000        0.0000000000000000     
   1.0000000000000000       0.59375000000000000        0.0000000000000000     
  0.87500000000000000       0.62500000000000000        0.0000000000000000     
  0.90625000000000000       0.62500000000000000        0.0000000000000000     
  0.93750000000000000       0.62500000000000000        0.0000000000000000     
  0.96875000000000000       0.62500000000000000        0.0000000000000000     
   1.0000000000000000       0.62500000000000000        0.0000000000000000     
   0.0000000000000000       0.62500000000000000        0.0000000000000000     
   3.1250000000000000E-002  0.62500000000000000        0.0000000000000000     
   6.2500000000000000E-002  0.62500000000000000        0.0000000000000000     
   9.3750000000000000E-002  0.62500000000000000        0.0000000000000000     
  0.12500000000000000       0.62500000000000000        0.0000000000000000     
   0.0000000000000000       0.65625000000000000        0.0000000000000000     
   3.1250000000000000E-002  0.65625000000000000        0.0000000000000000     
   6.2500000000000000E-002  0.65625000000000000        0.0000000000000000     
   9.3750000000000000E-002  0.65625000000000000        0.0000000000000000     
  0.12500000000000000       0.65625000000000000        0.0000000000000000     
   0.0000000000000000       0.68750000000000000        0.0000000000000000     
   3.1250000000000000E-002  0.68750000000000000        0.0000000000000000     
   6.2500000000000000E-002  0.68750000000000000        0.0000000000000000     
   9.3750000000000000E-002  0.68750000000000000        0.0000000000000000     
  0.12500000000000000       0.68750000000000000        0.0000000000000000     
   0.0000000000000000       0.71875000000000000        0.0000000000000000     
   3.1250000000000000E-002  0.71875000000000000        0.0000000000000000     
   6.2500000000000000E-002  0.71875000000000000        0.0000000000000000     
   9.3750000000000000E-002  0.71875000000000000        0.0000000000000000     
  0.12500000000000000       0.71875000000000000        0.0000000000000000     
   0.0000000000000000       0.75000000000000000        0.0000000000000000     
   3.1250000000000000E-002  0.75000000000000000        0.0000000000000000     
   6.2500000000000000E-002  0.75000000000000000        0.0000000000000000     
   9.3750000000000000E-002  0.75000000000000000        0.0000000000000000     
  0.12500000000000000       0.75000000000000000        0.0000000000000000     
  0.12500000000000000       0.62500000000000000        0.0000000000000000     
  0.15625000000000000       0.62500000000000000        0.0000000000000000     
  0.18750000000000000       0.62500000000000000        0.0000000000000000     
  0.21875000000000000       0.62500000000000000        0.0000000000000000     
  0.25000000000000000       0.62500000000000000        0.0000000000000000     
  0.12500000000000000       0.65625000000000000        0.0000000000000000     
  0.15625000000000000       0.65625000000000000        0.0000000000000000     
  0.18750000000000000       0.65625000000000000        0.0000000000000000     
  0.21875000000000000       0.65625000000000000        0.0000000000000000     
  0.25000000000000000       0.65625000000000000        0.0000000000000000     
  0.12500000000000000       0.68750000000000000        0.0000000000000000     
  0.15625000000000000       0.68750000000000000        0.0000000000000000     
  0.18750000000000000       0.68750000000000000        0.0000000000000000     
  0.21875000000000000       0.68750000000000000        0.0000000000000000     
  0.25000000000000000       0.68750000000000000        0.0000000000000000     
  0.12500000000000000       0.71875000000000000        0.0000000000000000     
  0.15625000000000000       0.71875000000000000        0.0000000000000000     
  0.18750000000000000       0.71875000000000000        0.0000000000000000     
  0.21875000000000000       0.71875000000000000        0.0000000000000000     
  0.25000000000000000       0.71875000000000000        0.0000000000000000     
  0.12500000000000000       0.75000000000000000        0.0000000000000000     
  0.15625000000000000       0.75000000000000000        0.0000000000000000     
  0.18750000000000000       0.75000000000000000        0.0000000000000000     
  0.21875000000000000       0.75000000000000000        0.0000000000000000     
  0.25000000000000000       0.75000000000000000        0.0000000000000000     
  0.25000000000000000       0.62500000000000000        0.0000000000000000     
  0.28125000000000000       0.62500000000000000        0.0000000000000000     
  0.31250000000000000       0.62500000000000000        0.0000000000000000     
  0.34375000000000000       0.62500000000000000        0.0000000000000000     
  0.37500000000000000       0.62500000000000000        0.0000000000000000     
  0.25000000000000000       0.65625000000000000        0.0000000000000000     
  0.28125000000000000       0.65625000000000000        0.0000000000000000     
  0.31250000000000000       0.65625000000000000        0.0000000000000000     
  0.34375000000000000       0.65625000000000000        0.0000000000000000     
  0.37500000000000000       0.65625000000000000        0.0000000000000000     
  0.25000000000000000       0.68750000000000000        0.0000000000000000     
  0.28125000000000000       0.68750000000000000        0.0000000000000000     
  0.31250000000000000       0.68750000000000000        0.0000000000000000     
  0.34375000000000000       0.68750000000000000        0.0000000000000000     
  0.37500000000000000       0.68750000000000000        0.0000000000000000     
  0.25000000000000000       0.71875000000000000        0.0000000000000000     
  0.28125000000000000       0.71875000000000000        0.0000000000000000     
  0.31250000000000000       0.71875000000000000        0.0000000000000000     
  0.34375000000000000       0.71875000000000000        0.0000000000000000     
  0.37500000000000000       0.71875000000000000        0.0000000000000000     
  0.25000000000000000       0.75000000000000000        0.0000000000000000     
  0.28125000000000000       0.75000000000000000        0.0000000000000000     
  0.31250000000000000       0.75000000000000000        0.0000000000000000     
  0.34375000000000000       0.75000000000000000        0.0000000000000000     
  0.37500000000000000       0.75000000000000000        0.0000000000000000     
  0.37500000000000000       0.62500000000000000        0.0000000000000000     
  0.40625000000000000       0.62500000000000000        0.0000000000000000     
  0.43750000000000000       0.62500000000000000        0.0000000000000000     
  0.46875000000000000       0.62500000000000000        0.0000000000000000     
  0.50000000000000000       0.62500000000000000        0.0000000000000000     
  0.37500000000000000       0.65625000000000000        0.0000000000000000     
  0.40625000000000000       0.65625000000000000        0.0000000000000000     
  0.43750000000000000       0.65625000000000000        0.0000000000000000     
  0.46875000000000000       0.65625000000000000        0.0000000000000000     
  0.50000000000000000       0.65625000000000000        0.0000000000000000     
  0.37500000000000000       0.68750000000000000        0.0000000000000000     
  0.40625000000000000       0.68750000000000000        0.0000000000000000     
  0.43750000000000000       0.68750000000000000        0.0000000000000000     
  0.46875000000000000       0.68750000000000000        0.0000000000000000     
  0.50000000000000000       0.68750000000000000        0.0000000000000000     
  0.37500000000000000       0.71875000000000000        0.0000000000000000     
  0.40625000000000000       0.71875000000000000        0.0000000000000000     
  0.43750000000000000       0.71875000000000000        0.0000000000000000     
  0.46875000000000000       0.71875000000000000        0.0000000000000000     
  0.50000000000000000       0.71875000000000000        0.0000000000000000     
  0.37500000000000000       0.75000000000000000        0.0000000000000000     
  0.40625000000000000       0.75000000000000000        0.0000000000000000     
  0.43750000000000000       0.75000000000000000        0.0000000000000000     
  0.46875000000000000       0.75000000000000000        0.0000000000000000     
  0.50000000000000000       0.75000000000000000        0.0000000000000000     
  0.50000000000000000       0.62500000000000000        0.0000000000000000     
  0.53125000000000000       0.62500000000000000        0.0000000000000000     
  0.56250000000000000       0.62500000000000000        0.0000000000000000     
  0.59375000000000000       0.62500000000000000        0.0000000000000000     
  0.62500000000000000       0.62500000000000000        0.0000000000000000     
  0.50000000000000000       0.65625000000000000        0.0000000000000000     
  0.53125000000000000       0.65625000000000000        0.0000000000000000     
  0.56250000000000000       0.65625000000000000        0.0000000000000000     
  0.59375000000000000       0.65625000000000000        0.0000000000000000     
  0.62500000000000000       0.65625000000000000        0.0000000000000000     
  0.50000000000000000       0.68750000000000000        0.0000000000000000     
  0.53125000000000000       0.68750000000000000        0.0000000000000000     
  0.56250000000000000       0.68750000000000000        0.0000000000000000     
  0.59375000000000000       0.68750000000000000        0.0000000000000000     
  0.62500000000000000       0.68750000000000000        0.0000000000000000     
  0.50000000000000000       0.71875000000000000        0.0000000000000000     
  0.53125000000000000       0.71875000000000000        0.0000000000000000     
  0.56250000000000000       0.71875000000000000        0.0000000000000000     
  0.59375000000000000       0.71875000000000000        0.0000000000000000     
  0.62500000000000000       0.71875000000000000        0.0000000000000000     
  0.50000000000000000       0.75000000000000000        0.0000000000000000     
  0.53125000000000000       0.75000000000000000        0.0000000000000000     
  0.56250000000000000       0.75000000000000000        0.0000000000000000     
  0.59375000000000000       0.75000000000000000        0.0000000000000000     
  0.62500000000000000       0.75000000000000000        0.0000000000000000     
  0.62500000000000000       0.62500000000000000        0.0000000000000000     
  0.65625000000000000       0.62500000000000000        0.0000000000000000     
  0.68750000000000000       0.62500000000000000        0.0000000000000000     
  0.71875000000000000       0.62500000000000000        0.0000000000000000     
  0.75000000000000000       0.62500000000000000        0.0000000000000000     
  0.62500000000000000       0.65625000000000000        0.0000000000000000     
  0.65625000000000000       0.65625000000000000        0.0000000000000000     
  0.68750000000000000       0.65625000000000000        0.0000000000000000     
  0.71875000000000000       0.65625000000000000        0.0000000000000000     
  0.75000000000000000       0.65625000000000000        0.0000000000000000     
  0.62500000000000000       0.68750000000000000        0.0000000000000000     
  0.65625000000000000       0.68750000000000000        0.0000000000000000     
  0.68750000000000000       0.68750000000000000        0.0000000000000000     
  0.71875000000000000       0.68750000000000000        0.0000000000000000     
  0.75000000000000000       0.68750000000000000        0.0000000000000000     
  0.62500000000000000       0.71875000000000000        0.0000000000000000     
  0.65625000000000000       0.71875000000000000        0.0000000000000000     
  0.68750000000000000       0.71875000000000000        0.0000000000000000     
  0.71875000000000000       0.71875000000000000        0.0000000000000000     
  0.75000000000000000       0.71875000000000000        0.0000000000000000     
  0.62500000000000000       0.75000000000000000        0.0000000000000000     
  0.65625000000000000       0.75000000000000000        0.0000000000000000     
  0.68750000000000000       0.75000000000000000        0.0000000000000000     
  0.71875000000000000       0.75000000000000000        0.0000000000000000     
  0.75000000000000000       0.75000000000000000        0.0000000000000000     
  0.75000000000000000       0.62500000000000000        0.0000000000000000     
  0.78125000000000000       0.62500000000000000        0.0000000000000000     
  0.81250000000000000       0.62500000000000000        0.0000000000000000     
  0.84375000000000000       0.62500000000000000        0.0000000000000000     
  0.87500000000000000       0.62500000000000000        0.0000000000000000     
  0.75000000000000000       0.65625000000000000        0.0000000000000000     
  0.78125000000000000       0.65625000000000000        0.0000000000000000     
  0.81250000000000000       0.65625000000000000        0.0000000000000000     
  0.84375000000000000       0.65625000000000000        0.0000000000000000     
  0.87500000000000000       0.65625000000000000        0.0000000000000000     
  0.75000000000000000       0.68750000000000000        0.0000000000000000     
  0.78125000000000000       0.68750000000000000        0.0000000000000000     
  0.81250000000000000       0.68750000000000000        0.0000000000000000     
  0.84375000000000000       0.68750000000000000        0.0000000000000000     
  0.87500000000000000       0.68750000000000000        0.0000000000000000     
  0.75000000000000000       0.71875000000000000        0.0000000000000000     
  0.78125000000000000       0.71875000000000000        0.0000000000000000     
  0.81250000000000000       0.71875000000000000        0.0000000000000000     
  0.84375000000000000       0.71875000000000000        0.0000000000000000     
  0.87500000000000000       0.71875000000000000        0.0000000000000000     
  0.75000000000000000       0.75000000000000000        0.0000000000000000     
  0.78125000000000000       0.75000000000000000        0.0000000000000000     
  0.81250000000000000       0.75000000000000000        0.0000000000000000     
  0.84375000000000000       0.75000000000000000        0.0000000000000000     
  0.87500000000000000       0.75000000000000000        0.0000000000000000     
  0.87500000000000000       0.62500000000000000        0.0000000000000000     
  0.90625000000000000       0.62500000000000000        0.0000000000000000     
  0.93750000000000000       0.62500000000000000        0.0000000000000000     
  0.96875000000000000       0.62500000000000000        0.0000000000000000     
   1.0000000000000000       0.62500000000000000        0.0000000000000000     
  0.87500000000000000       0.65625000000000000        0.0000000000000000     
  0.90625000000000000       0.65625000000000000        0.0000000000000000     
  0.93750000000000000       0.65625000000000000        0.0000000000000000     
  0.96875000000000000       0.65625000000000000        0.0000000000000000     
   1.0000000000000000       0.65625000000000000        0.0000000000000000     
  0.87500000000000000       0.68750000000000000        0.0000000000000000     
  0.90625000000000000       0.68750000000000000        0.0000000000000000     
  0.93750000000000000       0.68750000000000000        0.0000000000000000     
  0.96875000000000000       0.68750000000000000        0.0000000000000000     
   1.0000000000000000       0.68750000000000000        0.0000000000000000     
  0.87500000000000000       0.71875000000000000        0.0000000000000000     
  0.90625000000000000       0.71875000000000000        0.0000000000000000     
  0.93750000000000000       0.71875000000000000        0.0000000000000000     
  0.96875000000000000       0.71875000000000000        0.0000000000000000     
   1.0000000000000000       0.71875000000000000        0.0000000000000000     
  0.87500000000000000       0.75000000000000000        0.0000000000000000     
  0.90625000000000000       0.75000000000000000        0.0000000000000000     
  0.93750000000000000       0.75000000000000000        0.0000000000000000     
  0.96875000000000000       0.75000000000000000        0.0000000000000000     
   1.0000000000000000       0.75000000000000000        0.0000000000000000     
   0.0000000000000000       0.75000000000000000        0.0000000000000000     
   3.1250000000000000E-002  0.75000000000000000        0.0000000000000000     
   6.2500000000000000E-002  0.75000000000000000        0.0000000000000000     
   9.3750000000000000E-002  0.75000000000000000        0.0000000000000000     
  0.12500000000000000       0.75000000000000000        0.0000000000000000     
   0.0000000000000000       0.78125000000000000        0.0000000000000000     
   3.1250000000000000E-002  0.78125000000000000        0.0000000000000000     
   6.2500000000000000E-002  0.78125000000000000        0.0000000000000000     
   9.3750000000000000E-002  0.78125000000000000        0.0000000000000000     
  0.12500000000000000       0.78125000000000000        0.0000000000000000     
   0.0000000000000000       0.81250000000000000        0.0000000000000000     
   3.1250000000000000E-002  0.81250000000000000        0.0000000000000000     
   6.2500000000000000E-002  0.81250000000000000        0.0000000000000000     
   9.3750000000000000E-002  0.81250000000000000        0.0000000000000000     
  0.12500000000000000       0.81250000000000000        0.0000000000000000     
   0.0000000000000000       0.84375000000000000        0.0000000000000000     
   3.1250000000000000E-002  0.84375000000000000        0.0000000000000000     
   6.2500000000000000E-002  0.84375000000000000        0.0000000000000000     
   9.3750000000000000E-002  0.84375000000000000        0.0000000000000000     
  0.12500000000000000       0.84375000000000000        0.0000000000000000     
   0.0000000000000000       0.87500000000000000        0.0000000000000000     
   3.1250000000000000E-002  0.87500000000000000        0.0000000000000000     
   6.2500000000000000E-002  0.87500000000000000        0.0000000000000000     
   9.3750000000000000E-002  0.87500000000000000        0.0000000000000000     
  0.12500000000000000       0.87500000000000000        0.0000000000000000     
  0.12500000000000000       0.75000000000000000        0.0000000000000000     
  0.15625000000000000       0.75000000000000000        0.0000000000000000     
  0.18750000000000000       0.75000000000000000        0.0000000000000000     
  0.21875000000000000       0.75000000000000000        0.0000000000000000     
  0.25000000000000000       0.75000000000000000        0.0000000000000000     
  0.12500000000000000       0.78125000000000000        0.0000000000000000     
  0.15625000000000000       0.78125000000000000        0.0000000000000000     
  0.18750000000000000       0.78125000000000000        0.0000000000000000     
  0.21875000000000000       0.78125000000000000        0.0000000000000000     
  0.25000000000000000       0.78125000000000000        0.0000000000000000     
  0.12500000000000000       0.81250000000000000        0.0000000000000000     
  0.15625000000000000       0.81250000000000000        0.0000000000000000     
  0.18750000000000000       0.81250000000000000        0.0000000000000000     
  0.21875000000000000       0.81250000000000000        0.0000000000000000     
  0.25000000000000000       0.81250000000000000        0.0000000000000000     
  0.12500000000000000       0.84375000000000000        0.0000000000000000     
  0.15625000000000000       0.84375000000000000        0.0000000000000000     
  0.18750000000000000       0.84375000000000000        0.0000000000000000     
  0.21875000000000000       0.84375000000000000        0.0000000000000000     
  0.25000000000000000       0.84375000000000000        0.0000000000000000     
  0.12500000000000000       0.87500000000000000        0.0000000000000000     
  0.15625000000000000       0.87500000000000000        0.0000000000000000     
  0.18750000000000000       0.87500000000000000        0.0000000000000000     
  0.21875000000000000       0.87500000000000000        0.0000000000000000     
  0.25000000000000000       0.87500000000000000        0.0000000000000000     
  0.25000000000000000       0.75000000000000000        0.0000000000000000     
  0.28125000000000000       0.75000000000000000        0.0000000000000000     
  0.31250000000000000       0.75000000000000000        0.0000000000000000     
  0.34375000000000000       0.75000000000000000        0.0000000000000000     
  0.37500000000000000       0.75000000000000000        0.0000000000000000     
  0.25000000000000000       0.78125000000000000        0.0000000000000000     
  0.28125000000000000       0.78125000000000000        0.0000000000000000     
  0.31250000000000000       0.78125000000000000        0.0000000000000000     
  0.34375000000000000       0.78125000000000000        0.0000000000000000     
  0.37500000000000000       0.78125000000000000        0.0000000000000000     
  0.25000000000000000       0.81250000000000000        0.0000000000000000     
  0.28125000000000000       0.81250000000000000        0.0000000000000000     
  0.31250000000000000       0.81250000000000000        0.0000000000000000     
  0.34375000000000000       0.81250000000000000        0.0000000000000000     
  0.37500000000000000       0.81250000000000000        0.0000000000000000     
  0.25000000000000000       0.84375000000000000        0.0000000000000000     
  0.28125000000000000       0.84375000000000000        0.0000000000000000     
  0.31250000000000000       0.84375000000000000        0.0000000000000000     
  0.34375000000000000       0.84375000000000000        0.0000000000000000     
  0.37500000000000000       0.84375000000000000        0.0000000000000000     
  0.25000000000000000       0.87500000000000000        0.0000000000000000     
  0.28125000000000000       0.87500000000000000        0.0000000000000000     
  0.31250000000000000       0.87500000000000000        0.0000000000000000     
  0.34375000000000000       0.87500000000000000        0.0000000000000000     
  0.37500000000000000       0.87500000000000000        0.0000000000000000     
  0.37500000000000000       0.75000000000000000        0.0000000000000000     
  0.40625000000000000       0.75000000000000000        0.0000000000000000     
  0.43750000000000000       0.75000000000000000        0.0000000000000000     
  0.46875000000000000       0.75000000000000000        0.0000000000000000     
  0.50000000000000000       0.75000000000000000        0.0000000000000000     
  0.37500000000000000       0.78125000000000000        0.0000000000000000     
  0.40625000000000000       0.78125000000000000        0.0000000000000000     
  0.43750000000000000       0.78125000000000000        0.0000000000000000     
  0.46875000000000000       0.78125000000000000        0.0000000000000000     
  0.50000000000000000       0.78125000000000000        0.0000000000000000     
  0.37500000000000000       0.81250000000000000        0.0000000000000000     
  0.40625000000000000       0.81250000000000000        0.0000000000000000     
  0.43750000000000000       0.81250000000000000        0.0000000000000000     
  0.46875000000000000       0.81250000000000000        0.0000000000000000     
  0.50000000000000000       0.81250000000000000        0.0000000000000000     
  0.37500000000000000       0.84375000000000000        0.0000000000000000     
  0.40625000000000000       0.84375000000000000        0.0000000000000000     
  0.43750000000000000       0.84375000000000000        0.0000000000000000     
  0.46875000000000000       0.84375000000000000        0.0000000000000000     
  0.50000000000000000       0.84375000000000000        0.0000000000000000     
  0.37500000000000000       0.87500000000000000        0.0000000000000000     
  0.40625000000000000       0.87500000000000000        0.0000000000000000     
  0.43750000000000000       0.87500000000000000        0.0000000000000000     
  0.46875000000000000       0.87500000000000000        0.0000000000000000     
  0.50000000000000000       0.87500000000000000        0.0000000000000000     
  0.50000000000000000       0.75000000000000000        0.0000000000000000     
  0.53125000000000000       0.75000000000000000        0.0000000000000000     
  0.56250000000000000       0.75000000000000000        0.0000000000000000     
  0.59375000000000000       0.75000000000000000        0.0000000000000000     
  0.62500000000000000       0.75000000000000000        0.0000000000000000     
  0.50000000000000000       0.78125000000000000        0.0000000000000000     
  0.53125000000000000       0.78125000000000000        0.0000000000000000     
  0.56250000000000000       0.78125000000000000        0.0000000000000000     
  0.59375000000000000       0.78125000000000000        0.0000000000000000     
  0.62500000000000000       0.78125000000000000        0.0000000000000000     
  0.50000000000000000       0.81250000000000000        0.0000000000000000     
  0.53125000000000000       0.81250000000000000        0.0000000000000000     
  0.56250000000000000       0.81250000000000000        0.0000000000000000     
  0.59375000000000000       0.81250000000000000        0.0000000000000000     
  0.62500000000000000       0.81250000000000000        0.0000000000000000     
  0.50000000000000000       0.84375000000000000        0.0000000000000000     
  0.53125000000000000       0.84375000000000000        0.0000000000000000     
  0.56250000000000000       0.84375000000000000        0.0000000000000000     
  0.59375000000000000       0.84375000000000000        0.0000000000000000     
  0.62500000000000000       0.84375000000000000        0.0000000000000000     
  0.50000000000000000       0.87500000000000000        0.0000000000000000     
  0.53125000000000000       0.87500000000000000        0.0000000000000000     
  0.56250000000000000       0.87500000000000000        0.0000000000000000     
  0.59375000000000000       0.87500000000000000        0.0000000000000000     
  0.62500000000000000       0.87500000000000000        0.0000000000000000     
  0.62500000000000000       0.75000000000000000        0.0000000000000000     
  0.65625000000000000       0.75000000000000000        0.0000000000000000     
  0.68750000000000000       0.75000000000000000        0.0000000000000000     
  0.71875000000000000       0.75000000000000000        0.0000000000000000     
  0.75000000000000000       0.75000000000000000        0.0000000000000000     
  0.62500000000000000       0.78125000000000000        0.0000000000000000     
  0.65625000000000000       0.78125000000000000        0.0000000000000000     
  0.68750000000000000       0.78125000000000000        0.0000000000000000     
  0.71875000000000000       0.78125000000000000        0.0000000000000000     
  0.75000000000000000       0.78125000000000000        0.0000000000000000     
  0.62500000000000000       0.81250000000000000        0.0000000000000000     
  0.65625000000000000       0.81250000000000000        0.0000000000000000     
  0.68750000000000000       0.81250000000000000        0.0000000000000000     
  0.71875000000000000       0.81250000000000000        0.0000000000000000     
  0.75000000000000000       0.81250000000000000        0.0000000000000000     
  0.62500000000000000       0.84375000000000000        0.0000000000000000     
  0.65625000000000000       0.84375000000000000        0.0000000000000000     
  0.68750000000000000       0.84375000000000000        0.0000000000000000     
  0.71875000000000000       0.84375000000000000        0.0000000000000000     
  0.75000000000000000       0.84375000000000000        0.0000000000000000     
  0.62500000000000000       0.87500000000000000        0.0000000000000000     
  0.65625000000000000       0.87500000000000000        0.0000000000000000     
  0.68750000000000000       0.87500000000000000        0.0000000000000000     
  0.71875000000000000       0.87500000000000000        0.0000000000000000     
  0.75000000000000000       0.87500000000000000        0.0000000000000000     
  0.75000000000000000       0.75000000000000000        0.0000000000000000     
  0.78125000000000000       0.75000000000000000        0.0000000000000000     
  0.81250000000000000       0.75000000000000000        0.0000000000000000     
  0.84375000000000000       0.75000000000000000        0.0000000000000000     
  0.87500000000000000       0.75000000000000000        0.0000000000000000     
  0.75000000000000000       0.78125000000000000        0.0000000000000000     
  0.78125000000000000       0.78125000000000000        0.0000000000000000     
  0.81250000000000000       0.78125000000000000        0.0000000000000000     
  0.84375000000000000       0.78125000000000000        0.0000000000000000     
  0.87500000000000000       0.78125000000000000        0.0000000000000000     
  0.75000000000000000       0.81250000000000000        0.0000000000000000     
  0.78125000000000000       0.81250000000000000        0.0000000000000000     
  0.81250000000000000       0.81250000000000000        0.0000000000000000     
  0.84375000000000000       0.81250000000000000        0.0000000000000000     
  0.87500000000000000       0.81250000000000000        0.0000000000000000     
  0.75000000000000000       0.84375000000000000        0.0000000000000000     
  0.78125000000000000       0.84375000000000000        0.0000000000000000     
  0.81250000000000000       0.84375000000000000        0.0000000000000000     
  0.84375000000000000       0.84375000000000000        0.0000000000000000     
  0.87500000000000000       0.84375000000000000        0.0000000000000000     
  0.75000000000000000       0.87500000000000000        0.0000000000000000     
  0.78125000000000000       0.87500000000000000        0.0000000000000000     
  0.81250000000000000       0.87500000000000000        0.0000000000000000     
  0.84375000000000000       0.87500000000000000        0.0000000000000000     
  0.87500000000000000       0.87500000000000000        0.0000000000000000     
  0.87500000000000000       0.75000000000000000        0.0000000000000000     
  0.90625000000000000       0.75000000000000000        0.0000000000000000     
  0.93750000000000000       0.75000000000000000        0.0000000000000000     
  0.96875000000000000       0.75000000000000000        0.0000000000000000     
   1.0000000000000000       0.75000000000000000        0.0000000000000000     
  0.87500000000000000       0.78125000000000000        0.0000000000000000     
  0.90625000000000000       0.78125000000000000        0.0000000000000000     
  0.93750000000000000       0.78125000000000000        0.0000000000000000     
  0.96875000000000000       0.78125000000000000        0.0000000000000000     
   1.0000000000000000       0.78125000000000000        0.0000000000000000     
  0.87500000000000000       0.81250000000000000        0.0000000000000000     
  0.90625000000000000       0.81250000000000000        0.0000000000000000     
  0.93750000000000000       0.81250000000000000        0.0000000000000000     
  0.96875000000000000       0.81250000000000000        0.0000000000000000     
   1.0000000000000000       0.81250000000000000        0.0000000000000000     
  0.87500000000000000       0.84375000000000000        0.0000000000000000     
  0.90625000000000000       0.84375000000000000        0.0000000000000000     
  0.93750000000000000       0.84375000000000000        0.0000000000000000     
  0.96875000000000000       0.84375000000000000        0.0000000000000000     
   1.0000000000000000       0.84375000000000000        0.0000000000000000     
  0.87500000000000000       0.87500000000000000        0.0000000000000000     
  0.90625000000000000       0.87500000000000000        0.0000000000000000     
  0.93750000000000000       0.87500000000000000        0.0000000000000000     
  0.96875000000000000       0.87500000000000000        0.0000000000000000     
   1.0000000000000000       0.87500000000000000        0.0000000000000000     
   0.0000000000000000       0.87500000000000000        0.0000000000000000     
   3.1250000000000000E-002  0.87500000000000000        0.0000000000000000     
   6.2500000000000000E-002  0.87500000000000000        0.0000000000000000     
   9.3750000000000000E-002  0.87500000000000000        0.0000000000000000     
  0.12500000000000000       0.87500000000000000        0.0000000000000000     
   0.0000000000000000       0.90625000000000000        0.0000000000000000     
   3.1250000000000000E-002  0.90625000000000000        0.0000000000000000     
   6.2500000000000000E-002  0.90625000000000000        0.0000000000000000     
   9.3750000000000000E-002  0.90625000000000000        0.0000000000000000     
  0.12500000000000000       0.90625000000000000        0.0000000000000000     
   0.0000000000000000       0.93750000000000000        0.0000000000000000     
   3.1250000000000000E-002  0.93750000000000000        0.0000000000000000     
   6.2500000000000000E-002  0.93750000000000000        0.0000000000000000     
   9.3750000000000000E-002  0.93750000000000000        0.0000000000000000     
  0.12500000000000000       0.93750000000000000        0.0000000000000000     
   0.0000000000000000       0.96875000000000000        0.0000000000000000     
   3.1250000000000000E-002  0.96875000000000000        0.0000000000000000     
   6.2500000000000000E-002  0.96875000000000000        0.0000000000000000     
   9.3750000000000000E-002  0.96875000000000000        0.0000000000000000     
  0.12500000000000000       0.96875000000000000        0.0000000000000000     
   0.0000000000000000        1.0000000000000000        0.0000000000000000     
   3.1250000000000000E-002   1.0000000000000000        0.0000000000000000     
   6.2500000000000000E-002   1.0000000000000000        0.0000000000000000     
   9.3750000000000000E-002   1.0000000000000000        0.0000000000000000     
  0.12500000000000000        1.0000000000000000        0.0000000000000000     
  0.12500000000000000       0.87500000000000000        0.0000000000000000     
  0.15625000000000000       0.87500000000000000        0.0000000000000000     
  0.18750000000000000       0.87500000000000000        0.0000000000000000     
  0.21875000000000000       0.87500000000000000        0.0000000000000000     
  0.25000000000000000       0.87500000000000000        0.0000000000000000     
  0.12500000000000000       0.90625000000000000        0.0000000000000000     
  0.15625000000000000       0.90625000000000000        0.0000000000000000     
  0.18750000000000000       0.90625000000000000        0.0000000000000000     
  0.21875000000000000       0.90625000000000000        0.0000000000000000     
  0.25000000000000000       0.90625000000000000        0.0000000000000000     
  0.12500000000000000       0.93750000000000000        0.0000000000000000     
  0.15625000000000000       0.93750000000000000        0.0000000000000000     
  0.18750000000000000       0.93750000000000000        0.0000000000000000     
  0.21875000000000000       0.93750000000000000        0.0000000000000000     
  0.25000000000000000       0.93750000000000000        0.0000000000000000     
  0.12500000000000000       0.96875000000000000        0.0000000000000000     
  0.15625000000000000       0.96875000000000000        0.0000000000000000     
  0.18750000000000000       0.96875000000000000        0.0000000000000000     
  0.21875000000000000       0.96875000000000000        0.0000000000000000     
  0.25000000000000000       0.96875000000000000        0.0000000000000000     
  0.12500000000000000        1.0000000000000000        0.0000000000000000     
  0.15625000000000000        1.0000000000000000        0.0000000000000000     
  0.18750000000000000        1.0000000000000000        0.0000000000000000     
  0.21875000000000000        1.0000000000000000        0.0000000000000000     
  0.25000000000000000        1.0000000000000000        0.0000000000000000     
  0.25000000000000000       0.87500000000000000        0.0000000000000000     
  0.28125000000000000       0.87500000000000000        0.0000000000000000     
  0.31250000000000000       0.87500000000000000        0.0000000000000000     
  0.34375000000000000       0.87500000000000000        0.0000000000000000     
  0.37500000000000000       0.87500000000000000        0.0000000000000000     
  0.25000000000000000       0.90625000000000000        0.0000000000000000     
  0.28125000000000000       0.90625000000000000        0.0000000000000000     
  0.31250000000000000       0.90625000000000000        0.0000000000000000     
  0.34375000000000000       0.90625000000000000        0.0000000000000000     
  0.37500000000000000       0.90625000000000000        0.0000000000000000     
  0.25000000000000000       0.93750000000000000        0.0000000000000000     
  0.28125000000000000       0.93750000000000000        0.0000000000000000     
  0.31250000000000000       0.93750000000000000        0.0000000000000000     
  0.34375000000000000       0.93750000000000000        0.0000000000000000     
  0.37500000000000000       0.93750000000000000        0.0000000000000000     
  0.25000000000000000       0.96875000000000000        0.0000000000000000     
  0.28125000000000000       0.96875000000000000        0.0000000000000000     
  0.31250000000000000       0.96875000000000000        0.0000000000000000     
  0.34375000000000000       0.96875000000000000        0.0000000000000000     
  0.37500000000000000       0.96875000000000000        0.0000000000000000     
  0.25000000000000000        1.0000000000000000        0.0000000000000000     
  0.28125000000000000        1.0000000000000000        0.0000000000000000     
  0.31250000000000000        1.0000000000000000        0.0000000000000000     
  0.34375000000000000        1.0000000000000000        0.0000000000000000     
  0.37500000000000000        1.0000000000000000        0.0000000000000000     
  0.37500000000000000       0.87500000000000000        0.0000000000000000     
  0.40625000000000000       0.87500000000000000        0.0000000000000000     
  0.43750000000000000       0.87500000000000000        0.0000000000000000     
  0.46875000000000000       0.87500000000000000        0.0000000000000000     
  0.50000000000000000       0.87500000000000000        0.0000000000000000     
  0.37500000000000000       0.90625000000000000        0.0000000000000000     
  0.40625000000000000       0.90625000000000000        0.0000000000000000     
  0.43750000000000000       0.90625000000000000        0.0000000000000000     
  0.46875000000000000       0.90625000000000000        0.0000000000000000     
  0.50000000000000000       0.90625000000000000        0.0000000000000000     
  0.37500000000000000       0.93750000000000000        0.0000000000000000     
  0.40625000000000000       0.93750000000000000        0.0000000000000000     
  0.43750000000000000       0.93750000000000000        0.0000000000000000     
  0.46875000000000000       0.93750000000000000        0.0000000000000000     
  0.50000000000000000       0.93750000000000000        0.0000000000000000     
  0.37500000000000000       0.96875000000000000        0.0000000000000000     
  0.40625000000000000       0.96875000000000000        0.0000000000000000     
  0.43750000000000000       0.96875000000000000        0.0000000000000000     
  0.46875000000000000       0.96875000000000000        0.0000000000000000     
  0.50000000000000000       0.96875000000000000        0.0000000000000000     
  0.37500000000000000        1.0000000000000000        0.0000000000000000     
  0.40625000000000000        1.0000000000000000        0.0000000000000000     
  0.43750000000000000        1.0000000000000000        0.0000000000000000     
  0.46875000000000000        1.0000000000000000        0.0000000000000000     
  0.50000000000000000        1.0000000000000000        0.0000000000000000     
  0.50000000000000000       0.87500000000000000        0.0000000000000000     
  0.53125000000000000       0.87500000000000000        0.0000000000000000     
  0.56250000000000000       0.87500000000000000        0.0000000000000000     
  0.59375000000000000       0.87500000000000000        0.0000000000000000     
  0.62500000000000000       0.87500000000000000        0.0000000000000000     
  0.50000000000000000       0.90625000000000000        0.0000000000000000     
  0.53125000000000000       0.90625000000000000        0.0000000000000000     
  0.56250000000000000       0.90625000000000000        0.0000000000000000     
  0.59375000000000000       0.90625000000000000        0.0000000000000000     
  0.62500000000000000       0.90625000000000000        0.0000000000000000     
  0.50000000000000000       0.93750000000000000        0.0000000000000000     
  0.53125000000000000       0.93750000000000000        0.0000000000000000     
  0.56250000000000000       0.93750000000000000        0.0000000000000000     
  0.59375000000000000       0.93750000000000000        0.0000000000000000     
  0.62500000000000000       0.93750000000000000        0.0000000000000000     
  0.50000000000000000       0.96875000000000000        0.0000000000000000     
  0.53125000000000000       0.96875000000000000        0.0000000000000000     
  0.56250000000000000       0.96875000000000000        0.0000000000000000     
  0.59375000000000000       0.96875000000000000        0.0000000000000000     
  0.62500000000000000       0.96875000000000000        0.0000000000000000     
  0.50000000000000000        1.0000000000000000        0.0000000000000000     
  0.53125000000000000        1.0000000000000000        0.0000000000000000     
  0.56250000000000000        1.0000000000000000        0.0000000000000000     
  0.59375000000000000        1.0000000000000000        0.0000000000000000     
  0.62500000000000000        1.0000000000000000        0.0000000000000000     
  0.62500000000000000       0.87500000000000000        0.0000000000000000     
  0.65625000000000000       0.87500000000000000        0.0000000000000000     
  0.68750000000000000       0.87500000000000000        0.0000000000000000     
  0.71875000000000000       0.87500000000000000        0.0000000000000000     
  0.75000000000000000       0.87500000000000000        0.0000000000000000     
  0.62500000000000000       0.90625000000000000        0.0000000000000000     
  0.65625000000000000       0.90625000000000000        0.0000000000000000     
  0.68750000000000000       0.90625000000000000        0.0000000000000000     
  0.71875000000000000       0.90625000000000000        0.0000000000000000     
  0.75000000000000000       0.90625000000000000        0.0000000000000000     
  0.62500000000000000       0.93750000000000000        0.0000000000000000     
  0.65625000000000000       0.93750000000000000        0.0000000000000000     
  0.68750000000000000       0.93750000000000000        0.0000000000000000     
  0.71875000000000000       0.93750000000000000        0.0000000000000000     
  0.75000000000000000       0.93750000000000000        0.0000000000000000     
  0.62500000000000000       0.96875000000000000        0.0000000000000000     
  0.65625000000000000       0.96875000000000000        0.0000000000000000     
  0.68750000000000000       0.96875000000000000        0.0000000000000000     
  0.71875000000000000       0.96875000000000000        0.0000000000000000     
  0.75000000000000000       0.96875000000000000        0.0000000000000000     
  0.62500000000000000        1.0000000000000000        0.0000000000000000     
  0.65625000000000000        1.0000000000000000        0.0000000000000000     
  0.68750000000000000        1.0000000000000000        0.0000000000000000     
  0.71875000000000000        1.0000000000000000        0.0000000000000000     
  0.75000000000000000        1.0000000000000000        0.0000000000000000     
  0.75000000000000000       0.87500000000000000        0.0000000000000000     
  0.78125000000000000       0.87500000000000000        0.0000000000000000     
  0.81250000000000000       0.87500000000000000        0.0000000000000000     
  0.84375000000000000       0.87500000000000000        0.0000000000000000     
  0.87500000000000000       0.87500000000000000        0.0000000000000000     
  0.75000000000000000       0.90625000000000000        0.0000000000000000     
  0.78125000000000000       0.90625000000000000        0.0000000000000000     
  0.81250000000000000       0.90625000000000000        0.0000000000000000     
  0.84375000000000000       0.90625000000000000        0.0000000000000000     
  0.87500000000000000       0.90625000000000000        0.0000000000000000     
  0.75000000000000000       0.93750000000000000        0.0000000000000000     
  0.78125000000000000       0.93750000000000000        0.0000000000000000     
  0.81250000000000000       0.93750000000000000        0.0000000000000000     
  0.84375000000000000       0.93750000000000000        0.0000000000000000     
  0.87500000000000000       0.93750000000000000        0.0000000000000000     
  0.75000000000000000       0.96875000000000000        0.0000000000000000     
  0.78125000000000000       0.96875000000000000        0.0000000000000000     
  0.81250000000000000       0.96875000000000000        0.0000000000000000     
  0.84375000000000000       0.96875000000000000        0.0000000000000000     
  0.87500000000000000       0.96875000000000000        0.0000000000000000     
  0.75000000000000000        1.0000000000000000        0.0000000000000000     
  0.78125000000000000        1.0000000000000000        0.0000000000000000     
  0.81250000000000000        1.0000000000000000        0.0000000000000000     
  0.84375000000000000        1.0000000000000000        0.0000000000000000     
  0.87500000000000000        1.0000000000000000        0.0000000000000000     
  0.87500000000000000       0.87500000000000000        0.0000000000000000     
  0.90625000000000000       0.87500000000000000        0.0000000000000000     
  0.93750000000000000       0.87500000000000000        0.0000000000000000     
  0.96875000000000000       0.87500000000000000        0.0000000000000000     
   1.0000000000000000       0.87500000000000000        0.0000000000000000     
  0.87500000000000000       0.90625000000000000        0.0000000000000000     
  0.90625000000000000       0.90625000000000000        0.0000000000000000     
  0.93750000000000000       0.90625000000000000        0.0000000000000000     
  0.96875000000000000       0.90625000000000000        0.0000000000000000     
   1.0000000000000000       0.90625000000000000        0.0000000000000000     
  0.87500000000000000       0.93750000000000000        0.0000000000000000     
  0.90625000000000000       0.93750000000000000        0.0000000000000000     
  0.93750000000000000       0.93750000000000000        0.0000000000000000     
  0.96875000000000000       0.93750000000000000        0.0000000000000000     
   1.0000000000000000       0.93750000000000000        0.0000000000000000     
  0.87500000000000000       0.96875000000000000        0.0000000000000000     
  0.90625000000000000       0.96875000000000000        0.0000000000000000     
  0.93750000000000000       0.96875000000000000        0.0000000000000000     
  0.96875000000000000       0.96875000000000000        0.0000000000000000     
   1.0000000000000000       0.96875000000000000        0.0000000000000000     
  0.87500000000000000        1.0000000000000000        0.0000000000000000     
  0.90625000000000000        1.0000000000000000        0.0000000000000000     
  0.93750000000000000        1.0000000000000000        0.0000000000000000     
  0.96875000000000000        1.0000000000000000        0.0000000000000000     
   1.0000000000000000        1.0000000000000000        0.0000000000000000     
 </DataArray>
 </Points>
 <Cells>
 <DataArray  type="Int32"  Name="connectivity"  format="ascii">
           0           1           6           5
           1           2           7           6
           2           3           8           7
           3           4           9           8
           5           6          11          10
           6           7          12          11
           7           8          13          12
           8           9          14          13
          10          11          16          15
          11          12          17          16
          12          13          18          17
          13          14          19          18
          15          16          21          20
          16          17          22          21
          17          18          23          22
          18          19          24          23
          25          26          31          30
          26          27          32          31
          27          28          33          32
          28          29          34          33
          30          31          36          35
          31          32          37          36
          32          33          38          37
          33          34          39          38
          35          36          41          40
          36          37          42          41
          37          38          43          42
          38          39          44          43
          40          41          46          45
          41          42          47          46
          42          43          48          47
          43          44          49          48
          50          51          56          55
          51          52          57          56
          52          53          58          57
          53          54          59          58
          55          56          61          60
          56          57          62          61
          57          58          63          62
          58          59          64          63
          60          61          66          65
          61          62          67          66
          62          63          68          67
          63          64          69          68
          65          66          71          70
          66          67          72          71
          67          68          73          72
          68          69          74          73
          75          76          81          80
          76          77          82          81
          77          78          83          82
          78          79          84          83
          80          81          86          85
          81          82          87          86
          82          83          88          87
          83          84          89          88
          85          86          91          90
          86          87          92          91
          87          88          93          92
          88          89          94          93
          90          91          96          95
          91          92          97          96
          92          93          98          97
          93          94          99          98
         100         101         106         105
         101         102         107         106
         102         103         108         107
         103         104         109         108
         105         106         111         110
         106         107         112         111
         107         108         113         112
         108         109         114         113
         110         111         116         115
         111         112         117         116
         112         113         118         117
         113         114         119         118
         115         116         121         120
         116         117         122         121
         117         118         123         122
         118         119         124         123
         125         126         131         130
         126         127         132         131
         127         128         133         132
         128         129         134         133
         130         131         136         135
         131         132         137         136
         132         133         138         137
         133         134         139         138
         135         136         141         140
         136         137         142         141
         137         138         143         142
         138         139         144         143
         140         141         146         145
         141         142         147         146
         142         143         148         147
         143         144         149         148
         150         151         156         155
         151         152         157         156
         152         153         158         157
         153         154         159         158
         155         156         161         160
         156         157         162         161
         157         158         163         162
         158         159         164         163
         160         161         166         165
         161         162         167         166
         162         163         168         167
         163         164         169         168
         165         166         171         170
         166         167         172         171
         167         168         173         172
         168         169         174         173
         175         176         181         180
         176         177         182         181
         177         178         183         182
         178         179         184         183
         180         181         186         185
         181         182         187         186
         182         183         188         187
         183         184         189         188
         185         186         191         190
         186         187         192         191
         187         188         193         192
         188         189         194         193
         190         191         196         195
         191         192         197         196
         192         193         198         197
         193         194         199         198
         200         201         206         205
         201         202         207         206
         202         203         208         207
         203         204         209         208
         205         206         211         210
         206         207         212         211
         207         208         213         212
         208         209         214         213
         210         211         216         215
         211         212         217         216
         212         213         218         217
         213         214         219         218
         215         216         221         220
         216         217         222         221
         217         218         223         222
         218         219         224         223
         225         226         231         230
         226         227         232         231
         227         228         233         232
         228         229         234         233
         230         231         236         235
         231         232         237         236
         232         233         238         237
         233         234         239         238
         235         236         241         240
         236         237         242         241
         237         238         243         242
         238         239         244         243
         240         241         246         245
         241         242         247         246
         242         243         248         247
         243         244         249         248
         250         251         256         255
         251         252         257         256
         252         253         258         257
         253         254         259         258
         255         256         261         260
         256         257         262         261
         257         258         263         262
         258         259         264         263
         260         261         266         265
         261         262         267         266
         262         263         268         267
         263         264         269         268
         265         266         271         270
         266         267         272         271
         267         268         273         272
         268         269         274         273
         275         276         281         280
         276         277         282         281
         277         278         283         282
         278         279         284         283
         280         281         286         285
         281         282         287         286
         282         283         288         287
         283         284         289         288
         285         286         291         290
         286         287         292         291
         287         288         293         292
         288         289         294         293
         290         291         296         295
         291         292         297         296
         292         293         298         297
         293         294         299         298
         300         301         306         305
         301         302         307         306
         302         303         308         307
         303         304         309         308
         305         306         311         310
         306         307         312         311
         307         308         313         312
         308         309         314         313
         310         311         316         315
         311         312         317         316
         312         313         318         317
         313         314         319         318
         315         316         321         320
         316         317         322         321
         317         318         323         322
         318         319         324         323
         325         326         331         330
         326         327         332         331
         327         328         333         332
         328         329         334         333
         330         331         336         335
         331         332         337         336
         332         333         338         337
         333         334         339         338
         335         336         341         340
         336         337         342         341
         337         338         343         342
         338         339         344         343
         340         341         346         345
         341         342         347         346
         342         343         348         347
         343         344         349         348
         350         351         356         355
         351         352         357         356
         352         353         358         357
         353         354         359         358
         355         356         361         360
         356         357         362         361
         357         358         363         362
         358         359         364         363
         360         361         366         365
         361         362         367         366
         362         363         368         367
         363         364         369         368
         365         366         371         370
         366         367         372         371
         367         368         373         372
         368         369         374         373
         375         376         381         380
         376         377         382         381
         377         378         383         382
         378         379         384         383
         380         381         386         385
         381         382         387         386
         382         383         388         387
         383         384         389         388
         385         386         391         390
         386         387         392         391
         387         388         393         392
         388         389         394         393
         390         391         396         395
         391         392         397         396
         392         393         398         397
         393         394         399         398
         400         401         406         405
         401         402         407         406
         402         403         408         407
         403         404         409         408
         405         406         411         410
         406         407         412         411
         407         408         413         412
         408         409         414         413
         410         411         416         415
         411         412         417         416
         412         413         418         417
         413         414         419         418
         415         416         421         420
         416         417         422         421
         417         418         423         422
         418         419         424         423
         425         426         431         430
         426         427         432         431
         427         428         433         432
         428         429         434         433
         430         431         436         435
         431         432         437         436
         432         433         438         437
         433         434         439         438
         435         436         441         440
         436         437         442         441
         437         438         443         442
         438         439         444         443
         440         441         446         445
         441         442         447         446
         442         443         448         447
         443         444         449         448
         450         451         456         455
         451         452         457         456
         452         453         458         457
         453         454         459         458
         455         456         461         460
         456         457         462         461
         457         458         463         462
         458         459         464         463
         460         461         466         465
         461         462         467         466
         462         463         468         467
         463         464         469         468
         465         466         471         470
         466         467         472         471
         467         468         473         472
         468         469         474         473
         475         476         481         480
         476         477         482         481
         477         478         483         482
         478         479         484         483
         480         481         486         485
         481         482         487         486
         482         483         488         487
         483         484         489         488
         485         486         491         490
         486         487         492         491
         487         488         493         492
         488         489         494         493
         490         491         496         495
         491         492         497         496
         492         493         498         497
         493         494         499         498
         500         501         506         505
         501         502         507         506
         502         503         508         507
         503         504         509         508
         505         506         511         510
         506         507         512         511
         507         508         513         512
         508         509         514         513
         510         511         516         515
         511         512         517         516
         512         513         518         517
         513         514         519         518
         515         516         521         520
         516         517         522         521
         517         518         523         522
         518         519         524         523
         525         526         531         530
         526         527         532         531
         527         528         533         532
         528         529         534         533
         530         531         536         535
         531         532         537         536
         532         533         538         537
         533         534         539         538
         535         536         541         540
         536         537         542         541
         537         538         543         542
         538         539         544         543
         540         541         546         545
         541         542         547         546
         542         543         548         547
         543         544         549         548
         550         551         556         555
         551         552         557         556
         552         553         558         557
         553         554         559         558
         555         556         561         560
         556         557         562         561
         557         558         563         562
         558         559         564         563
         560         561         566         565
         561         562         567         566
         562         563         568         567
         563         564         569         568
         565         566         571         570
         566         567         572         571
         567         568         573         572
         568         569         574         573
         575         576         581         580
         576         577         582         581
         577         578         583         582
         578         579         584         583
         580         581         586         585
         581         582         587         586
         582         583         588         587
         583         584         589         588
         585         586         591         590
         586         587         592         591
         587         588         593         592
         588         589         594         593
         590         591         596         595
         591         592         597         596
         592         593         598         597
         593         594         599         598
         600         601         606         605
         601         602         607         606
         602         603         608         607
         603         604         609         608
         605         606         611         610
         606         607         612         611
         607         608         613         612
         608         609         614         613
         610         611         616         615
         611         612         617         616
         612         613         618         617
         613         614         619         618
         615         616         621         620
         616         617         622         621
         617         618         623         622
         618         619         624         623
         625         626         631         630
         626         627         632         631
         627         628         633         632
         628         629         634         633
         630         631         636         635
         631         632         637         636
         632         633         638         637
         633         634         639         638
         635         636         641         640
         636         637         642         641
         637         638         643         642
         638         639         644         643
         640         641         646         645
         641         642         647         646
         642         643         648         647
         643         644         649         648
         650         651         656         655
         651         652         657         656
         652         653         658         657
         653         654         659         658
         655         656         661         660
         656         657         662         661
         657         658         663         662
         658         659         664         663
         660         661         666         665
         661         662         667         666
         662         663         668         667
         663         664         669         668
         665         666         671         670
         666         667         672         671
         667         668         673         672
         668         669         674         673
         675         676         681         680
         676         677         682         681
         677         678         683         682
         678         679         684         683
         680         681         686         685
         681         682         687         686
         682         683         688         687
         683         684         689         688
         685         686         691         690
         686         687         692         691
         687         688         693         692
         688         689         694         693
         690         691         696         695
         691         692         697         696
         692         693         698         697
         693         694         699         698
         700         701         706         705
         701         702         707         706
         702         703         708         707
         703         704         709         708
         705         706         711         710
         706         707         712         711
         707         708         713         712
         708         709         714         713
         710         711         716         715
         711         712         717         716
         712         713         718         717
         713         714         719         718
         715         716         721         720
         716         717         722         721
         717         718         723         722
         718         719         724         723
         725         726         731         730
         726         727         732         731
         727         728         733         732
         728         729         734         733
         730         731         736         735
         731         732         737         736
         732         733         738         737
         733         734         739         738
         735         736         741         740
         736         737         742         741
         737         738         743         742
         738         739         744         743
         740         741         746         745
         741         742         747         746
         742         743         748         747
         743         744         749         748
         750         751         756         755
         751         752         757         756
         752         753         758         757
         753         754         759         758
         755         756         761         760
         756         757         762         761
         757         758         763         762
         758         759         764         763
         760         761         766         765
         761         762         767         766
         762         763         768         767
         763         764         769         768
         765         766         771         770
         766         767         772         771
         767         768         773         772
         768         769         774         773
         775         776         781         780
         776         777         782         781
         777         778         783         782
         778         779         784         783
         780         781         786         785
         781         782         787         786
         782         783         788         787
         783         784         789         788
         785         786         791         790
         786         787         792         791
         787         788         793         792
         788         789         794         793
         790         791         796         795
         791         792         797         796
         792         793         798         797
         793         794         799         798
         800         801         806         805
         801         802         807         806
         802         803         808         807
         803         804         809         808
         805         806         811         810
         806         807         812         811
         807         808         813         812
         808         809         814         813
         810         811         816         815
         811         812         817         816
         812         813         818         817
         813         814         819         818
         815         816         821         820
         816         817         822         821
         817         818         823         822
         818         819         824         823
         825         826         831         830
         826         827         832         831
         827         828         833         832
         828         829         834         833
         830         831         836         835
         831         832         837         836
         832         833         838         837
         833         834         839         838
         835         836         841         840
         836         837         842         841
         837         838         843         842
         838         839         844         843
         840         841         846         845
         841         842         847         846
         842         843         848         847
         843         844         849         848
         850         851         856         855
         851         852         857         856
         852         853         858         857
         853         854         859         858
         855         856         861         860
         856         857         862         861
         857         858         863         862
         858         859         864         863
         860         861         866         865
         861         862         867         866
         862         863         868         867
         863         864         869         868
         865         866         871         870
         866         867         872         871
         867         868         873         872
         868         869         874         873
         875         876         881         880
         876         877         882         881
         877         878         883         882
         878         879         884         883
         880         881         886         885
         881         882         887         886
         882         883         888         887
         883         884         889         888
         885         886         891         890
         886         887         892         891
         887         888         893         892
         888         889         894         893
         890         891         896         895
         891         892         897         896
         892         893         898         897
         893         894         899         898
         900         901         906         905
         901         902         907         906
         902         903         908         907
         903         904         909         908
         905         906         911         910
         906         907         912         911
         907         908         913         912
         908         909         914         913
         910         911         916         915
         911         912         917         916
         912         913         918         917
         913         914         919         918
         915         916         921         920
         916         917         922         921
         917         918         923         922
         918         919         924         923
         925         926         931         930
         926         927         932         931
         927         928         933         932
         928         929         934         933
         930         931         936         935
         931         932         937         936
         932         933         938         937
         933         934         939         938
         935         936         941         940
         936         937         942         941
         937         938         943         942
         938         939         944         943
         940         941         946         945
         941         942         947         946
         942         943         948         947
         943         944         949         948
         950         951         956         955
         951         952         957         956
         952         953         958         957
         953         954         959         958
         955         956         961         960
         956         957         962         961
         957         958         963         962
         958         959         964         963
         960         961         966         965
         961         962         967         966
         962         963         968         967
         963         964         969         968
         965         966         971         970
         966         967         972         971
         967         968         973         972
         968         969         974         973
         975         976         981         980
         976         977         982         981
         977         978         983         982
         978         979         984         983
         980         981         986         985
         981         982         987         986
         982         983         988         987
         983         984         989         988
         985         986         991         990
         986         987         992         991
         987         988         993         992
         988         989         994         993
         990         991         996         995
         991         992         997         996
         992         993         998         997
         993         994         999         998
        1000        1001        1006        1005
        1001        1002        1007        1006
        1002        1003        1008        1007
        1003        1004        1009        1008
        1005        1006        1011        1010
        1006        1007        1012        1011
        1007        1008        1013        1012
        1008        1009        1014        1013
        1010        1011        1016        1015
        1011        1012        1017        1016
        1012        1013        1018        1017
        1013        1014        1019        1018
        1015        1016        1021        1020
        1016        1017        1022        1021
        1017        1018        1023        1022
        1018        1019        1024        1023
        1025        1026        1031        1030
        1026        1027        1032        1031
        1027        1028        1033        1032
        1028        1029        1034        1033
        1030        1031        1036        1035
        1031        1032        1037        1036
        1032        1033        1038        1037
        1033        1034        1039        1038
        1035        1036        1041        1040
        1036        1037        1042        1041
        1037        1038        1043        1042
        1038        1039        1044        1043
        1040        1041        1046        1045
        1041        1042        1047        1046
        1042        1043        1048        1047
        1043        1044        1049        1048
        1050        1051        1056        1055
        1051        1052        1057        1056
        1052        1053        1058        1057
        1053        1054        1059        1058
        1055        1056        1061        1060
        1056        1057        1062        1061
        1057        1058        1063        1062
        1058        1059        1064        1063
        1060        1061        1066        1065
        1061        1062        1067        1066
        1062        1063        1068        1067
        1063        1064        1069        1068
        1065        1066        1071        1070
        1066        1067        1072        1071
        1067        1068        1073        1072
        1068        1069        1074        1073
        1075        1076        1081        1080
        1076        1077        1082        1081
        1077        1078        1083        1082
        1078        1079        1084        1083
        1080        1081        1086        1085
        1081        1082        1087        1086
        1082        1083        1088        1087
        1083        1084        1089        1088
        1085        1086        1091        1090
        1086        1087        1092        1091
        1087        1088        1093        1092
        1088        1089        1094        1093
        1090        1091        1096        1095
        1091        1092        1097        1096
        1092        1093        1098        1097
        1093        1094        1099        1098
        1100        1101        1106        1105
        1101        1102        1107        1106
        1102        1103        1108        1107
        1103        1104        1109        1108
        1105        1106        1111        1110
        1106        1107        1112        1111
        1107        1108        1113        1112
        1108        1109        1114        1113
        1110        1111        1116        1115
        1111        1112        1117        1116
        1112        1113        1118        1117
        1113        1114        1119        1118
        1115        1116        1121        1120
        1116        1117        1122        1121
        1117        1118        1123        1122
        1118        1119        1124        1123
        1125        1126        1131        1130
        1126        1127        1132        1131
        1127        1128        1133        1132
        1128        1129        1134        1133
        1130        1131        1136        1135
        1131        1132        1137        1136
        1132        1133        1138        1137
        1133        1134        1139        1138
        1135        1136        1141        1140
        1136        1137        1142        1141
        1137        1138        1143        1142
        1138        1139        1144        1143
        1140        1141        1146        1145
        1141        1142        1147        1146
        1142        1143        1148        1147
        1143        1144        1149        1148
        1150        1151        1156        1155
        1151        1152        1157        1156
        1152        1153        1158        1157
        1153        1154        1159        1158
        1155        1156        1161        1160
        1156        1157        1162        1161
        1157        1158        1163        1162
        1158        1159        1164        1163
        1160        1161        1166        1165
        1161        1162        1167        1166
        1162        1163        1168        1167
        1163        1164        1169        1168
        1165        1166        1171        1170
        1166        1167        1172        1171
        1167        1168        1173        1172
        1168        1169        1174        1173
        1175        1176        1181        1180
        1176        1177        1182        1181
        1177        1178        1183        1182
        1178        1179        1184        1183
        1180        1181        1186        1185
        1181        1182        1187        1186
        1182        1183        1188        1187
        1183        1184        1189        1188
        1185        1186        1191        1190
        1186        1187        1192        1191
        1187        1188        1193        1192
        1188        1189        1194        1193
        1190        1191        1196        1195
        1191        1192        1197        1196
        1192        1193        1198        1197
        1193        1194        1199        1198
        1200        1201        1206        1205
        1201        1202        1207        1206
        1202        1203        1208        1207
        1203        1204        1209        1208
        1205        1206        1211        1210
        1206        1207        1212        1211
        1207        1208        1213        1212
        1208        1209        1214        1213
        1210        1211        1216        1215
        1211        1212        1217        1216
        1212        1213        1218        1217
        1213        1214        1219        1218
        1215        1216        1221        1220
        1216        1217        1222        1221
        1217        1218        1223        1222
        1218        1219        1224        1223
        1225        1226        1231        1230
        1226        1227        1232        1231
        1227        1228        1233        1232
        1228        1229        1234        1233
        1230        1231        1236        1235
        1231        1232        1237        1236
        1232        1233        1238        1237
        1233        1234        1239        1238
        1235        1236        1241        1240
        1236        1237        1242        1241
        1237        1238        1243        1242
        1238        1239        1244        1243
        1240        1241        1246        1245
        1241        1242        1247        1246
        1242        1243        1248        1247
        1243        1244        1249        1248
        1250        1251        1256        1255
        1251        1252        1257        1256
        1252        1253        1258        1257
        1253        1254        1259        1258
        1255        1256        1261        1260
        1256        1257        1262        1261
        1257        1258        1263        1262
        1258        1259        1264        1263
        1260        1261        1266        1265
        1261        1262        1267        1266
        1262        1263        1268        1267
        1263        1264        1269        1268
        1265        1266        1271        1270
        1266        1267        1272        1271
        1267        1268        1273        1272
        1268        1269        1274        1273
        1275        1276        1281        1280
        1276        1277        1282        1281
        1277        1278        1283        1282
        1278        1279        1284        1283
        1280        1281        1286        1285
        1281        1282        1287        1286
        1282        1283        1288        1287
        1283        1284        1289        1288
        1285        1286        1291        1290
        1286        1287        1292        1291
        1287        1288        1293        1292
        1288        1289        1294        1293
        1290        1291        1296        1295
        1291        1292        1297        1296
        1292        1293        1298        1297
        1293        1294        1299        1298
        1300        1301        1306        1305
        1301        1302        1307        1306
        1302        1303        1308        1307
        1303        1304        1309        1308
        1305        1306        1311        1310
        1306        1307        1312        1311
        1307        1308        1313        1312
        1308        1309        1314        1313
        1310        1311        1316        1315
        1311        1312        1317        1316
        1312        1313        1318        1317
        1313        1314        1319        1318
        1315        1316        1321        1320
        1316        1317        1322        1321
        1317        1318        1323        1322
        1318        1319        1324        1323
        1325        1326        1331        1330
        1326        1327        1332        1331
        1327        1328        1333        1332
        1328        1329        1334        1333
        1330        1331        1336        1335
        1331        1332        1337        1336
        1332        1333        1338        1337
        1333        1334        1339        1338
        1335        1336        1341        1340
        1336        1337        1342        1341
        1337        1338        1343        1342
        1338        1339        1344        1343
        1340        1341        1346        1345
        1341        1342        1347        1346
        1342        1343        1348        1347
        1343        1344        1349        1348
        1350        1351        1356        1355
        1351        1352        1357        1356
        1352        1353        1358        1357
        1353        1354        1359        1358
        1355        1356        1361        1360
        1356        1357        1362        1361
        1357        1358        1363        1362
        1358        1359        1364        1363
        1360        1361        1366        1365
        1361        1362        1367        1366
        1362        1363        1368        1367
        1363        1364        1369        1368
        1365        1366        1371        1370
        1366        1367        1372        1371
        1367        1368        1373        1372
        1368        1369        1374        1373
        1375        1376        1381        1380
        1376        1377        1382        1381
        1377        1378        1383        1382
        1378        1379        1384        1383
        1380        1381        1386        1385
        1381        1382        1387        1386
        1382        1383        1388        1387
        1383        1384        1389        1388
        1385        1386        1391        1390
        1386        1387        1392        1391
        1387        1388        1393        1392
        1388        1389        1394        1393
        1390        1391        1396        1395
        1391        1392        1397        1396
        1392        1393        1398        1397
        1393        1394        1399        1398
        1400        1401        1406        1405
        1401        1402        1407        1406
        1402        1403        1408        1407
        1403        1404        1409        1408
        1405        1406        1411        1410
        1406        1407        1412        1411
        1407        1408        1413        1412
        1408        1409        1414        1413
        1410        1411        1416        1415
        1411        1412        1417        1416
        1412        1413        1418        1417
        1413        1414        1419        1418
        1415        1416        1421        1420
        1416        1417        1422        1421
        1417        1418        1423        1422
        1418        1419        1424        1423
        1425        1426        1431        1430
        1426        1427        1432        1431
        1427        1428        1433        1432
        1428        1429        1434        1433
        1430        1431        1436        1435
        1431        1432        1437        1436
        1432        1433        1438        1437
        1433        1434        1439        1438
        1435        1436        1441        1440
        1436        1437        1442        1441
        1437        1438        1443        1442
        1438        1439        1444        1443
        1440        1441        1446        1445
        1441        1442        1447        1446
        1442        1443        1448        1447
        1443        1444        1449        1448
        1450        1451        1456        1455
        1451        1452        1457        1456
        1452        1453        1458        1457
        1453        1454        1459        1458
        1455        1456        1461        1460
        1456        1457        1462        1461
        1457        1458        1463        1462
        1458        1459        1464        1463
        1460        1461        1466        1465
        1461        1462        1467        1466
        1462        1463        1468        1467
        1463        1464        1469        1468
        1465        1466        1471        1470
        1466        1467        1472        1471
        1467        1468        1473        1472
        1468        1469        1474        1473
        1475        1476        1481        1480
        1476        1477        1482        1481
        1477        1478        1483        1482
        1478        1479        1484        1483
        1480        1481        1486        1485
        1481        1482        1487        1486
        1482        1483        1488        1487
        1483        1484        1489        1488
        1485        1486        1491        1490
        1486        1487        1492        1491
        1487        1488        1493        1492
        1488        1489        1494        1493
        1490        1491        1496        1495
        1491        1492        1497        1496
        1492        1493        1498        1497
        1493        1494        1499        1498
        1500        1501        1506        1505
        1501        1502        1507        1506
        1502        1503        1508        1507
        1503        1504        1509        1508
        1505        1506        1511        1510
        1506        1507        1512        1511
        1507        1508        1513        1512
        1508        1509        1514        1513
        1510        1511        1516        1515
        1511        1512        1517        1516
        1512        1513        1518        1517
        1513        1514        1519        1518
        1515        1516        1521        1520
        1516        1517        1522        1521
        1517        1518        1523        1522
        1518        1519        1524        1523
        1525        1526        1531        1530
        1526        1527        1532        1531
        1527        1528        1533        1532
        1528        1529        1534        1533
        1530        1531        1536        1535
        1531        1532        1537        1536
        1532        1533        1538        1537
        1533        1534        1539        1538
        1535        1536        1541        1540
        1536        1537        1542        1541
        1537        1538        1543        1542
        1538        1539        1544        1543
        1540        1541        1546        1545
        1541        1542        1547        1546
        1542        1543        1548        1547
        1543        1544        1549        1548
        1550        1551        1556        1555
        1551        1552        1557        1556
        1552        1553        1558        1557
        1553        1554        1559        1558
        1555        1556        1561        1560
        1556        1557        1562        1561
        1557        1558        1563        1562
        1558        1559        1564        1563
        1560        1561        1566        1565
        1561        1562        1567        1566
        1562        1563        1568        1567
        1563        1564        1569        1568
        1565        1566        1571        1570
        1566        1567        1572        1571
        1567        1568        1573        1572
        1568        1569        1574        1573
        1575        1576        1581        1580
        1576        1577        1582        1581
        1577        1578        1583        1582
        1578        1579        1584        1583
        1580        1581        1586        1585
        1581        1582        1587        1586
        1582        1583        1588        1587
        1583        1584        1589        1588
        1585        1586        1591        1590
        1586        1587        1592        1591
        1587        1588        1593        1592
        1588        1589        1594        1593
        1590        1591        1596        1595
        1591        1592        1597        1596
        1592        1593        1598        1597
        1593        1594        1599        1598
 </DataArray>
 <DataArray  type="Int32"  Name="offsets"  format="ascii"> 
           4
           8
          12
          16
          20
          24
          28
          32
          36
          40
          44
          48
          52
          56
          60
          64
          68
          72
          76
          80
          84
          88
          92
          96
         100
         104
         108
         112
         116
         120
         124
         128
         132
         136
         140
         144
         148
         152
         156
         160
         164
         168
         172
         176
         180
         184
         188
         192
         196
         200
         204
         208
         212
         216
         220
         224
         228
         232
         236
         240
         244
         248
         252
         256
         260
         264
         268
         272
         276
         280
         284
         288
         292
         296
         300
         304
         308
         312
         316
         320
         324
         328
         332
         336
         340
         344
         348
         352
         356
         360
         364
         368
         372
         376
         380
         384
         388
         392
         396
         400
         404
         408
         412
         416
         420
         424
         428
         432
         436
         440
         444
         448
         452
         456
         460
         464
         468
         472
         476
         480
         484
         488
         492
         496
         500
         504
         508
         512
         516
         520
         524
         528
         532
         536
         540
         544
         548
         552
         556
         560
         564
         568
         572
         576
         580
         584
         588
         592
         596
         600
         604
         608
         612
         616
         620
         624
         628
         632
         636
         640
         644
         648
         652
         656
         660
         664
         668
         672
         676
         680
         684
         688
         692
         696
         700
         704
         708
         712
         716
         720
         724
         728
         732
         736
         740
         744
         748
         752
         756
         760
         764
         768
         772
         776
         780
         784
         788
         792
         796
         800
         804
         808
         812
         816
         820
         824
         828
         832
         836
         840
         844
         848
         852
         856
         860
         864
         868
         872
         876
         880
         884
         888
         892
         896
         900
         904
         908
         912
         916
         920
         924
         928
         932
         936
         940
         944
         948
         952
         956
         960
         964
         968
         972
         976
         980
         984
         988
         992
         996
        1000
        1004
        1008
        1012
        1016
        1020
        1024
        1028
        1032
        1036
        1040
        1044
        1048
        1052
        1056
        1060
        1064
        1068
        1072
        1076
        1080
        1084
        1088
        1092
        1096
        1100
        1104
        1108
        1112
        1116
        1120
        1124
        1128
        1132
        1136
        1140
        1144
        1148
        1152
        1156
        1160
        1164
        1168
        1172
        1176
        1180
        1184
        1188
        1192
        1196
        1200
        1204
        1208
        1212
        1216
        1220
        1224
        1228
        1232
        1236
        1240
        1244
        1248
        1252
        1256
        1260
        1264
        1268
        1272
        1276
        1280
        1284
        1288
        1292
        1296
        1300
        1304
        1308
        1312
        1316
        1320
        1324
        1328
        1332
        1336
        1340
        1344
        1348
        1352
        1356
        1360
        1364
        1368
        1372
        1376
        1380
        1384
        1388
        1392
        1396
        1400
        1404
        1408
        1412
        1416
        1420
        1424
        1428
        1432
        1436
        1440
        1444
        1448
        1452
        1456
        1460
        1464
        1468
        1472
        1476
        1480
        1484
        1488
        1492
        1496
        1500
        1504
        1508
        1512
        1516
        1520
        1524
        1528
        1532
        1536
        1540
        1544
        1548
        1552
        1556
        1560
        1564
        1568
        1572
        1576
        1580
        1584
        1588
        1592
        1596
        1600
        1604
        1608
        1612
        1616
        1620
        1624
        1628
        1632
        1636
        1640
        1644
        1648
        1652
        1656
        1660
        1664
        1668
        1672
        1676
        1680
        1684
        1688
        1692
        1696
        1700
        1704
        1708
        1712
        1716
        1720
        1724
        1728
        1732
        1736
        1740
        1744
        1748
        1752
        1756
        1760
        1764
        1768
        1772
        1776
        1780
        1784
        1788
        1792
        1796
        1800
        1804
        1808
        1812
        1816
        1820
        1824
        1828
        1832
        1836
        1840
        1844
        1848
        1852
        1856
        1860
        1864
        1868
        1872
        1876
        1880
        1884
        1888
        1892
        1896
        1900
        1904
        1908
        1912
        1916
        1920
        1924
        1928
        1932
        1936
        1940
        1944
        1948
        1952
        1956
        1960
        1964
        1968
        1972
        1976
        1980
        1984
        1988
        1992
        1996
        2000
        2004
        2008
        2012
        2016
        2020
        2024
        2028
        2032
        2036
        2040
        2044
        2048
        2052
        2056
        2060
        2064
        2068
        2072
        2076
        2080
        2084
        2088
        2092
        2096
        2100
        2104
        2108
        2112
        2116
        2120
        2124
        2128
        2132
        2136
        2140
        2144
        2148
        2152
        2156
        2160
        2164
        2168
        2172
        2176
        2180
        2184
        2188
        2192
        2196
        2200
        2204
        2208
        2212
        2216
        2220
        2224
        2228
        2232
        2236
        2240
        2244
        2248
        2252
        2256
        2260
        2264
        2268
        2272
        2276
        2280
        2284
        2288
        2292
        2296
        2300
        2304
        2308
        2312
        2316
        2320
        2324
        2328
        2332
        2336
        2340
        2344
        2348
        2352
        2356
        2360
        2364
        2368
        2372
        2376
        2380
        2384
        2388
        2392
        2396
        2400
        2404
        2408
        2412
        2416
        2420
        2424
        2428
        2432
        2436
        2440
        2444
        2448
        2452
        2456
        2460
        2464
        2468
        2472
        2476
        2480
        2484
        2488
        2492
        2496
        2500
        2504
        2508
        2512
        2516
        2520
        2524
        2528
        2532
        2536
        2540
        2544
        2548
        2552
        2556
        2560
        2564
        2568
        2572
        2576
        2580
        2584
        2588
        2592
        2596
        2600
        2604
        2608
        2612
        2616
        2620
        2624
        2628
        2632
        2636
        2640
        2644
        2648
        2652
        2656
        2660
        2664
        2668
        2672
        2676
        2680
        2684
        2688
        2692
        2696
        2700
        2704
        2708
        2712
        2716
        2720
        2724
        2728
        2732
        2736
        2740
        2744
        2748
        2752
        2756
        2760
        2764
        2768
        2772
        2776
        2780
        2784
        2788
        2792
        2796
        2800
        2804
        2808
        2812
        2816
        2820
        2824
        2828
        2832
        2836
        2840
        2844
        2848
        2852
        2856
        2860
        2864
        2868
        2872
        2876
        2880
        2884
        2888
        2892
        2896
        2900
        2904
        2908
        2912
        2916
        2920
        2924
        2928
        2932
        2936
        2940
        2944
        2948
        2952
        2956
        2960
        2964
        2968
        2972
        2976
        2980
        2984
        2988
        2992
        2996
        3000
        3004
        3008
        3012
        3016
        3020
        3024
        3028
        3032
        3036
        3040
        3044
        3048
        3052
        3056
        3060
        3064
        3068
        3072
        3076
        3080
        3084
        3088
        3092
        3096
        3100
        3104
        3108
        3112
        3116
        3120
        3124
        3128
        3132
        3136
        3140
        3144
        3148
        3152
        3156
        3160
        3164
        3168
        3172
        3176
        3180
        3184
        3188
        3192
        3196
        3200
        3204
        3208
        3212
        3216
        3220
        3224
        3228
        3232
        3236
        3240
        3244
        3248
        3252
        3256
        3260
        3264
        3268
        3272
        3276
        3280
        3284
        3288
        3292
        3296
        3300
        3304
        3308
        3312
        3316
        3320
        3324
        3328
        3332
        3336
        3340
        3344
        3348
        3352
        3356
        3360
        3364
        3368
        3372
        3376
        3380
        3384
        3388
        3392
        3396
        3400
        3404
        3408
        3412
        3416
        3420
        3424
        3428
        3432
        3436
        3440
        3444
        3448
        3452
        3456
        3460
        3464
        3468
        3472
        3476
        3480
        3484
        3488
        3492
        3496
        3500
        3504
        3508
        3512
        3516
        3520
        3524
        3528
        3532
        3536
        3540
        3544
        3548
        3552
        3556
        3560
        3564
        3568
        3572
        3576
        3580
        3584
        3588
        3592
        3596
        3600
        3604
        3608
        3612
        3616
        3620
        3624
        3628
        3632
        3636
        3640
        3644
        3648
        3652
        3656
        3660
        3664
        3668
        3672
        3676
        3680
        3684
        3688
        3692
        3696
        3700
        3704
        3708
        3712
        3716
        3720
        3724
        3728
        3732
        3736
        3740
        3744
        3748
        3752
        3756
        3760
        3764
        3768
        3772
        3776
        3780
        3784
        3788
        3792
        3796
        3800
        3804
        3808
        3812
        3816
        3820
        3824
        3828
        3832
        3836
        3840
        3844
        3848
        3852
        3856
        3860
        3864
        3868
        3872
        3876
        3880
        3884
        3888
        3892
        3896
        3900
        3904
        3908
        3912
        3916
        3920
        3924
        3928
        3932
        3936
        3940
        3944
        3948
        3952
        3956
        3960
        3964
        3968
        3972
        3976
        3980
        3984
        3988
        3992
        3996
        4000
        4004
        4008
        4012
        4016
        4020
        4024
        4028
        4032
        4036
        4040
        4044
        4048
        4052
        4056
        4060
        4064
        4068
        4072
        4076
        4080
        4084
        4088
        4092
        4096
 </DataArray>
 <DataArray  type="UInt8"  Name="types"  format="ascii">
 9
 9
 9
 9
 9
 9
 9
 9
 9
 9
 9
 9
 9
 9
 9
 9
 9
 9
 9
 9
 9
 9
 9
 9
 9
 9
 9
 9
 9
 9
 9
 9
 9
 9
 9
 9
 9
 9
 9
 9
 9
 9
 9
 9
 9
 9
 9
 9
 9
 9
 9
 9
 9
 9
 9
 9
 9
 9
 9
 9
 9
 9
 9
 9
 9
 9
 9
 9
 9
 9
 9
 9
 9
 9
 9
 9
 9
 9
 9
 9
 9
 9
 9
 9
 9
 9
 9
 9
 9
 9
 9
 9
 9
 9
 9
 9
 9
 9
 9
 9
 9
 9
 9
 9
 9
 9
 9
 9
 9
 9
 9
 9
 9
 9
 9
 9
 9
 9
 9
 9
 9
 9
 9
 9
 9
 9
 9
 9
 9
 9
 9
 9
 9
 9
 9
 9
 9
 9
 9
 9
 9
 9
 9
 9
 9
 9
 9
 9
 9
 9
 9
 9
 9
 9
 9
 9
 9
 9
 9
 9
 9
 9
 9
 9
 9
 9
 9
 9
 9
 9
 9
 9
 9
 9
 9
 9
 9
 9
 9
 9
 9
 9
 9
 9
 9
 9
 9
 9
 9
 9
 9
 9
 9
 9
 9
 9
 9
 9
 9
 9
 9
 9
 9
 9
 9
 9
 9
 9
 9
 9
 9
 9
 9
 9
 9
 9
 9
 9
 9
 9
 9
 9
 9
 9
 9
 9
 9
 9
 9
 9
 9
 9
 9
 9
 9
 9
 9
 9
 9
 9
 9
 9
 9
 9
 9
 9
 9
 9
 9
 9
 9
 9
 9
 9
 9
 9
 9
 9
 9
 9
 9
 9
 9
 9
 9
 9
 9
 9
 9
 9
 9
 9
 9
 9
 9
 9
 9
 9
 9
 9
 9
 9
 9
 9
 9
 9
 9
 9
 9
 9
 9
 9
 9
 9
 9
 9
 9
 9
 9
 9
 9
 9
 9
 9
 9
 9
 9
 9
 9
 9
 9
 9
 9
 9
 9
 9
 9
 9
 9
 9
 9
 9
 9
 9
 9
 9
 9
 9
 9
 9
 9
 9
 9
 9
 9
 9
 9
 9
 9
 9
 9
 9
 9
 9
 9
 9
 9
 9
 9
 9
 9
 9
 9
 9
 9
 9
 9
 9
 9
 9
 9
 9
 9
 9
 9
 9
 9
 9
 9
 9
 9
 9
 9
 9
 9
 9
 9
 9
 9
 9
 9
 9
 9
 9
 9
 9
 9
 9
 9
 9
 9
 9
 9
 9
 9
 9
 9
 9
 9
 9
 9
 9
 9
 9
 9
 9
 9
 9
 9
 9
 9
 9
 9
 9
 9
 9
 9
 9
 9
 9
 9
 9
 9
 9
 9
 9
 9
 9
 9
 9
 9
 9
 9
 9
 9
 9
 9
 9
 9
 9
 9
 9
 9
 9
 9
 9
 9
 9
 9
 9
 9
 9
 9
 9
 9
 9
 9
 9
 9
 9
 9
 9
 9
 9
 9
 9
 9
 9
 9
 9
 9
 9
 9
 9
 9
 9
 9
 9
 9
 9
 9
 9
 9
 9
 9
 9
 9
 9
 9
 9
 9
 9
 9
 9
 9
 9
 9
 9
 9
 9
 9
 9
 9
 9
 9
 9
 9
 9
 9
 9
 9
 9
 9
 9
 9
 9
 9
 9
 9
 9
 9
 9
 9
 9
 9
 9
 9
 9
 9
 9
 9
 9
 9
 9
 9
 9
 9
 9
 9
 9
 9
 9
 9
 9
 9
 9
 9
 9
 9
 9
 9
 9
 9
 9
 9
 9
 9
 9
 9
 9
 9
 9
 9
 9
 9
 9
 9
 9
 9
 9
 9
 9
 9
 9
 9
 9
 9
 9
 9
 9
 9
 9
 9
 9
 9
 9
 9
 9
 9
 9
 9
 9
 9
 9
 9
 9
 9
 9
 9
 9
 9
 9
 9
 9
 9
 9
 9
 9
 9
 9
 9
 9
 9
 9
 9
 9
 9
 9
 9
 9
 9
 9
 9
 9
 9
 9
 9
 9
 9
 9
 9
 9
 9
 9
 9
 9
 9
 9
 9
 9
 9
 9
 9
 9
 9
 9
 9
 9
 9
 9
 9
 9
 9
 9
 9
 9
 9
 9
 9
 9
 9
 9
 9
 9
 9
 9
 9
 9
 9
 9
 9
 9
 9
 9
 9
 9
 9
 9
 9
 9
 9
 9
 9
 9
 9
 9
 9
 9
 9
 9
 9
 9
 9
 9
 9
 9
 9
 9
 9
 9
 9
 9
 9
 9
 9
 9
 9
 9
 9
 9
 9
 9
 9
 9
 9
 9
 9
 9
 9
 9
 9
 9
 9
 9
 9
 9
 9
 9
 9
 9
 9
 9
 9
 9
 9
 9
 9
 9
 9
 9
 9
 9
 9
 9
 9
 9
 9
 9
 9
 9
 9
 9
 9
 9
 9
 9
 9
 9
 9
 9
 9
 9
 9
 9
 9
 9
 9
 9
 9
 9
 9
 9
 9
 9
 9
 9
 9
 9
 9
 9
 9
 9
 9
 9
 9
 9
 9
 9
 9
 9
 9
 9
 9
 9
 9
 9
 9
 9
 9
 9
 9
 9
 9
 9
 9
 9
 9
 9
 9
 9
 9
 9
 9
 9
 9
 9
 9
 9
 9
 9
 9
 9
 9
 9
 9
 9
 9
 9
 9
 9
 9
 9
 9
 9
 9
 9
 9
 9
 9
 9
 9
 9
 9
 9
 9
 9
 9
 9
 9
 9
 9
 9
 9
 9
 9
 9
 9
 9
 9
 9
 9
 9
 9
 9
 9
 9
 9
 9
 9
 9
 9
 9
 9
 9
 9
 9
 9
 9
 9
 9
 9
 9
 9
 9
 9
 9
 9
 9
 9
 9
 9
 9
 9
 9
 9
 9
 9
 9
 9
 9
 9
 9
 9
 9
 9
 9
 9
 9
 9
 9
 9
 9
 9
 9
 9
 9
 9
 9
 9
 9
 9
 9
 9
 9
 9
 9
 9
 9
 9
 9
 9
 9
 9
 9
 9
 9
 9
 9
 9
 9
 9
 9
 9
 9
 9
 9
 9
 9
 9
 9
 9
 9
 9
 9
 9
 9
 9
 9
 9
 9
 9
 9
 9
 9
 9
 9
 9
 9
 9
 9
 9
 9
 9
 9
 9
 9
 9
 9
 9
 9
 9
 9
 9
 9
 9
 9
 9
 9
 9
 9
 9
 9
 9
 9
 9
 9
 9
 9
 9
 9
 9
 9
 9
 9
 9
 9
 9
 9
 9
 9
 9
 9
 9
 9
 9
 9
 9
 9
 9
 9
 9
 9
 9
 9
 </DataArray>
 </Cells> 
 <PointData>
 <DataArray  type="Float64" Name="disp" NumberOfComponents="3" format="ascii">
   0.0000000000000000        0.0000000000000000        0.0000000000000000     
   6.0957925899255382E-003   3.7902250818112621E-003   0.0000000000000000     
   1.1665730787482035E-002   7.3235979054963353E-003   0.0000000000000000     
   1.6709814592669493E-002   1.0600118471055221E-002   0.0000000000000000     
   2.1228044005487907E-002   1.3619786778487918E-002   0.0000000000000000     
   0.0000000000000000        0.0000000000000000        0.0000000000000000     
   4.8910404410981399E-003   3.0220832558699980E-003   0.0000000000000000     
   9.5734343663316634E-003   6.0604593796282436E-003   0.0000000000000000     
   1.4047181775700569E-002   9.1151283712747368E-003   0.0000000000000000     
   1.8312282669204861E-002   1.2186090230809479E-002   0.0000000000000000     
   0.0000000000000000        0.0000000000000000        0.0000000000000000     
   3.9535029229220567E-003   2.4251467384487895E-003   0.0000000000000000     
   7.9104831634221502E-003   5.0629321431472901E-003   0.0000000000000000     
   1.1870940721500283E-002   7.9133562140955016E-003   0.0000000000000000     
   1.5834875597156451E-002   1.0976418951293424E-002   0.0000000000000000     
   0.0000000000000000        0.0000000000000000        0.0000000000000000     
   3.2831800353972877E-003   1.9994155295476376E-003   0.0000000000000000     
   6.6768771787534976E-003   4.3310161960534747E-003   0.0000000000000000     
   1.0181091430068632E-002   6.9948019995175123E-003   0.0000000000000000     
   1.3795822789342686E-002   9.9907729399397512E-003   0.0000000000000000     
   0.0000000000000000        0.0000000000000000        0.0000000000000000     
   2.8800717785238345E-003   1.7448896291665417E-003   0.0000000000000000     
   5.8726164123257055E-003   3.8647115383467988E-003   0.0000000000000000     
   8.9776339014056156E-003   6.3594657275407715E-003   0.0000000000000000     
   1.2195124245763562E-002   9.2291521967484604E-003   0.0000000000000000     
   2.1228044005487907E-002   1.3619786778487918E-002   0.0000000000000000     
   2.5433166424765608E-002   1.6612960823724519E-002   0.0000000000000000     
   2.9537929249330932E-002   1.9809998602695108E-002   0.0000000000000000     
   3.3542332479183860E-002   2.3210900115399686E-002   0.0000000000000000     
   3.7446376114324414E-002   2.6815665361838256E-002   0.0000000000000000     
   1.8312282669204861E-002   1.2186090230809479E-002   0.0000000000000000     
   2.2406911846722926E-002   1.5341610606255898E-002   0.0000000000000000     
   2.6369244108133155E-002   1.8649955145637425E-002   0.0000000000000000     
   3.0199279453435552E-002   2.2111123848954060E-002   0.0000000000000000     
   3.3897017882630123E-002   2.5725116716205795E-002   0.0000000000000000     
   1.5834875597156451E-002   1.0976418951293424E-002   0.0000000000000000     
   1.9730533430358833E-002   1.4210948712658629E-002   0.0000000000000000     
   2.3486159861075613E-002   1.7575773856108704E-002   0.0000000000000000     
   2.7101754889306776E-002   2.1070894381643630E-002   0.0000000000000000     
   3.0577318515052337E-002   2.4696310289263421E-002   0.0000000000000000     
   1.3795822789342686E-002   9.9907729399397512E-003   0.0000000000000000     
   1.7404031175673348E-002   1.3220975142932714E-002   0.0000000000000000     
   2.0888676508158302E-002   1.6587454734108935E-002   0.0000000000000000     
   2.4249758786797537E-002   2.0090211713468399E-002   0.0000000000000000     
   2.7487278011591069E-002   2.3729246081011124E-002   0.0000000000000000     
   1.2195124245763562E-002   9.2291521967484604E-003   0.0000000000000000     
   1.5427405082666462E-002   1.2371689897078148E-002   0.0000000000000000     
   1.8576794049381219E-002   1.5684997779638121E-002   0.0000000000000000     
   2.1643291145907836E-002   1.9169075844428379E-002   0.0000000000000000     
   2.4626896372246319E-002   2.2823924091448920E-002   0.0000000000000000     
   3.7446376114324414E-002   2.6815665361838256E-002   0.0000000000000000     
   4.1254706482143674E-002   3.0620060388007849E-002   0.0000000000000000     
   4.4971969910032709E-002   3.4619851239905498E-002   0.0000000000000000     
   4.8598166397991548E-002   3.8815037917531200E-002   0.0000000000000000     
   5.2133295946020175E-002   4.3205620420884959E-002   0.0000000000000000     
   3.3897017882630123E-002   2.5725116716205795E-002   0.0000000000000000     
   3.7485660644971115E-002   2.9520851998759222E-002   0.0000000000000000     
   4.0988408989712809E-002   3.3527247947980926E-002   0.0000000000000000     
   4.4405262916855190E-002   3.7744304563870894E-002   0.0000000000000000     
   4.7736222426398280E-002   4.2172021846429139E-002   0.0000000000000000     
   3.0577318515052337E-002   2.4696310289263421E-002   0.0000000000000000     
   3.3942130390348192E-002   2.8496491737679066E-002   0.0000000000000000     
   3.7225470167230254E-002   3.2515908885601547E-002   0.0000000000000000     
   4.0427337845698519E-002   3.6754561733030884E-002   0.0000000000000000     
   4.3547733425752994E-002   4.1212450279967068E-002   0.0000000000000000     
   2.7487278011591069E-002   2.3729246081011124E-002   0.0000000000000000     
   3.0624115718274902E-002   2.7546979604767367E-002   0.0000000000000000     
   3.3683153442585059E-002   3.1585834052767381E-002   0.0000000000000000     
   3.6664391184521528E-002   3.5845809425011171E-002   0.0000000000000000     
   3.9567828944084324E-002   4.0326905721498732E-002   0.0000000000000000     
   2.4626896372246319E-002   2.2823924091448920E-002   0.0000000000000000     
   2.7531616628751247E-002   2.6672315600024137E-002   0.0000000000000000     
   3.0361458815777218E-002   3.0737023449478408E-002   0.0000000000000000     
   3.3116422933324230E-002   3.5018047639811749E-002   0.0000000000000000     
   3.5796508981392285E-002   3.9515388171024145E-002   0.0000000000000000     
   5.2133295946020175E-002   4.3205620420884959E-002   0.0000000000000000     
   5.5574431378488838E-002   4.7795546620716250E-002   0.0000000000000000     
   5.8918645519767811E-002   5.2588764387774538E-002   0.0000000000000000     
   6.2165938369857072E-002   5.7585273722059821E-002   0.0000000000000000     
   6.5316309928756644E-002   6.2785074623572107E-002   0.0000000000000000     
   4.7736222426398280E-002   4.2172021846429139E-002   0.0000000000000000     
   5.0977413961129953E-002   4.6804230044954737E-002   0.0000000000000000     
   5.4124963963838146E-002   5.1634759408746761E-002   0.0000000000000000     
   5.7178872434522840E-002   5.6663609937805219E-002   0.0000000000000000     
   6.0139139373184047E-002   6.1890781632130104E-002   0.0000000000000000     
   4.3547733425752994E-002   4.1212450279967068E-002   0.0000000000000000     
   4.6582976397257309E-002   4.5877787361856472E-002   0.0000000000000000     
   4.9529386250075115E-002   5.0738785814145482E-002   0.0000000000000000     
   5.2386962984206420E-002   5.5795445636834098E-002   0.0000000000000000     
   5.5155706599651202E-002   6.1047766829922336E-002   0.0000000000000000     
   3.9567828944084324E-002   4.0326905721498732E-002   0.0000000000000000     
   4.2391118686870906E-002   4.5016218571421455E-002   0.0000000000000000     
   4.5131912378478738E-002   4.9900843603970700E-002   0.0000000000000000     
   4.7790210018907806E-002   5.4980780819146480E-002   0.0000000000000000     
   5.0366011608158130E-002   6.0256030216948780E-002   0.0000000000000000     
   3.5796508981392285E-002   3.9515388171024145E-002   0.0000000000000000     
   3.8401840829970751E-002   4.4219523673649674E-002   0.0000000000000000     
   4.0932542349048993E-002   4.9120932778222409E-002   0.0000000000000000     
   4.3388613538627024E-002   5.4219615484742335E-002   0.0000000000000000     
   4.5770054398704837E-002   5.9515571793209474E-002   0.0000000000000000     
   6.5316309928756644E-002   6.2785074623572107E-002   0.0000000000000000     
   6.8372605193554731E-002   6.8175899918710620E-002   0.0000000000000000     
   7.1337669161339545E-002   7.3745482433874535E-002   0.0000000000000000     
   7.4211501832111074E-002   7.9493822169063880E-002   0.0000000000000000     
   7.6994103205869330E-002   8.5420919124278655E-002   0.0000000000000000     
   6.0139139373184047E-002   6.1890781632130104E-002   0.0000000000000000     
   6.3009290546923155E-002   6.7307250471312974E-002   0.0000000000000000     
   6.5792851722841550E-002   7.2903992434945358E-002   0.0000000000000000     
   6.8489822900939273E-002   7.8681007523027258E-002   0.0000000000000000     
   7.1100204081216298E-002   8.4638295735558672E-002   0.0000000000000000     
   5.5155706599651202E-002   6.1047766829922336E-002   0.0000000000000000     
   5.7839109481393161E-002   6.6488524490702777E-002   0.0000000000000000     
   6.0440664014416015E-002   7.2110493716468022E-002   0.0000000000000000     
   6.2960370198719723E-002   7.7913674507218048E-002   0.0000000000000000     
   6.5398228034304312E-002   8.3898066862952897E-002   0.0000000000000000     
   5.0366011608158130E-002   6.0256030216948780E-002   0.0000000000000000     
   5.2862061996964797E-002   6.5719721976880002E-002   0.0000000000000000     
   5.5281106036062885E-002   7.1364986278442510E-002   0.0000000000000000     
   5.7623143725452422E-002   7.7191823121636277E-002   0.0000000000000000     
   5.9888175065133373E-002   8.3200232506461344E-002   0.0000000000000000     
   4.5770054398704837E-002   5.9515571793209474E-002   0.0000000000000000     
   4.8078148093638036E-002   6.5000842929844663E-002   0.0000000000000000     
   5.0314177787782209E-002   7.0667470120868825E-002   0.0000000000000000     
   5.2478143481137357E-002   7.6515453366281933E-002   0.0000000000000000     
   5.4570045173703494E-002   8.2544792666083985E-002   0.0000000000000000     
   7.6994103205869330E-002   8.5420919124278655E-002   0.0000000000000000     
   7.9678898311603144E-002   9.1516269127929706E-002   0.0000000000000000     
   8.2259312178301333E-002   9.7769368008427920E-002   0.0000000000000000     
   8.4735344805963911E-002  0.10418021576577326        0.0000000000000000     
   8.7106996194590877E-002  0.11074881239996576        0.0000000000000000     
   7.1100204081216298E-002   8.4638295735558672E-002   0.0000000000000000     
   7.3618427815054371E-002   9.0764101130272765E-002   0.0000000000000000     
   7.6038926653835284E-002   9.7046667764902672E-002   0.0000000000000000     
   7.8361700597559009E-002  0.10348599563944844        0.0000000000000000     
   8.0586749646225572E-002  0.11008208475390999        0.0000000000000000     
   6.5398228034304312E-002   8.3898066862952897E-002   0.0000000000000000     
   6.7749588773780692E-002   9.0051144162791294E-002   0.0000000000000000     
   7.0009803669759813E-002   9.6360379785852004E-002   0.0000000000000000     
   7.2178872722241633E-002  0.10282577373213504        0.0000000000000000     
   7.4256795931226222E-002  0.10944732600164038        0.0000000000000000     
   5.9888175065133373E-002   8.3200232506461344E-002   0.0000000000000000     
   6.2072381187782077E-002   8.9377398225485322E-002   0.0000000000000000     
   6.4171943226074890E-002   9.5710504071275918E-002   0.0000000000000000     
   6.6186861180011797E-002  0.10219955004383313        0.0000000000000000     
   6.8117135049592811E-002  0.10884453614315689        0.0000000000000000     
   5.4570045173703494E-002   8.2544792666083985E-002   0.0000000000000000     
   5.6586805057058570E-002   8.8742863318354848E-002   0.0000000000000000     
   5.8525345322780573E-002   9.5097040621174425E-002   0.0000000000000000     
   6.0385665970869494E-002  0.10160732457454265        0.0000000000000000     
   6.2167767001325334E-002  0.10827371517845957        0.0000000000000000     
   8.7106996194590877E-002  0.11074881239996576        0.0000000000000000     
   8.9386089736866334E-002  0.11746368686901154        0.0000000000000000     
   9.1584448825474396E-002  0.12431336813091681        0.0000000000000000     
   9.3702073460415022E-002  0.13129785618568157        0.0000000000000000     
   9.5738963641688268E-002  0.13841715103330576        0.0000000000000000     
   8.0586749646225572E-002  0.11008208475390999        0.0000000000000000     
   8.2724849991899191E-002  0.11682537681730250        0.0000000000000000     
   8.4786777826644094E-002  0.12370631353864095        0.0000000000000000     
   8.6772533150460310E-002  0.13072489491792541        0.0000000000000000     
   8.8682115963347796E-002  0.13788112095515592        0.0000000000000000     
   7.4256795931226222E-002  0.10944732600164038        0.0000000000000000     
   7.6253297198229389E-002  0.11621628008750241        0.0000000000000000     
   7.8178100424767097E-002  0.12312387948285547        0.0000000000000000     
   8.0031205610839276E-002  0.13017012418769960        0.0000000000000000     
   8.1812612756445968E-002  0.13735501420203480        0.0000000000000000     
   6.8117135049592811E-002  0.10884453614315689        0.0000000000000000     
   6.9971431355856956E-002  0.11563639667961131        0.0000000000000000     
   7.1758416619843335E-002  0.12256606596356039        0.0000000000000000     
   7.3478090841551963E-002  0.12963354399500412        0.0000000000000000     
   7.5130454020982770E-002  0.13683883077394249        0.0000000000000000     
   6.2167767001325334E-002  0.10827371517845957        0.0000000000000000     
   6.3879252464781877E-002  0.11508572659362923        0.0000000000000000     
   6.5527726411872850E-002  0.12203287298075569        0.0000000000000000     
   6.7113188842598287E-002  0.12911515433983892        0.0000000000000000     
   6.8635639756958189E-002  0.13633257067087889        0.0000000000000000     
   9.5738963641688268E-002  0.13841715103330576        0.0000000000000000     
   9.7678452212334635E-002  0.14564801301677621        0.0000000000000000     
   9.9503872015394651E-002  0.15296720247907961        0.0000000000000000     
  0.10121522305086833       0.16037471942021603        0.0000000000000000     
  0.10281250531875565       0.16787056384018539        0.0000000000000000     
   8.8682115963347796E-002  0.13788112095515592        0.0000000000000000     
   9.0500281512692182E-002  0.14515771410483086        0.0000000000000000     
   9.2211785045878986E-002  0.15253739682144873        0.0000000000000000     
   9.3816626562908262E-002  0.16002016910500957        0.0000000000000000     
   9.5314806063779955E-002  0.16760603095551335        0.0000000000000000     
   8.1812612756445968E-002  0.13735501420203480        0.0000000000000000     
   8.3508388503721304E-002  0.14466484705404015        0.0000000000000000     
   8.5104599494799371E-002  0.15208592027189474        0.0000000000000000     
   8.6601245729680171E-002  0.15961823385559856        0.0000000000000000     
   8.7998327208363730E-002  0.16726178780515166        0.0000000000000000     
   7.5130454020982770E-002  0.13683883077394249        0.0000000000000000     
   7.6702773185421985E-002  0.14416941186440410        0.0000000000000000     
   7.8182315362155766E-002  0.15161277283041763        0.0000000000000000     
   7.9569080551184113E-002  0.15916891367198302        0.0000000000000000     
   8.0863068752507011E-002  0.16683783438910030        0.0000000000000000     
   6.8635639756958189E-002  0.13633257067087889        0.0000000000000000     
   7.0083435557794255E-002  0.14367140853592275        0.0000000000000000     
   7.1444932647948212E-002  0.15111795449701740        0.0000000000000000     
   7.2720131027420046E-002  0.15867220855416289        0.0000000000000000     
   7.3909030696209771E-002  0.16633417070735929        0.0000000000000000     
   0.0000000000000000        0.0000000000000000        0.0000000000000000     
   2.8800717785238345E-003   1.7448896291665417E-003   0.0000000000000000     
   5.8726164123257055E-003   3.8647115383467988E-003   0.0000000000000000     
   8.9776339014056156E-003   6.3594657275407715E-003   0.0000000000000000     
   1.2195124245763562E-002   9.2291521967484604E-003   0.0000000000000000     
   0.0000000000000000        0.0000000000000000        0.0000000000000000     
   2.6103381129732048E-003   1.5889447751015380E-003   0.0000000000000000     
   5.2897237547395544E-003   3.5567425308106718E-003   0.0000000000000000     
   8.0381569252990469E-003   5.9033932671274016E-003   0.0000000000000000     
   1.0855637624651682E-002   8.6288969840517277E-003   0.0000000000000000     
   0.0000000000000000        0.0000000000000000        0.0000000000000000     
   2.3401389994169098E-003   1.4589567051486634E-003   0.0000000000000000     
   4.7202220965958204E-003   3.2998335342285059E-003   0.0000000000000000     
   7.1402492915367335E-003   5.5226304872395271E-003   0.0000000000000000     
   9.6002205842396493E-003   8.1273475641817274E-003   0.0000000000000000     
   0.0000000000000000        0.0000000000000000        0.0000000000000000     
   2.0694744378549484E-003   1.3549254193079173E-003   0.0000000000000000     
   4.1641114378945078E-003   3.0939845486002999E-003   0.0000000000000000     
   6.2839110001186782E-003   5.2171773878771496E-003   0.0000000000000000     
   8.4288731245274577E-003   7.7245039371384621E-003   0.0000000000000000     
   0.0000000000000000        0.0000000000000000        0.0000000000000000     
   1.7983444282873213E-003   1.2768509175793002E-003   0.0000000000000000     
   3.6213917786356142E-003   2.9391955739260550E-003   0.0000000000000000     
   5.4691420510448790E-003   4.9870339690402648E-003   0.0000000000000000     
   7.3415952455151154E-003   7.4203661029219273E-003   0.0000000000000000     
   1.2195124245763562E-002   9.2291521967484604E-003   0.0000000000000000     
   1.5427405082666462E-002   1.2371689897078148E-002   0.0000000000000000     
   1.8576794049381219E-002   1.5684997779638121E-002   0.0000000000000000     
   2.1643291145907836E-002   1.9169075844428379E-002   0.0000000000000000     
   2.4626896372246319E-002   2.2823924091448920E-002   0.0000000000000000     
   1.0855637624651682E-002   8.6288969840517277E-003   0.0000000000000000     
   1.3688867468764344E-002   1.1650924707804997E-002   0.0000000000000000     
   1.6484548073603909E-002   1.4887147464608560E-002   0.0000000000000000     
   1.9242679439170383E-002   1.8337565254462413E-002   0.0000000000000000     
   2.1963261565463760E-002   2.2002178077366562E-002   0.0000000000000000     
   9.6002205842396493E-003   8.1273475641817274E-003   0.0000000000000000     
   1.2076630651393173E-002   1.1046511307823326E-002   0.0000000000000000     
   1.4545974169685920E-002   1.4212648260932537E-002   0.0000000000000000     
   1.7008251139117889E-002   1.7625758423509365E-002   0.0000000000000000     
   1.9463461559689074E-002   2.1285841795553803E-002   0.0000000000000000     
   8.4288731245274577E-003   7.7245039371384621E-003   0.0000000000000000     
   1.0590694630552951E-002   1.0558449697133133E-002   0.0000000000000000     
   1.2761072337627247E-002   1.3661500168610058E-002   0.0000000000000000     
   1.4940006245750353E-002   1.7033655351569234E-002   0.0000000000000000     
   1.7127496354922264E-002   2.0674915246010662E-002   0.0000000000000000     
   7.3415952455151154E-003   7.4203661029219273E-003   0.0000000000000000     
   9.2310594062436704E-003   1.0186739875734421E-002   0.0000000000000000     
   1.1129842577427891E-002   1.3233703187641117E-002   0.0000000000000000     
   1.3037944759067775E-002   1.6561256038642020E-002   0.0000000000000000     
   1.4955365951163327E-002   2.0169398428737124E-002   0.0000000000000000     
   2.4626896372246319E-002   2.2823924091448920E-002   0.0000000000000000     
   2.7531616628751247E-002   2.6672315600024137E-002   0.0000000000000000     
   3.0361458815777218E-002   3.0737023449478408E-002   0.0000000000000000     
   3.3116422933324230E-002   3.5018047639811749E-002   0.0000000000000000     
   3.5796508981392285E-002   3.9515388171024145E-002   0.0000000000000000     
   2.1963261565463760E-002   2.2002178077366562E-002   0.0000000000000000     
   2.4629636626200990E-002   2.5879222797447751E-002   0.0000000000000000     
   2.7225146795099017E-002   2.9966936278832745E-002   0.0000000000000000     
   2.9749792072157839E-002   3.4265318521521544E-002   0.0000000000000000     
   3.2203572457377455E-002   3.8774369525514135E-002   0.0000000000000000     
   1.9463461559689074E-002   2.1285841795553803E-002   0.0000000000000000     
   2.1883179215047885E-002   2.5174424271036600E-002   0.0000000000000000     
   2.4238977888842720E-002   2.9273031743928479E-002   0.0000000000000000     
   2.6530857581073583E-002   3.3581664214229444E-002   0.0000000000000000     
   2.8758818291740460E-002   3.8100321681939497E-002   0.0000000000000000     
   1.7127496354922264E-002   2.0674915246010662E-002   0.0000000000000000     
   1.9292244395291942E-002   2.4557920020790675E-002   0.0000000000000000     
   2.1402952097008338E-002   2.8655309844765612E-002   0.0000000000000000     
   2.3459619460071451E-002   3.2967084717935469E-002   0.0000000000000000     
   2.5462246484481289E-002   3.7493244640300259E-002   0.0000000000000000     
   1.4955365951163327E-002   2.0169398428737124E-002   0.0000000000000000     
   1.6856832166933153E-002   2.4029710046709986E-002   0.0000000000000000     
   1.8717069419595864E-002   2.8113770581344146E-002   0.0000000000000000     
   2.0536077709151463E-002   3.2421580032639619E-002   0.0000000000000000     
   2.2313857035599946E-002   3.6953138400596400E-002   0.0000000000000000     
   3.5796508981392285E-002   3.9515388171024145E-002   0.0000000000000000     
   3.8401840829970751E-002   4.4219523673649674E-002   0.0000000000000000     
   4.0932542349048993E-002   4.9120932778222409E-002   0.0000000000000000     
   4.3388613538627024E-002   5.4219615484742335E-002   0.0000000000000000     
   4.5770054398704837E-002   5.9515571793209474E-002   0.0000000000000000     
   3.2203572457377455E-002   3.8774369525514135E-002   0.0000000000000000     
   3.4588702726351665E-002   4.3488810389335469E-002   0.0000000000000000     
   3.6907397654674254E-002   4.8403362211510481E-002   0.0000000000000000     
   3.9159657242345214E-002   5.3518024992039184E-002   0.0000000000000000     
   4.1345481489364559E-002   5.8832798730921558E-002   0.0000000000000000     
   2.8758818291740460E-002   3.8100321681939497E-002   0.0000000000000000     
   3.0925264275808516E-002   4.2825186439273119E-002   0.0000000000000000     
   3.3032599788242877E-002   4.7752440778444781E-002   0.0000000000000000     
   3.5080824829043553E-002   5.2882084699454490E-002   0.0000000000000000     
   3.7069939398210537E-002   5.8214118202302240E-002   0.0000000000000000     
   2.5462246484481289E-002   3.7493244640300259E-002   0.0000000000000000     
   2.7411525478341282E-002   4.2228651823462637E-002   0.0000000000000000     
   2.9308148749754862E-002   4.7168168479025316E-002   0.0000000000000000     
   3.1152116298722023E-002   5.2311794606988274E-002   0.0000000000000000     
   3.2943428125242785E-002   5.7659530207351511E-002   0.0000000000000000     
   2.2313857035599946E-002   3.6953138400596400E-002   0.0000000000000000     
   2.4047486333949975E-002   4.1699206541904024E-002   0.0000000000000000     
   2.5734044539210205E-002   4.6650545313252079E-002   0.0000000000000000     
   2.7373531651380643E-002   5.1807154714640521E-002   0.0000000000000000     
   2.8965947670461283E-002   5.7169034746069387E-002   0.0000000000000000     
   4.5770054398704837E-002   5.9515571793209474E-002   0.0000000000000000     
   4.8078148093638036E-002   6.5000842929844663E-002   0.0000000000000000     
   5.0314177787782209E-002   7.0667470120868825E-002   0.0000000000000000     
   5.2478143481137357E-002   7.6515453366281933E-002   0.0000000000000000     
   5.4570045173703494E-002   8.2544792666083985E-002   0.0000000000000000     
   4.1345481489364559E-002   5.8832798730921558E-002   0.0000000000000000     
   4.3464664156559807E-002   6.4338138817784177E-002   0.0000000000000000     
   4.5516999004758474E-002   7.0024500642253559E-002   0.0000000000000000     
   4.7502486033960581E-002   7.5891884204329754E-002   0.0000000000000000     
   4.9421125244166107E-002   8.1940289504012720E-002   0.0000000000000000     
   3.7069939398210537E-002   5.8214118202302240E-002   0.0000000000000000     
   3.8998906570877033E-002   6.3737861108885893E-002   0.0000000000000000     
   4.0866689422176215E-002   6.9442633241103308E-002   0.0000000000000000     
   4.2673287952108091E-002   7.5328434598954511E-002   0.0000000000000000     
   4.4418702160672660E-002   8.1395265182439475E-002   0.0000000000000000     
   3.2943428125242785E-002   5.7659530207351511E-002   0.0000000000000000     
   3.4680875336589714E-002   6.3200009803149854E-002   0.0000000000000000     
   3.6363249040035420E-002   6.8921867917418056E-002   0.0000000000000000     
   3.7990549235579901E-002   7.4825104550156188E-002   0.0000000000000000     
   3.9562775923223152E-002   8.0909719701364194E-002   0.0000000000000000     
   2.8965947670461283E-002   5.7169034746069387E-002   0.0000000000000000     
   3.0510570453697858E-002   6.2724584900576030E-002   0.0000000000000000     
   3.2006677858336101E-002   6.8462204671197846E-002   0.0000000000000000     
   3.3454269884376012E-002   7.4381894057934786E-002   0.0000000000000000     
   3.4853346531817583E-002   8.0483653060786906E-002   0.0000000000000000     
   5.4570045173703494E-002   8.2544792666083985E-002   0.0000000000000000     
   5.6586805057058570E-002   8.8742863318354848E-002   0.0000000000000000     
   5.8525345322780573E-002   9.5097040621174425E-002   0.0000000000000000     
   6.0385665970869494E-002  0.10160732457454265        0.0000000000000000     
   6.2167767001325334E-002  0.10827371517845957        0.0000000000000000     
   4.9421125244166107E-002   8.1940289504012720E-002   0.0000000000000000     
   5.1270394051242223E-002   8.8157417475525149E-002   0.0000000000000000     
   5.3047769871056090E-002   9.4530969053089692E-002   0.0000000000000000     
   5.4753252703607702E-002  0.10106094423670633        0.0000000000000000     
   5.6386842548897080E-002  0.10774734302637509        0.0000000000000000     
   4.4418702160672660E-002   8.1395265182439475E-002   0.0000000000000000     
   4.6100681839965137E-002   8.7630938731121530E-002   0.0000000000000000     
   4.7716976782080742E-002   9.4023268984564007E-002   0.0000000000000000     
   4.9267586987019447E-002  0.10057225594276689        0.0000000000000000     
   5.0752512454781282E-002  0.10727789960573018        0.0000000000000000     
   3.9562775923223152E-002   8.0909719701364194E-002   0.0000000000000000     
   4.1077668423227312E-002   8.7163427085143949E-002   0.0000000000000000     
   4.2532966055854486E-002   9.3573940415597315E-002   0.0000000000000000     
   4.3928668821104702E-002  0.10014125969272425        0.0000000000000000     
   4.5264776718977946E-002  0.10686538491652481        0.0000000000000000     
   3.4853346531817583E-002   8.0483653060786906E-002   0.0000000000000000     
   3.6201353801028735E-002   8.6754882537592448E-002   0.0000000000000000     
   3.7495737692377365E-002   9.3182983346189630E-002   0.0000000000000000     
   3.8736498205863487E-002   9.9767955486578505E-002   0.0000000000000000     
   3.9923635341487081E-002  0.10650979895875902        0.0000000000000000     
   6.2167767001325334E-002  0.10827371517845957        0.0000000000000000     
   6.3879252464781877E-002  0.11508572659362923        0.0000000000000000     
   6.5527726411872850E-002  0.12203287298075569        0.0000000000000000     
   6.7113188842598287E-002  0.12911515433983892        0.0000000000000000     
   6.8635639756958189E-002  0.13633257067087889        0.0000000000000000     
   5.6386842548897080E-002  0.10774734302637509        0.0000000000000000     
   5.7955171985996777E-002  0.11457816273431511        0.0000000000000000     
   5.9464873593979367E-002  0.12154140067274562        0.0000000000000000     
   6.0915947372844864E-002  0.12863705684166654        0.0000000000000000     
   6.2308393322593282E-002  0.13586513124107796        0.0000000000000000     
   5.0752512454781282E-002  0.10727789960573018        0.0000000000000000     
   5.2177601380494314E-002  0.11412759800642802        0.0000000000000000     
   5.3548701959286640E-002  0.12110874917783448        0.0000000000000000     
   5.4865814191158234E-002  0.12822135311994964        0.0000000000000000     
   5.6128938076109122E-002  0.13546540983277344        0.0000000000000000     
   4.5264776718977946E-002  0.10686538491652481        0.0000000000000000     
   4.6546540648274501E-002  0.11373403240996785        0.0000000000000000     
   4.7779211507794649E-002  0.12073491849602233        0.0000000000000000     
   4.8962789297538389E-002  0.12786804317468820        0.0000000000000000     
   5.0097274017505709E-002  0.13513340644596541        0.0000000000000000     
   3.9923635341487081E-002  0.10650979895875902        0.0000000000000000     
   4.1061989789337332E-002  0.11339746594493472        0.0000000000000000     
   4.2156402239503406E-002  0.12041990862730909        0.0000000000000000     
   4.3206872691985310E-002  0.12757712700588214        0.0000000000000000     
   4.4213401146783037E-002  0.13486912108065388        0.0000000000000000     
   6.8635639756958189E-002  0.13633257067087889        0.0000000000000000     
   7.0083435557794255E-002  0.14367140853592275        0.0000000000000000     
   7.1444932647948212E-002  0.15111795449701740        0.0000000000000000     
   7.2720131027420046E-002  0.15867220855416289        0.0000000000000000     
   7.3909030696209771E-002  0.16633417070735929        0.0000000000000000     
   6.2308393322593282E-002  0.13586513124107796        0.0000000000000000     
   6.3631489864536775E-002  0.14321026078810573        0.0000000000000000     
   6.4874515419987511E-002  0.15065708239987582        0.0000000000000000     
   6.6037469988945538E-002  0.15820559607638823        0.0000000000000000     
   6.7120353571410815E-002  0.16585580181764301        0.0000000000000000     
   5.6128938076109122E-002  0.13546540983277344        0.0000000000000000     
   5.7328050349348257E-002  0.14282539234046282        0.0000000000000000     
   5.8453127746084597E-002  0.15028577366717463        0.0000000000000000     
   5.9504170266318150E-002  0.15784655381290894        0.0000000000000000     
   6.0481177910048901E-002  0.16550773277766576        0.0000000000000000     
   5.0097274017505709E-002  0.13513340644596541        0.0000000000000000     
   5.1173117012228701E-002  0.14251680319299403        0.0000000000000000     
   5.2180769626239423E-002  0.15000402829891393        0.0000000000000000     
   5.3120231859537868E-002  0.15759508176372505        0.0000000000000000     
   5.3991503712124057E-002  0.16528996358742754        0.0000000000000000     
   4.4213401146783037E-002  0.13486912108065388        0.0000000000000000     
   4.5166689853178107E-002  0.14228449334569931        0.0000000000000000     
   4.6057441060452002E-002  0.14981184629509356        0.0000000000000000     
   4.6885654768604713E-002  0.15745117992883659        0.0000000000000000     
   4.7651330977636269E-002  0.16520249424692840        0.0000000000000000     
   0.0000000000000000        0.0000000000000000        0.0000000000000000     
   1.7983444282873213E-003   1.2768509175793002E-003   0.0000000000000000     
   3.6213917786356142E-003   2.9391955739260550E-003   0.0000000000000000     
   5.4691420510448790E-003   4.9870339690402648E-003   0.0000000000000000     
   7.3415952455151154E-003   7.4203661029219273E-003   0.0000000000000000     
   0.0000000000000000        0.0000000000000000        0.0000000000000000     
   1.5350331361280122E-003   1.2176008507039757E-003   0.0000000000000000     
   3.0994254669903217E-003   2.8209356847931845E-003   0.0000000000000000     
   4.6931769925869287E-003   4.8100045022676265E-003   0.0000000000000000     
   6.3162877129178344E-003   7.1848073031273016E-003   0.0000000000000000     
   0.0000000000000000        0.0000000000000000        0.0000000000000000     
   1.2878247267910051E-003   1.1700428694231082E-003   0.0000000000000000     
   2.6055748511298119E-003   2.7246739557891036E-003   0.0000000000000000     
   3.9532503730164200E-003   4.6638932590979867E-003   0.0000000000000000     
   5.3308512924508311E-003   6.9877007793497578E-003   0.0000000000000000     
   0.0000000000000000        0.0000000000000000        0.0000000000000000     
   1.0567192002763001E-003   1.1341769737366967E-003   0.0000000000000000     
   2.1398399310540842E-003   2.6504103869138124E-003   0.0000000000000000     
   3.2493621923333541E-003   4.5487002395313463E-003   0.0000000000000000     
   4.3852859841141071E-003   6.8290465315892978E-003   0.0000000000000000     
   0.0000000000000000        0.0000000000000000        0.0000000000000000     
   8.4171655658389665E-004   1.1100031636447423E-003   0.0000000000000000     
   1.7022207067631393E-003   2.5981449781673099E-003   0.0000000000000000     
   2.5815124505377276E-003   4.4644254435677027E-003   0.0000000000000000     
   3.4795917879076621E-003   6.7088445598459199E-003   0.0000000000000000     
   7.3415952455151154E-003   7.4203661029219273E-003   0.0000000000000000     
   9.2310594062436704E-003   1.0186739875734421E-002   0.0000000000000000     
   1.1129842577427891E-002   1.3233703187641117E-002   0.0000000000000000     
   1.3037944759067775E-002   1.6561256038642020E-002   0.0000000000000000     
   1.4955365951163327E-002   2.0169398428737124E-002   0.0000000000000000     
   6.3162877129178344E-003   7.1848073031273016E-003   0.0000000000000000     
   7.9560175583110165E-003   9.8957996010972191E-003   0.0000000000000000     
   9.5996264590944569E-003   1.2893436909902389E-002   0.0000000000000000     
   1.1247114415268156E-002   1.6177719229542805E-002   0.0000000000000000     
   1.2898481426832113E-002   1.9748646560018474E-002   0.0000000000000000     
   5.3308512924508311E-003   6.9877007793497578E-003   0.0000000000000000     
   6.7238616666006681E-003   9.6500466306915604E-003   0.0000000000000000     
   8.1177655526335525E-003   1.2604880927270532E-002   0.0000000000000000     
   9.5125629505494903E-003   1.5852203669086677E-002   0.0000000000000000     
   1.0908253860348474E-002   1.9392014856139995E-002   0.0000000000000000     
   4.3852859841141071E-003   6.8290465315892978E-003   0.0000000000000000     
   5.5345917311126229E-003   9.4494809645174430E-003   0.0000000000000000     
   6.6842598580451797E-003   1.2368035239745556E-002   0.0000000000000000     
   7.8342903649117768E-003   1.5584709357273638E-002   0.0000000000000000     
   8.9846832517124133E-003   1.9099503317101686E-002   0.0000000000000000     
   3.4795917879076621E-003   6.7088445598459199E-003   0.0000000000000000     
   4.3882077518468841E-003   9.2941026025748705E-003   0.0000000000000000     
   5.2991093753293351E-003   1.2182899847327455E-002   0.0000000000000000     
   6.2122966583550172E-003   1.5375236294103683E-002   0.0000000000000000     
   7.1277696009239278E-003   1.8871111942903546E-002   0.0000000000000000     
   1.4955365951163327E-002   2.0169398428737124E-002   0.0000000000000000     
   1.6856832166933153E-002   2.4029710046709986E-002   0.0000000000000000     
   1.8717069419595864E-002   2.8113770581344146E-002   0.0000000000000000     
   2.0536077709151463E-002   3.2421580032639619E-002   0.0000000000000000     
   2.2313857035599946E-002   3.6953138400596400E-002   0.0000000000000000     
   1.2898481426832113E-002   1.9748646560018474E-002   0.0000000000000000     
   1.4537477909253365E-002   2.3580090122961788E-002   0.0000000000000000     
   1.6147854277998960E-002   2.7645921140005133E-002   0.0000000000000000     
   1.7729610533068887E-002   3.1946139611148512E-002   0.0000000000000000     
   1.9282746674463155E-002   3.6480745536391926E-002   0.0000000000000000     
   1.0908253860348474E-002   1.9392014856139995E-002   0.0000000000000000     
   1.2294717001534431E-002   2.3199356023713355E-002   0.0000000000000000     
   1.3661831093611276E-002   2.7249268707089616E-002   0.0000000000000000     
   1.5009596136579012E-002   3.1541752906268782E-002   0.0000000000000000     
   1.6338012130437635E-002   3.6076808621250858E-002   0.0000000000000000     
   8.9846832517124133E-003   1.9099503317101686E-002   0.0000000000000000     
   1.0128549443776344E-002   2.2887507748964680E-002   0.0000000000000000     
   1.1258999866432818E-002   2.6923813282597592E-002   0.0000000000000000     
   1.2376034519681835E-002   3.1208419918000427E-002   0.0000000000000000     
   1.3479653403523396E-002   3.5741327655173176E-002   0.0000000000000000     
   7.1277696009239278E-003   1.8871111942903546E-002   0.0000000000000000     
   8.0389752359791046E-003   2.2644545298715769E-002   0.0000000000000000     
   8.9393605964635803E-003   2.6669554866529069E-002   0.0000000000000000     
   9.8289256823773583E-003   3.0946140646343438E-002   0.0000000000000000     
   1.0707670493720435E-002   3.5474302638158893E-002   0.0000000000000000     
   2.2313857035599946E-002   3.6953138400596400E-002   0.0000000000000000     
   2.4047486333949975E-002   4.1699206541904024E-002   0.0000000000000000     
   2.5734044539210205E-002   4.6650545313252079E-002   0.0000000000000000     
   2.7373531651380643E-002   5.1807154714640521E-002   0.0000000000000000     
   2.8965947670461283E-002   5.7169034746069387E-002   0.0000000000000000     
   1.9282746674463155E-002   3.6480745536391926E-002   0.0000000000000000     
   2.0800747499102854E-002   4.1235719609737341E-002   0.0000000000000000     
   2.2277097803909088E-002   4.6197042525186721E-002   0.0000000000000000     
   2.3711797588881863E-002   5.1364714282740059E-002   0.0000000000000000     
   2.5104846854021173E-002   5.6738734882397356E-002   0.0000000000000000     
   1.6338012130437635E-002   3.6076808621250858E-002   0.0000000000000000     
   1.7638909630268183E-002   4.0837060042102628E-002   0.0000000000000000     
   1.8904119191151689E-002   4.5805131358890888E-002   0.0000000000000000     
   2.0133640813088154E-002   5.0981022571615658E-002   0.0000000000000000     
   2.1327474496077570E-002   5.6364733680276911E-002   0.0000000000000000     
   1.3479653403523396E-002   3.5741327655173176E-002   0.0000000000000000     
   1.4561972727445966E-002   4.0503227838999886E-002   0.0000000000000000     
   1.5615108700938003E-002   4.5474811814364607E-002   0.0000000000000000     
   1.6639061323999508E-002   5.0656079581267326E-002   0.0000000000000000     
   1.7633830596630481E-002   5.6047031139708048E-002   0.0000000000000000     
   1.0707670493720435E-002   3.5474302638158893E-002   0.0000000000000000     
   1.1569936790636198E-002   4.0234223000429128E-002   0.0000000000000000     
   1.2410066333268030E-002   4.5206083891607858E-002   0.0000000000000000     
   1.3228059121615931E-002   5.0389885311695075E-002   0.0000000000000000     
   1.4023915155679901E-002   5.5785627260690779E-002   0.0000000000000000     
   2.8965947670461283E-002   5.7169034746069387E-002   0.0000000000000000     
   3.0510570453697858E-002   6.2724584900576030E-002   0.0000000000000000     
   3.2006677858336101E-002   6.8462204671197846E-002   0.0000000000000000     
   3.3454269884376012E-002   7.4381894057934786E-002   0.0000000000000000     
   3.4853346531817583E-002   8.0483653060786906E-002   0.0000000000000000     
   2.5104846854021173E-002   5.6738734882397356E-002   0.0000000000000000     
   2.6456122355024082E-002   6.2307376893906946E-002   0.0000000000000000     
   2.7765500847587658E-002   6.8058912887017153E-002   0.0000000000000000     
   2.9032982331711900E-002   7.3993342861727956E-002   0.0000000000000000     
   3.0258566807396817E-002   8.0110666818039425E-002   0.0000000000000000     
   2.1327474496077570E-002   5.6364733680276911E-002   0.0000000000000000     
   2.2485661473390997E-002   6.1944176275885068E-002   0.0000000000000000     
   2.3608242978299495E-002   6.7707261949450551E-002   0.0000000000000000     
   2.4695219010803064E-002   7.3653990700973365E-002   0.0000000000000000     
   2.5746589570901691E-002   7.9784362530453512E-002   0.0000000000000000     
   1.7633830596630481E-002   5.6047031139708048E-002   0.0000000000000000     
   1.8599187808798618E-002   6.1634983046510418E-002   0.0000000000000000     
   1.9534904250471618E-002   6.7407251858498052E-002   0.0000000000000000     
   2.0440979921649480E-002   7.3363837575670984E-002   0.0000000000000000     
   2.1317414822332209E-002   7.9504740198029195E-002   0.0000000000000000     
   1.4023915155679901E-002   5.5785627260690779E-002   0.0000000000000000     
   1.4796701361246934E-002   6.1379797205782981E-002   0.0000000000000000     
   1.5545484664104024E-002   6.7158882614159657E-002   0.0000000000000000     
   1.6270265064251169E-002   7.3122883485820814E-002   0.0000000000000000     
   1.6971042561688375E-002   7.9271799820766445E-002   0.0000000000000000     
   3.4853346531817583E-002   8.0483653060786906E-002   0.0000000000000000     
   3.6201353801028735E-002   8.6754882537592448E-002   0.0000000000000000     
   3.7495737692377365E-002   9.3182983346189630E-002   0.0000000000000000     
   3.8736498205863487E-002   9.9767955486578505E-002   0.0000000000000000     
   3.9923635341487081E-002  0.10650979895875902        0.0000000000000000     
   3.0258566807396817E-002   8.0110666818039425E-002   0.0000000000000000     
   3.1439425332184655E-002   8.6397906719076281E-002   0.0000000000000000     
   3.2572728963617695E-002   9.2842084527963414E-002   0.0000000000000000     
   3.3658477701695937E-002   9.9443200244700797E-002   0.0000000000000000     
   3.4696671546419373E-002  0.10620125386928846        0.0000000000000000     
   2.5746589570901691E-002   7.9784362530453512E-002   0.0000000000000000     
   2.6759570375510296E-002   8.6085101260204799E-002   0.0000000000000000     
   2.7731377141543806E-002   9.2542930712541119E-002   0.0000000000000000     
   2.8662009869002213E-002   9.9157850887462443E-002   0.0000000000000000     
   2.9551468557885520E-002  0.10592986178496877        0.0000000000000000     
   2.1317414822332209E-002   7.9504740198029195E-002   0.0000000000000000     
   2.2161788931005660E-002   8.5816466160977989E-002   0.0000000000000000     
   2.2971682226155695E-002   9.2285521899922729E-002   0.0000000000000000     
   2.3747094707782315E-002   9.8911907414863429E-002   0.0000000000000000     
   2.4488026375885520E-002  0.10569562270580002        0.0000000000000000     
   1.6971042561688375E-002   7.9271799820766445E-002   0.0000000000000000     
   1.7646080998670741E-002   8.5592001421395836E-002   0.0000000000000000     
   1.8293644217453362E-002   9.2069858090108259E-002   0.0000000000000000     
   1.8913732218036244E-002   9.8705369826903699E-002   0.0000000000000000     
   1.9506345000419378E-002  0.10549853663178217        0.0000000000000000     
   3.9923635341487081E-002  0.10650979895875902        0.0000000000000000     
   4.1061989789337332E-002  0.11339746594493472        0.0000000000000000     
   4.2156402239503406E-002  0.12041990862730909        0.0000000000000000     
   4.3206872691985310E-002  0.12757712700588214        0.0000000000000000     
   4.4213401146783037E-002  0.13486912108065388        0.0000000000000000     
   3.4696671546419373E-002  0.10620125386928846        0.0000000000000000     
   3.5691755665995563E-002  0.11310662436090481        0.0000000000000000     
   3.6648175228632070E-002  0.12014969067872841        0.0000000000000000     
   3.7565930234328901E-002  0.12733045282275920        0.0000000000000000     
   3.8445020683086056E-002  0.13464891079299723        0.0000000000000000     
   2.9551468557885520E-002  0.10592986178496877        0.0000000000000000     
   3.0403645140561968E-002  0.11285023340745448        0.0000000000000000     
   3.1222431549399812E-002  0.11991023575731392        0.0000000000000000     
   3.2007827784399048E-002  0.12710986883454709        0.0000000000000000     
   3.2759833845559680E-002  0.13444913263915395        0.0000000000000000     
   2.4488026375885520E-002  0.10569562270580002        0.0000000000000000     
   2.5197658213036541E-002  0.11262829308458369        0.0000000000000000     
   2.5879171201806619E-002  0.11970154386306561        0.0000000000000000     
   2.6532565342195745E-002  0.12691537504124573        0.0000000000000000     
   2.7157840634203928E-002  0.13426978661912409        0.0000000000000000     
   1.9506345000419378E-002  0.10549853663178217        0.0000000000000000     
   2.0073794883419295E-002  0.11244080339229250        0.0000000000000000     
   2.0618394185852498E-002  0.11952361499598350        0.0000000000000000     
   2.1140142907718994E-002  0.12674697144285521        0.0000000000000000     
   2.1639041049018783E-002  0.13411087273290759        0.0000000000000000     
   4.4213401146783037E-002  0.13486912108065388        0.0000000000000000     
   4.5166689853178107E-002  0.14228449334569931        0.0000000000000000     
   4.6057441060452002E-002  0.14981184629509356        0.0000000000000000     
   4.6885654768604713E-002  0.15745117992883659        0.0000000000000000     
   4.7651330977636269E-002  0.16520249424692840        0.0000000000000000     
   3.8445020683086056E-002  0.13464891079299723        0.0000000000000000     
   3.9276530594520763E-002  0.14209597196891000        0.0000000000000000     
   4.0051543988250275E-002  0.14966254372996524        0.0000000000000000     
   4.0770060864274579E-002  0.15734862607616285        0.0000000000000000     
   4.1432081222593689E-002  0.16515421900750282        0.0000000000000000     
   3.2759833845559680E-002  0.13444913263915395        0.0000000000000000     
   3.3470400958580976E-002  0.14191874823295747        0.0000000000000000     
   3.4131480349162205E-002  0.14950943667778055        0.0000000000000000     
   3.4743072017303374E-002  0.15722119797362319        0.0000000000000000     
   3.5305175963004476E-002  0.16505403212048536        0.0000000000000000     
   2.7157840634203928E-002  0.13426978661912409        0.0000000000000000     
   2.7748300945358746E-002  0.14175282213784166        0.0000000000000000     
   2.8297250143187805E-002  0.14935252513853947        0.0000000000000000     
   2.8804688227691104E-002  0.15706889562121762        0.0000000000000000     
   2.9270615198868637E-002  0.16490193358587599        0.0000000000000000     
   2.1639041049018783E-002  0.13411087273290759        0.0000000000000000     
   2.2110230554854074E-002  0.14159819368356258        0.0000000000000000     
   2.2548853370327061E-002  0.14919180911224211        0.0000000000000000     
   2.2954909495437763E-002  0.15689171901894614        0.0000000000000000     
   2.3328398930186161E-002  0.16469792340367473        0.0000000000000000     
   0.0000000000000000        0.0000000000000000        0.0000000000000000     
   8.4171655658389665E-004   1.1100031636447423E-003   0.0000000000000000     
   1.7022207067631393E-003   2.5981449781673099E-003   0.0000000000000000     
   2.5815124505377276E-003   4.4644254435677027E-003   0.0000000000000000     
   3.4795917879076621E-003   6.7088445598459199E-003   0.0000000000000000     
   0.0000000000000000        0.0000000000000000        0.0000000000000000     
   6.3389864723468960E-004   1.0939668370137346E-003   0.0000000000000000     
   1.2781655139572422E-003   2.5620378616088096E-003   0.0000000000000000     
   1.9328006001676575E-003   4.4042130737852250E-003   0.0000000000000000     
   2.5978039058659353E-003   6.6204924735429830E-003   0.0000000000000000     
   0.0000000000000000        0.0000000000000000        0.0000000000000000     
   4.2434732374957331E-004   1.0825133917101637E-003   0.0000000000000000     
   8.5312268833665904E-004   2.5362491692975239E-003   0.0000000000000000     
   1.2863260937612572E-003   4.3612073327620833E-003   0.0000000000000000     
   1.7239575400233677E-003   6.5573878821038392E-003   0.0000000000000000     
   0.0000000000000000        0.0000000000000000        0.0000000000000000     
   2.1306258612854761E-004   1.0756428277340295E-003   0.0000000000000000     
   4.2709222990138998E-004   2.5207789012334542E-003   0.0000000000000000     
   6.4208893131852715E-004   4.3354082204982757E-003   0.0000000000000000     
   8.5805269037995881E-004   6.5195307855284946E-003   0.0000000000000000     
   0.0000000000000000        0.0000000000000000        0.0000000000000000     
   4.4434371612532943E-008   1.0733551450853320E-003   0.0000000000000000     
   7.4138651434869658E-008   2.5156270574165996E-003   0.0000000000000000     
   8.9112839466928828E-008   4.3268157369938040E-003   0.0000000000000000     
   8.9356935708900190E-008   6.5069211838169431E-003   0.0000000000000000     
   3.4795917879076621E-003   6.7088445598459199E-003   0.0000000000000000     
   4.3882077518468841E-003   9.2941026025748705E-003   0.0000000000000000     
   5.2991093753293351E-003   1.2182899847327455E-002   0.0000000000000000     
   6.2122966583550172E-003   1.5375236294103683E-002   0.0000000000000000     
   7.1277696009239278E-003   1.8871111942903546E-002   0.0000000000000000     
   2.5978039058659353E-003   6.6204924735429830E-003   0.0000000000000000     
   3.2702450191147499E-003   9.1779179117451627E-003   0.0000000000000000     
   3.9471935279767750E-003   1.2043531239254850E-002   0.0000000000000000     
   4.6286494324520103E-003   1.5217332456072047E-002   0.0000000000000000     
   5.3146127325404569E-003   1.8699321562196745E-002   0.0000000000000000     
   1.7239575400233677E-003   6.5573878821038392E-003   0.0000000000000000     
   2.1662388232275222E-003   9.0949332589096449E-003   0.0000000000000000     
   2.6133917394782517E-003   1.1943985904766348E-002   0.0000000000000000     
   3.0654162887755569E-003   1.5104545819673951E-002   0.0000000000000000     
   3.5223124711194374E-003   1.8576613003632454E-002   0.0000000000000000     
   8.5805269037995881E-004   6.5195307855284946E-003   0.0000000000000000     
   1.0761891641852001E-003   9.0451486440683172E-003   0.0000000000000000     
   1.2977040098337657E-003   1.1884263843861952E-002   0.0000000000000000     
   1.5225972273256560E-003   1.5036876384909404E-002   0.0000000000000000     
   1.7508688166608705E-003   1.8502986267210666E-002   0.0000000000000000     
   8.9356935708900190E-008   6.5069211838169431E-003   0.0000000000000000     
   9.6041987784607850E-008   9.0285640672211759E-003   0.0000000000000000     
   1.3033904331726605E-007   1.1864365056541665E-002   0.0000000000000000     
   1.9224810230786073E-007   1.5014324151778403E-002   0.0000000000000000     
   2.8176916475573799E-007   1.8478441352931398E-002   0.0000000000000000     
   7.1277696009239278E-003   1.8871111942903546E-002   0.0000000000000000     
   8.0389752359791046E-003   2.2644545298715769E-002   0.0000000000000000     
   8.9393605964635803E-003   2.6669554866529069E-002   0.0000000000000000     
   9.8289256823773583E-003   3.0946140646343438E-002   0.0000000000000000     
   1.0707670493720435E-002   3.5474302638158893E-002   0.0000000000000000     
   5.3146127325404569E-003   1.8699321562196745E-002   0.0000000000000000     
   5.9981016254425923E-003   2.2462092516191343E-002   0.0000000000000000     
   6.6721343083588980E-003   2.6478239276618225E-002   0.0000000000000000     
   7.3367107812893715E-003   3.0747761843477394E-002   0.0000000000000000     
   7.9918310442340171E-003   3.5270660216768841E-002   0.0000000000000000     
   3.5223124711194374E-003   1.8576613003632454E-002   0.0000000000000000     
   3.9780358594666866E-003   2.2331773244616132E-002   0.0000000000000000     
   4.4265420267740980E-003   2.6341612330599260E-002   0.0000000000000000     
   4.8678309730416707E-003   3.0606130261581842E-002   0.0000000000000000     
   5.3019026982694065E-003   3.5125327037563873E-002   0.0000000000000000     
   1.7508688166608705E-003   1.8502986267210666E-002   0.0000000000000000     
   1.9787779380513863E-003   2.2253587483990131E-002   0.0000000000000000     
   2.2025837517091803E-003   2.6259674028472169E-002   0.0000000000000000     
   2.4222862576342525E-003   3.0521245900656781E-002   0.0000000000000000     
   2.6378854558266039E-003   3.5038303100543969E-002   0.0000000000000000     
   2.8176916475573799E-007   1.8478441352931398E-002   0.0000000000000000     
   3.2786119669137807E-007   2.2227535234313346E-002   0.0000000000000000     
   2.5948316414602015E-007   2.6232424370236953E-002   0.0000000000000000     
   7.6635067118498721E-008   3.0493108760702221E-002   0.0000000000000000     
  -2.2068309439050859E-007   3.5009588405709148E-002   0.0000000000000000     
   1.0707670493720435E-002   3.5474302638158893E-002   0.0000000000000000     
   1.1569936790636198E-002   4.0234223000429128E-002   0.0000000000000000     
   1.2410066333268030E-002   4.5206083891607858E-002   0.0000000000000000     
   1.3228059121615931E-002   5.0389885311695075E-002   0.0000000000000000     
   1.4023915155679901E-002   5.5785627260690779E-002   0.0000000000000000     
   7.9918310442340171E-003   3.5270660216768841E-002   0.0000000000000000     
   8.6345914866534264E-003   4.0027283694728147E-002   0.0000000000000000     
   9.2620884980082023E-003   4.4997981575590880E-002   0.0000000000000000     
   9.8743220782983396E-003   5.0182753859357040E-002   0.0000000000000000     
   1.0471292227523840E-002   5.5581600546026629E-002   0.0000000000000000     
   5.3019026982694065E-003   3.5125327037563873E-002   0.0000000000000000     
   5.7277264823121996E-003   3.9879648090234761E-002   0.0000000000000000     
   6.1442716050249492E-003   4.4849538851283927E-002   0.0000000000000000     
   6.5515380664076528E-003   5.0034999320711378E-002   0.0000000000000000     
   6.9495258664603122E-003   5.5436029498517087E-002   0.0000000000000000     
   2.6378854558266039E-003   3.5038303100543969E-002   0.0000000000000000     
   2.8493417776125161E-003   3.9791316186948970E-002   0.0000000000000000     
   3.0566156543182714E-003   4.4760755718687005E-002   0.0000000000000000     
   3.2597070859438715E-003   4.9946621695758066E-002   0.0000000000000000     
   3.4586160724893139E-003   5.5348914118162167E-002   0.0000000000000000     
  -2.2068309439050859E-007   3.5009588405709148E-002   0.0000000000000000     
  -5.6262744562536257E-007   3.9762287984870762E-002   0.0000000000000000     
  -8.7935411183042399E-007   4.4731632177800101E-002   0.0000000000000000     
  -1.1708630930072649E-006   4.9917620984497126E-002   0.0000000000000000     
  -1.4371543891539881E-006   5.5320254404961869E-002   0.0000000000000000     
   1.4023915155679901E-002   5.5785627260690779E-002   0.0000000000000000     
   1.4796701361246934E-002   6.1379797205782981E-002   0.0000000000000000     
   1.5545484664104024E-002   6.7158882614159657E-002   0.0000000000000000     
   1.6270265064251169E-002   7.3122883485820814E-002   0.0000000000000000     
   1.6971042561688375E-002   7.9271799820766445E-002   0.0000000000000000     
   1.0471292227523840E-002   5.5581600546026629E-002   0.0000000000000000     
   1.1051431485346194E-002   6.1180181996484263E-002   0.0000000000000000     
   1.1613172391426884E-002   6.6964158571614626E-002   0.0000000000000000     
   1.2156514945765914E-002   7.2933530271417676E-002   0.0000000000000000     
   1.2681459148363279E-002   7.9088297095893434E-002   0.0000000000000000     
   6.9495258664603122E-003   5.5436029498517087E-002   0.0000000000000000     
   7.3366075357066442E-003   6.1037700661395800E-002   0.0000000000000000     
   7.7111556046703719E-003   6.6825084086042236E-002   0.0000000000000000     
   8.0731700733514926E-003   7.2798179772456395E-002   0.0000000000000000     
   8.4226509417500046E-003   7.8956987720638278E-002   0.0000000000000000     
   3.4586160724893139E-003   5.5348914118162167E-002   0.0000000000000000     
   3.6522295123282899E-003   6.0952353200517569E-002   0.0000000000000000     
   3.8394343038344872E-003   6.6741659157442498E-002   0.0000000000000000     
   4.0202304470079086E-003   7.2716831988936956E-002   0.0000000000000000     
   4.1946179418485509E-003   7.8877871695000976E-002   0.0000000000000000     
  -1.4371543891539881E-006   5.5320254404961869E-002   0.0000000000000000     
  -1.7025847888734857E-006   6.0924139613849557E-002   0.0000000000000000     
  -1.9915110807679996E-006   6.6713883785815387E-002   0.0000000000000000     
  -2.3039332648375839E-006   7.2689486920859372E-002   0.0000000000000000     
  -2.6398513410807751E-006   7.8850949018981514E-002   0.0000000000000000     
   1.6971042561688375E-002   7.9271799820766445E-002   0.0000000000000000     
   1.7646080998670741E-002   8.5592001421395836E-002   0.0000000000000000     
   1.8293644217453362E-002   9.2069858090108259E-002   0.0000000000000000     
   1.8913732218036244E-002   9.8705369826903699E-002   0.0000000000000000     
   1.9506345000419378E-002  0.10549853663178217        0.0000000000000000     
   1.2681459148363279E-002   7.9088297095893434E-002   0.0000000000000000     
   1.3187014328654049E-002   8.5414765350928123E-002   0.0000000000000000     
   1.3672189816073287E-002   9.1899241342407942E-002   0.0000000000000000     
   1.4136985610620989E-002   9.8541725070332931E-002   0.0000000000000000     
   1.4581401712297160E-002  0.10534221653470306        0.0000000000000000     
   8.4226509417500046E-003   7.8956987720638278E-002   0.0000000000000000     
   8.7591566711040948E-003   8.5287816259044594E-002   0.0000000000000000     
   9.0822457226519444E-003   9.1776973716132082E-002   0.0000000000000000     
   9.3919180963935572E-003   9.8424460091900728E-002   0.0000000000000000     
   9.6881737923289277E-003  0.10523027538635055        0.0000000000000000     
   4.1946179418485509E-003   7.8877871695000976E-002   0.0000000000000000     
   4.3625080260208740E-003   8.5211154145745288E-002   0.0000000000000000     
   4.5238119371893374E-003   9.1703055211280665E-002   0.0000000000000000     
   4.6785296753539384E-003   9.8353574891607093E-002   0.0000000000000000     
   4.8266612405146805E-003  0.10516271318672463        0.0000000000000000     
  -2.6398513410807751E-006   7.8850949018981514E-002   0.0000000000000000     
  -2.9316065956104011E-006   8.5184779011030165E-002   0.0000000000000000     
  -3.1115403145364168E-006   9.1677485827853664E-002   0.0000000000000000     
  -3.1796524978594591E-006   9.8329069469452038E-002   0.0000000000000000     
  -3.1359431455798940E-006  0.10513952993582526        0.0000000000000000     
   1.9506345000419378E-002  0.10549853663178217        0.0000000000000000     
   2.0073794883419295E-002  0.11244080339229250        0.0000000000000000     
   2.0618394185852498E-002  0.11952361499598350        0.0000000000000000     
   2.1140142907718994E-002  0.12674697144285521        0.0000000000000000     
   2.1639041049018783E-002  0.13411087273290759        0.0000000000000000     
   1.4581401712297160E-002  0.10534221653470306        0.0000000000000000     
   1.5006890894237268E-002  0.11229166957348237        0.0000000000000000     
   1.5414905929576785E-002  0.11938103802463493        0.0000000000000000     
   1.5805446818315711E-002  0.12661032188816071        0.0000000000000000     
   1.6178513560454050E-002  0.13397952116405973        0.0000000000000000     
   9.6881737923289277E-003  0.10523027538635055        0.0000000000000000     
   9.9717819880175262E-003  0.11218479687105490        0.0000000000000000     
   1.0243511861018824E-002  0.11927840181758721        0.0000000000000000     
   1.0503363411332817E-002  0.12651109022594748        0.0000000000000000     
   1.0751336638959507E-002  0.13388286209613573        0.0000000000000000     
   4.8266612405146805E-003  0.10516271318672463        0.0000000000000000     
   4.9684681647600695E-003  0.11212018528501005        0.0000000000000000     
   5.1042119801786101E-003  0.11921570637484039        0.0000000000000000     
   5.2338926867703077E-003  0.12644927645621556        0.0000000000000000     
   5.3575102845351569E-003  0.13382089552913556        0.0000000000000000     
  -3.1359431455798940E-006  0.10513952993582526        0.0000000000000000     
  -3.0505755351073038E-006  0.11209783481534788        0.0000000000000000     
  -2.9937129438524631E-006  0.11919295169639443        0.0000000000000000     
  -2.9653553718168629E-006  0.12642488057896492        0.0000000000000000     
  -2.9655028189988497E-006  0.13379362146305931        0.0000000000000000     
   2.1639041049018783E-002  0.13411087273290759        0.0000000000000000     
   2.2110230554854074E-002  0.14159819368356258        0.0000000000000000     
   2.2548853370327061E-002  0.14919180911224211        0.0000000000000000     
   2.2954909495437763E-002  0.15689171901894614        0.0000000000000000     
   2.3328398930186161E-002  0.16469792340367473        0.0000000000000000     
   1.6178513560454050E-002  0.13397952116405973        0.0000000000000000     
   1.6531132105222498E-002  0.14146683066127319        0.0000000000000000     
   1.6860328401851754E-002  0.14905044518874233        0.0000000000000000     
   1.7166102450341829E-002  0.15673036474646709        0.0000000000000000     
   1.7448454250692708E-002  0.16450658933444759        0.0000000000000000     
   1.0751336638959507E-002  0.13388286209613573        0.0000000000000000     
   1.0985947914619563E-002  0.14137070086212641        0.0000000000000000     
   1.1205713609033651E-002  0.14895158995789409        0.0000000000000000     
   1.1410633722201776E-002  0.15662552938343882        0.0000000000000000     
   1.1600708254123931E-002  0.16439251913876052        0.0000000000000000     
   5.3575102845351569E-003  0.13382089552913556        0.0000000000000000     
   5.4746779830452692E-003  0.14130980428612230        0.0000000000000000     
   5.5850089918727530E-003  0.14889524341969751        0.0000000000000000     
   5.6885033110176068E-003  0.15657721292986135        0.0000000000000000     
   5.7851609404798296E-003  0.16435571281661354        0.0000000000000000     
  -2.9655028189988497E-006  0.13379362146305931        0.0000000000000000     
  -2.6776895003795091E-006  0.14128414093326080        0.0000000000000000     
  -1.7854496309399268E-006  0.14888140557415255        0.0000000000000000     
  -2.8878321067923526E-007  0.15658541538573448        0.0000000000000000     
   1.8123097604025654E-006  0.16439617036800669        0.0000000000000000     
   0.0000000000000000        0.0000000000000000        0.0000000000000000     
   4.4434371612532943E-008   1.0733551450853320E-003   0.0000000000000000     
   7.4138651434869658E-008   2.5156270574165996E-003   0.0000000000000000     
   8.9112839466928828E-008   4.3268157369938040E-003   0.0000000000000000     
   8.9356935708900190E-008   6.5069211838169431E-003   0.0000000000000000     
   0.0000000000000000        0.0000000000000000        0.0000000000000000     
  -2.1297644334788206E-004   1.0756466579469983E-003   0.0000000000000000     
  -4.2694670733300650E-004   2.5207878925504221E-003   0.0000000000000000     
  -6.4191079195537290E-004   4.3354237038102711E-003   0.0000000000000000     
  -8.5786869721498206E-004   6.5195540917265460E-003   0.0000000000000000     
   0.0000000000000000        0.0000000000000000        0.0000000000000000     
  -4.2426935885658644E-004   1.0825136805019547E-003   0.0000000000000000     
  -8.5298542997173422E-004   2.5362556613383828E-003   0.0000000000000000     
  -1.2861482133454431E-003   4.3612259425092840E-003   0.0000000000000000     
  -1.7237577089777138E-003   6.5574245240146581E-003   0.0000000000000000     
   0.0000000000000000        0.0000000000000000        0.0000000000000000     
  -6.3383431215450071E-004   1.0939562127502012E-003   0.0000000000000000     
  -1.2780420292647487E-003   2.5620303637804817E-003   0.0000000000000000     
  -1.9326231513307434E-003   4.4042224530908419E-003   0.0000000000000000     
  -2.5975776783524859E-003   6.6205324806812805E-003   0.0000000000000000     
   0.0000000000000000        0.0000000000000000        0.0000000000000000     
  -8.4167130324162452E-004   1.1099742546917379E-003   0.0000000000000000     
  -1.7021165052120495E-003   2.5981119998767194E-003   0.0000000000000000     
  -2.5813356059112744E-003   4.4644132355549449E-003   0.0000000000000000     
  -3.4793286053392989E-003   6.7088779617264140E-003   0.0000000000000000     
   8.9356935708900190E-008   6.5069211838169431E-003   0.0000000000000000     
   9.6041987784607850E-008   9.0285640672211759E-003   0.0000000000000000     
   1.3033904331726605E-007   1.1864365056541665E-002   0.0000000000000000     
   1.9224810230786073E-007   1.5014324151778403E-002   0.0000000000000000     
   2.8176916475573799E-007   1.8478441352931398E-002   0.0000000000000000     
  -8.5786869721498206E-004   6.5195540917265460E-003   0.0000000000000000     
  -1.0759872270047429E-003   9.0451759612637829E-003   0.0000000000000000     
  -1.2974331852175650E-003   1.1884286217386521E-002   0.0000000000000000     
  -1.5222065718534493E-003   1.5036884860094760E-002   0.0000000000000000     
  -1.7503073869123945E-003   1.8502971889388500E-002   0.0000000000000000     
  -1.7237577089777138E-003   6.5574245240146581E-003   0.0000000000000000     
  -2.1660073264323991E-003   9.0949807590916896E-003   0.0000000000000000     
  -2.6130904752733534E-003   1.1944024000977565E-002   0.0000000000000000     
  -3.0650071555005758E-003   1.5104554249672284E-002   0.0000000000000000     
  -3.5217573671140682E-003   1.8576571505175842E-002   0.0000000000000000     
  -2.5975776783524859E-003   6.6205324806812805E-003   0.0000000000000000     
  -3.2699642562951845E-003   9.1779784607048977E-003   0.0000000000000000     
  -3.9468415311240462E-003   1.2043578407314797E-002   0.0000000000000000     
  -4.6282095028390736E-003   1.5217332320510975E-002   0.0000000000000000     
  -5.3140681714402655E-003   1.8699240200293434E-002   0.0000000000000000     
  -3.4793286053392989E-003   6.7088779617264140E-003   0.0000000000000000     
  -4.3878580165930972E-003   9.2941690661034089E-003   0.0000000000000000     
  -5.2986863527696463E-003   1.2182949436398216E-002   0.0000000000000000     
  -6.2118136138689418E-003   1.5375219072610836E-002   0.0000000000000000     
  -7.1272397998909864E-003   1.8870977974741264E-002   0.0000000000000000     
   2.8176916475573799E-007   1.8478441352931398E-002   0.0000000000000000     
   3.2786119669137807E-007   2.2227535234313346E-002   0.0000000000000000     
   2.5948316414602015E-007   2.6232424370236953E-002   0.0000000000000000     
   7.6635067118498721E-008   3.0493108760702221E-002   0.0000000000000000     
  -2.2068309439050859E-007   3.5009588405709148E-002   0.0000000000000000     
  -1.7503073869123945E-003   1.8502971889388500E-002   0.0000000000000000     
  -1.9781246289985758E-003   2.2253599539804648E-002   0.0000000000000000     
  -2.2020472967161668E-003   2.6259820045880101E-002   0.0000000000000000     
  -2.4220753900651678E-003   3.0521633407614882E-002   0.0000000000000000     
  -2.6382089090455784E-003   3.5039039625008969E-002   0.0000000000000000     
  -3.5217573671140682E-003   1.8576571505175842E-002   0.0000000000000000     
  -3.9773897904355942E-003   2.2331763444682903E-002   0.0000000000000000     
  -4.4259531057869181E-003   2.6341817745388112E-002   0.0000000000000000     
  -4.8674473131680414E-003   3.0606734407291464E-002   0.0000000000000000     
  -5.3018724125789623E-003   3.5126513430392983E-002   0.0000000000000000     
  -5.3140681714402655E-003   1.8699240200293434E-002   0.0000000000000000     
  -5.9974676231143642E-003   2.2462026948948114E-002   0.0000000000000000     
  -6.6714579440481092E-003   2.6478417468760965E-002   0.0000000000000000     
  -7.3360391342415041E-003   3.0748411759731992E-002   0.0000000000000000     
  -7.9912111936945446E-003   3.5272009821861176E-002   0.0000000000000000     
  -7.1272397998909864E-003   1.8870977974741264E-002   0.0000000000000000     
  -8.0383581270348850E-003   2.2644390052600286E-002   0.0000000000000000     
  -8.9385618114997383E-003   2.6669619215998676E-002   0.0000000000000000     
  -9.8278508532855524E-003   3.0946665464936445E-002   0.0000000000000000     
  -1.0706225252392322E-002   3.5475528799413583E-002   0.0000000000000000     
  -2.2068309439050859E-007   3.5009588405709148E-002   0.0000000000000000     
  -5.6262744562536257E-007   3.9762287984870762E-002   0.0000000000000000     
  -8.7935411183042399E-007   4.4731632177800101E-002   0.0000000000000000     
  -1.1708630930072649E-006   4.9917620984497126E-002   0.0000000000000000     
  -1.4371543891539881E-006   5.5320254404961869E-002   0.0000000000000000     
  -2.6382089090455784E-003   3.5039039625008969E-002   0.0000000000000000     
  -2.8502751617515091E-003   3.9792348680523164E-002   0.0000000000000000     
  -3.0581014562770696E-003   4.4761870556618295E-002   0.0000000000000000     
  -3.2616877926222596E-003   4.9947605253294315E-002   0.0000000000000000     
  -3.4610341707870789E-003   5.5349552770551244E-002   0.0000000000000000     
  -5.3018724125789623E-003   3.5126513430392983E-002   0.0000000000000000     
  -5.7280842541944221E-003   3.9881283470429185E-002   0.0000000000000000     
  -6.1449386881891558E-003   4.4851173183136646E-002   0.0000000000000000     
  -6.5524357145631644E-003   5.0036182568515358E-002   0.0000000000000000     
  -6.9505753333164487E-003   5.5436311626565329E-002   0.0000000000000000     
  -7.9912111936945446E-003   3.5272009821861176E-002   0.0000000000000000     
  -8.6339899047743647E-003   4.0029092354588826E-002   0.0000000000000000     
  -9.2613910498480900E-003   4.4999540057355202E-002   0.0000000000000000     
  -9.8734146289157255E-003   5.0183352930160290E-002   0.0000000000000000     
  -1.0470060641977263E-002   5.5580530973004104E-002   0.0000000000000000     
  -1.0706225252392322E-002   3.5475528799413583E-002   0.0000000000000000     
  -1.1567992113491335E-002   4.0235775333002079E-002   0.0000000000000000     
  -1.2407458541253871E-002   4.5206971179273914E-002   0.0000000000000000     
  -1.3224624535679933E-002   5.0389116338229088E-002   0.0000000000000000     
  -1.4019490096769524E-002   5.5782210809867588E-002   0.0000000000000000     
  -1.4371543891539881E-006   5.5320254404961869E-002   0.0000000000000000     
  -1.7025847888734857E-006   6.0924139613849557E-002   0.0000000000000000     
  -1.9915110807679996E-006   6.6713883785815387E-002   0.0000000000000000     
  -2.3039332648375839E-006   7.2689486920859372E-002   0.0000000000000000     
  -2.6398513410807751E-006   7.8850949018981514E-002   0.0000000000000000     
  -3.4610341707870789E-003   5.5349552770551244E-002   0.0000000000000000     
  -3.6550807502672392E-003   6.0952505509923233E-002   0.0000000000000000     
  -3.8427676905584498E-003   6.6741255872944397E-002   0.0000000000000000     
  -4.0240949916607116E-003   7.2715803859614736E-002   0.0000000000000000     
  -4.1990626535740212E-003   7.8876149469934251E-002   0.0000000000000000     
  -6.9505753333164487E-003   5.5436311626565329E-002   0.0000000000000000     
  -7.3377969787292007E-003   6.1036896497270024E-002   0.0000000000000000     
  -7.7125400850816097E-003   6.6823273320612955E-002   0.0000000000000000     
  -8.0748046523736790E-003   7.2795442096594123E-002   0.0000000000000000     
  -8.4245906806054028E-003   7.8953402825213501E-002   0.0000000000000000     
  -1.0470060641977263E-002   5.5580530973004104E-002   0.0000000000000000     
  -1.1049851270174759E-002   6.1177312575889937E-002   0.0000000000000000     
  -1.1611308694650250E-002   6.6959936128821076E-002   0.0000000000000000     
  -1.2154432915403737E-002   7.2928401631797535E-002   0.0000000000000000     
  -1.2679223932435226E-002   7.9082709084819278E-002   0.0000000000000000     
  -1.4019490096769524E-002   5.5782210809867588E-002   0.0000000000000000     
  -1.4791243624603906E-002   6.1373753745782959E-002   0.0000000000000000     
  -1.5539073519264366E-002   6.7151244297568774E-002   0.0000000000000000     
  -1.6262979780750891E-002   7.3114682465224970E-002   0.0000000000000000     
  -1.6962962409063486E-002   7.9264068248751568E-002   0.0000000000000000     
  -2.6398513410807751E-006   7.8850949018981514E-002   0.0000000000000000     
  -2.9316065956104011E-006   8.5184779011030165E-002   0.0000000000000000     
  -3.1115403145364168E-006   9.1677485827853664E-002   0.0000000000000000     
  -3.1796524978594591E-006   9.8329069469452038E-002   0.0000000000000000     
  -3.1359431455798940E-006  0.10513952993582526        0.0000000000000000     
  -4.1990626535740212E-003   7.8876149469934251E-002   0.0000000000000000     
  -4.3674558788613068E-003   8.5208855719949114E-002   0.0000000000000000     
  -4.5290598700854882E-003   9.1700485625705541E-002   0.0000000000000000     
  -4.6838746272465656E-003   9.8351039187203462E-002   0.0000000000000000     
  -4.8319001503445399E-003  0.10516051640444293        0.0000000000000000     
  -8.4245906806054028E-003   7.8953402825213501E-002   0.0000000000000000     
  -8.7613584428921643E-003   8.5283549137552039E-002   0.0000000000000000     
  -9.0845682123493286E-003   9.1772274664690665E-002   0.0000000000000000     
  -9.3942199889769061E-003   9.8419579406629334E-002   0.0000000000000000     
  -9.6903137727748848E-003  0.10522546336336810        0.0000000000000000     
  -1.2679223932435226E-002   7.9082709084819278E-002   0.0000000000000000     
  -1.3184639298688176E-002   8.5408859263838913E-002   0.0000000000000000     
  -1.3669636567106061E-002   9.1892852944809048E-002   0.0000000000000000     
  -1.4134215737688872E-002   9.8534690127729654E-002   0.0000000000000000     
  -1.4578376810436616E-002  0.10533437081260073        0.0000000000000000     
  -1.6962962409063486E-002   7.9264068248751568E-002   0.0000000000000000     
  -1.7637298446249353E-002   8.5584786098809762E-002   0.0000000000000000     
  -1.8284264934355678E-002   9.2062220466060704E-002   0.0000000000000000     
  -1.8903861873382475E-002   9.8696371350504380E-002   0.0000000000000000     
  -1.9496089263329734E-002  0.10548723875214082        0.0000000000000000     
  -3.1359431455798940E-006  0.10513952993582526        0.0000000000000000     
  -3.0505755351073038E-006  0.11209783481534788        0.0000000000000000     
  -2.9937129438524631E-006  0.11919295169639443        0.0000000000000000     
  -2.9653553718168629E-006  0.12642488057896492        0.0000000000000000     
  -2.9655028189988497E-006  0.13379362146305931        0.0000000000000000     
  -4.8319001503445399E-003  0.10516051640444293        0.0000000000000000     
  -4.9735307364285521E-003  0.11211741684061460        0.0000000000000000     
  -5.1091606825477446E-003  0.11921024005890901        0.0000000000000000     
  -5.2387899887021225E-003  0.12643898605932621        0.0000000000000000     
  -5.3624186548916807E-003  0.13380365484186627        0.0000000000000000     
  -9.6903137727748848E-003  0.10522546336336810        0.0000000000000000     
  -9.9737288214808185E-003  0.11217860273935644        0.0000000000000000     
  -1.0245344392832251E-002  0.11926767373904380        0.0000000000000000     
  -1.0505160486829179E-002  0.12649267636243025        0.0000000000000000     
  -1.0753177103471605E-002  0.13385361060951573        0.0000000000000000     
  -1.4578376810436616E-002  0.10533437081260073        0.0000000000000000     
  -1.5003644830691904E-002  0.11228139251157340        0.0000000000000000     
  -1.5411544843797363E-002  0.11936525273679881        0.0000000000000000     
  -1.5802076849752981E-002  0.12658595148827692        0.0000000000000000     
  -1.6175240848558772E-002  0.13394348876600776        0.0000000000000000     
  -1.9496089263329734E-002  0.10548723875214082        0.0000000000000000     
  -2.0063278764061814E-002  0.11242578615726552        0.0000000000000000     
  -2.0607762035443084E-002  0.11950297705217398        0.0000000000000000     
  -2.1129539077473541E-002  0.12671881143686625        0.0000000000000000     
  -2.1628609890153184E-002  0.13407328931134233        0.0000000000000000     
  -2.9655028189988497E-006  0.13379362146305931        0.0000000000000000     
  -2.6776895003795091E-006  0.14128414093326080        0.0000000000000000     
  -1.7854496309399268E-006  0.14888140557415255        0.0000000000000000     
  -2.8878321067923526E-007  0.15658541538573448        0.0000000000000000     
   1.8123097604025654E-006  0.16439617036800669        0.0000000000000000     
  -5.3624186548916807E-003  0.13380365484186627        0.0000000000000000     
  -5.4790734967746146E-003  0.14129489315781876        0.0000000000000000     
  -5.5877813300091251E-003  0.14890334775847341        0.0000000000000000     
  -5.6885421545952077E-003  0.15662901864383016        0.0000000000000000     
  -5.7813559705328661E-003  0.16447190581388912        0.0000000000000000     
  -1.0753177103471605E-002  0.13385361060951573        0.0000000000000000     
  -1.0987463832534666E-002  0.14134324331407289        0.0000000000000000     
  -1.1206090263793503E-002  0.14895434130987439        0.0000000000000000     
  -1.1409056397248110E-002  0.15668690459692008        0.0000000000000000     
  -1.1596362232898495E-002  0.16454093317521010        0.0000000000000000     
  -1.6175240848558772E-002  0.13394348876600776        0.0000000000000000     
  -1.6527848696780530E-002  0.14142919140202329        0.0000000000000000     
  -1.6856712250984066E-002  0.14903438622835544        0.0000000000000000     
  -1.7161831511169387E-002  0.15675907324500424        0.0000000000000000     
  -1.7443206477336482E-002  0.16460325245196969        0.0000000000000000     
  -2.1628609890153184E-002  0.13407328931134233        0.0000000000000000     
  -2.2100228089512210E-002  0.14155273742166982        0.0000000000000000     
  -2.2539647291580832E-002  0.14914348251391663        0.0000000000000000     
  -2.2946867496359036E-002  0.15684552458808260        0.0000000000000000     
  -2.3321888703846830E-002  0.16465886364416782        0.0000000000000000     
   0.0000000000000000        0.0000000000000000        0.0000000000000000     
  -8.4167130324162452E-004   1.1099742546917379E-003   0.0000000000000000     
  -1.7021165052120495E-003   2.5981119998767194E-003   0.0000000000000000     
  -2.5813356059112744E-003   4.4644132355549449E-003   0.0000000000000000     
  -3.4793286053392989E-003   6.7088779617264140E-003   0.0000000000000000     
   0.0000000000000000        0.0000000000000000        0.0000000000000000     
  -1.0566934156590888E-003   1.1341316386258913E-003   0.0000000000000000     
  -2.1397578649403393E-003   2.6503526555604769E-003   0.0000000000000000     
  -3.2491933478437504E-003   4.5486630508037567E-003   0.0000000000000000     
  -4.3849998643693232E-003   6.8290628243557298E-003   0.0000000000000000     
   0.0000000000000000        0.0000000000000000        0.0000000000000000     
  -1.2878137329480235E-003   1.1699921968519880E-003   0.0000000000000000     
  -2.6055151155763199E-003   2.7246044167651348E-003   0.0000000000000000     
  -3.9531041478848899E-003   4.6638366597394395E-003   0.0000000000000000     
  -5.3305808298737328E-003   6.9876889257749044E-003   0.0000000000000000     
   0.0000000000000000        0.0000000000000000        0.0000000000000000     
  -1.5350322551084289E-003   1.2175559293700281E-003   0.0000000000000000     
  -3.0993882571199926E-003   2.8208672834906931E-003   0.0000000000000000     
  -4.6930680060346900E-003   4.8099340623619950E-003   0.0000000000000000     
  -6.3160715018525243E-003   7.1847562659839324E-003   0.0000000000000000     
   0.0000000000000000        0.0000000000000000        0.0000000000000000     
  -1.7983489821403048E-003   1.2768228361800117E-003   0.0000000000000000     
  -3.6213772895713563E-003   2.9391412557371525E-003   0.0000000000000000     
  -5.4690849222931550E-003   4.9869552586714232E-003   0.0000000000000000     
  -7.3414718803057003E-003   7.4202648449828209E-003   0.0000000000000000     
  -3.4793286053392989E-003   6.7088779617264140E-003   0.0000000000000000     
  -4.3878580165930972E-003   9.2941690661034089E-003   0.0000000000000000     
  -5.2986863527696463E-003   1.2182949436398216E-002   0.0000000000000000     
  -6.2118136138689418E-003   1.5375219072610836E-002   0.0000000000000000     
  -7.1272397998909864E-003   1.8870977974741264E-002   0.0000000000000000     
  -4.3849998643693232E-003   6.8290628243557298E-003   0.0000000000000000     
  -5.5341939354663968E-003   9.4495392192650435E-003   0.0000000000000000     
  -6.6837920820843099E-003   1.2368079478580346E-002   0.0000000000000000     
  -7.8337943042230598E-003   1.5584683602301632E-002   0.0000000000000000     
  -8.9842006018826508E-003   1.9099351590428904E-002   0.0000000000000000     
  -5.3305808298737328E-003   6.9876889257749044E-003   0.0000000000000000     
  -6.7234773410553379E-003   9.6500755641676251E-003   0.0000000000000000     
  -8.1173258609421994E-003   1.2604910924213699E-002   0.0000000000000000     
  -9.5121263895343120E-003   1.5852195005913134E-002   0.0000000000000000     
  -1.0907878926831680E-002   1.9391927809265914E-002   0.0000000000000000     
  -6.3160715018525243E-003   7.1847562659839324E-003   0.0000000000000000     
  -7.9557082333599205E-003   9.8957781008111485E-003   0.0000000000000000     
  -9.5992876893433148E-003   1.2893443773298284E-002   0.0000000000000000     
  -1.1246809869802695E-002   1.6177753283445333E-002   0.0000000000000000     
  -1.2898274774738077E-002   1.9748706631252305E-002   0.0000000000000000     
  -7.3414718803057003E-003   7.4202648449828209E-003   0.0000000000000000     
  -9.2308866123801472E-003   1.0186646829195622E-002   0.0000000000000000     
  -1.1129677567287652E-002   1.3233678025834094E-002   0.0000000000000000     
  -1.3037844745028216E-002   1.6561358434898244E-002   0.0000000000000000     
  -1.4955388145601836E-002   2.0169688056388066E-002   0.0000000000000000     
  -7.1272397998909864E-003   1.8870977974741264E-002   0.0000000000000000     
  -8.0383581270348850E-003   2.2644390052600286E-002   0.0000000000000000     
  -8.9385618114997383E-003   2.6669619215998676E-002   0.0000000000000000     
  -9.8278508532855524E-003   3.0946665464936445E-002   0.0000000000000000     
  -1.0706225252392322E-002   3.5475528799413583E-002   0.0000000000000000     
  -8.9842006018826508E-003   1.9099351590428904E-002   0.0000000000000000     
  -1.0127992017824404E-002   2.2887306990307405E-002   0.0000000000000000     
  -1.1258149594809639E-002   2.6923773349282400E-002   0.0000000000000000     
  -1.2374673332838364E-002   3.1208750667353870E-002   0.0000000000000000     
  -1.3477563231910569E-002   3.5742238944521824E-002   0.0000000000000000     
  -1.0907878926831680E-002   1.9391927809265914E-002   0.0000000000000000     
  -1.2294300011110168E-002   2.3199231996737492E-002   0.0000000000000000     
  -1.3661106180645649E-002   2.7249230230793290E-002   0.0000000000000000     
  -1.5008297435438106E-002   3.1541922511433305E-002   0.0000000000000000     
  -1.6335873775487560E-002   3.6077308838657542E-002   0.0000000000000000     
  -1.2898274774738077E-002   1.9748706631252305E-002   0.0000000000000000     
  -1.4537282106892185E-002   2.3580165071890521E-002   0.0000000000000000     
  -1.6147431569007754E-002   2.7645989860531347E-002   0.0000000000000000     
  -1.7728723161084790E-002   3.1946180997174750E-002   0.0000000000000000     
  -1.9281156883123294E-002   3.6480738481820749E-002   0.0000000000000000     
  -1.4955388145601836E-002   2.0169688056388066E-002   0.0000000000000000     
  -1.6856938305170443E-002   2.4030106215766522E-002   0.0000000000000000     
  -1.8717125759895967E-002   2.8114052238496567E-002   0.0000000000000000     
  -2.0535950509778408E-002   3.2421526124578194E-002   0.0000000000000000     
  -2.2313412554817766E-002   3.6952527874011425E-002   0.0000000000000000     
  -1.0706225252392322E-002   3.5475528799413583E-002   0.0000000000000000     
  -1.1567992113491335E-002   4.0235775333002079E-002   0.0000000000000000     
  -1.2407458541253871E-002   4.5206971179273914E-002   0.0000000000000000     
  -1.3224624535679933E-002   5.0389116338229088E-002   0.0000000000000000     
  -1.4019490096769524E-002   5.5782210809867588E-002   0.0000000000000000     
  -1.3477563231910569E-002   3.5742238944521824E-002   0.0000000000000000     
  -1.4558956234119120E-002   4.0504274526617728E-002   0.0000000000000000     
  -1.5610989281556865E-002   4.5474893759473028E-002   0.0000000000000000     
  -1.6633662374223812E-002   5.0654096643087738E-002   0.0000000000000000     
  -1.7626975512119957E-002   5.6041883177461838E-002   0.0000000000000000     
  -1.6335873775487560E-002   3.6077308838657542E-002   0.0000000000000000     
  -1.7635747620431505E-002   4.0837532056384532E-002   0.0000000000000000     
  -1.8899831389907439E-002   4.5804735008532750E-002   0.0000000000000000     
  -2.0128125083915364E-002   5.0978917695102210E-002   0.0000000000000000     
  -2.1320628702455290E-002   5.6360080116092927E-002   0.0000000000000000     
  -1.9281156883123294E-002   3.6480738481820749E-002   0.0000000000000000     
  -2.0798366272428485E-002   4.1235547922302475E-002   0.0000000000000000     
  -2.2273984866305586E-002   4.6196494926453065E-002   0.0000000000000000     
  -2.3708012664754599E-002   5.1363579494272518E-002   0.0000000000000000     
  -2.5100449667775530E-002   5.6736801625760842E-002   0.0000000000000000     
  -2.2313412554817766E-002   3.6952527874011425E-002   0.0000000000000000     
  -2.4046812190110060E-002   4.1698322124371578E-002   0.0000000000000000     
  -2.5733449710751307E-002   4.6650173513233986E-002   0.0000000000000000     
  -2.7373325116741506E-002   5.1808082040598662E-002   0.0000000000000000     
  -2.8966438408080664E-002   5.7172047706465598E-002   0.0000000000000000     
  -1.4019490096769524E-002   5.5782210809867588E-002   0.0000000000000000     
  -1.4791243624603906E-002   6.1373753745782959E-002   0.0000000000000000     
  -1.5539073519264366E-002   6.7151244297568774E-002   0.0000000000000000     
  -1.6262979780750891E-002   7.3114682465224970E-002   0.0000000000000000     
  -1.6962962409063486E-002   7.9264068248751568E-002   0.0000000000000000     
  -1.7626975512119957E-002   5.6041883177461838E-002   0.0000000000000000     
  -1.8590825452735597E-002   6.1626856106480596E-002   0.0000000000000000     
  -1.9525108953561035E-002   6.7397618174029256E-002   0.0000000000000000     
  -2.0429826014596263E-002   7.3354169380107845E-002   0.0000000000000000     
  -2.1304976635841293E-002   7.9496509724716308E-002   0.0000000000000000     
  -2.1320628702455290E-002   5.6360080116092927E-002   0.0000000000000000     
  -2.2477448165288759E-002   6.1937255757514333E-002   0.0000000000000000     
  -2.3598689392177324E-002   6.7699478105375896E-002   0.0000000000000000     
  -2.4684352383120993E-002   7.3646747159677575E-002   0.0000000000000000     
  -2.5734437138119751E-002   7.9779062920419419E-002   0.0000000000000000     
  -2.5100449667775530E-002   5.6736801625760842E-002   0.0000000000000000     
  -2.6451111762263398E-002   6.2304952698884163E-002   0.0000000000000000     
  -2.7759814835113247E-002   6.8056824091608611E-002   0.0000000000000000     
  -2.9026558886325063E-002   7.3992415803934189E-002   0.0000000000000000     
  -3.0251343915898860E-002   8.0111727835860874E-002   0.0000000000000000     
  -2.8966438408080664E-002   5.7172047706465598E-002   0.0000000000000000     
  -3.0511816243659513E-002   6.2729946930590100E-002   0.0000000000000000     
  -3.2008485282368791E-002   6.8469656132727444E-002   0.0000000000000000     
  -3.3456445524208483E-002   7.4391175312877644E-002   0.0000000000000000     
  -3.4855696969178618E-002   8.0494504471040715E-002   0.0000000000000000     
  -1.6962962409063486E-002   7.9264068248751568E-002   0.0000000000000000     
  -1.7637298446249353E-002   8.5584786098809762E-002   0.0000000000000000     
  -1.8284264934355678E-002   9.2062220466060704E-002   0.0000000000000000     
  -1.8903861873382475E-002   9.8696371350504380E-002   0.0000000000000000     
  -1.9496089263329734E-002  0.10548723875214082        0.0000000000000000     
  -2.1304976635841293E-002   7.9496509724716308E-002   0.0000000000000000     
  -2.2148214274360097E-002   8.5809597917284083E-002   0.0000000000000000     
  -2.2957192387216659E-002   9.2278392667240555E-002   0.0000000000000000     
  -2.3731910974410974E-002   9.8902893974585709E-002   0.0000000000000000     
  -2.4472370035943044E-002  0.10568310183931957        0.0000000000000000     
  -2.5734437138119751E-002   7.9779062920419419E-002   0.0000000000000000     
  -2.6746265171804836E-002   8.6081562994081387E-002   0.0000000000000000     
  -2.7717157998807470E-002   9.2539384987143508E-002   0.0000000000000000     
  -2.8647115619127646E-002   9.9152528899605782E-002   0.0000000000000000     
  -2.9536138032765370E-002  0.10592099473146817        0.0000000000000000     
  -3.0251343915898860E-002   8.0111727835860874E-002   0.0000000000000000     
  -3.1431451138583560E-002   8.6400681329201687E-002   0.0000000000000000     
  -3.2564161769128103E-002   9.2845197425769577E-002   0.0000000000000000     
  -3.3649475807532497E-002   9.9445276125564558E-002   0.0000000000000000     
  -3.4687393253796710E-002  0.10620091742858662        0.0000000000000000     
  -3.4855696969178618E-002   8.0494504471040715E-002   0.0000000000000000     
  -3.6203772174696280E-002   8.6766952922644969E-002   0.0000000000000000     
  -3.7498203698178571E-002   9.3195829983118775E-002   0.0000000000000000     
  -3.8738991539625497E-002   9.9781135652462077E-002   0.0000000000000000     
  -3.9926135699037066E-002  0.10652286993067493        0.0000000000000000     
  -1.9496089263329734E-002  0.10548723875214082        0.0000000000000000     
  -2.0063278764061814E-002  0.11242578615726552        0.0000000000000000     
  -2.0607762035443084E-002  0.11950297705217398        0.0000000000000000     
  -2.1129539077473541E-002  0.12671881143686625        0.0000000000000000     
  -2.1628609890153184E-002  0.13407328931134233        0.0000000000000000     
  -2.4472370035943044E-002  0.10568310183931957        0.0000000000000000     
  -2.5181724906168313E-002  0.11261132121742881        0.0000000000000000     
  -2.5863130919442222E-002  0.11967985706490009        0.0000000000000000     
  -2.6516588075764767E-002  0.12688870938173341        0.0000000000000000     
  -2.7142096375135951E-002  0.13423787816792881        0.0000000000000000     
  -2.9536138032765370E-002  0.10592099473146817        0.0000000000000000     
  -3.0388077541589176E-002  0.11283753523305932        0.0000000000000000     
  -3.1206786447467577E-002  0.11989490315470777        0.0000000000000000     
  -3.1992264750400588E-002  0.12709309849641356        0.0000000000000000     
  -3.2744512450388195E-002  0.13443212125817669        0.0000000000000000     
  -3.4687393253796710E-002  0.10620091742858662        0.0000000000000000     
  -3.5682336670324402E-002  0.11310442820415705        0.0000000000000000     
  -3.6638728619519161E-002  0.12014811532159707        0.0000000000000000     
  -3.7556569101380999E-002  0.12733197878090671        0.0000000000000000     
  -3.8435858115909910E-002  0.13465601858208595        0.0000000000000000     
  -3.9926135699037066E-002  0.10652286993067493        0.0000000000000000     
  -4.1064502292373975E-002  0.11341200013072199        0.0000000000000000     
  -4.2158957435596951E-002  0.12043949356556795        0.0000000000000000     
  -4.3209501128705995E-002  0.12760535023521286        0.0000000000000000     
  -4.4216133371701105E-002  0.13490957013965660        0.0000000000000000     
  -2.1628609890153184E-002  0.13407328931134233        0.0000000000000000     
  -2.2100228089512210E-002  0.14155273742166982        0.0000000000000000     
  -2.2539647291580832E-002  0.14914348251391663        0.0000000000000000     
  -2.2946867496359036E-002  0.15684552458808260        0.0000000000000000     
  -2.3321888703846830E-002  0.16465886364416782        0.0000000000000000     
  -2.7142096375135951E-002  0.13423787816792881        0.0000000000000000     
  -2.7733346118420113E-002  0.14170838373713546        0.0000000000000000     
  -2.8284027606481580E-002  0.14928124640300258        0.0000000000000000     
  -2.8794140839320349E-002  0.15695646616553016        0.0000000000000000     
  -2.9263685816936429E-002  0.16473404302471822        0.0000000000000000     
  -3.2744512450388195E-002  0.13443212125817669        0.0000000000000000     
  -3.3455946891194625E-002  0.14189063271254290        0.0000000000000000     
  -3.4118985416584098E-002  0.14944729413205798        0.0000000000000000     
  -3.4733628026556614E-002  0.15710210551672191        0.0000000000000000     
  -3.5299874721112172E-002  0.16485506686653467        0.0000000000000000     
  -3.8435858115909910E-002  0.13465601858208595        0.0000000000000000     
  -3.9268030407835768E-002  0.14209948434789219        0.0000000000000000     
  -4.0044520721888396E-002  0.14964162570108280        0.0000000000000000     
  -4.0765329058067838E-002  0.15728244264165780        0.0000000000000000     
  -4.1430455416374065E-002  0.16502193516961713        0.0000000000000000     
  -4.4216133371701105E-002  0.13490957013965660        0.0000000000000000     
  -4.5169596668343512E-002  0.14233493864318336        0.0000000000000000     
  -4.6060633522394492E-002  0.14986424111007712        0.0000000000000000     
  -4.6889243933854019E-002  0.15749747754033788        0.0000000000000000     
  -4.7655427902722099E-002  0.16523464793396567        0.0000000000000000     
   0.0000000000000000        0.0000000000000000        0.0000000000000000     
  -1.7983489821403048E-003   1.2768228361800117E-003   0.0000000000000000     
  -3.6213772895713563E-003   2.9391412557371525E-003   0.0000000000000000     
  -5.4690849222931550E-003   4.9869552586714232E-003   0.0000000000000000     
  -7.3414718803057003E-003   7.4202648449828209E-003   0.0000000000000000     
   0.0000000000000000        0.0000000000000000        0.0000000000000000     
  -2.0694827066481455E-003   1.3549144025958957E-003   0.0000000000000000     
  -4.1641203174821373E-003   3.0939472175720928E-003   0.0000000000000000     
  -6.2839128325019753E-003   5.2170984449285912E-003   0.0000000000000000     
  -8.4288602517076597E-003   7.7243680846653933E-003   0.0000000000000000     
   0.0000000000000000        0.0000000000000000        0.0000000000000000     
  -2.3401522212364457E-003   1.4589521139316373E-003   0.0000000000000000     
  -4.7202554454040604E-003   3.2998060530630958E-003   0.0000000000000000     
  -7.1403096725028469E-003   5.5225618173943758E-003   0.0000000000000000     
  -9.6003149025328041E-003   8.1272194069254775E-003   0.0000000000000000     
   0.0000000000000000        0.0000000000000000        0.0000000000000000     
  -2.6103575259052055E-003   1.5889359701872368E-003   0.0000000000000000     
  -5.2897826733371289E-003   3.5567177622101605E-003   0.0000000000000000     
  -8.0382754422957704E-003   5.9033453760687742E-003   0.0000000000000000     
  -1.0855835832781133E-002   8.6288188117630733E-003   0.0000000000000000     
   0.0000000000000000        0.0000000000000000        0.0000000000000000     
  -2.8800986206544239E-003   1.7448659713626936E-003   0.0000000000000000     
  -5.8727020012813384E-003   3.8646823450132887E-003   0.0000000000000000     
  -8.9778101418807443E-003   6.3594491209517847E-003   0.0000000000000000     
  -1.2195423042452642E-002   9.2291662991781827E-003   0.0000000000000000     
  -7.3414718803057003E-003   7.4202648449828209E-003   0.0000000000000000     
  -9.2308866123801472E-003   1.0186646829195622E-002   0.0000000000000000     
  -1.1129677567287652E-002   1.3233678025834094E-002   0.0000000000000000     
  -1.3037844745028216E-002   1.6561358434898244E-002   0.0000000000000000     
  -1.4955388145601836E-002   2.0169688056388066E-002   0.0000000000000000     
  -8.4288602517076597E-003   7.7243680846653933E-003   0.0000000000000000     
  -1.0590683643052599E-002   1.0558305803090404E-002   0.0000000000000000     
  -1.2761104074490199E-002   1.3661461266511531E-002   0.0000000000000000     
  -1.4940121546020467E-002   1.7033834474928775E-002   0.0000000000000000     
  -1.7127736057643391E-002   2.0675425428342140E-002   0.0000000000000000     
  -9.6003149025328041E-003   8.1272194069254775E-003   0.0000000000000000     
  -1.2076770490313856E-002   1.1046379076264859E-002   0.0000000000000000     
  -1.4546175790665939E-002   1.4212641080020984E-002   0.0000000000000000     
  -1.7008530803589043E-002   1.7626005418193851E-002   0.0000000000000000     
  -1.9463835529083179E-002   2.1286472090783458E-002   0.0000000000000000     
  -1.0855835832781133E-002   8.6288188117630733E-003   0.0000000000000000     
  -1.3689147154163927E-002   1.1650866648718989E-002   0.0000000000000000     
  -1.6484892715814863E-002   1.4887217466362457E-002   0.0000000000000000     
  -1.9243072517733953E-002   1.8337871264693471E-002   0.0000000000000000     
  -2.1963686559921192E-002   2.2002828043712029E-002   0.0000000000000000     
  -1.2195423042452642E-002   9.2291662991781827E-003   0.0000000000000000     
  -1.5427813634602801E-002   1.2371768520452797E-002   0.0000000000000000     
  -1.8577254849936983E-002   1.5685190425535945E-002   0.0000000000000000     
  -2.1643746688455201E-002   1.9169432014427626E-002   0.0000000000000000     
  -2.4627289150157435E-002   2.2824493287127844E-002   0.0000000000000000     
  -1.4955388145601836E-002   2.0169688056388066E-002   0.0000000000000000     
  -1.6856938305170443E-002   2.4030106215766522E-002   0.0000000000000000     
  -1.8717125759895967E-002   2.8114052238496567E-002   0.0000000000000000     
  -2.0535950509778408E-002   3.2421526124578194E-002   0.0000000000000000     
  -2.2313412554817766E-002   3.6952527874011425E-002   0.0000000000000000     
  -1.7127736057643391E-002   2.0675425428342140E-002   0.0000000000000000     
  -1.9292627903909860E-002   2.4558627931377648E-002   0.0000000000000000     
  -2.1403477379370751E-002   2.8655835788661328E-002   0.0000000000000000     
  -2.3460284484026064E-002   3.2967049000193177E-002   0.0000000000000000     
  -2.5463049217875802E-002   3.7492267565973209E-002   0.0000000000000000     
  -1.9463835529083179E-002   2.1286472090783458E-002   0.0000000000000000     
  -2.1883710201075351E-002   2.5175302721736084E-002   0.0000000000000000     
  -2.4239775053492583E-002   2.9273758934998007E-002   0.0000000000000000     
  -2.6532030086334864E-002   3.3581840730569218E-002   0.0000000000000000     
  -2.8760475299602205E-002   3.8099548108449725E-002   0.0000000000000000     
  -2.1963686559921192E-002   2.2002828043712029E-002   0.0000000000000000     
  -2.4630185196666914E-002   2.5880130586841837E-002   0.0000000000000000     
  -2.7226018782261448E-002   2.9967821677506602E-002   0.0000000000000000     
  -2.9751187316704807E-002   3.4265901315706310E-002   0.0000000000000000     
  -3.2205690799996980E-002   3.8774369501440989E-002   0.0000000000000000     
  -2.4627289150157435E-002   2.2824493287127844E-002   0.0000000000000000     
  -2.7532052890684541E-002   2.6673111526694902E-002   0.0000000000000000     
  -3.0362208565677364E-002   3.0738024016187106E-002   0.0000000000000000     
  -3.3117756175135890E-002   3.5019230755604466E-002   0.0000000000000000     
  -3.5798695719060143E-002   3.9516731744946978E-002   0.0000000000000000     
  -2.2313412554817766E-002   3.6952527874011425E-002   0.0000000000000000     
  -2.4046812190110060E-002   4.1698322124371578E-002   0.0000000000000000     
  -2.5733449710751307E-002   4.6650173513233986E-002   0.0000000000000000     
  -2.7373325116741506E-002   5.1808082040598662E-002   0.0000000000000000     
  -2.8966438408080664E-002   5.7172047706465598E-002   0.0000000000000000     
  -2.5463049217875802E-002   3.7492267565973209E-002   0.0000000000000000     
  -2.7412714920373945E-002   4.2227358861871081E-002   0.0000000000000000     
  -2.9310224930974491E-002   4.7168190263756481E-002   0.0000000000000000     
  -3.1155579249677452E-002   5.2314761771629394E-002   0.0000000000000000     
  -3.2948777876482808E-002   5.7667073385489834E-002   0.0000000000000000     
  -2.8760475299602205E-002   3.8099548108449725E-002   0.0000000000000000     
  -3.0927704010117844E-002   4.2824162334080255E-002   0.0000000000000000     
  -3.3036309534705037E-002   4.7752964672901507E-002   0.0000000000000000     
  -3.5086291873363776E-002   5.2885955124913502E-002   0.0000000000000000     
  -3.7077651026094068E-002   5.8223133690116217E-002   0.0000000000000000     
  -3.2205690799996980E-002   3.8774369501440989E-002   0.0000000000000000     
  -3.4591779459341769E-002   4.3488732540999081E-002   0.0000000000000000     
  -3.6911703521942930E-002   4.8404496740669073E-002   0.0000000000000000     
  -3.9165462987800492E-002   5.3521662100450958E-002   0.0000000000000000     
  -4.1353057856914427E-002   5.8840228620344742E-002   0.0000000000000000     
  -3.5798695719060143E-002   3.9516731744946978E-002   0.0000000000000000     
  -3.8404941268045702E-002   4.4221069482627572E-002   0.0000000000000000     
  -4.0936406892688182E-002   4.9122786467059171E-002   0.0000000000000000     
  -4.3393092592987584E-002   5.4221882698241783E-002   0.0000000000000000     
  -4.5774998368943914E-002   5.9518358176175415E-002   0.0000000000000000     
  -2.8966438408080664E-002   5.7172047706465598E-002   0.0000000000000000     
  -3.0511816243659513E-002   6.2729946930590100E-002   0.0000000000000000     
  -3.2008485282368791E-002   6.8469656132727444E-002   0.0000000000000000     
  -3.3456445524208483E-002   7.4391175312877644E-002   0.0000000000000000     
  -3.4855696969178618E-002   8.0494504471040715E-002   0.0000000000000000     
  -3.2948777876482808E-002   5.7667073385489834E-002   0.0000000000000000     
  -3.4688214884827616E-002   6.3212311942836413E-002   0.0000000000000000     
  -3.6372284348148931E-002   6.8937664281167710E-002   0.0000000000000000     
  -3.8000986266446733E-002   7.4843130400483779E-002   0.0000000000000000     
  -3.9574320639721050E-002   8.0928710300784579E-002   0.0000000000000000     
  -3.7077651026094068E-002   5.8223133690116217E-002   0.0000000000000000     
  -3.9008960961118243E-002   6.3752121225827393E-002   0.0000000000000000     
  -4.0878795646658646E-002   6.9460538589364781E-002   0.0000000000000000     
  -4.2687155082715290E-002   7.5348385780728333E-002   0.0000000000000000     
  -4.4434039269288149E-002   8.1415662799918104E-002   0.0000000000000000     
  -4.1353057856914427E-002   5.8840228620344742E-002   0.0000000000000000     
  -4.3474054472531373E-002   6.4349374779563095E-002   0.0000000000000000     
  -4.5528019177897949E-002   7.0038279057318603E-002   0.0000000000000000     
  -4.7514951973014134E-002   7.5906941453611390E-002   0.0000000000000000     
  -4.9434852857879949E-002   8.1955361968441331E-002   0.0000000000000000     
  -4.5774998368943914E-002   5.9518358176175415E-002   0.0000000000000000     
  -4.8083495419067028E-002   6.5004072604043436E-002   0.0000000000000000     
  -5.0319954941866821E-002   7.0670885685029258E-002   0.0000000000000000     
  -5.2484376937343293E-002   7.6518797419132853E-002   0.0000000000000000     
  -5.4576761405496430E-002   8.2547807806354248E-002   0.0000000000000000     
  -3.4855696969178618E-002   8.0494504471040715E-002   0.0000000000000000     
  -3.6203772174696280E-002   8.6766952922644969E-002   0.0000000000000000     
  -3.7498203698178571E-002   9.3195829983118775E-002   0.0000000000000000     
  -3.8738991539625497E-002   9.9781135652462077E-002   0.0000000000000000     
  -3.9926135699037066E-002  0.10652286993067493        0.0000000000000000     
  -3.9574320639721050E-002   8.0928710300784579E-002   0.0000000000000000     
  -4.1090071380748772E-002   8.7183004966299910E-002   0.0000000000000000     
  -4.2546022402306885E-002   9.3594615381259572E-002   0.0000000000000000     
  -4.3942173704395349E-002  0.10016354154566358        0.0000000000000000     
  -4.5278525287014190E-002  0.10688978345951189        0.0000000000000000     
  -4.4434039269288149E-002   8.1415662799918104E-002   0.0000000000000000     
  -4.6117191857346876E-002   8.7651464652055158E-002   0.0000000000000000     
  -4.7734356497861063E-002   9.4044886342260534E-002   0.0000000000000000     
  -4.9285533190830733E-002  0.10059592787053426        0.0000000000000000     
  -5.0770721936255862E-002  0.10730458923687633        0.0000000000000000     
  -4.9434852857879949E-002   8.1955361968441331E-002   0.0000000000000000     
  -5.1285133604490545E-002   8.8172331979910687E-002   0.0000000000000000     
  -5.3063205984841107E-002   9.4546642866121647E-002   0.0000000000000000     
  -5.4769069998931615E-002  0.10107829462707414        0.0000000000000000     
  -5.6402725646762082E-002  0.10776728726276825        0.0000000000000000     
  -5.4576761405496430E-002   8.2547807806354248E-002   0.0000000000000000     
  -5.6593896622179819E-002   8.8745606949866551E-002   0.0000000000000000     
  -5.8532570863247008E-002   9.5099884952842884E-002   0.0000000000000000     
  -6.0392784128698029E-002  0.10161064181528326        0.0000000000000000     
  -6.2174536418532843E-002  0.10827787753718766        0.0000000000000000     
  -3.9926135699037066E-002  0.10652286993067493        0.0000000000000000     
  -4.1064502292373975E-002  0.11341200013072199        0.0000000000000000     
  -4.2158957435596951E-002  0.12043949356556795        0.0000000000000000     
  -4.3209501128705995E-002  0.12760535023521286        0.0000000000000000     
  -4.4216133371701105E-002  0.13490957013965660        0.0000000000000000     
  -4.5278525287014190E-002  0.10688978345951189        0.0000000000000000     
  -4.6560413711195785E-002  0.11376289342546829        0.0000000000000000     
  -4.7793175537972514E-002  0.12077242374619646        0.0000000000000000     
  -4.8976810767344371E-002  0.12791837442169646        0.0000000000000000     
  -5.0111319399311363E-002  0.13520074545196825        0.0000000000000000     
  -5.0770721936255862E-002  0.10730458923687633        0.0000000000000000     
  -5.2195910230247673E-002  0.11415975050111002        0.0000000000000000     
  -5.3567085568917358E-002  0.12115029172305859        0.0000000000000000     
  -5.4884247952264889E-002  0.12827621290272209        0.0000000000000000     
  -5.6147397380290301E-002  0.13553751404010045        0.0000000000000000     
  -5.6402725646762082E-002  0.10776728726276825        0.0000000000000000     
  -5.7970991849529654E-002  0.11460257135764725        0.0000000000000000     
  -5.9480687528431490E-002  0.12157309749615439        0.0000000000000000     
  -6.0931812683467576E-002  0.12867886567828971        0.0000000000000000     
  -6.2324367314637912E-002  0.13591987590405324        0.0000000000000000     
  -6.2174536418532843E-002  0.10827787753718766        0.0000000000000000     
  -6.3885658569041728E-002  0.11509135599507991        0.0000000000000000     
  -6.5533981416514925E-002  0.12204084106548384        0.0000000000000000     
  -6.7119504960952411E-002  0.12912633274839935        0.0000000000000000     
  -6.8642229202354202E-002  0.13634783104382658        0.0000000000000000     
  -4.4216133371701105E-002  0.13490957013965660        0.0000000000000000     
  -4.5169596668343512E-002  0.14233493864318336        0.0000000000000000     
  -4.6060633522394492E-002  0.14986424111007712        0.0000000000000000     
  -4.6889243933854019E-002  0.15749747754033788        0.0000000000000000     
  -4.7655427902722099E-002  0.16523464793396567        0.0000000000000000     
  -5.0111319399311363E-002  0.13520074545196825        0.0000000000000000     
  -5.1186851775536210E-002  0.14260620202531152        0.0000000000000000     
  -5.2193558237681612E-002  0.15012140933002591        0.0000000000000000     
  -5.3131438785747560E-002  0.15774636736611139        0.0000000000000000     
  -5.4000493419734064E-002  0.16548107613356805        0.0000000000000000     
  -5.6147397380290301E-002  0.13553751404010045        0.0000000000000000     
  -5.7346001832232152E-002  0.14292248092117182        0.0000000000000000     
  -5.8469529287329000E-002  0.15041939933191420        0.0000000000000000     
  -5.9517979745580873E-002  0.15802826927232766        0.0000000000000000     
  -6.0491353206987751E-002  0.16574909074241218        0.0000000000000000     
  -6.2324367314637912E-002  0.13591987590405324        0.0000000000000000     
  -6.3647046838431323E-002  0.14328377533076425        0.0000000000000000     
  -6.4888546671336686E-002  0.15075821111574206        0.0000000000000000     
  -6.6048866813353965E-002  0.15834318325898669        0.0000000000000000     
  -6.7128007264483161E-002  0.16603869176049804        0.0000000000000000     
  -6.8642229202354202E-002  0.13634783104382658        0.0000000000000000     
  -7.0089986794133780E-002  0.14369008525408883        0.0000000000000000     
  -7.1450610389704655E-002  0.15113784468150937        0.0000000000000000     
  -7.2724099989066815E-002  0.15869110932608838        0.0000000000000000     
  -7.3910455592220287E-002  0.16634987918782562        0.0000000000000000     
   0.0000000000000000        0.0000000000000000        0.0000000000000000     
  -2.8800986206544239E-003   1.7448659713626936E-003   0.0000000000000000     
  -5.8727020012813384E-003   3.8646823450132887E-003   0.0000000000000000     
  -8.9778101418807443E-003   6.3594491209517847E-003   0.0000000000000000     
  -1.2195423042452642E-002   9.2291662991781827E-003   0.0000000000000000     
   0.0000000000000000        0.0000000000000000        0.0000000000000000     
  -3.2832247853667200E-003   1.9993905605181759E-003   0.0000000000000000     
  -6.6769997783983964E-003   4.3309997420747674E-003   0.0000000000000000     
  -1.0181324979095029E-002   6.9948275446697723E-003   0.0000000000000000     
  -1.3796200387456620E-002   9.9908739683031936E-003   0.0000000000000000     
   0.0000000000000000        0.0000000000000000        0.0000000000000000     
  -3.9535852999247108E-003   2.4251581807138520E-003   0.0000000000000000     
  -7.9106623538500054E-003   5.0629698939968866E-003   0.0000000000000000     
  -1.1871231161775882E-002   7.9134351398491044E-003   0.0000000000000000     
  -1.5835291723702342E-002   1.0976553918270503E-002   0.0000000000000000     
   0.0000000000000000        0.0000000000000000        0.0000000000000000     
  -4.8911801643283974E-003   3.0221688319497213E-003   0.0000000000000000     
  -9.5736897276361664E-003   6.0605928007796458E-003   0.0000000000000000     
  -1.4047528689923304E-002   9.1152719064897750E-003   0.0000000000000000     
  -1.8312697051189816E-002   1.2186206149080107E-002   0.0000000000000000     
   0.0000000000000000        0.0000000000000000        0.0000000000000000     
  -6.0960093785777797E-003   3.7904225142257838E-003   0.0000000000000000     
  -1.1666081899756877E-002   7.3238684624230468E-003   0.0000000000000000     
  -1.6710217563537293E-002   1.0600337844591788E-002   0.0000000000000000     
  -2.1228416369919029E-002   1.3619830660732010E-002   0.0000000000000000     
  -1.2195423042452642E-002   9.2291662991781827E-003   0.0000000000000000     
  -1.5427813634602801E-002   1.2371768520452797E-002   0.0000000000000000     
  -1.8577254849936983E-002   1.5685190425535945E-002   0.0000000000000000     
  -2.1643746688455201E-002   1.9169432014427626E-002   0.0000000000000000     
  -2.4627289150157435E-002   2.2824493287127844E-002   0.0000000000000000     
  -1.3796200387456620E-002   9.9908739683031936E-003   0.0000000000000000     
  -1.7404531194740679E-002   1.3221170494748283E-002   0.0000000000000000     
  -2.0889222592204711E-002   1.6587748605778298E-002   0.0000000000000000     
  -2.4250274579848727E-002   2.0090608301393236E-002   0.0000000000000000     
  -2.7487687157672726E-002   2.3729749581593094E-002   0.0000000000000000     
  -1.5835291723702342E-002   1.0976553918270503E-002   0.0000000000000000     
  -1.9731061097687748E-002   1.4211158374887465E-002   0.0000000000000000     
  -2.3486756341790482E-002   1.7576080655326360E-002   0.0000000000000000     
  -2.7102377456010518E-002   2.1071320759587200E-002   0.0000000000000000     
  -3.0577924440347883E-002   2.4696878687669978E-002   0.0000000000000000     
  -1.8312697051189816E-002   1.2186206149080107E-002   0.0000000000000000     
  -2.2407403343444026E-002   1.5341732160870331E-002   0.0000000000000000     
  -2.6369856098694276E-002   1.8650186574180144E-002   0.0000000000000000     
  -3.0200055316940574E-002   2.2111569389009527E-002   0.0000000000000000     
  -3.3898000998182902E-002   2.5725880605358482E-002   0.0000000000000000     
  -2.1228416369919029E-002   1.3619830660732010E-002   0.0000000000000000     
  -2.5433557932009500E-002   1.6612891852696893E-002   0.0000000000000000     
  -2.9538521862916115E-002   1.9810066362339625E-002   0.0000000000000000     
  -3.3543308162638875E-002   2.3211354189660201E-002   0.0000000000000000     
  -3.7447916831177791E-002   2.6816755334658625E-002   0.0000000000000000     
  -2.4627289150157435E-002   2.2824493287127844E-002   0.0000000000000000     
  -2.7532052890684541E-002   2.6673111526694902E-002   0.0000000000000000     
  -3.0362208565677364E-002   3.0738024016187106E-002   0.0000000000000000     
  -3.3117756175135890E-002   3.5019230755604466E-002   0.0000000000000000     
  -3.5798695719060143E-002   3.9516731744946978E-002   0.0000000000000000     
  -2.7487687157672726E-002   2.3729749581593094E-002   0.0000000000000000     
  -3.0624511110149771E-002   2.7547695959297340E-002   0.0000000000000000     
  -3.3683797221752965E-002   3.1586970947425422E-002   0.0000000000000000     
  -3.6665545492482292E-002   3.5847574545977340E-002   0.0000000000000000     
  -3.9569755922337753E-002   4.0329506754953101E-002   0.0000000000000000     
  -3.0577924440347883E-002   2.4696878687669978E-002   0.0000000000000000     
  -3.3942757682084143E-002   2.8497334302651216E-002   0.0000000000000000     
  -3.7226237568500901E-002   3.2517267467607421E-002   0.0000000000000000     
  -4.0428364099598151E-002   3.6756678182538603E-002   0.0000000000000000     
  -4.3549137275375904E-002   4.1215566447444757E-002   0.0000000000000000     
  -3.3898000998182902E-002   2.5725880605358482E-002   0.0000000000000000     
  -3.7486792606487636E-002   2.9522026556756519E-002   0.0000000000000000     
  -4.0989529605921164E-002   3.3528913576733099E-002   0.0000000000000000     
  -4.4406211996483480E-002   3.7746541665288250E-002   0.0000000000000000     
  -4.7736839778174590E-002   4.2174910822421939E-002   0.0000000000000000     
  -3.7447916831177791E-002   2.6816755334658625E-002   0.0000000000000000     
  -4.1256615883360277E-002   3.0621772721613261E-002   0.0000000000000000     
  -4.4973673334013781E-002   3.4621909274802479E-002   0.0000000000000000     
  -4.8599089183138287E-002   3.8817164994226272E-002   0.0000000000000000     
  -5.2132863430733825E-002   4.3207539879884654E-002   0.0000000000000000     
  -3.5798695719060143E-002   3.9516731744946978E-002   0.0000000000000000     
  -3.8404941268045702E-002   4.4221069482627572E-002   0.0000000000000000     
  -4.0936406892688182E-002   4.9122786467059171E-002   0.0000000000000000     
  -4.3393092592987584E-002   5.4221882698241783E-002   0.0000000000000000     
  -4.5774998368943914E-002   5.9518358176175415E-002   0.0000000000000000     
  -3.9569755922337753E-002   4.0329506754953101E-002   0.0000000000000000     
  -4.2393699495500800E-002   4.5019241464924163E-002   0.0000000000000000     
  -4.5134647196152865E-002   4.9903252566461991E-002   0.0000000000000000     
  -4.7792599024293947E-002   5.4981540059566576E-002   0.0000000000000000     
  -5.0367554979924074E-002   6.0254103944237927E-002   0.0000000000000000     
  -4.3549137275375904E-002   4.1215566447444757E-002   0.0000000000000000     
  -4.6584564200978187E-002   4.5881316793847313E-002   0.0000000000000000     
  -4.9530651981549052E-002   5.0741313753267708E-002   0.0000000000000000     
  -5.2387400617088478E-002   5.5795557325705937E-002   0.0000000000000000     
  -5.5154810107596493E-002   6.1044047511162006E-002   0.0000000000000000     
  -4.7736839778174590E-002   4.2174910822421939E-002   0.0000000000000000     
  -5.0977535384477878E-002   4.6807295469397013E-002   0.0000000000000000     
  -5.4124421248876738E-002   5.1636970027476331E-002   0.0000000000000000     
  -5.7177497371371164E-002   5.6663934496659858E-002   0.0000000000000000     
  -6.0136763751961156E-002   6.1888188876947629E-002   0.0000000000000000     
  -5.2132863430733825E-002   4.3207539879884654E-002   0.0000000000000000     
  -5.5572613045999857E-002   4.7797177491573285E-002   0.0000000000000000     
  -5.8915954998135921E-002   5.2590221389087859E-002   0.0000000000000000     
  -6.2162889287141990E-002   5.7586671572428361E-002   0.0000000000000000     
  -6.5313415913018077E-002   6.2786528041594805E-002   0.0000000000000000     
  -4.5774998368943914E-002   5.9518358176175415E-002   0.0000000000000000     
  -4.8083495419067028E-002   6.5004072604043436E-002   0.0000000000000000     
  -5.0319954941866821E-002   7.0670885685029258E-002   0.0000000000000000     
  -5.2484376937343293E-002   7.6518797419132853E-002   0.0000000000000000     
  -5.4576761405496430E-002   8.2547807806354248E-002   0.0000000000000000     
  -5.0367554979924074E-002   6.0254103944237927E-002   0.0000000000000000     
  -5.2862609182283242E-002   6.5714944246637666E-002   0.0000000000000000     
  -5.5280855750611535E-002   7.1358060992927380E-002   0.0000000000000000     
  -5.7622294684908898E-002   7.7183454183107097E-002   0.0000000000000000     
  -5.9886925985175386E-002   8.3191123817176804E-002   0.0000000000000000     
  -5.5154810107596493E-002   6.1044047511162006E-002   0.0000000000000000     
  -5.7836721143738085E-002   6.6480719254714923E-002   0.0000000000000000     
  -6.0436974416178318E-002   7.2099507501443727E-002   0.0000000000000000     
  -6.2955569924917146E-002   7.7900412251348389E-002   0.0000000000000000     
  -6.5392507669954594E-002   8.3883433504428950E-002   0.0000000000000000     
  -6.0136763751961156E-002   6.1888188876947629E-002   0.0000000000000000     
  -6.3005831303431556E-002   6.7301397628275236E-002   0.0000000000000000     
  -6.5788310938567185E-002   7.2895225210578271E-002   0.0000000000000000     
  -6.8484202657368015E-002   7.8669671623856782E-002   0.0000000000000000     
  -7.1093506459834074E-002   8.4624736868110700E-002   0.0000000000000000     
  -6.5313415913018077E-002   6.2786528041594805E-002   0.0000000000000000     
  -6.8369939661363621E-002   6.8176979367318563E-002   0.0000000000000000     
  -7.1334865317778107E-002   7.3745214120331026E-002   0.0000000000000000     
  -7.4208192882261492E-002   7.9491232300632195E-002   0.0000000000000000     
  -7.6989922354813806E-002   8.5415033908222082E-002   0.0000000000000000     
  -5.4576761405496430E-002   8.2547807806354248E-002   0.0000000000000000     
  -5.6593896622179819E-002   8.8745606949866551E-002   0.0000000000000000     
  -5.8532570863247008E-002   9.5099884952842884E-002   0.0000000000000000     
  -6.0392784128698029E-002  0.10161064181528326        0.0000000000000000     
  -6.2174536418532843E-002  0.10827787753718766        0.0000000000000000     
  -5.9886925985175386E-002   8.3191123817176804E-002   0.0000000000000000     
  -6.2070801460590130E-002   8.9367823673909524E-002   0.0000000000000000     
  -6.4169972920332316E-002   9.5700307532078352E-002   0.0000000000000000     
  -6.6184440364401936E-002  0.10218857539168325        0.0000000000000000     
  -6.8114203792798991E-002  0.10883262725272426        0.0000000000000000     
  -6.5392507669954594E-002   8.3883433504428950E-002   0.0000000000000000     
  -6.7743168669896964E-002   9.0035516264026491E-002   0.0000000000000000     
  -7.0002933943350568E-002   9.6343605533482146E-002   0.0000000000000000     
  -7.2171803490315378E-002  0.10280770131279589        0.0000000000000000     
  -7.4249777310791396E-002  0.10942780360196774        0.0000000000000000     
  -7.1093506459834074E-002   8.4624736868110700E-002   0.0000000000000000     
  -7.3610998250100326E-002   9.0748684720217423E-002   0.0000000000000000     
  -7.6031453932301735E-002   9.7029778957054225E-002   0.0000000000000000     
  -7.8354873506438300E-002  0.10346801957862112        0.0000000000000000     
  -8.0581256972510035E-002  0.11006340658491813        0.0000000000000000     
  -7.6989922354813806E-002   8.5415033908222082E-002   0.0000000000000000     
  -7.9674290201200190E-002   9.1507329042482335E-002   0.0000000000000000     
  -8.2255532887185845E-002   9.7758827802794629E-002   0.0000000000000000     
  -8.4733650412770756E-002  0.10416953018915900        0.0000000000000000     
  -8.7108642777954909E-002  0.11073943620157542        0.0000000000000000     
  -6.2174536418532843E-002  0.10827787753718766        0.0000000000000000     
  -6.3885658569041728E-002  0.11509135599507991        0.0000000000000000     
  -6.5533981416514925E-002  0.12204084106548384        0.0000000000000000     
  -6.7119504960952411E-002  0.12912633274839935        0.0000000000000000     
  -6.8642229202354202E-002  0.13634783104382658        0.0000000000000000     
  -6.8114203792798991E-002  0.10883262725272426        0.0000000000000000     
  -6.9968047837667191E-002  0.11562288948716024        0.0000000000000000     
  -7.1754757131150218E-002  0.12254978846695008        0.0000000000000000     
  -7.3474331673248086E-002  0.12961332419209379        0.0000000000000000     
  -7.5126771463960740E-002  0.13681349666259141        0.0000000000000000     
  -7.4249777310791396E-002  0.10942780360196774        0.0000000000000000     
  -7.6246297104289359E-002  0.11619395690764034        0.0000000000000000     
  -7.8170804570320010E-002  0.12309620573645635        0.0000000000000000     
  -8.0023299708883250E-002  0.13013455008841573        0.0000000000000000     
  -8.1803782519979190E-002  0.13730898996351854        0.0000000000000000     
  -8.0581256972510035E-002  0.11006340658491813        0.0000000000000000     
  -8.2720406368908234E-002  0.11680455825652028        0.0000000000000000     
  -8.4782123734024203E-002  0.12368009287400265        0.0000000000000000     
  -8.6766409067857944E-002  0.13069001043736525        0.0000000000000000     
  -8.8673262370409497E-002  0.13783431094660806        0.0000000000000000     
  -8.7108642777954909E-002  0.11073943620157542        0.0000000000000000     
  -8.9390375631523786E-002  0.11745469353380003        0.0000000000000000     
  -9.1588714622262882E-002  0.12430144987958897        0.0000000000000000     
  -9.3703659750172169E-002  0.13127970523894225        0.0000000000000000     
  -9.5735211015251676E-002  0.13838945961185986        0.0000000000000000     
  -6.8642229202354202E-002  0.13634783104382658        0.0000000000000000     
  -7.0089986794133780E-002  0.14369008525408883        0.0000000000000000     
  -7.1450610389704655E-002  0.15113784468150937        0.0000000000000000     
  -7.2724099989066815E-002  0.15869110932608838        0.0000000000000000     
  -7.3910455592220287E-002  0.16634987918782562        0.0000000000000000     
  -7.5126771463960740E-002  0.13681349666259141        0.0000000000000000     
  -7.6699160704078048E-002  0.14413263291458073        0.0000000000000000     
  -7.8178583594389797E-002  0.15155305998419963        0.0000000000000000     
  -7.9565040134895987E-002  0.15907477787144811        0.0000000000000000     
  -8.0858530325596603E-002  0.16669778657632611        0.0000000000000000     
  -8.1803782519979190E-002  0.13730898996351854        0.0000000000000000     
  -8.3498907573002781E-002  0.14460264053567520        0.0000000000000000     
  -8.5095329437349043E-002  0.15199861697879610        0.0000000000000000     
  -8.6593048113017976E-002  0.15949691929288123        0.0000000000000000     
  -8.7992063600009565E-002  0.16709754747793074        0.0000000000000000     
  -8.8673262370409497E-002  0.13783431094660806        0.0000000000000000     
  -9.0489227400907923E-002  0.14510010811737217        0.0000000000000000     
  -9.2200847918582352E-002  0.15247451566529879        0.0000000000000000     
  -9.3808123923432782E-002  0.15995753359038786        0.0000000000000000     
  -9.5311055415459200E-002  0.16754916189263938        0.0000000000000000     
  -9.5735211015251676E-002  0.13838945961185986        0.0000000000000000     
  -9.7670120187793502E-002  0.14562503565967172        0.0000000000000000     
  -9.9495139038089750E-002  0.15298075604370773        0.0000000000000000     
 -0.10121026756614040       0.16045662076396786        0.0000000000000000     
 -0.10281550577194550       0.16805262982045216        0.0000000000000000     
 </DataArray>
 <DataArray  type="Float64" Name="stress" NumberOfComponents="3" format="ascii">
   13416199988.276167        4024859996.4828501        2893773201.8764472     
   11766312896.029461        1890704466.8223569        1715770699.2702367     
   10313623385.044701        413874208.03502083        810814275.21317732     
   9058131455.3218880       -405630779.87916040        178903929.70526880     
   7999837106.8610201       -567810496.92018604       -179960337.25348726     
   10539668463.888418        3161900539.1665254        2225676422.3452606     
   9667422449.2197857        1589751525.1379621        1446708816.9691429     
   8943762573.2547340        512889640.12133646        863186766.03502381     
   8368688835.9932613       -68685115.883352280        475110269.54290235     
   7942201237.4353733       -154972742.87610435        282479327.49277997     
   8337788337.5114632        2501336501.2534389        1712364853.1622896     
   8021467617.2576094        1424679267.9078171        1275718795.3648388     
   7805121593.1489706        681271021.71291375        956917767.90223241     
   7688750265.1855488        271111762.66872883        755961770.77447248     
   7672353633.3673420        194201490.77526236        672850803.98155653     
   6810559609.1453047        2043167882.7435913        1353838494.3275352     
   6828448400.1429348        1395487695.1319222        1202800634.4573240     
   6897700444.7274151        919018352.80975270        1092007280.8148043     
   7018315742.8987446        613759855.77708292        1021458433.3999779     
   7190294294.6569271        479712204.03391361        991154092.21284378     
   5957982278.7899399        1787394683.6369820        1150097345.8409972     
   6088364797.8757610        1502176806.8102777        1227954334.2465990     
   6221499127.9900656        1226131633.4118543        1268455304.7727401     
   6357385269.1328573        959259163.44171226        1271600257.4194214     
   6496023221.3041315        701559396.89985108        1237389192.1866410     
   7999837106.8610201       -567810496.92018604       -179960337.25348726     
   7917224034.6729965       -200885998.05434799       -78340982.236349553     
   7793281402.9977589        28273302.520778179       -9242542.1023800094     
   7628009211.8353052        119667404.80519009        27334983.148427613     
   7421407461.1856384        73296308.798886299        31391593.516067546     
   7942201237.4353733       -154972742.87610435        282479327.49277997     
   7739454388.3342743        15904689.877030849        281070247.54012394     
   7513424368.6013613        109171553.85745859        265013115.48658630     
   7264111178.2366390        124827849.06517744        234307931.33216691     
   6991514817.2401009        62873575.500187874        188954695.07686332     
   7672353633.3673420        194201490.77526236        672850803.98155653     
   7400538329.5882597        184351454.08621979        589467409.39041269     
   7123486244.0327682        157045478.14247704        509308825.48066747     
   6841197376.7008638        112283562.94403100        432375052.25232327     
   6553671727.5925512        50065708.490884066        358666089.70537412     
   7190294294.6569271        479712204.03391361        991154092.21284378     
   6900475858.4349546        304454294.57322288        846850503.31451356     
   6623467029.2919741        171895075.37583637        723644587.87986374     
   6359267807.2279844        82034546.441755056        621536345.90889406     
   6107878192.2429857        34872707.770976543        540525777.40160728     
   6496023221.3041315        701559396.89985108        1237389192.1866410     
   6239266974.8743620        376213211.33803916        1053219529.3124236     
   6013366724.3789825        153720345.55753779        908020402.68417215     
   5818322469.8179979        34080799.558347225        801791812.30188215     
   5654134211.1914082        17294573.340464830        734533758.16555595     
   7421407461.1856384        73296308.798886299        31391593.516067546     
   7219637088.7475157       -16443183.774835110        14982875.509845207     
   7029646071.3806477       -66918159.444382191        2670864.3862791359     
   6851434409.0850296       -78128618.209763527       -5544439.8546244195     
   6685002101.8606596       -50074560.070975304       -9663037.2128656209     
   6991514817.2401009        62873575.500187874        188954695.07686332     
   6808953507.1480103        4060147.8287715912        180758820.91556126     
   6633937124.1419544       -29603522.889201641        176105657.46801582     
   6466465668.2219296       -38117436.653722525        174995204.73422062     
   6306539139.3879433       -21481593.464795351        177427462.71418202     
   6553671727.5925512        50065708.490884066        358666089.70537412     
   6388736633.6496115        21703491.862701416        353742893.40624779     
   6227112038.8074875        4376272.2372434139        351808411.65196621     
   6068797943.0661840       -1915950.3854806423        352862644.44252890     
   5913794346.4256964        2826823.9945182800        356905591.77793884     
   6107878192.2429857        34872707.770976543        540525777.40160728     
   5958986468.2523193        36486848.326964855        533935092.98189884     
   5809170815.3772526        35021225.934962749        529779126.93813097     
   5658431233.6177893        30475840.594965458        528057879.27029961     
   5506767722.9739285        22850692.306982279        528771349.97841048     
   5654134211.1914082        17294573.340464830        734533758.16555595     
   5519703010.9561357        48410217.221564770        721335419.64251757     
   5380113453.8512478        62331338.203946829        710017803.32650971     
   5235365539.8767462        59057936.287620544        700580909.21753383     
   5085459269.0326328        38590011.472584486        693024737.31558895     
   6685002101.8606596       -50074560.070975304       -9663037.2128656209     
   6510168749.5297623       -12556137.559893608       -4973804.7930266615     
   6331458027.5589876        12037719.484929323        1572977.4711118557     
   6148869935.9483414        23707011.063517094        9977309.5795476902     
   5962404474.6978197        22451737.175852537        20239191.532278601     
   6306539139.3879433       -21481593.464795351        177427462.71418202     
   6132832098.2314959       -1199259.0359373093        174012029.93947643     
   5956710225.5516510        11033636.981608152        173582999.31980202     
   5778173521.3484106        15217094.587830544        176140370.85515034     
   5597221985.6217804        11351113.782750130        181684144.54551542     
   5913794346.4256964        2826823.9945182800        356905591.77793884     
   5744438908.7600603        6840658.0360634327        347091788.27792138     
   5574131177.6875105        7680180.7212328911        341393239.24365312     
   5402871153.2080488        5345392.0500209332        339809944.67513996     
   5230658835.3216724       -163707.97756385803        342341904.57237232     
   5506767722.9739285        22850692.306982279        528771349.97841048     
   5344989181.1154680        11563613.656126022        514265470.22230083     
   5183720883.9665756        1977350.7038218975        505003697.24267238     
   5022962831.5272484       -5908096.5499200821        500986031.03952169     
   4862715023.7974911       -12092728.105107784        502212471.61284792     
   5085459269.0326328        38590011.472584486        693024737.31558895     
   4934482915.2977133        12969607.824233294        675533075.77262151     
   4785479344.3888397       -6074853.0706272125        664414373.31685710     
   4638448556.3060150       -18543371.211993694        659668629.94829774     
   4493390551.0492344       -24435946.599873781        661295845.66694367     
   5962404474.6978197        22451737.175852537        20239191.532278601     
   5786576728.7294083        20239551.499442816        15007360.961592454     
   5611891258.0887384        21834950.248836279        13165899.059036432     
   5438348062.7758284        27237933.424098730        14714805.824591637     
   5265947142.7906675        36448501.025193453        19654081.258275039     
   5597221985.6217804        11351113.782750130        181684144.54551542     
   5430329376.2691860        9218401.9932355881        177125571.93367136     
   5264213526.6400061        9674889.2817485332        176031472.53812668     
   5098874436.7342272        12720575.648279428        178401846.35887516     
   4934312106.5518570        18355461.092836142        184236693.39593557     
   5230658835.3216724       -163707.97756385803        342341904.57237232     
   5072913089.8654051       -2153427.6960351467        338030155.04762661     
   4915578588.5282059       -2772333.6842794418        337256983.28736705     
   4758655331.3100662       -2020425.9423182011        340022389.29157931     
   4602143318.2109947        102295.52985692024        346326373.06027180     
   4862715023.7974911       -12092728.105107784        502212471.61284792     
   4714327869.5180607       -13875937.568365812        497721110.30347705     
   4565986443.7533474       -15506718.649221182        496842431.30675900     
   4417690746.5033560       -16985071.347678661        499576434.62269807     
   4269440777.7680850       -18310995.663733006        505923120.25129074     
   4493390551.0492344       -24435946.599873781        661295845.66694367     
   4354573715.2271442       -25949127.623768091        656198437.70120788     
   4215437092.3154316       -28528265.613069773        654787816.59630167     
   4075980682.3140926       -32173360.567797661        657063982.35223389     
   3936204485.2231264       -36884412.487937450        663026934.96899188     
   5265947142.7906675        36448501.025193453        19654081.258275039     
   5065998978.2349205        37994549.000657320        13246683.979066212     
   4865303914.4473915        37050932.870163441        11783279.453856889     
   4663861951.4280806        33617652.633729458        15263867.682647076     
   4461673089.1769781        27694708.291344404        23688448.665436767     
   4934312106.5518570        18355461.092836142        184236693.39593557     
   4746393054.6751328        17397949.869662762        176884612.25411195     
   4557970618.7940598        14762491.965353489        174419446.38798770     
   4369044798.9086485        10449087.379904032        176841195.79755926     
   4179615595.0188909        4457736.1133120060        184149860.48281929     
   4602143318.2109947        102295.52985692024        346326373.06027180     
   4426090300.5038433       -3407698.4447789192        338313709.15451962     
   4249777414.0197935       -7783921.6757361889        335130883.04616541     
   4073204658.7588406       -13026374.163040638        336777894.73519623     
   3896372034.7209921       -19135055.906667471        343254744.22161990     
   4269440777.7680850       -18310995.663733006        505923120.25129074     
   4105090715.7210655       -24422395.942662001        497533974.68029612     
   3940724300.1245880       -30588308.053121567        493917589.42838967     
   3776341530.9786587       -36808731.995087624        495073964.49556750     
   3611942408.2832685       -43083667.768585682        501003099.88183600     
   3936204485.2231264       -36884412.487937450        663026934.96899188     
   3783394300.3267956       -45646142.623999596        654545408.83143485     
   3630811277.1084528       -53650667.166774511        650779565.53466725     
   3478455415.5680909       -60897986.116266012        651729405.07867825     
   3326326715.7057199       -67388099.472464800        657394927.46346891     
   4461673089.1769781        27694708.291344404        23688448.665436767     
   4310191757.3120222        39457438.879544497        19343737.742558368     
   4161088148.2929940        59145912.287486792        18400143.528432343     
   4014362262.1198616        86760128.515101194        20857666.023078550     
   3870014098.7926536        122300087.56244302        26716305.226470727     
   4179615595.0188909        4457736.1133120060        184149860.48281929     
   4036015274.8650026        13294072.210718393        181453383.17318100     
   3893629781.9527578        26179832.446944475        182093427.66116551     
   3752459116.2821598        43115016.821990490        186069993.94677597     
   3612503277.8532000        64099625.335831881        193383082.03002462     
   3896372034.7209921       -19135055.906667471        343254744.22161990     
   3760468169.3892140       -13280481.366749287        340849788.98691034     
   3624616235.6948199       -7252801.3688948154        341716760.63868624     
   3488816233.6377969       -1052015.9131321907        345855659.17696756     
   3353068163.2181516        5321875.0005452633        353266484.60174394     
   3611942408.2832685       -43083667.768585682        501003099.88183600     
   3483550440.8846636       -40266221.852839947        497532955.18373734     
   3354047509.5191689       -41151989.160058498        497270142.46100098     
   3223433614.1867795       -45740969.690257430        500214661.71363157     
   3091708754.8875046       -54033163.443409324        506366512.94163460     
   3326326715.7057199       -67388099.472464800        657394927.46346891     
   3205262089.3513451       -67663149.247564673        651502881.76366973     
   3081923603.4258056       -75517730.926536560        648753573.12810779     
   2956311257.9291086       -90951844.509367585        649147001.55678010     
   2828425052.8612580       -113965489.99605370        652683167.04968905     
   3870014098.7926536        122300087.56244302        26716305.226470727     
   3662241197.2143431        159763861.52071810        2744254.4556444124     
   3465904574.8030834        235348566.03580832       -15643921.487083446     
   3281004231.5588465        349054201.10765004       -28448222.601733990     
   3107540167.4816303        500880766.73623055       -35668648.888302729     
   3612503277.8532000        64099625.335831881        193383082.03002462     
   3412451123.0351171        79896012.683928847        179524488.98935172     
   3219650519.2727227        119864236.88432610        171021223.23080418     
   3034101466.5660267        184004297.93705618        167873284.75438651     
   2855803964.9150381        272316195.84212935        170080673.56009555     
   3353068163.2181516        5321875.0005452633        353266484.60174394     
   3160083762.1718187       -745022.15811562538        344639166.49466890     
   2970166184.0698490        3410823.8310892582        341138628.12376636     
   2783315428.9122462        17789412.968173623        342764869.48903042     
   2599531496.6990118        42390745.253171563        349517890.59044927     
   3091708754.8875046       -54033163.443409324        506366512.94163460     
   2905139114.6244645       -82159243.005386829        498088286.97160834     
   2717451569.1944652       -114011673.12390029        494708293.19179291     
   2528646118.5975094       -149590453.79896224        496226531.60216892     
   2338722762.8335686       -188895585.03058469        502643002.20276940     
   2828425052.8612580       -113965489.99605370        652683167.04968905     
   2647617180.3930607       -164346649.85785985        639871850.42015600     
   2461506674.6465707       -232403253.98064554        631730218.43486190     
   2270093535.6217775       -318135302.36443067        628258271.09382284     
   2073377763.3186996       -421542795.00918186        629456008.39703357     
   5957982278.7899399        1787394683.6369820        1150097345.8409972     
   6088364797.8757610        1502176806.8102777        1227954334.2465990     
   6221499127.9900656        1226131633.4118543        1268455304.7727401     
   6357385269.1328573        959259163.44171226        1271600257.4194214     
   6496023221.3041315        701559396.89985108        1237389192.1866410     
   5434685218.9748735        1630405565.6924622        1033490425.6967925     
   5489874859.8162889        1372466850.8877237        1113898985.2444603     
   5547276038.0733404        1121899927.4684405        1167527695.8631303     
   5606888753.7460289        878704795.43461442        1194376557.5528030     
   5668713006.8343544        642881454.78624439        1194445570.3134770     
   4895297302.2296095        1468589190.6688826        936366751.88903892     
   4905511690.3993673        1246994925.5579343        1018696563.3637843     
   4917397342.3719168        1030971539.7896181        1084822694.8599946     
   4930954258.1472540        820519033.36393285        1134745146.3776693     
   4946182437.7253809        615637406.28087890        1168463917.9168086     
   4339818528.5541477        1301945558.5662444        858726324.41773629     
   4335275289.6250010        1125761030.8209116        942347068.60457051     
   4331863040.8857946        953346470.37538576        1020340301.7633322     
   4329581782.3365335        784701877.22966743        1092706023.8940213     
   4328431513.9772129        619827251.38375473        1159444234.9966376     
   3768248897.9484882        1130474669.3845465        800569143.28288460     
   3779165657.4931860        1008765166.6766546        884850500.96681905     
   3790673133.6149788        889024719.22574508        974080516.57314348     
   3802771326.3138657        771253327.03181767        1068259190.1018577     
   3815460235.5898480        655450990.09487212        1167386521.5529625     
   6496023221.3041315        701559396.89985108        1237389192.1866410     
   6239266974.8743620        376213211.33803916        1053219529.3124236     
   6013366724.3789825        153720345.55753779        908020402.68417215     
   5818322469.8179979        34080799.558347225        801791812.30188215     
   5654134211.1914082        17294573.340464830        734533758.16555595     
   5668713006.8343544        642881454.78624439        1194445570.3134770     
   5518794062.9546700        383466773.20177245        1073529618.1970016     
   5392992121.1017466        204442098.37316465        980610707.80139720     
   5291307181.2755804        105807430.30042195        915688839.12666416     
   5213739243.4761763        87562768.983542919        878764012.17280352     
   4946182437.7253809        615637406.28087890        1168463917.9168086     
   4871747954.8955221        412748376.22366714        1102939516.9991689     
   4814691480.1847878        267786039.89687467        1054438663.2773070     
   4775013013.5931787        180750397.30050087        1022961356.7512258     
   4752712555.1206970        151641448.43454695        1008507597.4209230     
   4328431513.9772129        619827251.38375473        1159444234.9966376     
   4298128650.6969137        464058020.40372479        1141449225.7189269     
   4278464801.6281080        343752170.12866807        1129504269.1119025     
   4269439966.7707930        258909700.55858469        1123609365.1755662     
   4271054146.1249704        209530611.69347548        1123764513.9099159     
   3815460235.5898480        655450990.09487212        1167386521.5529625     
   3797936150.3588481        537395705.74194551        1189058744.3562751     
   3784312085.4317040        432340489.06854439        1205807525.3051825     
   3774588040.8084202        340285340.07467365        1217632864.3996837     
   3768764016.4889941        261230258.76033080        1224534761.6397824     
   5654134211.1914082        17294573.340464830        734533758.16555595     
   5519703010.9561357        48410217.221564770        721335419.64251757     
   5380113453.8512478        62331338.203946829        710017803.32650971     
   5235365539.8767462        59057936.287620544        700580909.21753383     
   5085459269.0326328        38590011.472584486        693024737.31558895     
   5213739243.4761763        87562768.983542919        878764012.17280352     
   5076941887.5839939        85106890.447161198        855256906.25088930     
   4938153425.1870260        76013990.228169918        835796232.78989041     
   4797373856.2852764        60284068.326569080        820381991.78981185     
   4654603180.8787489        37917124.742363214        809014183.25064862     
   4752712555.1206970        151641448.43454695        1008507597.4209230     
   4619736787.1541357        117470370.55544901        978386849.52576900     
   4487937163.0476170        87219772.209838629        954478244.34541750     
   4357313682.8011475        60889653.397721767        936781781.87986755     
   4227866346.4147263        38480014.119097233        925297462.12911916     
   4271054146.1249704        209530611.69347548        1123764513.9099159     
   4148087709.6665549        145500657.54641628        1090725249.4671578     
   4029464667.4330177        95948684.148951054        1066063837.9930854     
   3915185019.4243569        60874691.501073837        1049780279.4877018     
   3805248765.6405783        40278679.602795601        1041874573.9510041     
   3768764016.4889941        261230258.76033080        1224534761.6397824     
   3661994655.1212583        169197751.42007029        1192272106.0750551     
   3562735938.3432279        102200726.04550242        1170553013.7328985     
   3470987866.1549077        60239182.636627674        1159377484.6133173     
   3386750438.5562940        43313121.193450689        1158745518.7163060     
   5085459269.0326328        38590011.472584486        693024737.31558895     
   4934482915.2977133        12969607.824233294        675533075.77262151     
   4785479344.3888397       -6074853.0706272125        664414373.31685710     
   4638448556.3060150       -18543371.211993694        659668629.94829774     
   4493390551.0492344       -24435946.599873781        661295845.66694367     
   4654603180.8787489        37917124.742363214        809014183.25064862     
   4520992380.1148062        17733969.032948494        794738264.06182909     
   4389000702.6569796        2947891.0105736256        786192753.93141949     
   4258628148.5052633       -6441109.3247568607        783377652.85942137     
   4129874717.6596656       -10433031.973038197        786292960.84583223     
   4227866346.4147263        38480014.119097233        925297462.12911916     
   4109785241.3966417        23183349.181082010        913824682.52119327     
   3992969600.1647348        12104896.863660812        907439761.94288385     
   3877419422.7190075        5244657.1668336391        906142700.39419079     
   3763134709.0594559        2602630.0905988216        909933497.87511134     
   3805248765.6405783        40278679.602795601        1041874573.9510041     
   3700861499.1432195        29317748.268642187        1032792331.1507134     
   3597386036.9121051        21396164.488632679        1028155397.3512461     
   3494822378.9472322        16513928.262767076        1027963772.5525997     
   3393170525.2486048        14671039.591047525        1032217456.7547770     
   3386750438.5562940        43313121.193450689        1158745518.7163060     
   3294221153.3545380        36137166.295624733        1151641209.9503951     
   3202250012.8990874        30821693.885484815        1148339660.1565108     
   3110837017.1899481        27366703.963047862        1148840869.3346546     
   3019982166.2271137        25772196.528300643        1153144837.4848235     
   4493390551.0492344       -24435946.599873781        661295845.66694367     
   4354573715.2271442       -25949127.623768091        656198437.70120788     
   4215437092.3154316       -28528265.613069773        654787816.59630167     
   4075980682.3140926       -32173360.567797661        657063982.35223389     
   3936204485.2231264       -36884412.487937450        663026934.96899188     
   4129874717.6596656       -10433031.973038197        786292960.84583223     
   4001008846.5297065       -12159894.161513329        779985374.24159968     
   3872039539.4860187       -14231542.729081154        777694900.03923261     
   3742966796.5286026       -16647977.675746679        779421538.23873127     
   3613790617.6574602       -19409199.001498938        785165288.84009123     
   3763134709.0594559        2602630.0905988216        909933497.87511134     
   3645163589.8817182        945222.91556644440        902668142.33759665     
   3527305385.9661493       -335800.05222988129        899750224.74297547     
   3409560097.3127518       -1240438.8128011227        901179745.09125435     
   3291927723.9215198       -1768693.3661425114        906956703.38242567     
   3393170525.2486048        14671039.591047525        1032217456.7547770     
   3287037945.2831831        13366223.607493758        1024246741.9891876     
   3181234631.7558241        13158962.417485118        1020953790.7075306     
   3075760584.6665354        14049256.021036744        1022338602.9098002     
   2970615804.0153093        16037104.418136477        1028401178.5959969     
   3019982166.2271137        25772196.528300643        1153144837.4848235     
   2926631912.7340975        25103107.914242744        1144721173.1963780     
   2833827276.8550463        26252744.680067182        1141305597.9328949     
   2741568258.5899553        29221106.825759411        1142898111.6943731     
   2649854857.9388270        34008194.351326942        1149498714.4808109     
   3936204485.2231264       -36884412.487937450        663026934.96899188     
   3783394300.3267956       -45646142.623999596        654545408.83143485     
   3630811277.1084528       -53650667.166774511        650779565.53466725     
   3478455415.5680909       -60897986.116266012        651729405.07867825     
   3326326715.7057199       -67388099.472464800        657394927.46346891     
   3613790617.6574602       -19409199.001498938        785165288.84009123     
   3474005011.7485576       -25246100.219430208        777066953.34776449     
   3334393488.9308381       -30502724.466756821        773596881.40849555     
   3194956049.2043076       -35179071.743449211        774755073.02228606     
   3055692692.5689602       -39275142.049535155        780541528.18913424     
   3291927723.9215198       -1768693.3661425114        906956703.38242567     
   3164916927.6065493       -4755696.4839936495        899179633.51739359     
   3038027135.7959652       -7339351.2539070845        895943407.91769481     
   2911258348.4897676       -9519657.6758629084        897248026.58333027     
   2784610565.6879501       -11296615.749884129        903093489.51430023     
   2970615804.0153093        16037104.418136477        1028401178.5959969     
   2856130047.9007788        15825068.582318544        1020883449.3403249     
   2741712217.7038302        15839452.471766233        1017819145.0622585     
   2627362313.4244633        16080256.086487412        1019208265.7618023     
   2513080335.0626812        16547479.426496029        1025050811.4389607     
   2649854857.9388270        34008194.351326942        1149498714.4808109     
   2547644372.6312404        36496194.979492068        1142178400.8165557     
   2445448734.6544290        39033686.710246205        1139224092.8421862     
   2343267944.0084085        41620669.543627620        1140635790.5577114     
   2241102000.6931596        44257143.479587078        1146413493.9631164     
   3326326715.7057199       -67388099.472464800        657394927.46346891     
   3205262089.3513451       -67663149.247564673        651502881.76366973     
   3081923603.4258056       -75517730.926536560        648753573.12810779     
   2956311257.9291086       -90951844.509367585        649147001.55678010     
   2828425052.8612580       -113965489.99605370        652683167.04968905     
   3055692692.5689602       -39275142.049535155        780541528.18913424     
   2943921725.4560986       -36626926.076339006        772580884.46140563     
   2830985402.3438292       -37863230.101169705        767951872.52869058     
   2716883723.2321482       -42984054.124029160        766654492.39099324     
   2601616688.1210632       -51989398.144904733        768688744.04831123     
   2784610565.6879501       -11296615.749884129        903093489.51430023     
   2682672957.0473948       -5563224.2591489553        894357501.92568564     
   2580678495.9791818       -19340.860610365868        889142040.86286044     
   2478627182.4833169        5335034.4457482100        887447106.32583082     
   2376519016.5597935        10499901.659920096        889272698.31459320     
   2513080335.0626812        16547479.426496029        1025050811.4389607     
   2421515784.1252308        25527956.204003930        1016832734.1565017     
   2331002884.3318734        38013936.795156956        1012324078.1306129     
   2241541635.6826124        54005421.199967027        1011524843.3612945     
   2153132038.1774473        73502409.418422699        1014435029.8485450     
   2241102000.6931596        44257143.479587078        1146413493.9631164     
   2160450206.6896095        56646615.313119769        1140006581.1538551     
   2081958567.4018967        76236602.866117239        1137497984.3319459     
   2005627082.8300381        103027106.13862121        1138887703.4973767     
   1931455752.9740219        137018125.13060498        1144175738.6501648     
   2828425052.8612580       -113965489.99605370        652683167.04968905     
   2647617180.3930607       -164346649.85785985        639871850.42015600     
   2461506674.6465707       -232403253.98064554        631730218.43486190     
   2270093535.6217775       -318135302.36443067        628258271.09382284     
   2073377763.3186996       -421542795.00918186        629456008.39703357     
   2601616688.1210632       -51989398.144904733        768688744.04831123     
   2439367636.4901352       -80365256.694463134        751962812.43761766     
   2274805319.1623096       -116452000.90034401        739765065.75467539     
   2107929736.1375983       -160249630.76251376        732095503.99948370     
   1938740887.4159863       -211758146.28101945        728954127.17204344     
   2376519016.5597935        10499901.659920096        889272698.31459320     
   2232424500.8618498        4008058.9513119459        872119747.23438334     
   2089006087.0484183       -230110.80891847610        859353481.36543286     
   1946263775.1194940       -2214607.6208012104        850973900.70772624     
   1804197565.0750747       -1945431.4843161106        846981005.26127529     
   2153132038.1774473        73502409.418422699        1014435029.8485450     
   2026787773.5082138        88773297.079495311        1000342654.8104563     
   1904108978.3048828        116262416.29359382        990495465.26712334     
   1785095652.5674727        155969767.06074631        984893461.21853840     
   1669747796.2959676        207895349.38092834        983536642.66470718     
   1931455752.9740219        137018125.13060498        1144175738.6501648     
   1822457454.4292123        173930457.69006252        1136631535.1658337     
   1720113992.9317219        233025580.40724784        1133191017.4597507     
   1624425368.4815319        314303493.28211367        1133854185.5319276     
   1535391581.0786691        417764196.31471545        1138621039.3823559     
   3768248897.9484882        1130474669.3845465        800569143.28288460     
   3779165657.4931860        1008765166.6766546        884850500.96681905     
   3790673133.6149788        889024719.22574508        974080516.57314348     
   3802771326.3138657        771253327.03181767        1068259190.1018577     
   3815460235.5898480        655450990.09487212        1167386521.5529625     
   3207778894.9679756        962333668.49039268        756726542.03915763     
   3235920582.9029951        868240448.64095402        853076670.75576687     
   3263775688.1067238        773191953.02054405        951355098.11366725     
   3291344210.5791597        677188181.62916183        1051561824.1128587     
   3318626150.3203053        580229134.46680880        1153696848.7533410     
   2685599004.1679559        805679701.25038671        722029854.24122894     
   2722336022.5472999        736613884.87560213        829425238.13072908     
   2757909158.8869662        663668461.70189238        935728561.38042128     
   2792318413.1869559        586843431.72925711        1040939823.9903061     
   2825563785.4472666        506138794.95769608        1145059025.9603825     
   2201709225.5484295        660512767.66452885        696479079.88909864     
   2238411976.4261007        613885475.38059902        813896203.09170616     
   2273073545.9557085        560454245.26979005        927200906.37340665     
   2305693934.1372528        500219077.33210248        1036393189.7342004     
   2336273140.9707327        433179971.56753498        1141473053.1740873     
   1756109559.1093950        526832867.73281848        680074218.98276651     
   1784148444.5393970        500055220.15594459        806489565.63869727     
   1809268849.3129492        463549303.72423804        925772133.09262240     
   1831470773.4300511        417315118.43769830        1037921921.3445414     
   1850754216.8907032        361352664.29632562        1142938930.3944550     
   3815460235.5898480        655450990.09487212        1167386521.5529625     
   3797936150.3588481        537395705.74194551        1189058744.3562751     
   3784312085.4317040        432340489.06854439        1205807525.3051825     
   3774588040.8084202        340285340.07467365        1217632864.3996837     
   3768764016.4889941        261230258.76033080        1224534761.6397824     
   3318626150.3203053        580229134.46680880        1153696848.7533410     
   3293887408.5244112        472940707.31617630        1182067150.9410765     
   3272914474.3869505        378204972.36032224        1207326499.8096921     
   3255707347.9079247        296021929.59925079        1229474895.3591881     
   3242266029.0873318        226391579.03295743        1248512337.5895653     
   2825563785.4472666        506138794.95769608        1145059025.9603825     
   2798788925.7587228        411170786.61103255        1179970826.1128793     
   2775645661.0831881        328308094.97439873        1213584161.4815414     
   2756133991.4206634        257550720.04779816        1245899032.0663698     
   2740253916.7711473        198898661.83122683        1276915437.8673635     
   2336273140.9707327        433179971.56753498        1141473053.1740873     
   2312640702.0617838        352085943.62651300        1182769769.8716831     
   2292505645.5204191        282649856.91077387        1224580510.3207300     
   2275867971.3466382        224871711.42031604        1266905274.5212274     
   2262727679.5404449        178751507.15514207        1309744062.4731765     
   1850754216.8907032        361352664.29632562        1142938930.3944550     
   1835442737.4335926        295686178.36261857        1190463982.2174878     
   1823494427.6986406        241230258.16944391        1240315546.3272572     
   1814909287.6858499        197984903.71680540        1292493622.7237628     
   1809687317.3952191        165950115.00469893        1346998211.4070048     
   3768764016.4889941        261230258.76033080        1224534761.6397824     
   3661994655.1212583        169197751.42007029        1192272106.0750551     
   3562735938.3432279        102200726.04550242        1170553013.7328985     
   3470987866.1549077        60239182.636627674        1159377484.6133173     
   3386750438.5562940        43313121.193450689        1158745518.7163060     
   3242266029.0873318        226391579.03295743        1248512337.5895653     
   3165116459.8869705        152395075.88932514        1231443476.1555457     
   3093923933.0523009        98255380.631337047        1222453352.1977122     
   3028688448.5833240        63972493.258992076        1221541965.7160659     
   2969410006.4800415        49546413.772293448        1228709316.7106042     
   2740253916.7711473        198898661.83122683        1276915437.8673635     
   2685681780.4627705        140825455.10160744        1273227834.6360362     
   2635513084.2960725        97430382.177582622        1275154143.1345072     
   2589747828.2710519        68713443.059149265        1282694363.3627775     
   2548386012.3877096        54674637.746310830        1295848495.3208480     
   2262727679.5404449        178751507.15514207        1309744062.4731765     
   2223690616.8486624        134488889.05691743        1317625181.5165215     
   2187503392.0745440        99725730.684237599        1328655386.5432801     
   2154166005.2180872        74462032.037099600        1342834677.5534515     
   2123678456.2792945        58697793.115504861        1360163054.5470357     
   1809687317.3952191        165950115.00469893        1346998211.4070048     
   1779142969.0446424        133385377.75525272        1364635516.7970059     
   1749894856.3877137        105141426.15129960        1382957082.4240341     
   1721942979.4244330        81218260.192839921        1401962908.2880886     
   1695287338.1548004        61615879.879873633        1421652994.3891699     
   3386750438.5562940        43313121.193450689        1158745518.7163060     
   3294221153.3545380        36137166.295624733        1151641209.9503951     
   3202250012.8990874        30821693.885484815        1148339660.1565108     
   3110837017.1899481        27366703.963047862        1148840869.3346546     
   3019982166.2271137        25772196.528300643        1153144837.4848235     
   2969410006.4800415        49546413.772293448        1228709316.7106042     
   2886020760.7970309        38145588.429761648        1221312105.2724910     
   2803438315.7492628        29434098.538046479        1218117904.5947795     
   2721662671.3367386        23411944.097141147        1219126714.6774688     
   2640693827.5594625        20079125.107056856        1224338535.5205584     
   2548386012.3877096        54674637.746310830        1295848495.3208480     
   2475280382.7616549        39392014.920543194        1288448479.7476254     
   2403230209.6597815        27627580.508709550        1285651726.7231772     
   2332235493.0820880        19381334.510809302        1287458236.2475038     
   2262296233.0285754        14653276.926843047        1293868008.3206065     
   2123678456.2792945        58697793.115504861        1360163054.5470357     
   2062000019.2484097        39876445.767961383        1353050333.3757944     
   2001625694.6306415        25402139.797472239        1350941126.5417027     
   1942555482.4259903        15274875.204041362        1353835434.0447602     
   1884789382.6344535        9494651.9876550436        1361733255.8849642     
   1695287338.1548004        61615879.879873633        1421652994.3891699     
   1646179670.2572970        39598880.972020924        1415117666.1570017     
   1598624770.6618464        22757776.404345334        1413986104.0503554     
   1552622639.3684464        11092566.176837862        1418258308.0692353     
   1508173276.3770981        4603250.2895036936        1427934278.2136354     
   3019982166.2271137        25772196.528300643        1153144837.4848235     
   2926631912.7340975        25103107.914242744        1144721173.1963780     
   2833827276.8550463        26252744.680067182        1141305597.9328949     
   2741568258.5899553        29221106.825759411        1142898111.6943731     
   2649854857.9388270        34008194.351326942        1149498714.4808109     
   2640693827.5594625        20079125.107056856        1224338535.5205584     
   2559857307.5965171        18764912.575634956        1216714716.6693914     
   2479518762.3704324        19110615.833744884        1213857632.4127088     
   2399678191.8812079        21116234.881393909        1215767282.7505157     
   2320335596.1288476        24781769.718583226        1222443667.6828063     
   2262296233.0285754        14653276.926843047        1293868008.3206065     
   2193283862.5086265        12487065.251924157        1286988451.5500998     
   2124721823.8484373        11821959.776205063        1284634274.9436023     
   2056610117.0480111        12657960.499693751        1286805478.5011165     
   1988948742.1073453        14995067.422382474        1293502062.2226408     
   1884789382.6344535        9494651.9876550436        1361733255.8849642     
   1826911577.4704297        6269565.9431231022        1355542377.8385007     
   1769436461.2890663        4386776.5074541569        1353635525.5255742     
   1712364034.0903623        3846283.6806561947        1356012698.9461787     
   1655694295.8743212        4648087.4627268314        1362673898.1003230     
   1508173276.3770981        4603250.2895036936        1427934278.2136354     
   1460740452.4819288        112414.64923673868        1422376495.5345969     
   1413662674.6923149       -3194933.9725117683        1420861384.1586199     
   1366939943.0082660       -5318795.5757116675        1423388944.0857027     
   1320572257.4297719       -6259170.1603929400        1429959175.3158438     
   2649854857.9388270        34008194.351326942        1149498714.4808109     
   2547644372.6312404        36496194.979492068        1142178400.8165557     
   2445448734.6544290        39033686.710246205        1139224092.8421862     
   2343267944.0084085        41620669.543627620        1140635790.5577114     
   2241102000.6931596        44257143.479587078        1146413493.9631164     
   2320335596.1288476        24781769.718583226        1222443667.6828063     
   2229339189.1037512        25811730.438999057        1214634197.3189757     
   2138412215.6484141        27073136.391955614        1211421406.0766592     
   2047554675.7628405        28565987.577452660        1212805293.9558499     
   1956766569.4470243        30290283.995481968        1218785860.9565449     
   1988948742.1073453        14995067.422382474        1293502062.2226408     
   1909825480.3122246        14764708.319302559        1285267119.1047206     
   1830826238.3258464        14947748.578695893        1281859528.5399272     
   1751951016.1482112        15544188.200565815        1283279290.5282607     
   1673199813.7793169        16554027.184906781        1289526405.0697236     
   1655694295.8743212        4648087.4627268314        1362673898.1003230     
   1589103246.2566640        3355128.6203887463        1354077166.1737809     
   1522690802.6867318        2657523.2704737782        1350538460.2319911     
   1456456965.1645186        2555271.4129534364        1352057780.2749460     
   1390401733.6900327        3048373.0478610396        1358635126.3026528     
   1320572257.4297719       -6259170.1603929400        1429959175.3158438     
   1267172486.9370668       -8417008.6577277780        1421064338.5261619     
   1214005908.7310665       -9797539.5327143669        1417458201.1528518     
   1161072522.8117666       -10400762.785366952        1419140763.1959097     
   1108372329.1791735       -10226678.415663838        1426112024.6553388     
   2241102000.6931596        44257143.479587078        1146413493.9631164     
   2160450206.6896095        56646615.313119769        1140006581.1538551     
   2081958567.4018967        76236602.866117239        1137497984.3319459     
   2005627082.8300381        103027106.13862121        1138887703.4973767     
   1931455752.9740219        137018125.13060498        1144175738.6501648     
   1956766569.4470243        30290283.995481968        1218785860.9565449     
   1885539081.4614160        40318488.457405210        1214803259.3223155     
   1815848130.8147237        55468484.049051762        1214716715.7233667     
   1747693717.5069482        75740270.770423710        1218526230.1597104     
   1681075841.5380900        101133848.62151420        1226231802.6313343     
   1673199813.7793169        16554027.184906781        1289526405.0697236     
   1611390180.5200467        24219028.887749791        1287240561.0041049     
   1550493467.2227626        34927097.130546331        1288848517.0217092     
   1490509673.8874724        48678231.913317084        1294350273.1225371     
   1431438800.5141611        65472433.236035943        1303745829.3065929     
   1390401733.6900327        3048373.0478610396        1358635126.3026528     
   1338003503.8654938        8348236.6041300297        1357318486.1992288     
   1285894576.6260152        14612442.110603392        1359893388.2269719     
   1234074951.9715967        21840989.567277133        1366359832.3858705     
   1182544629.9022388        30033878.974150538        1376717818.6759379     
   1108372329.1791735       -10226678.415663838        1426112024.6553388     
   1065379051.4977632       -7293888.3934364319        1425037034.9076924     
   1022051459.0244806       -5475481.0107789040        1427851329.3391516     
   978389551.75933909       -4771456.2676514387        1434554907.9497089     
   934393329.70231962       -5181814.1641206145        1445147770.7393677     
   1931455752.9740219        137018125.13060498        1144175738.6501648     
   1822457454.4292123        173930457.69006252        1136631535.1658337     
   1720113992.9317219        233025580.40724784        1133191017.4597507     
   1624425368.4815319        314303493.28211367        1133854185.5319276     
   1535391581.0786691        417764196.31471545        1138621039.3823559     
   1681075841.5380900        101133848.62151420        1226231802.6313343     
   1579041517.0197792        122597146.87377000        1224865492.5677137     
   1479884713.3818877        153652181.39408356        1228317561.5863450     
   1383605430.6244206        194298952.18246019        1236588009.6872268     
   1290203668.7473578        244537459.23889038        1249676836.8703675     
   1431438800.5141611        65472433.236035943        1303745829.3065929     
   1338410430.8909199        72099291.441639543        1304150543.8023045     
   1244482265.9812031        75726832.025668025        1310088330.6842682     
   1149654305.7850082        76355054.988099694        1321559189.9524934     
   1053926550.3023400        73983960.328953236        1338563121.6069620     
   1182544629.9022388        30033878.974150538        1376717818.6759379     
   1100564196.0426340        22436891.393689394        1374486688.8696074     
   1013906650.7296611       -750467.69800335169        1378503324.7535319     
   922571993.96331573       -39528198.300939739        1388767726.3277073     
   826560225.74359870       -93896300.415104270        1405279893.5921328     
   934393329.70231962       -5181814.1641206145        1445147770.7393677     
   865502812.47491968       -26390053.270099044        1435873927.7696173     
   788157867.62726247       -75779717.776926696        1433562543.7941258     
   702358495.15933371       -153350807.68466482        1438213618.8128822     
   608104695.07114601       -259103322.99326846        1449827152.8258972     
   1756109559.1093950        526832867.73281848        680074218.98276651     
   1784148444.5393970        500055220.15594459        806489565.63869727     
   1809268849.3129492        463549303.72423804        925772133.09262240     
   1831470773.4300511        417315118.43769830        1037921921.3445414     
   1850754216.8907032        361352664.29632562        1142938930.3944550     
   1326518584.5958858        397955575.37876570        669721656.53395498     
   1339694328.6613119        375518117.54119784        791877647.54750240     
   1350681188.8584075        345784380.14252847        908731649.85046554     
   1359479165.1871727        308754363.18275785        1020283663.4428439     
   1366088257.6476076        264428066.66188544        1126533688.3246374     
   890654881.75293267        267196464.52587980        662327777.55438614     
   894198314.42927206        250668445.42026466        781075609.17835629     
   896282460.02540028        229276136.04727933        896352242.58316338     
   896907318.54131746        203019536.40692389        1008157677.7688067     
   896072889.97702348        171898646.49919814        1116491914.7352860     
   448518450.58053678        134555535.17416105        657892582.04406011     
   447660401.84327793        125506203.79314522        774083450.53125930     
   446072662.81392741        114024571.43849063        888633911.29071617     
   443755233.49248517        100110638.11019686        1001543964.3224301     
   440708113.87895161        83764403.808265015        1112813609.6264019     
   109291.07869747657        32787.323609242965        656416070.00297654     
   80590.903329283057        31392.659839360625        770901171.60621059     
   51797.223988867765        29686.316161985593        885576655.97312307     
   22910.040676227833        27668.292577325174        1000442523.1037142     
  -6070.6466086910787        25338.589084894698        1115498772.9979842     
   1850754216.8907032        361352664.29632562        1142938930.3944550     
   1835442737.4335926        295686178.36261857        1190463982.2174878     
   1823494427.6986406        241230258.16944391        1240315546.3272572     
   1814909287.6858499        197984903.71680540        1292493622.7237628     
   1809687317.3952191        165950115.00469893        1346998211.4070048     
   1366088257.6476076        264428066.66188544        1126533688.3246374     
   1360498094.7811222        216946858.51572046        1181933478.3110795     
   1357429693.7870011        177871523.27743685        1238288089.2833714     
   1356883054.6652429        147202060.94703060        1295597521.2415144     
   1358858177.4158499        124938471.52450615        1353861774.1855087     
   896072889.97702348        171898646.49919814        1116491914.7352860     
   896284925.69863403        141426980.73981741        1178784800.3937078     
   898177315.44281256        116556495.05566344        1240660815.7370949     
   901750059.20955837        97287189.446733326        1302119960.7654464     
   907003156.99887180        83619063.913029522        1363162235.4787636     
   440708113.87895161        83764403.808265015        1112813609.6264019     
   442803230.18612754        69126545.034909084        1181017948.4653740     
   445737292.66607517        57285173.504125565        1247433725.6884263     
   449510301.31879354        48240289.215910971        1312060941.2955575     
   454122256.14428371        41991892.170269623        1374899595.2867677     
  -6070.6466086910787        25338.589084894698        1115498772.9979842     
   53008.243602703864        45551.400995011674        1188632922.5260782     
   109625.45678951999        57558.622823632933        1258606819.1373661     
   163780.99295079400        61360.254567070522        1325420462.8318479     
   215474.85208745705        56956.296228124549        1389073853.6095243     
   1809687317.3952191        165950115.00469893        1346998211.4070048     
   1779142969.0446424        133385377.75525272        1364635516.7970059     
   1749894856.3877137        105141426.15129960        1382957082.4240341     
   1721942979.4244330        81218260.192839921        1401962908.2880886     
   1695287338.1548004        61615879.879873633        1421652994.3891699     
   1358858177.4158499        124938471.52450615        1353861774.1855087     
   1333123473.8516574        99675870.219845831        1372792001.6894996     
   1308370702.4891474        77686376.254128635        1393052587.4202707     
   1284599863.3283219        58969989.627358556        1414643531.3778210     
   1261810956.3691792        43526710.339531660        1437564833.5621505     
   907003156.99887180        83619063.913029522        1363162235.4787636     
   887924092.47749996        66212396.830087036        1383018697.6894522     
   869512656.66584742        51031158.779540718        1404851616.1166742     
   851768849.56391299        38075349.761389405        1428660990.7604280     
   834692671.17169738        27344969.775633276        1454446821.6207137     
   454122256.14428371        41991892.170269623        1374899595.2867677     
   443544824.92217040        32994957.585976705        1395315604.7968633     
   433320718.91781110        25175773.727530316        1418354168.5132430     
   423449938.13120508        18534340.594928920        1444015286.4359081     
   413932482.56235451        13070658.188177422        1472298958.5648584     
   215474.85208745705        56956.296228124549        1389073853.6095243     
  -14328.814331094274        23552.487514810058        1409682723.0117321     
  -205110.75496070925        120221.09809777648        1433560244.6099787     
  -356870.96980039863        346962.12798049516        1460706418.4042637     
  -469609.45885130024        703775.57715934620        1491121244.3945863     
   1695287338.1548004        61615879.879873633        1421652994.3891699     
   1646179670.2572970        39598880.972020924        1415117666.1570017     
   1598624770.6618464        22757776.404345334        1413986104.0503554     
   1552622639.3684464        11092566.176837862        1418258308.0692353     
   1508173276.3770981        4603250.2895036936        1427934278.2136354     
   1261810956.3691792        43526710.339531660        1437564833.5621505     
   1227834704.9310329        27958497.692718983        1434502541.7223523     
   1195007028.9734354        16218869.981066406        1436187853.4347606     
   1163327928.4963813        8307827.2045589089        1442620768.6993711     
   1132797403.4998734        4225369.3632073998        1453801287.5161850     
   834692671.17169738        27344969.775633276        1454446821.6207137     
   813973085.98342538        17663118.327014029        1454386007.8815315     
   793997883.45419431        10462542.408531755        1458416635.1212332     
   774767063.58400464        5743242.0201874077        1466538703.3398221     
   756280626.37285674        3505217.1619802415        1478752212.5372932     
   413932482.56235451        13070658.188177422        1472298958.5648584     
   404594813.41447288        8712742.8749064356        1474768064.6345356     
   395597334.10412598        5488793.6867506057        1480672449.1097794     
   386940044.63131654        3398810.6237195134        1490012111.9905872     
   378622944.99604446        2442793.6858135611        1502787053.2769632     
  -469609.45885130024        703775.57715934620        1491121244.3945863     
  -300112.77582487633        1107371.3363935563        1495648711.9813657     
  -194619.07676929265        1297623.8157242720        1502955295.4003935     
  -153128.36168106069        1274533.0151645089        1513040994.6516669     
  -175640.63056250225        1038098.9347051403        1525905809.7351873     
   1508173276.3770981        4603250.2895036936        1427934278.2136354     
   1460740452.4819288        112414.64923673868        1422376495.5345969     
   1413662674.6923149       -3194933.9725117683        1420861384.1586199     
   1366939943.0082660       -5318795.5757116675        1423388944.0857027     
   1320572257.4297719       -6259170.1603929400        1429959175.3158438     
   1132797403.4998734        4225369.3632073998        1453801287.5161850     
   1096352914.9048481        493191.85975712538        1448294473.8637717     
   1060160599.8957282       -2398407.0240073800        1447022479.5691407     
   1024220458.4725125       -4449427.2880919576        1449985304.6322966     
   988532490.63520384       -5659868.9324861169        1457182949.0532396     
   756280626.37285674        3505217.1619802415        1478752212.5372932     
   731373467.52004898        696396.12797242403        1473176349.9719062     
   706615609.73349166       -1614754.6852025986        1472027454.8190296     
   682007053.01318693       -3428235.2775354385        1475305527.0786617     
   657547797.35913432       -4744045.6490280032        1483010566.7508068     
   378622944.99604446        2442793.6858135611        1502787053.2769632     
   365802110.32752806        722027.45386922359        1497022123.8590033     
   353027704.20560795       -843976.95608632267        1495876309.9082818     
   340299726.63028514       -2255219.5440509915        1499349611.4247954     
   327618177.60156012       -3511700.3100238293        1507442028.4085457     
  -175640.63056250225        1038098.9347051403        1525905809.7351873     
  -361156.67271622748        570085.83744407853        1519831795.5250621     
  -603116.68792558124       -86073.836668731397        1518569044.8368990     
  -901520.67619572184       -930380.08765117789        1522117557.6706975     
  -1256368.6375170304       -1962832.9154705033        1530477334.0264583     
   1320572257.4297719       -6259170.1603929400        1429959175.3158438     
   1267172486.9370668       -8417008.6577277780        1421064338.5261619     
   1214005908.7310665       -9797539.5327143669        1417458201.1528518     
   1161072522.8117666       -10400762.785366952        1419140763.1959097     
   1108372329.1791735       -10226678.415663838        1426112024.6553388     
   988532490.63520384       -5659868.9324861169        1457182949.0532396     
   948896828.84005427       -7348707.2051736116        1448868893.1499836     
   909474429.65178823       -8326670.1215806007        1445745682.9304857     
   870265293.07040095       -8593757.6817245483        1447813318.3947380     
   831269419.09589446       -8149969.8856018186        1455071799.5427482     
   657547797.35913432       -4744045.6490280032        1483010566.7508068     
   631396662.16835499       -6047758.3250246048        1475254040.4408505     
   605438859.90463948       -6707027.9108108282        1472590506.0820358     
   579674390.56798017       -6721854.4064086080        1475019963.6743617     
   554103254.15838313       -6092237.8117995560        1482542413.2178264     
   327618177.60156012       -3511700.3100238293        1507442028.4085457     
   314671986.92197108       -4514162.0172781348        1500219780.3987646     
   301899199.48962152       -4938612.9004020393        1497992670.6075084     
   289299815.30450863       -4785052.9594028890        1500760699.0347788     
   276873834.36663330       -4053482.1942804605        1508523865.6805766     
  -1256368.6375170304       -1962832.9154705033        1530477334.0264583     
  -1277196.8991000173       -2747918.2819411368        1523766113.0237236     
  -1144551.5932643104       -3021425.0903494582        1521952176.5069017     
  -858432.72001456516       -2783353.3407108109        1525035524.4759917     
  -418840.27934944315       -2033703.0330212552        1533016156.9309955     
   1108372329.1791735       -10226678.415663838        1426112024.6553388     
   1065379051.4977632       -7293888.3934364319        1425037034.9076924     
   1022051459.0244806       -5475481.0107789040        1427851329.3391516     
   978389551.75933909       -4771456.2676514387        1434554907.9497089     
   934393329.70231962       -5181814.1641206145        1445147770.7393677     
   831269419.09589446       -8149969.8856018186        1455071799.5427482     
   798279308.21100616       -6282467.9247820973        1453590865.6726491     
   764826694.21667647       -5956642.9954330325        1456161227.0195613     
   730911577.11291516       -7172495.0975234807        1462782883.5834844     
   696533956.89971697       -9930024.2310720682        1473455835.3644199     
   554103254.15838313       -6092237.8117995560        1482542413.2178264     
   531579198.74975371       -5151157.3084896207        1480505982.1881135     
   508464451.91412228       -6179048.2285189033        1482682857.4133208     
   484759013.65148890       -9175910.5718894899        1489073038.8934510     
   460462883.96185076       -14141744.338605940        1499676526.6284974     
   276873834.36663330       -4053482.1942804605        1508523865.6805766     
   265278723.11401060       -3899956.5445410460        1505782384.4540854     
   252964732.11682001       -6142696.7100291699        1507416220.5204229     
   239931861.37506008       -10781702.690749601        1513425373.8795919     
   226180110.88872463       -17816974.486719415        1523809844.5315938     
  -418840.27934944315       -2033703.0330212552        1533016156.9309955     
  -622118.69622167060       -2528865.6329309191        1529420072.4705601     
  -1672465.1752264043       -5847588.4399510194        1530361316.3408689     
  -3569879.7163785365       -11989871.454128074        1535839888.5419192     
  -6314362.3196591949       -20955714.675400212        1545855789.0737114     
   934393329.70231962       -5181814.1641206145        1445147770.7393677     
   865502812.47491968       -26390053.270099044        1435873927.7696173     
   788157867.62726247       -75779717.776926696        1433562543.7941258     
   702358495.15933371       -153350807.68466482        1438213618.8128822     
   608104695.07114601       -259103322.99326846        1449827152.8258972     
   696533956.89971697       -9930024.2310720682        1473455835.3644199     
   647279467.21778655       -24209268.413370669        1457221434.2577538     
   593833422.92565227       -52460361.296347171        1447530211.9017329     
   536195824.02330345       -94683302.880038977        1444382168.2963543     
   474366670.51075089       -150878093.16441706        1447777303.4416280     
   460462883.96185076       -14141744.338605940        1499676526.6284974     
   429646478.27222747       -21851376.663171768        1481454919.2299745     
   398901390.98244995       -29323280.988247871        1469357210.3384876     
   368227622.09251672       -36557457.313843295        1463383399.9540339     
   337625171.60243344       -43553905.639942393        1463533488.0766251     
   226180110.88872463       -17816974.486719415        1523809844.5315938     
   212603845.63823944       -19316378.019507334        1508574382.6862795     
   203361771.79765421       -6368476.8526286632        1499043539.1043899     
   198453889.36697429        21026729.013937257        1495217313.7859373     
   197880198.34619120        62869239.580154881        1497095706.7309079     
  -6314362.3196591949       -20955714.675400212        1545855789.0737114     
  -3848430.6841702638       -16604272.482356099        1538579824.6266689     
   7214565.3712701444        16404051.110524883        1536589198.1994462     
   26874625.846670974        78069256.103273943        1539883909.7920377     
   55131750.742027178        168391342.49587563        1548463959.4044600     
   109291.07869747657        32787.323609242965        656416070.00297654     
   80590.903329283057        31392.659839360625        770901171.60621059     
   51797.223988867765        29686.316161985593        885576655.97312307     
   22910.040676227833        27668.292577325174        1000442523.1037142     
  -6070.6466086910787        25338.589084894698        1115498772.9979842     
  -448308465.29250646       -134492539.58775192        657894919.10310316     
  -447506792.13153726       -125459843.63950349        774082744.36512840     
  -445973556.85023952       -113988607.29016045        888634145.44249976     
  -443708759.44861346       -100078830.53972317        1001549122.3352174     
  -440712399.92665905       -83730513.388190955        1112827675.0432806     
  -890470687.07299685       -267141206.12189907        662325807.01640713     
  -894058088.99949718       -250640254.08877432        781069954.16557455     
  -896182273.18136859       -229261909.57355323        896350870.18175530     
  -896843239.61861086       -203006172.57623559        1008168555.0649495     
  -896040988.31122422       -171873043.09682131        1116523008.8151579     
  -1326377374.2627733       -397913212.27883202        669708733.74288845     
  -1339573299.7005508       -375509838.68797326        791862801.00754845     
  -1350574351.7693980       -345790220.53401577        908726830.19088924     
  -1359380530.4693160       -308754357.81696022        1020300821.2929114     
  -1365991835.8003042       -264402250.53680572        1126584774.3136146     
  -1756028526.8618364       -526808558.05855095        680043699.28254724     
  -1784052424.2346976       -500068597.43710017        806461284.89105046     
  -1809149792.6143281       -463573540.17154914        925762025.46990228     
  -1831320632.0007286       -417323386.26189744        1037945921.0191029     
  -1850564942.3938992       -361318135.70814502        1143012971.5386517     
  -6070.6466086910787        25338.589084894698        1115498772.9979842     
   53008.243602703864        45551.400995011674        1188632922.5260782     
   109625.45678951999        57558.622823632933        1258606819.1373661     
   163780.99295079400        61360.254567070522        1325420462.8318479     
   215474.85208745705        56956.296228124549        1389073853.6095243     
  -440712399.92665905       -83730513.388190955        1112827675.0432806     
  -442696594.75139761       -69048954.229725793        1181032156.5193079     
  -445526148.41452587       -57185257.865892783        1247441754.2822049     
  -449201060.91604269       -48139424.296687827        1312056468.3319726     
  -453721332.25594926       -41911453.522116318        1374876298.6686106     
  -896040988.31122422       -171873043.09682131        1116523008.8151579     
  -896167401.98326659       -141359821.13150787        1178814442.2175257     
  -897982071.65506232       -116474119.16537297        1240676361.1104405     
  -901484997.32661164       -97215937.198416442        1302108765.4939022     
  -906676178.99791479       -83585275.230638981        1363111655.3679104     
  -1365991835.8003042       -264402250.53680572        1126584774.3136146     
  -1360359413.4520035       -216887049.30435014        1181979779.6207325     
  -1357258144.2648208       -177809025.27562195        1238310639.6220739     
  -1356688028.2387555       -147168178.45061731        1295577354.3176374     
  -1358649065.3738077       -124964508.82933837        1353779923.7074246     
  -1850564942.3938992       -361318135.70814502        1143012971.5386517     
  -1835272629.1576085       -295630638.74825275        1190528168.7289279     
  -1823354366.2438006       -241189976.19663519        1240344589.8171031     
  -1814810153.6524744       -197996148.05329007        1292462234.8031783     
  -1809639991.3836300       -166049154.31821960        1346881103.6871519     
   215474.85208745705        56956.296228124549        1389073853.6095243     
  -14328.814331094274        23552.487514810058        1409682723.0117321     
  -205110.75496070925        120221.09809777648        1433560244.6099787     
  -356870.96980039863        346962.12798049516        1460706418.4042637     
  -469609.45885130024        703775.57715934620        1491121244.3945863     
  -453721332.25594926       -41911453.522116318        1374876298.6686106     
  -443574273.43427444       -33013200.075510219        1395371263.3326724     
  -433722459.97845769       -25099097.848431945        1418518626.0403085     
  -424165891.88849801       -18169146.840875864        1444318386.7915213     
  -414904569.16439629       -12223347.052847087        1472770545.5863078     
  -906676178.99791479       -83585275.230638981        1363111655.3679104     
  -887912983.83804083       -66283582.373682171        1383102737.0202374     
  -869779301.13567221       -51080264.375075400        1405129962.5636771     
  -852275130.89080727       -37975321.234814942        1429193331.9982276     
  -835400473.10344803       -26968752.952907264        1455292845.3238921     
  -1358649065.3738077       -124964508.82933837        1353779923.7074246     
  -1333030460.0256310       -99787594.407003343        1372877144.0744290     
  -1308375634.2266042       -77823278.481833994        1393394254.1800823     
  -1284684587.9767303       -59071561.053840220        1415331254.0243847     
  -1261957321.2760069       -43532442.123017013        1438688143.6073351     
  -1809639991.3836300       -166049154.31821960        1346881103.6871519     
  -1778926701.9970427       -133525236.17546654        1364694484.4952450     
  -1749511459.2512546       -105328140.16870952        1383311500.8895249     
  -1721394263.1462648       -81457866.297947586        1402732152.8699903     
  -1694575113.6820743       -61914414.563183486        1422956440.4366417     
  -469609.45885130024        703775.57715934620        1491121244.3945863     
  -300112.77582487633        1107371.3363935563        1495648711.9813657     
  -194619.07676929265        1297623.8157242720        1502955295.4003935     
  -153128.36168106069        1274533.0151645089        1513040994.6516669     
  -175640.63056250225        1038098.9347051403        1525905809.7351873     
  -414904569.16439629       -12223347.052847087        1472770545.5863078     
  -405303456.59495091       -7355370.8423995078        1475191127.9484992     
  -396184962.74614483       -4096123.7007486671        1481057441.9792550     
  -387549087.61797547       -2445605.6278861910        1490369487.6785750     
  -379395831.21044528       -2403816.6238231063        1503127265.0464594     
  -835400473.10344803       -26968752.952907264        1455292845.3238921     
  -814463127.97238994       -17065011.288684785        1455118157.4353788     
  -794427017.29864085       -10165384.482159197        1459055817.0517483     
  -775292141.08219743       -6269872.5333200991        1467105824.1730001     
  -757058499.32306254       -5378475.4421758950        1479268178.7991345     
  -1261957321.2760069       -43532442.123017013        1438688143.6073351     
  -1227779126.9081426       -28021550.002464175        1435429800.4420049     
  -1194920782.7342553       -16910158.528502047        1436950420.6178746     
  -1163382288.7543449       -10198267.701128364        1443250004.1349440     
  -1133163644.9684124       -7885877.5203488469        1454328550.9932139     
  -1694575113.6820743       -61914414.563183486        1422956440.4366417     
  -1645251453.4022088       -40224986.983737588        1416126056.9683785     
  -1597666259.0529914       -24330445.839784443        1414741252.6776330     
  -1551819530.6344194       -14230791.131315053        1418802027.5644054     
  -1507711268.1464942       -9926022.8583380580        1428308381.6286950     
  -175640.63056250225        1038098.9347051403        1525905809.7351873     
  -361156.67271622748        570085.83744407853        1519831795.5250621     
  -603116.68792558124       -86073.836668731397        1518569044.8368990     
  -901520.67619572184       -930380.08765117789        1522117557.6706975     
  -1256368.6375170304       -1962832.9154705033        1530477334.0264583     
  -379395831.21044528       -2403816.6238231063        1503127265.0464594     
  -367022194.01694638       -1860050.1214369684        1497455523.1210403     
  -354669764.52311498       -1386975.9512747377        1496399917.1780887     
  -342338542.72895205       -984594.11334037781        1499960447.2176046     
  -330028528.63445675       -652904.60763351619        1508137113.2395878     
  -757058499.32306254       -5378475.4421758950        1479268178.7991345     
  -732683216.14960802       -3990181.5168466568        1474039818.1440418     
  -708293904.40243101       -2555125.6791085601        1473232465.9319229     
  -683890564.08153713       -1073307.9289814830        1476846122.1627767     
  -659473195.18692148        455271.73355096579        1484880786.8366034     
  -1133163644.9684124       -7885877.5203488469        1454328550.9932139     
  -1097344223.0707009       -5820308.3487885594        1449584680.5940661     
  -1061475536.3258789       -3590523.0201903582        1449066691.0983982     
  -1025557584.7339512       -1196521.5345745683        1452774582.5062106     
  -989590368.29491138        1361696.1080803871        1460708354.8174965     
  -1507711268.1464942       -9926022.8583380580        1428308381.6286950     
  -1461005214.7802236       -7350430.6172537208        1424090110.4711149     
  -1414214660.2934539       -4493167.9745040536        1423902592.6775184     
  -1367339604.6861908       -1354234.9301105142        1427745828.2479081     
  -1320380047.9584293        2066368.5159448385        1435619817.1822786     
  -1256368.6375170304       -1962832.9154705033        1530477334.0264583     
  -1277196.8991000173       -2747918.2819411368        1523766113.0237236     
  -1144551.5932643104       -3021425.0903494582        1521952176.5069017     
  -858432.72001456516       -2783353.3407108109        1525035524.4759917     
  -418840.27934944315       -2033703.0330212552        1533016156.9309955     
  -330028528.63445675       -652904.60763351619        1508137113.2395878     
  -316869814.73923928       -241622.96077324450        1501258825.6522062     
  -303805289.49537969       -144303.48510386050        1499345278.2349129     
  -290834952.90288699       -360946.18065989017        1502396470.9877081     
  -277958804.96175015       -891551.04740078747        1510412403.9105914     
  -659473195.18692148        455271.73355096579        1484880786.8366034     
  -632942208.60868824        2120739.5516017377        1477546493.4093349     
  -606753072.90058994        2646704.4692028463        1475244395.8363302     
  -580905788.06263101        2033166.4863394201        1477974494.1175890     
  -555400354.09480727        280125.60302445292        1485736788.2531145     
  -989590368.29491138        1361696.1080803871        1460708354.8174965     
  -949494378.50744462        4339169.2551878095        1452629116.2951050     
  -909987901.80889285        5351598.7725803256        1449649529.3111529     
  -871070938.19924998        4398984.6602762938        1451769593.8656416     
  -832743487.67852306        1481326.9182529449        1458989309.9585702     
  -1320380047.9584293        2066368.5159448385        1435619817.1822786     
  -1266526324.4355128        6413666.1499737501        1426506694.3095229     
  -1213509776.2202840        7970379.4250429273        1422560678.6593826     
  -1161330403.3127456        6736508.3411430717        1423781770.2318590     
  -1109988205.7128959        2712052.8982841969        1430169969.0269506     
  -418840.27934944315       -2033703.0330212552        1533016156.9309955     
  -622118.69622167060       -2528865.6329309191        1529420072.4705601     
  -1672465.1752264043       -5847588.4399510194        1530361316.3408689     
  -3569879.7163785365       -11989871.454128074        1535839888.5419192     
  -6314362.3196591949       -20955714.675400212        1545855789.0737114     
  -277958804.96175015       -891551.04740078747        1510412403.9105914     
  -266932910.76990843       -2542666.1827669889        1506109073.9152098     
  -256185641.64792219       -5122531.5509819984        1506172998.9501300     
  -245716997.59578130       -8631147.1520178169        1510604179.0153449     
  -235526978.61348894       -13068512.985880360        1519402614.1108558     
  -555400354.09480727        280125.60302445292        1485736788.2531145     
  -533631211.00981385       -2672719.1824794710        1481389396.2137914     
  -511572250.00238144       -4659504.2265211940        1481239185.9043226     
  -489223471.07251465       -5680229.5291131735        1485286157.3247063     
  -466584874.22020382       -5734895.0902276933        1493530310.4749384     
  -832743487.67852306        1481326.9182529449        1458989309.9585702     
  -800717019.41593266       -2919024.6320522130        1455261039.3663077     
  -767832290.23861408       -4458506.4665961266        1455559877.2034531     
  -734089300.14657629       -3137118.5854071379        1459885823.4700043     
  -699488049.13980699        1045139.0115492940        1468238878.1659653     
  -1109988205.7128959        2712052.8982841969        1430169969.0269506     
  -1068190335.9882646       -3281582.5314855576        1427724003.3727524     
  -1024965762.3566213       -4519538.2712143660        1429135072.8475170     
  -980314484.81796336       -1001814.3208963871        1434403177.4512417     
  -934236503.37228823        7271589.3194829226        1443528317.1839285     
  -6314362.3196591949       -20955714.675400212        1545855789.0737114     
  -3848430.6841702638       -16604272.482356099        1538579824.6266689     
   7214565.3712701444        16404051.110524883        1536589198.1994462     
   26874625.846670974        78069256.103273943        1539883909.7920377     
   55131750.742027178        168391342.49587563        1548463959.4044600     
  -235526978.61348894       -13068512.985880360        1519402614.1108558     
  -219040310.37237772       -8973807.5321016312        1519350193.3192034     
  -197894966.61525863        10649816.308369555        1524856863.4518857     
  -172090947.34212673        45802358.535547964        1535922624.5089090     
  -141628252.55298883        96483819.149414957        1552547476.4902589     
  -466584874.22020382       -5734895.0902276933        1493530310.4749384     
  -435295318.21771574       -1662281.0289796591        1496106646.2840731     
  -403285475.60316527        4811288.4058071077        1504515825.9220581     
  -370555346.37655556        13685813.214125901        1518757849.3888845     
  -337104930.53788632        24961293.395976499        1538832716.6845713     
  -699488049.13980699        1045139.0115492940        1468238878.1659653     
  -652613454.22018254        5330307.0270136595        1468849183.5212820     
  -608956961.59245634       -1111532.5971804261        1475566085.6099591     
  -568518571.25660908       -18280379.860976845        1488389584.4319925     
  -531298283.21265775       -46176234.764420778        1507319679.9873910     
  -934236503.37228823        7271589.3194829226        1443528317.1839285     
  -870994718.37978828        12003956.635848641        1437577805.0308199     
  -814909424.58312023       -7118646.7005648911        1438007642.5155830     
  -765980621.98229134       -50096220.689772844        1444817829.6382227     
  -724208310.57730043       -116928765.33177277        1458008366.3987381     
  -1756028526.8618364       -526808558.05855095        680043699.28254724     
  -1784052424.2346976       -500068597.43710017        806461284.89105046     
  -1809149792.6143281       -463573540.17154914        925762025.46990228     
  -1831320632.0007286       -417323386.26189744        1037945921.0191029     
  -1850564942.3938992       -361318135.70814502        1143012971.5386517     
  -2201686995.3716216       -660506098.61148643        696433439.60975575     
  -2238332289.0116196       -613882462.22964561        813862237.23842871     
  -2272934196.5202327       -560447538.74319100        927187496.05425024     
  -2305492717.8974628       -500201328.15212357        1036409216.0572201     
  -2336007853.1433082       -433143830.45644230        1141527397.2473381     
  -2685615630.2935638       -805684689.08806920        721980690.69888663     
  -2722272873.8669839       -736594543.04572380        829390367.00890875     
  -2757769874.1708674       -663636919.43825245        935709810.72287941     
  -2792106631.2052121       -586811818.26565433        1040939021.8407979     
  -2825283144.9700193       -506119239.52793044        1145078000.3626654     
  -3207814431.6276641       -962344329.48829913        756685452.54993963     
  -3235874178.8007936       -868204839.88533545        853045674.20249069     
  -3263656825.5662317       -773141682.25673246        951328969.47578955     
  -3291162371.9239779       -677154856.60249019        1051535338.3698372     
  -3318390817.8740320       -580244362.92260849        1153664780.8846323     
  -3768283399.3739214       -1130485019.8121765        800547725.16291475     
  -3779136203.8130460       -1008713352.7484800        884828158.81917405     
  -3790595050.7063255       -888961827.19863153        974044972.31298137     
  -3802659940.0537591       -771230443.16263032        1068198165.6443369     
  -3815330871.8553472       -655519200.64047813        1167287738.8132403     
  -1850564942.3938992       -361318135.70814502        1143012971.5386517     
  -1835272629.1576085       -295630638.74825275        1190528168.7289279     
  -1823354366.2438006       -241189976.19663519        1240344589.8171031     
  -1814810153.6524744       -197996148.05329007        1292462234.8031783     
  -1809639991.3836300       -166049154.31821960        1346881103.6871519     
  -2336007853.1433082       -433143830.45644230        1141527397.2473381     
  -2312460942.3779044       -352068044.57172602        1182792860.2199533     
  -2292408181.8852072       -282639426.26269865        1224555646.1036434     
  -2275849571.6652160       -224857975.52936065        1266815754.8984075     
  -2262785111.7179317       -178723692.37171185        1309573186.6042478     
  -2825283144.9700193       -506119239.52793044        1145078000.3626654     
  -2798635639.4949985       -411201365.56423795        1179953612.5090232     
  -2775602384.2429104       -328330992.34365177        1213522646.5796320     
  -2756183379.2137537       -257508119.86616898        1245785102.5744915     
  -2740378624.4075274       -198732748.13179219        1276740980.4936008     
  -3318390817.8740320       -580244362.92260849        1153664780.8846323     
  -3293796720.5088944       -473030601.72579062        1182010425.5961378     
  -3272936973.3169127       -378264674.43949366        1207245591.2450702     
  -3255811576.2980871       -295946581.06371677        1229370277.8314283     
  -3242420529.4524188       -226076321.59846175        1248384485.3552136     
  -3815330871.8553472       -655519200.64047813        1167287738.8132403     
  -3797944185.4195890       -537555753.05638325        1188963299.4812980     
  -3784411949.1072125       -432440472.55022609        1205724480.0999577     
  -3774734162.9182167       -340173359.12200153        1217571280.6692195     
  -3768910826.8526030       -260754412.77171898        1224503701.1890829     
  -1809639991.3836300       -166049154.31821960        1346881103.6871519     
  -1778926701.9970427       -133525236.17546654        1364694484.4952450     
  -1749511459.2512546       -105328140.16870952        1383311500.8895249     
  -1721394263.1462648       -81457866.297947586        1402732152.8699903     
  -1694575113.6820743       -61914414.563183486        1422956440.4366417     
  -2262785111.7179317       -178723692.37171185        1309573186.6042478     
  -2223292915.7125206       -134339608.34203553        1317592569.1488779     
  -2186688011.1566515       -99579829.144168496        1328824359.8402052     
  -2152970398.0503254       -74444354.778110266        1343268558.6782284     
  -2122140076.3935423       -58933185.243861675        1360925165.6629488     
  -2740378624.4075274       -198732748.13179219        1276740980.4936008     
  -2685225314.4675474       -140423836.02047074        1273112245.8312340     
  -2634548540.7858529       -97036711.436769009        1275104691.8760736     
  -2588348303.3624458       -68571374.380693555        1282718318.6281216     
  -2546624602.1973238       -55027824.852233529        1295953126.0873771     
  -3242420529.4524188       -226076321.59846175        1248384485.3552136     
  -3164723898.2621222       -151777919.21076977        1231253514.5423133     
  -3093093048.1388569       -97698787.046510458        1222152496.9971313     
  -3027527979.0826216       -63838925.105687976        1221081432.7196689     
  -2968028691.0934186       -50198333.388303161        1228040321.7099230     
  -3768910826.8526030       -260754412.77171898        1224503701.1890829     
  -3661788667.0962472       -168401857.91293383        1192016375.2821157     
  -3562321533.2156644       -101566055.97339249        1169967775.2033780     
  -3470509425.2108574       -60247006.953107119        1158357900.9528699     
  -3386352343.0818248       -44444710.852061033        1157186752.5305910     
  -1694575113.6820743       -61914414.563183486        1422956440.4366417     
  -1645251453.4022088       -40224986.983737588        1416126056.9683785     
  -1597666259.0529914       -24330445.839784443        1414741252.6776330     
  -1551819530.6344194       -14230791.131315053        1418802027.5644054     
  -1507711268.1464942       -9926022.8583380580        1428308381.6286950     
  -2122140076.3935423       -58933185.243861675        1360925165.6629488     
  -2060201177.2816513       -40373898.737355351        1353193590.6502278     
  -1999518584.2571027       -26002299.188658834        1350442806.5783792     
  -1940092297.3198962       -15818386.597767472        1352672813.4474030     
  -1881922316.4700320       -9822160.9646847248        1359883611.2573016     
  -2546624602.1973238       -55027824.852233529        1295953126.0873771     
  -2473398430.6438179       -39997069.335786462        1287882879.3473847     
  -2400946405.3343511       -27546801.299469709        1284328635.3116212     
  -2329268526.2689233       -17677020.743279457        1285290393.9800856     
  -2258364793.4475327       -10387727.667216063        1290768155.3527792     
  -2968028691.0934186       -50198333.388303161        1228040321.7099230     
  -2884843213.4887114       -39094498.779039025        1220193923.0598505     
  -2801949722.2847409       -28963952.172230124        1216398738.8773584     
  -2719348217.4815030       -19806693.567858219        1216654769.1624517     
  -2637038699.0789990       -11622722.965940118        1220962013.9151294     
  -3386352343.0818248       -44444710.852061033        1157186752.5305910     
  -3294535525.8163304       -37666187.067106485        1150126721.7876217     
  -3202528535.1082678       -30253751.806923509        1146653117.2755926     
  -3110331370.9576368       -22207405.071507096        1146765938.9945025     
  -3017944033.3644314       -13527146.860850453        1150465186.9443517     
  -1507711268.1464942       -9926022.8583380580        1428308381.6286950     
  -1461005214.7802236       -7350430.6172537208        1424090110.4711149     
  -1414214660.2934539       -4493167.9745040536        1423902592.6775184     
  -1367339604.6861908       -1354234.9301105142        1427745828.2479081     
  -1320380047.9584293        2066368.5159448385        1435619817.1822786     
  -1881922316.4700320       -9822160.9646847248        1359883611.2573016     
  -1824087389.4558232       -6264285.5746319294        1354903552.9412599     
  -1766537585.4261410       -3656820.1329939365        1354226732.5714242     
  -1709272904.3809841       -1999764.6397771835        1357853150.1477942     
  -1652293346.3203516       -1293119.0949734449        1365782805.6703680     
  -2258364793.4475327       -10387727.667216063        1290768155.3527792     
  -2188622465.4076147       -5614010.9148648977        1284595081.7557523     
  -2119534884.4572430       -3022784.4610048532        1282997730.6871514     
  -2051102050.5964193       -2614048.3056346178        1285976102.1469767     
  -1983323963.8251393       -4387802.4487496614        1293530196.1352291     
  -2637038699.0789990       -11622722.965940118        1220962013.9151294     
  -2554610442.6355972       -5399606.6379607916        1213164696.9145904     
  -2473206557.3867617       -2591060.9585409164        1210215587.0246990     
  -2392827043.3324971       -3197085.9276857376        1212114684.2454553     
  -2313471900.4727988       -7217681.5453898907        1218861988.5768578     
  -3017944033.3644314       -13527146.860850453        1150465186.9443517     
  -2922051321.1397686       -5621072.7439057827        1140612398.4177752     
  -2827552604.2146974       -2361649.6256024837        1135880301.5840693     
  -2734447882.5892167       -3748877.5059294701        1136268896.4432302     
  -2642737156.2633228       -9782756.3848862648        1141778182.9952605     
  -1320380047.9584293        2066368.5159448385        1435619817.1822786     
  -1266526324.4355128        6413666.1499737501        1426506694.3095229     
  -1213509776.2202840        7970379.4250429273        1422560678.6593826     
  -1161330403.3127456        6736508.3411430717        1423781770.2318590     
  -1109988205.7128959        2712052.8982841969        1430169969.0269506     
  -1652293346.3203516       -1293119.0949734449        1365782805.6703680     
  -1585775137.8924387        1173278.0930334330        1356153680.1115391     
  -1519698296.6780126        2168451.2360935211        1351533412.7445579     
  -1454062822.6770704        1692400.3342053294        1351922003.5694220     
  -1388868715.8896081       -254874.61262041330        1357319452.5861323     
  -1983323963.8251393       -4387802.4487496614        1293530196.1352291     
  -1904593410.5801480       -3937947.7331384420        1283846844.0002322     
  -1825908416.4544351       -3639956.7484607697        1279014101.0263140     
  -1747268981.4479997       -3493829.4947005510        1279031967.2134724     
  -1668675105.5608430       -3499565.9718803167        1283900442.5617056     
  -2313471900.4727988       -7217681.5453898907        1218861988.5768578     
  -2222981142.4986401       -8920011.3285484314        1209586185.9756019     
  -2132140135.5495582       -9454844.5286287069        1205002743.5046518     
  -2040948879.6255455       -8822181.1456047297        1205111661.1640081     
  -1949407374.7266078       -7022021.1794997454        1209912938.9536729     
  -2642737156.2633228       -9782756.3848862648        1141778182.9952605     
  -2540938333.6479115       -13772912.693187475        1133371706.0376472     
  -2438393453.9633737       -15276212.104398251        1129499340.1795733     
  -2335102517.2096968       -14292654.618479848        1130161085.4210327     
  -2231065523.3868952       -10822240.235479474        1135356941.7620301     
  -1109988205.7128959        2712052.8982841969        1430169969.0269506     
  -1068190335.9882646       -3281582.5314855576        1427724003.3727524     
  -1024965762.3566213       -4519538.2712143660        1429135072.8475170     
  -980314484.81796336       -1001814.3208963871        1434403177.4512417     
  -934236503.37228823        7271589.3194829226        1443528317.1839285     
  -1388868715.8896081       -254874.61262041330        1357319452.5861323     
  -1336864521.2424109       -5780243.6106740832        1355799303.8965492     
  -1284169148.6624885       -9001686.1663103104        1358165077.7649689     
  -1230782598.1498408       -9919202.2795289755        1364416774.1913881     
  -1176704869.7044656       -8532791.9503228068        1374554393.1758072     
  -1668675105.5608430       -3499565.9718803167        1283900442.5617056     
  -1606382050.4795439       -8531907.8847552538        1282447997.2000709     
  -1544133343.4398074       -13712076.602841318        1284910361.8254733     
  -1481928984.4416308       -19040072.126128554        1291287536.4379168     
  -1419768973.4850216       -24515894.454635441        1301579521.0373945     
  -1949407374.7266078       -7022021.1794997454        1209912938.9536729     
  -1876742923.6996672       -11536575.353733420        1207670083.2833130     
  -1804858346.6885796       -18650709.580810189        1209370925.0290306     
  -1733753643.6933401       -28364423.860713840        1215015464.1908252     
  -1663428814.7139523       -40677718.193457186        1224603700.7686951     
  -2231065523.3868952       -10822240.235479474        1135356941.7620301     
  -2147947140.9027777       -14794246.017611265        1131465562.1462793     
  -2066344158.4088013       -23817585.100208163        1131546767.3756413     
  -1986256575.9049609       -37892257.483263850        1135600557.4501183     
  -1907684393.3912668       -57018263.166800618        1143626932.3697071     
  -934236503.37228823        7271589.3194829226        1443528317.1839285     
  -870994718.37978828        12003956.635848641        1437577805.0308199     
  -814909424.58312023       -7118646.7005648911        1438007642.5155830     
  -765980621.98229134       -50096220.689772844        1444817829.6382227     
  -724208310.57730043       -116928765.33177277        1458008366.3987381     
  -1176704869.7044656       -8532791.9503228068        1374554393.1758072     
  -1097736415.7366552       -4941445.4828543663        1361593636.9444997     
  -1022928775.8676004       -15219479.344572544        1354613281.2522209     
  -952281950.09729910       -39366893.535469055        1353613326.0989795     
  -885795938.42574871       -77383688.055532366        1358593771.4847660     
  -1419768973.4850216       -24515894.454635441        1301579521.0373945     
  -1326216562.2528832       -22408382.349374115        1285103477.3411541     
  -1233829288.0224161       -24184660.249685049        1274207885.0851033     
  -1142607150.7936144       -29844728.155546069        1268892744.2692478     
  -1052550150.5664821       -39388586.066970885        1269158054.8935740     
  -1663428814.7139523       -40677718.193457186        1224603700.7686951     
  -1556435157.9284599       -40396853.963687599        1208107326.2207870     
  -1447610961.0475612       -34014189.415894210        1196791454.0142305     
  -1336956224.0712347       -21529724.550010324        1190656084.1490209     
  -1224470946.9995022       -2943459.3661019802        1189701216.6251585     
  -1907684393.3912668       -57018263.166800618        1143626932.3697071     
  -1788392202.7634015       -58906860.325827360        1130605183.5833962     
  -1664273794.9430385       -44708066.843199849        1122363988.0395999     
  -1535329169.9301705       -14421882.718888462        1118903345.7383001     
  -1401558327.7248037        31951692.047089159        1120223256.6795175     
  -3768283399.3739214       -1130485019.8121765        800547725.16291475     
  -3779136203.8130460       -1008713352.7484800        884828158.81917405     
  -3790595050.7063255       -888961827.19863153        974044972.31298137     
  -3802659940.0537591       -771230443.16263032        1068198165.6443369     
  -3815330871.8553472       -655519200.64047813        1167287738.8132403     
  -4339844053.5670633       -1301953216.0701189        858723837.34578073     
  -4335277222.8465757       -1125739060.2124121        942330084.36035144     
  -4331847757.3514338       -953316121.77252436        1020297558.0923045     
  -4329555657.0816383       -784684400.75045633        1092626258.5416398     
  -4328400922.0371876       -619843897.14620686        1159316185.7083571     
  -4895317914.2418156       -1468595374.2725449        936370117.90650558     
  -4905546171.5621881       -1247003146.5809693        1018682301.7129980     
  -4917443116.8791018       -1030973212.2111852        1084780559.1167068     
  -4931008750.1925488       -820505571.16319072        1134664890.1176319     
  -4946243071.5025349       -615600223.43698716        1168335294.7157729     
  -5434704981.3981810       -1630411494.4194541        1033486566.8450900     
  -5489943049.9598894       -1372505611.8541527        1113884810.8771136     
  -5547381129.2893286       -1121933098.5146136        1167493975.3861880     
  -5607019219.3864918       -878693954.40083575        1194314060.3723128     
  -5668857320.2513876       -642788179.51282024        1194345065.8354886     
  -5958005255.0361557       -1787401576.5108469        1150073184.1615334     
  -6088467858.0396738       -1502246456.0319610        1227937611.8526986     
  -6221661794.5821114       -1226195780.6828089        1268437806.9007487     
  -6357587064.6634693       -959249550.46339011        1271573769.3056831     
  -6496243668.2837458       -701407765.37370396        1237345499.0675030     
  -3815330871.8553472       -655519200.64047813        1167287738.8132403     
  -3797944185.4195890       -537555753.05638325        1188963299.4812980     
  -3784411949.1072125       -432440472.55022609        1205724480.0999577     
  -3774734162.9182167       -340173359.12200153        1217571280.6692195     
  -3768910826.8526030       -260754412.77171898        1224503701.1890829     
  -4328400922.0371876       -619843897.14620686        1159316185.7083571     
  -4298188112.8739538       -464113476.67571795        1141369589.1368964     
  -4278592337.6300311       -343773169.26959634        1129488165.5852633     
  -4269613596.3054190       -258822974.92784405        1123671915.0534568     
  -4271251888.9001155       -209262893.65045738        1123920837.5414765     
  -4946243071.5025349       -615600223.43698716        1168335294.7157729     
  -4871833987.9854670       -412691784.59219575        1102876859.8095436     
  -4814804522.1836424       -267715404.79820538        1054463150.9923660     
  -4775154674.0970545       -180671084.05501270        1023094168.2642407     
  -4752884443.7257080       -151558822.36261964        1008769911.6251663     
  -5668857320.2513876       -642788179.51282024        1194345065.8354886     
  -5518881810.7541313       -383290676.80582070        1073485111.4992387     
  -5393048502.7680445       -204267179.13605237        980649436.32126641     
  -5291357396.2931252       -105717686.50351214        915838040.30157042     
  -5213808491.3293791       -87642198.908205271        879050923.44015086     
  -6496243668.2837458       -701407765.37370396        1237345499.0675030     
  -6239331581.1799450       -375910153.31658959        1053194344.2059826     
  -6013324279.3832407       -153428492.28313589        908047021.57196391     
  -5818221762.8936357       -33962782.273345232        801903531.16544628     
  -5654024031.7111282       -17513023.287214041        734763872.98643100     
  -3768910826.8526030       -260754412.77171898        1224503701.1890829     
  -3661788667.0962472       -168401857.91293383        1192016375.2821157     
  -3562321533.2156644       -101566055.97339249        1169967775.2033780     
  -3470509425.2108574       -60247006.953107119        1158357900.9528699     
  -3386352343.0818248       -44444710.852061033        1157186752.5305910     
  -4271251888.9001155       -209262893.65045738        1123920837.5414765     
  -4148236346.3066287       -145082258.16120625        1090574202.2452724     
  -4029620646.5045485       -95567765.309980154        1065515732.3885252     
  -3915404789.4938769       -60719415.096784115        1048745427.9712342     
  -3805588775.2746129       -40537207.521608591        1040263288.9934006     
  -4752884443.7257080       -151558822.36261964        1008769911.6251663     
  -4620119976.5487270       -117393443.71899486        978361680.53815293     
  -4488500169.0787849       -87043597.432174683        954091054.50182343     
  -4358025021.3158855       -60509283.502157450        935958033.51617765     
  -4228694533.2600250       -37790501.928942680        923962617.58121598     
  -5213808491.3293791       -87642198.908205271        879050923.44015086     
  -5077439557.8225393       -85335414.586298704        855378810.16075659     
  -4938960100.9383726       -75993552.339972019        835693741.54327416     
  -4798370120.6768808       -59616612.169226408        819995717.58770084     
  -4655669617.0380650       -36204594.074065208        808284738.29404092     
  -5654024031.7111282       -17513023.287214041        734763872.98643100     
  -5520195090.1280642       -48908170.763113499        721625591.11308348     
  -5381000442.0833120       -62417630.033379078        710323793.51287472     
  -5236440087.5768652       -58041401.097995758        700858480.18580306     
  -5086514026.6087255       -35779483.956972361        693229651.13187015     
  -3386352343.0818248       -44444710.852061033        1157186752.5305910     
  -3294535525.8163304       -37666187.067106485        1150126721.7876217     
  -3202528535.1082678       -30253751.806923509        1146653117.2755926     
  -3110331370.9576368       -22207405.071507096        1146765938.9945025     
  -3017944033.3644314       -13527146.860850453        1150465186.9443517     
  -3805588775.2746129       -40537207.521608591        1040263288.9934006     
  -3702249125.4710407       -29868136.320977449        1032011401.0247937     
  -3599500991.3704591       -21170784.130313873        1028138985.5278462     
  -3497344372.9728661       -14445150.949616194        1028646042.5025535     
  -3395779270.2782636       -9691236.7788827419        1033532571.9489189     
  -4228694533.2600250       -37790501.928942680        923962617.58121598     
  -4111566204.5163231       -22551129.392020702        913606901.71715283     
  -3995811080.6211715       -11889106.350263596        908423704.56546557     
  -3881429161.5745673       -5804432.8036689758        908413026.12615490     
  -3768420447.3765135       -4297108.7522411346        913574866.39921725     
  -4655669617.0380650       -36204594.074065208        808284738.29404092     
  -4522486762.9521799       -15715166.280234814        794913223.86470008     
  -4391458802.8604040       -2408718.4667687416        787507274.38845325     
  -4262585736.7627373        3714749.3663356304        786066889.86530232     
  -4135867564.6591792        2655237.2190744877        790592070.29524243     
  -5086514026.6087255       -35779483.956972361        693229651.13187015     
  -4935010800.7786083       -9360246.9856207371        675930367.46743453     
  -4786444158.0881567        7270379.5201733112        665389694.99681103     
  -4640814098.5373755        14112395.560401201        661607633.71999919     
  -4498120622.1262636        11165801.135069609        664584183.63699758     
  -3017944033.3644314       -13527146.860850453        1150465186.9443517     
  -2922051321.1397686       -5621072.7439057827        1140612398.4177752     
  -2827552604.2146974       -2361649.6256024837        1135880301.5840693     
  -2734447882.5892167       -3748877.5059294701        1136268896.4432302     
  -2642737156.2633228       -9782756.3848862648        1141778182.9952605     
  -3395779270.2782636       -9691236.7788827419        1033532571.9489189     
  -3288109907.4408050       -5145648.8044271469        1024041665.8039945     
  -3181193822.9041772       -3110988.4994130135        1019264526.7781565     
  -3075031016.6683812       -3587255.8638466597        1019201154.8714079     
  -2969621488.7334232       -6574450.8977268934        1023851550.0837491     
  -3768420447.3765135       -4297108.7522411346        913574866.39921725     
  -3650137075.5656281       -3460799.4120838642        905193345.80115664     
  -3531966265.0568142       -2999694.4121718407        901118667.74840558     
  -3413908015.8500805       -2913793.7525272369        901350832.24096143     
  -3295962327.9454226       -3203097.4331343174        905889839.27882802     
  -4135867564.6591792        2655237.2190744877        790592070.29524243     
  -4008132825.5142355       -566524.56686282158        784067438.40926445     
  -3879869930.6726127       -2027767.3638827801        781442724.49481738     
  -3751078880.1343069       -1728491.1719613075        782717928.55189407     
  -3621759673.8993282        331304.00888514519        787893050.58050299     
  -4498120622.1262636        11165801.135069609        664584183.63699758     
  -4362097157.2866383        3537175.7312011719        660663943.62831759     
  -4224904819.7515697       -195207.35453438759        660236697.01738739     
  -4086543609.5210695       -31348.122162342072        663302443.80420256     
  -3947013526.5951338        4028753.4283378124        669861183.98876977     
  -2642737156.2633228       -9782756.3848862648        1141778182.9952605     
  -2540938333.6479115       -13772912.693187475        1133371706.0376472     
  -2438393453.9633737       -15276212.104398251        1129499340.1795733     
  -2335102517.2096968       -14292654.618479848        1130161085.4210327     
  -2231065523.3868952       -10822240.235479474        1135356941.7620301     
  -2969621488.7334232       -6574450.8977268934        1023851550.0837491     
  -2855048696.7167907       -7383348.7812670469        1016302300.7351665     
  -2740098900.2943764       -6935565.3122195005        1013310934.0361227     
  -2624772099.4661865       -5231100.4905685186        1014877449.9866139     
  -2509068294.2322102       -2269954.3163112402        1021001848.5866420     
  -3295962327.9454226       -3203097.4331343174        905889839.27882802     
  -3168547647.8132820       -810361.27762746811        898767256.09870219     
  -3041125015.9387159        1608880.6859588623        896226327.11811233     
  -2913694432.3217187        4054628.4576501846        898267052.33705890     
  -2786255896.9622974        6526882.0374202728        904889431.75554228     
  -3621759673.8993282        331304.00888514519        787893050.58050299     
  -3481435186.9373932        5946049.8177196980        780766572.12825501     
  -3341471800.8963828        10357125.890141964        778245519.42554176     
  -3201869515.7763004        13564532.226137519        780329892.47236669     
  -3062628331.5771370        15568268.825733662        787019691.26872361     
  -3947013526.5951338        4028753.4283378124        669861183.98876977     
  -3793711314.0891190        12885884.504792452        662300248.82382202     
  -3641139255.1673884        19309170.300309658        659368510.95841205     
  -3489297349.8299279        23298610.814924240        661065970.39253604     
  -3338185598.0767446        24854206.048606873        667392627.12619460     
  -2231065523.3868952       -10822240.235479474        1135356941.7620301     
  -2147947140.9027777       -14794246.017611265        1131465562.1462793     
  -2066344158.4088013       -23817585.100208163        1131546767.3756413     
  -1986256575.9049609       -37892257.483263850        1135600557.4501183     
  -1907684393.3912668       -57018263.166800618        1143626932.3697071     
  -2509068294.2322102       -2269954.3163112402        1021001848.5866420     
  -2416167180.4925585       -7009798.5752576590        1015839636.4840162     
  -2324210224.7750931       -14896836.241503000        1014407210.9197956     
  -2233197427.0798259       -25931067.315067410        1016704571.8939916     
  -2143128787.4067516       -40112491.795945883        1022731719.4065974     
  -2786255896.9622974        6526882.0374202728        904889431.75554228     
  -2684265761.4148192        811086.46735537052        899122836.12863994     
  -2582648541.9215870       -6147762.6168612242        896843228.73344588     
  -2481404238.4826035       -14349665.215244532        898050609.56996167     
  -2380532851.0978665       -23794621.327776790        902744978.63818860     
  -3062628331.5771370        15568268.825733662        787019691.26872361     
  -2952242883.6695623        8668409.1102185249        781315161.08015227     
  -2841659109.8482814        2429635.7737200260        778854820.81658673     
  -2730877010.1133008       -3148051.1837843657        779638670.47803175     
  -2619896584.4646287       -8064651.7623038292        783666710.06448328     
  -3338185598.0767446        24854206.048606873        667392627.12619460     
  -3220098547.2567849        16562169.353344679        662416611.33855867     
  -3101241928.5551724        10835358.930243134        660441987.16922402     
  -2981615741.9719243        7673774.7792756557        661468754.61820006     
  -2861219987.5070252        7077416.9004758596        665496913.68548119     
  -1907684393.3912668       -57018263.166800618        1143626932.3697071     
  -1788392202.7634015       -58906860.325827360        1130605183.5833962     
  -1664273794.9430385       -44708066.843199849        1122363988.0395999     
  -1535329169.9301705       -14421882.718888462        1118903345.7383001     
  -1401558327.7248037        31951692.047089159        1120223256.6795175     
  -2143128787.4067516       -40112491.795945883        1022731719.4065974     
  -2010700119.5327039       -39169448.990910888        1013264756.0008677     
  -1875734024.0811183       -29768314.260736108        1008468766.4733734     
  -1738230501.0519850       -11909087.605408072        1008343750.8241096     
  -1598189550.4453022        14408230.975070357        1012889709.0530766     
  -2380532851.0978665       -23794621.327776790        902744978.63818860     
  -2235280789.8755693       -20113863.728055120        894162546.06225908     
  -2089780090.6906912       -15604312.919720531        890141508.00028682     
  -1944030753.5432265       -10265968.902750969        890681864.45227122     
  -1798032778.4331677       -4098831.6771651506        895783615.41820788     
  -2619896584.4646287       -8064651.7623038292        783666710.06448328     
  -2462134213.7920074       -1740104.5372719765        773298553.76756895     
  -2306411994.7717628       -2216062.8201477528        767382212.62033796     
  -2152729927.4038811       -9492526.6109201908        765917686.62278736     
  -2001088011.6883771       -23569495.909607172        768904975.77492130     
  -2861219987.5070252        7077416.9004758596        665496913.68548119     
  -2691260391.2820134        15951828.581434131        650672779.11679924     
  -2525629736.3243327        10396436.037956238        640190880.33352840     
  -2364328022.6339784       -9588760.7299251556        634051217.33565474     
  -2207355250.2109485       -44003761.722244620        632253790.12319911     
  -5958005255.0361557       -1787401576.5108469        1150073184.1615334     
  -6088467858.0396738       -1502246456.0319610        1227937611.8526986     
  -6221661794.5821114       -1226195780.6828089        1268437806.9007487     
  -6357587064.6634693       -959249550.46339011        1271573769.3056831     
  -6496243668.2837458       -701407765.37370396        1237345499.0675030     
  -6810619108.2920256       -2043185732.4876077        1353807692.3069305     
  -6828566627.4388208       -1395489467.2545342        1202774053.9585772     
  -6897878430.6284628       -919007482.16428471        1091991371.6613898     
  -7018554517.8609533       -613739777.21685958        1021459645.4153686     
  -7190594889.1362896       -479686352.41225839        991178875.22051299     
  -8337946914.3020706       -2501384074.2906213        1712367813.7323773     
  -8021621667.6084843       -1424619359.7082615        1275697667.0899229     
  -7805293655.4616690       -681178760.28181696        956893665.19291651     
  -7688962877.8616333       -271062276.01128864        755955808.04135704     
  -7672629334.8083677       -194269906.89667320        672884095.63524508     
  -10539988673.066292       -3161996601.9198875        2225753548.4378724     
  -9667632978.5486622       -1589636133.3931439        1446708451.2467368     
  -8943907469.0817337       -512709615.03540611        863144687.49532878     
  -8368812144.6655045        68782953.153326511        475062257.18364984     
  -7942347005.2999792        154841571.17305326        282461160.31169862     
  -13416744384.584692       -4025023315.3754072        2893964896.4234171     
  -11766600560.259356       -1890539788.3091810        1715806406.4290168     
  -10313719871.488649       -413600046.42505169        810744438.56862664     
  -9058102318.2725735        405795910.27698183        178778992.84224576     
  -7999747900.6111250        567648081.79691839       -180089930.75012580     
  -6496243668.2837458       -701407765.37370396        1237345499.0675030     
  -6239331581.1799450       -375910153.31658959        1053194344.2059826     
  -6013324279.3832407       -153428492.28313589        908047021.57196391     
  -5818221762.8936357       -33962782.273345232        801903531.16544628     
  -5654024031.7111282       -17513023.287214041        734763872.98643100     
  -7190594889.1362896       -479686352.41225839        991178875.22051299     
  -6900612130.1988878       -304369378.80238509        846877725.92867088     
  -6623447542.3341637       -171779642.10144758        723668793.15376782     
  -6359101125.5421238       -81917142.309447765        621552076.89580464     
  -6107572879.8227606       -34781879.426378489        540527577.15478134     
  -7672629334.8083677       -194269906.89667320        672884095.63524508     
  -7400751948.9246836       -184486385.20023966        589534001.85323417     
  -7123606119.8792610       -157141386.29801226        509364508.87760174     
  -6841191847.6721020       -112234910.18999529        432375616.70834738     
  -6553509132.3032036       -49766956.876186848        358567325.34547102     
  -7942347005.2999792        154841571.17305326        282461160.31169862     
  -7739751037.3573341       -16261172.510146618        281163171.97967488     
  -7513800012.0185289       -109513724.87282801        265134168.74346471     
  -7264493929.2835703       -124916085.91499281        234374150.60307625     
  -6991832789.1524582       -62468255.636638641        188883117.55849904     
  -7999747900.6111250        567648081.79691839       -180089930.75012580     
  -7917609395.4968348        200306259.26788807       -78234763.692008659     
  -7794029218.7519722       -28896657.825896263       -9022227.2486375589     
  -7629007370.3765373       -119960669.48443747        27547678.579987559     
  -7422543850.3705263       -72885775.707732201        31474953.793866035     
  -5654024031.7111282       -17513023.287214041        734763872.98643100     
  -5520195090.1280642       -48908170.763113499        721625591.11308348     
  -5381000442.0833120       -62417630.033379078        710323793.51287472     
  -5236440087.5768652       -58041401.097995758        700858480.18580306     
  -5086514026.6087255       -35779483.956972361        693229651.13187015     
  -6107572879.8227606       -34781879.426378489        540527577.15478134     
  -5959219233.0127602       -36511904.985770226        534098427.48285234     
  -5809858124.2089710       -34883723.899194002        530159846.34700269     
  -5659489553.4113932       -29897336.166652918        528711833.74723214     
  -5508113520.6200199       -21552741.788140059        529754389.68354249     
  -6553509132.3032036       -49766956.876186848        358567325.34547102     
  -6388761968.0864344       -21271216.865116835        353762689.32907248     
  -6227365586.3437796       -3944751.7677576542        352102706.11169630     
  -6069319987.0752335        2212438.4158968925        353587375.69334191     
  -5914625170.2807999       -2799646.3141548634        358216698.07400960     
  -6991832789.1524582       -62468255.636638641        188883117.55849904     
  -6808823295.3490858       -3186106.4011592865        180618376.65174657     
  -6633522828.4877329        30399286.360933304        176152372.80695844     
  -6465931388.5683889        38287922.649648905        175485106.02413127     
  -6306048975.5910625        20479802.464978218        178616576.30326805     
  -7422543850.3705263       -72885775.707732201        31474953.793866035     
  -7219403214.8007212        17743426.406103134        14665489.450875480     
  -7028329850.6408281        68148390.486891747        2308846.4327877061     
  -6849323757.8908596        78329116.534609318       -5594975.2603961239     
  -6682384936.5507994        48285604.549285412       -9045975.6286746897     
  -5086514026.6087255       -35779483.956972361        693229651.13187015     
  -4935010800.7786083       -9360246.9856207371        675930367.46743453     
  -4786444158.0881567        7270379.5201733112        665389694.99681103     
  -4640814098.5373755        14112395.560401201        661607633.71999919     
  -4498120622.1262636        11165801.135069609        664584183.63699758     
  -5508113520.6200199       -21552741.788140059        529754389.68354249     
  -5345213623.3310099       -9726668.2283489704        514753062.85897952     
  -5183305152.9817295       -1205351.1343231201        505127448.28857422     
  -5022388109.5721817        4011209.4939284325        500877545.97232687     
  -4862462493.1023617        5923013.6564185619        502003355.91023976     
  -5914625170.2807999       -2799646.3141548634        358216698.07400960     
  -5744279741.3604794       -6752078.1142003536        347782676.98924559     
  -5572980583.1799412       -7525412.3802113533        341341469.21898663     
  -5400727695.7392044       -5119649.1122062206        338893074.76323539     
  -5227521079.0382519        465211.68983554840        340437493.62198824     
  -6306048975.5910625        20479802.464978218        178616576.30326805     
  -6132209154.8670025       -436476.64316678047        175019209.85823485     
  -5955470448.6827993       -11689804.217494965        174031757.78805232     
  -5775832857.0384483       -13280180.258008242        175654220.09271994     
  -5593296379.9339523       -5207604.7646927834        179886596.77224302     
  -6682384936.5507994        48285604.549285412       -9045975.6286746897     
  -6509001863.8505888        9220136.1847512722       -3537338.5340510434     
  -6330774749.4902925       -13698526.646165133        3198313.9957623868     
  -6147703593.4699163       -20470383.943476915        11160981.960783776     
  -5959788395.7894497       -11095435.707163572        20350665.361005355     
  -4498120622.1262636        11165801.135069609        664584183.63699758     
  -4362097157.2866383        3537175.7312011719        660663943.62831759     
  -4224904819.7515697       -195207.35453438759        660236697.01738739     
  -4086543609.5210695       -31348.122162342072        663302443.80420256     
  -3947013526.5951338        4028753.4283378124        669861183.98876977     
  -4862462493.1023617        5923013.6564185619        502003355.91023976     
  -4715928026.8863392        2802376.5787255764        498731565.79140532     
  -4569071427.9046860        755515.38648581505        499011862.95062649     
  -4421892696.1573887       -217569.92029190063        502844247.38789856     
  -4274391831.6444592       -116879.34161686897        510228719.10322118     
  -5227521079.0382519        465211.68983554840        340437493.62198824     
  -5070306771.7878370        1903214.8357090950        336826290.14157009     
  -4913617071.7015800        1592527.4343791008        336826267.81950724     
  -4757451978.7794886       -466850.51416563988        340437426.65579832     
  -4601811493.0215549       -4274919.0099046230        347659766.65044767     
  -5593296379.9339523       -5207604.7646927834        179886596.77224302     
  -5425233391.9911232        839690.50216174126        174948116.67880493     
  -5258541751.1422567        2315828.7891373634        173679911.62402904     
  -5093221457.3873539       -779189.90375900269        176081981.60790563     
  -4929272510.7264118       -8445365.5765295029        182154326.63044599     
  -5959788395.7894497       -11095435.707163572        20350665.361005355     
  -5780707887.4962025       -388196.42193651199        13097045.403117325     
  -5603845466.2267218        2925419.4507486820        9572794.3641878888     
  -5429201131.9809961       -1154588.0890908241        9777912.2442200910     
  -5256774884.7590313       -12628219.041463375        13712399.043221455     
  -3947013526.5951338        4028753.4283378124        669861183.98876977     
  -3793711314.0891190        12885884.504792452        662300248.82382202     
  -3641139255.1673884        19309170.300309658        659368510.95841205     
  -3489297349.8299279        23298610.814924240        661065970.39253604     
  -3338185598.0767446        24854206.048606873        667392627.12619460     
  -4274391831.6444592       -116879.34161686897        510228719.10322118     
  -4110144148.6511974        5269696.9981949329        502121230.96039504     
  -3946045956.5222330        10157970.457018852        498605035.44745195     
  -3782097255.2575574        14547941.034861326        499680132.56438959     
  -3618298044.8571844        18439608.731724262        505346522.31120890     
  -4601811493.0215549       -4274919.0099046230        347659766.65044767     
  -4426726638.5971975       -2391387.1235828400        339683165.36972368     
  -4251210612.3171554        929384.28169441223        336259952.04922330     
  -4075263414.1814280        5687395.2059290409        337390126.68894994     
  -3898885044.1900096        11882645.649123192        343073689.28890336     
  -4929272510.7264118       -8445365.5765295029        182154326.63044599     
  -4743458783.9271202       -10097367.860537052        174986052.05180144     
  -4556633222.5521603       -8376588.2256646156        172333260.76372445     
  -4368795826.6015263       -3283026.6718761921        174195952.76622191     
  -4179946596.0752316        5183316.8007946014        180574128.05929080     
  -5256774884.7590313       -12628219.041463375        13712399.043221455     
  -5060340584.6409550       -17848245.212658644        8029891.0066351350     
  -4862313787.2272339       -17759947.065016270        6824961.5909582879     
  -4662694492.5178614       -12363324.598539591        10097610.796206284     
  -4461482700.5128374       -1658377.8132359982        17847838.622366317     
  -3338185598.0767446        24854206.048606873        667392627.12619460     
  -3220098547.2567849        16562169.353344679        662416611.33855867     
  -3101241928.5551724        10835358.930243134        660441987.16922402     
  -2981615741.9719243        7673774.7792756557        661468754.61820006     
  -2861219987.5070252        7077416.9004758596        665496913.68548119     
  -3618298044.8571844        18439608.731724262        505346522.31120890     
  -3491628727.4722695        11008257.816337109        500869912.23810232     
  -3364931271.3379674        3670702.7322456837        499795034.26283520     
  -3238205676.4542823       -3573056.5205680132        502121888.38540822     
  -3111451942.8212066       -10723019.942085505        507850474.60581815     
  -3898885044.1900096        11882645.649123192        343073689.28890336     
  -3762489630.2986183        5655129.4960739613        338231484.27602714     
  -3626807506.7901063       -2950021.2665586472        337191351.84052187     
  -3491838673.6644669       -13932806.638759851        339953291.98239678     
  -3357583130.9216952       -27293226.620537281        346517304.70163161     
  -4179946596.0752316        5183316.8007946014        180574128.05929080     
  -4032681255.7358389        502784.39255428314        174501327.45234406     
  -3886870634.9115925       -9026813.0661616325        172630939.90229595     
  -3742514733.6024699       -23405475.575297117        174962965.40915820     
  -3599613551.8084846       -42633203.134893417        181497403.97291872     
  -4461482700.5128374       -1658377.8132359982        17847838.622366317     
  -4302203603.7839336       -4448777.4942345619        9679441.7670435030     
  -4145120655.7024288       -14559672.666581869        6113798.4481527917     
  -3990233856.2683024       -31991063.330179691        7150908.6657050708     
  -3837543205.4815812       -56742949.485128641        12790772.419685608     
  -2861219987.5070252        7077416.9004758596        665496913.68548119     
  -2691260391.2820134        15951828.581434131        650672779.11679924     
  -2525629736.3243327        10396436.037956238        640190880.33352840     
  -2364328022.6339784       -9588760.7299251556        634051217.33565474     
  -2207355250.2109485       -44003761.722244620        632253790.12319911     
  -3111451942.8212066       -10723019.942085505        507850474.60581815     
  -2930685411.1154079       -3152553.0117077827        491314169.62679267     
  -2750925090.0732212        1063878.3732744455        479049566.48233283     
  -2572170979.6946683        1926274.2128148079        471056665.17243952     
  -2394423079.9797382       -565365.49303913116        467335465.69711626     
  -3357583130.9216952       -27293226.620537281        346517304.70163161     
  -3166211189.3089199       -21087162.112874627        332145348.34991688     
  -2972522727.7560692       -7159364.4716254473        321974559.88192356     
  -2776517746.2631435        14490166.303225756        316004939.29766637     
  -2578196244.8301210        43861430.211694956        314236486.59713286     
  -3599613551.8084846       -42633203.134893417        181497403.97291872     
  -3397837725.8625722       -37851998.722098827        173166315.28616971     
  -3190422649.3728685       -14273292.496695757        168965860.53229246     
  -2977368322.3393831        28102915.541324139        168896039.71132338     
  -2758674744.7621179        89276625.391948223        172956852.82323551     
  -3837543205.4815812       -56742949.485128641        12790772.419685608     
  -3625565020.7763433       -53447062.839352131        14377070.435539057     
  -3404624854.9236164       -20277905.701953888        20023468.433459111     
  -3174722707.9234138        42764521.927044392        29729966.413426716     
  -2935858579.7757039        135680220.04771125        43496564.375438824     
 </DataArray>
 <DataArray  type="Float64" Name="VM" NumberOfComponents="1" format="ascii">
   12935121317.976793     
   11340452789.681797     
   10210085006.738636     
   9272785911.8033848     
   8304176729.1287651     
   10130041932.816034     
   9321827414.3992710     
   8826214123.9232712     
   8443439118.3918333     
   8035719349.7891769     
   7982253097.7374325     
   7734856848.9119005     
   7669010690.4403868     
   7669439757.0977449     
   7666219837.3360863     
   6491669780.2683315     
   6586825171.5215054     
   6757306605.5317535     
   6961036457.5195341     
   7171355745.0640736     
   5657847510.6605463     
   5890885860.4752645     
   6116290532.2245598     
   6331591203.7888794     
   6536555146.5994959     
   8304176729.1287651     
   8020702150.0574675     
   7779199758.1347132     
   7569033119.3170128     
   7385232262.9189138     
   8035719349.7891769     
   7746826125.4890480     
   7473547204.0988283     
   7213933077.5930138     
   6967981244.3660040     
   7666219837.3360863     
   7381061475.4551821     
   7101281200.3913126     
   6826952445.0268040     
   6558271842.6173573     
   7171355745.0640736     
   6910849969.8315306     
   6658251009.8005657     
   6409700410.1943693     
   6162053084.3082447     
   6536555146.5994959     
   6328547086.8048019     
   6142746588.5174837     
   5965262367.4613724     
   5787086181.0840769     
   7385232262.9189138     
   7227919296.0785666     
   7063344413.6706753     
   6890837602.8284283     
   6710200386.3995361     
   6967981244.3660040     
   6814120650.7899227     
   6655781370.5764904     
   6492687135.3694363     
   6324777735.1482906     
   6558271842.6173573     
   6407274851.7650251     
   6254678203.8417797     
   6100448819.3835030     
   5944610930.1888199     
   6162053084.3082447     
   6012377768.7382793     
   5863978643.7959223     
   5716892750.9379015     
   5571173743.0954933     
   5787086181.0840769     
   5635887615.9326763     
   5488764172.7339401     
   5345632901.9631748     
   5206533116.5790224     
   6710200386.3995361     
   6516461585.4391327     
   6325448345.2589788     
   6137075103.3454542     
   5951313614.3895483     
   6324777735.1482906     
   6140832712.0449581     
   5958790770.5390902     
   5778639120.1125631     
   5600403153.8473673     
   5944610930.1888199     
   5772412628.8203659     
   5601592190.4257889     
   5432179783.6940708     
   5264241836.9397650     
   5571173743.0954933     
   5413006797.9917126     
   5256025331.1161842     
   5100277215.1888561     
   4945866883.2980862     
   5206533116.5790224     
   5065010005.2471571     
   4924861411.4218330     
   4786130947.1800051     
   4648966831.2208529     
   5951313614.3895483     
   5776542029.7839203     
   5601052125.6222048     
   5424840253.0374317     
   5247928236.2461748     
   5600403153.8473673     
   5434392657.8100481     
   5268212999.9164162     
   5101892136.5495195     
   4935486884.9491272     
   5264241836.9397650     
   5107657894.1125727     
   4951542687.7144051     
   4795963389.2125673     
   4641021247.8678131     
   4945866883.2980862     
   4799341041.5470076     
   4654012605.7674665     
   4509993864.6302376     
   4367437712.1847811     
   4648966831.2208529     
   4513066823.8548851     
   4379180757.2354546     
   4247468760.8740668     
   4118138529.5699081     
   5247928236.2461748     
   5047161114.0050325     
   4846927628.9068508     
   4647219525.1034002     
   4448079635.6020660     
   4935486884.9491272     
   4747613790.9330740     
   4560624246.5429602     
   4374565982.2456226     
   4189547503.4311543     
   4641021247.8678131     
   4466401038.7628689     
   4293097566.9082308     
   4121223485.5238080     
   3950963165.9039631     
   4367437712.1847811     
   4206571354.0181718     
   4047548331.8259292     
   3890553595.0099840     
   3735854950.0984240     
   4118138529.5699081     
   3971667462.7395744     
   3827663321.1649299     
   3686386472.5153189     
   3548189634.6063724     
   4448079635.6020660     
   4290729924.7365518     
   4131955609.3950114     
   3971857277.4408884     
   3810617358.9087014     
   4189547503.4311543     
   4041623058.0778966     
   3893401820.5711379     
   3744981590.6175523     
   3596514929.3558822     
   3950963165.9039631     
   3813105530.6122713     
   3676206620.1847720     
   3540389600.0273881     
   3405824635.4350567     
   3735854950.0984240     
   3608272659.0683036     
   3482985313.3234963     
   3360164222.7728057     
   3240039899.2231584     
   3548189634.6063724     
   3430529041.5863690     
   3316525214.4973221     
   3206416370.7355566     
   3100533052.4411016     
   3810617358.9087014     
   3585033315.7911224     
   3354537523.1643600     
   3121539235.0646434     
   2890501183.3221502     
   3596514929.3558822     
   3387514122.2108259     
   3175270181.4800277     
   2960723881.0896955     
   2745700826.9842172     
   3405824635.4350567     
   3216335296.0583496     
   3026697006.9537568     
   2837271745.8355308     
   2648707829.8082542     
   3240039899.2231584     
   3070756140.0850530     
   2905438310.9302483     
   2744706200.9150944     
   2589407281.7809019     
   3100533052.4411016     
   2949630743.6382709     
   2807550133.0029044     
   2675977763.3654323     
   2557196850.9344831     
   5657847510.6605463     
   5890885860.4752645     
   6116290532.2245598     
   6331591203.7888794     
   6536555146.5994959     
   5151465042.9952984     
   5311311779.6449070     
   5467797094.5250759     
   5618018303.8784676     
   5760502922.0968332     
   4643474697.5870037     
   4755535844.5128460     
   4868729101.7933950     
   4980417572.8827496     
   5088673597.1903763     
   4134139855.0075297     
   4224395785.1425705     
   4320581390.4611187     
   4421043299.6988564     
   4524329584.2410173     
   3624982160.9868889     
   3719716492.0300002     
   3825710940.1153650     
   3942909396.5044427     
   4071225797.3255777     
   6536555146.5994959     
   6328547086.8048019     
   6142746588.5174837     
   5965262367.4613724     
   5787086181.0840769     
   5760502922.0968332     
   5652013627.6910877     
   5559532178.5982161     
   5474004515.2929659     
   5389888056.3355665     
   5088673597.1903763     
   5053999409.8560162     
   5029828916.7292585     
   5010956425.5744028     
   4994179238.5537024     
   4524329584.2410173     
   4539096570.4468956     
   4558512337.8889818     
   4580092406.9372625     
   4602111478.0852480     
   4071225797.3255777     
   4112626978.1561632     
   4151354030.2986398     
   4186497508.9893379     
   4217317205.0763264     
   5787086181.0840769     
   5635887615.9326763     
   5488764172.7339401     
   5345632901.9631748     
   5206533116.5790224     
   5389888056.3355665     
   5248322827.6033888     
   5109934897.7679462     
   4974766799.5477057     
   4842911433.8858042     
   4994179238.5537024     
   4866703972.9433813     
   4742450481.3293810     
   4621391033.1102839     
   4503573289.9772911     
   4602111478.0852480     
   4493695284.3502922     
   4389606604.6339216     
   4289540731.7995014     
   4193420802.6545916     
   4217317205.0763264     
   4133251721.9058146     
   4055860109.6483912     
   3984314810.5546846     
   3918333492.5407987     
   5206533116.5790224     
   5065010005.2471571     
   4924861411.4218330     
   4786130947.1800051     
   4648966831.2208529     
   4842911433.8858042     
   4717450389.8757305     
   4593984621.3576851     
   4472630895.3017035     
   4353599775.7627831     
   4503573289.9772911     
   4393269882.7781143     
   4285552360.6465187     
   4180592892.2793050     
   4078643460.3000436     
   4193420802.6545916     
   4097403377.5363545     
   4004495523.0787334     
   3914903763.4661894     
   3828897850.2685828     
   3918333492.5407987     
   3835751231.9923820     
   3756688472.2517152     
   3681362323.5752196     
   3610035175.0637326     
   4648966831.2208529     
   4513066823.8548851     
   4379180757.2354546     
   4247468760.8740668     
   4118138529.5699081     
   4353599775.7627831     
   4228711748.1853142     
   4106388425.4838257     
   3986838876.2975159     
   3870329923.7818041     
   4078643460.3000436     
   3965879766.6927843     
   3856386815.2372141     
   3750427408.3687167     
   3648331819.3329692     
   3828897850.2685828     
   3729357316.0678020     
   3633951722.5596528     
   3542995493.2046223     
   3456877539.1039510     
   3610035175.0637326     
   3524698094.1666822     
   3444503723.5141912     
   3369805188.9955606     
   3301032025.0177155     
   4118138529.5699081     
   3971667462.7395744     
   3827663321.1649299     
   3686386472.5153189     
   3548189634.6063724     
   3870329923.7818041     
   3737452664.0313888     
   3607793625.7296805     
   3481682579.0168405     
   3359545856.8750353     
   3648331819.3329692     
   3529496451.2805080     
   3414689394.7695289     
   3304299024.3076210     
   3198808191.1942387     
   3456877539.1039510     
   3352482644.3757005     
   3252948968.0539536     
   3158702124.1007590     
   3070252260.4026465     
   3301032025.0177155     
   3211317329.9693141     
   3127264437.7927141     
   3049304605.4640965     
   2977936164.0043511     
   3548189634.6063724     
   3430529041.5863690     
   3316525214.4973221     
   3206416370.7355566     
   3100533052.4411016     
   3359545856.8750353     
   3250613346.7154360     
   3145211035.8035612     
   3043577632.2595577     
   2946016960.3938708     
   3198808191.1942387     
   3100212166.7659841     
   3005274050.5677400     
   2914289743.7487712     
   2827616923.1247611     
   3070252260.4026465     
   2984027554.8640118     
   2901863026.9757466     
   2824166711.8030829     
   2751427824.7422547     
   2977936164.0043511     
   2906409599.1570797     
   2839603324.5130763     
   2778077793.9388218     
   2722510828.0799327     
   3100533052.4411016     
   2949630743.6382709     
   2807550133.0029044     
   2675977763.3654323     
   2557196850.9344831     
   2946016960.3938708     
   2801670512.4951801     
   2663637174.4686031     
   2532732547.9550333     
   2410025783.2763524     
   2827616923.1247611     
   2693801419.5796847     
   2565130095.2118440     
   2442279168.4152198     
   2326106844.2987981     
   2751427824.7422547     
   2633985767.8206444     
   2522105358.6525373     
   2417130011.7687654     
   2320814158.9608088     
   2722510828.0799327     
   2628766984.4144917     
   2542563303.9097567     
   2466547757.0707369     
   2404141471.5121269     
   3624982160.9868889     
   3719716492.0300002     
   3825710940.1153650     
   3942909396.5044427     
   4071225797.3255777     
   3137974358.5777078     
   3255562282.5264053     
   3382567369.3371773     
   3518524968.5867062     
   3662981169.9932027     
   2694774669.6310778     
   2830590326.8557720     
   2973709005.3479538     
   3123049914.0132508     
   3277703503.1787043     
   2298867743.5039401     
   2449590994.6491866     
   2605018838.7154241     
   2763227113.7353568     
   2922785065.2376962     
   1955453975.1718578     
   2119515135.7291152     
   2284908868.6337256     
   2448669517.0436187     
   2608835017.3852158     
   4071225797.3255777     
   4112626978.1561632     
   4151354030.2986398     
   4186497508.9893379     
   4217317205.0763264     
   3662981169.9932027     
   3702350872.0631633     
   3740332533.4620495     
   3776019610.8657346     
   3808657190.6383033     
   3277703503.1787043     
   3320917655.4052153     
   3364385181.9906173     
   3407279831.8210797     
   3448921349.5419564     
   2922785065.2376962     
   2975711046.1610065     
   3030889137.2752857     
   3087638403.0103459     
   3145427029.4540977     
   2608835017.3852158     
   2676785159.2364683     
   2749288980.2862577     
   2825842953.5973301     
   2906097443.9216428     
   4217317205.0763264     
   4133251721.9058146     
   4055860109.6483912     
   3984314810.5546846     
   3918333492.5407987     
   3808657190.6383033     
   3756088045.5066381     
   3709609325.0568371     
   3668758341.6098232     
   3633442826.2703080     
   3448921349.5419564     
   3423132108.5226021     
   3402454572.2300801     
   3386661977.6358161     
   3375736730.0423293     
   3145427029.4540977     
   3142011122.9869347     
   3142123700.0030217     
   3145661632.7696171     
   3152607013.6912193     
   2906097443.9216428     
   2921047755.0709043     
   2937160391.0188951     
   2954374858.7280703     
   2972647097.1070251     
   3918333492.5407987     
   3835751231.9923820     
   3756688472.2517152     
   3681362323.5752196     
   3610035175.0637326     
   3633442826.2703080     
   3563045289.2129211     
   3497005828.5939188     
   3435561997.7934418     
   3379002632.3050694     
   3375736730.0423293     
   3318336462.3325667     
   3266279898.4481850     
   3219804702.9772573     
   3179203073.1259456     
   3152607013.6912193     
   3108608143.8984036     
   3071063479.7314048     
   3040179925.4271584     
   3016219177.4801421     
   2972647097.1070251     
   2941761841.5722404     
   2918528402.4689307     
   2903085844.6059093     
   2895626742.3672967     
   3610035175.0637326     
   3524698094.1666822     
   3444503723.5141912     
   3369805188.9955606     
   3301032025.0177155     
   3379002632.3050694     
   3308529909.7780185     
   3243662194.7058673     
   3184729095.0795207     
   3132119881.8584957     
   3179203073.1259456     
   3122864097.7317920     
   3072510353.5404472     
   3028428293.0894771     
   2990946386.2149892     
   3016219177.4801421     
   2972991202.6599693     
   2936009182.5371013     
   2905500036.2097068     
   2881716476.6681771     
   2895626742.3672967     
   2864099013.4205232     
   2838927639.6741452     
   2820271587.9743195     
   2808302989.3482847     
   3301032025.0177155     
   3211317329.9693141     
   3127264437.7927141     
   3049304605.4640965     
   2977936164.0043511     
   3132119881.8584957     
   3055991666.0858092     
   2986347552.1905069     
   2923610060.7971911     
   2868257104.6040044     
   2990946386.2149892     
   2928342201.3247080     
   2873025056.0261354     
   2825377592.6329799     
   2785822769.9479070     
   2881716476.6681771     
   2832049373.5506997     
   2790413975.4653277     
   2757123954.6939116     
   2732518257.8943706     
   2808302989.3482847     
   2770331085.2984328     
   2741051598.4098172     
   2720690194.8355269     
   2709486167.7108574     
   2977936164.0043511     
   2906409599.1570797     
   2839603324.5130763     
   2778077793.9388218     
   2722510828.0799327     
   2868257104.6040044     
   2812134776.1297507     
   2761570013.9956107     
   2717023673.8393717     
   2679022895.0149107     
   2785822769.9479070     
   2743921164.2442884     
   2708225832.0848432     
   2679078418.2694182     
   2656848407.4437027     
   2732518257.8943706     
   2702978638.1911736     
   2680089253.6685510     
   2664072478.8245454     
   2655155982.2504478     
   2709486167.7108574     
   2689804478.5173554     
   2677030751.6405268     
   2671288186.7206869     
   2672698231.4133077     
   2722510828.0799327     
   2628766984.4144917     
   2542563303.9097567     
   2466547757.0707369     
   2404141471.5121269     
   2679022895.0149107     
   2610690064.4774561     
   2551974204.3425794     
   2504143107.3672600     
   2468602345.1732688     
   2656848407.4437027     
   2608154187.9877825     
   2570841159.3291306     
   2545448737.8732252     
   2532491822.5553012     
   2655155982.2504478     
   2618146806.0456810     
   2594143868.9585805     
   2583640177.0174832     
   2587288929.9967055     
   2672698231.4133077     
   2637770654.9254565     
   2617626113.7928038     
   2613408963.1118646     
   2626877256.0948124     
   1955453975.1718578     
   2119515135.7291152     
   2284908868.6337256     
   2448669517.0436187     
   2608835017.3852158     
   1653996983.1778984     
   1820419150.7797189     
   1988527517.5734389     
   2155621486.9776793     
   2319940022.0809360     
   1393812931.5976224     
   1571150952.4683418     
   1749495825.6080461     
   1926840852.7790256     
   2101933547.6832161     
   1207224627.3704085     
   1399136537.3344839     
   1590638193.9590676     
   1780951196.6747422     
   1969615915.3197327     
   1136945988.2996397     
   1335239998.6900911     
   1533863762.8030002     
   1732817280.2574713     
   1932100550.8287458     
   2608835017.3852158     
   2676785159.2364683     
   2749288980.2862577     
   2825842953.5973301     
   2906097443.9216428     
   2319940022.0809360     
   2407024191.6318784     
   2496573199.6428580     
   2588200707.0193334     
   2681633199.2079182     
   2101933547.6832161     
   2205713083.0888495     
   2309401932.4936705     
   2412765718.9089842     
   2515638678.4289160     
   1969615915.3197327     
   2086780751.8401999     
   2201068351.2748456     
   2312404348.4162436     
   2420736991.3067045     
   1932100550.8287458     
   2058772613.9641700     
   2179970959.5675993     
   2295695587.4897308     
   2405946497.6897602     
   2906097443.9216428     
   2921047755.0709043     
   2937160391.0188951     
   2954374858.7280703     
   2972647097.1070251     
   2681633199.2079182     
   2703321452.0252147     
   2727272084.6055908     
   2753465160.5806370     
   2781890892.2186141     
   2515638678.4289160     
   2544056573.1928501     
   2575870414.1983232     
   2611081229.6911759     
   2649694629.1190667     
   2420736991.3067045     
   2454364041.2995911     
   2492524247.1582861     
   2535220986.2037897     
   2582458759.0911593     
   2405946497.6897602     
   2441642099.0331140     
   2482999195.7229548     
   2530017805.0485244     
   2582697958.1026030     
   2972647097.1070251     
   2941761841.5722404     
   2918528402.4689307     
   2903085844.6059093     
   2895626742.3672967     
   2781890892.2186141     
   2765397612.1138749     
   2756234721.2221665     
   2754487285.9842081     
   2760267355.6070604     
   2649694629.1190667     
   2644655525.2596545     
   2646350715.9842758     
   2654817247.5839067     
   2670102256.9922781     
   2582458759.0911593     
   2585550285.2874813     
   2594518978.5612969     
   2609372969.8443756     
   2630122275.9540486     
   2582697958.1026030     
   2590539877.6374388     
   2603195312.3349686     
   2620664228.3091836     
   2642946634.2289572     
   2895626742.3672967     
   2864099013.4205232     
   2838927639.6741452     
   2820271587.9743195     
   2808302989.3482847     
   2760267355.6070604     
   2737539021.4567780     
   2721784546.1557317     
   2713111993.7007074     
   2711636023.6072907     
   2670102256.9922781     
   2654269010.9818616     
   2645948548.5249238     
   2645196145.5593538     
   2652069394.2338138     
   2630122275.9540486     
   2618544119.1714416     
   2614931169.8619232     
   2619298419.8814049     
   2631661244.5805597     
   2642946634.2289572     
   2632426014.4188499     
   2630238801.1464725     
   2636385104.2095461     
   2650865061.6430283     
   2808302989.3482847     
   2770331085.2984328     
   2741051598.4098172     
   2720690194.8355269     
   2709486167.7108574     
   2711636023.6072907     
   2684230908.2596335     
   2665582057.3229203     
   2655824654.7550941     
   2655099228.9063945     
   2652069394.2338138     
   2632800848.2050595     
   2622256716.7320852     
   2620499141.1899543     
   2627591916.8311315     
   2631661244.5805597     
   2617716081.9772944     
   2612394419.5723052     
   2615712067.8902140     
   2627685410.0169716     
   2650865061.6430283     
   2639241401.2841601     
   2636099820.4835324     
   2641440165.3988428     
   2655262524.0854993     
   2709486167.7108574     
   2689804478.5173554     
   2677030751.6405268     
   2671288186.7206869     
   2672698231.4133077     
   2655099228.9063945     
   2642174048.3493524     
   2636430865.8825765     
   2637939902.9283476     
   2646769928.3983421     
   2627591916.8311315     
   2619357768.0271358     
   2618541860.0568891     
   2625174117.9372277     
   2639285293.1017804     
   2627685410.0169716     
   2621748339.1979251     
   2623450735.1406016     
   2632800695.8596287     
   2649810193.0668173     
   2655262524.0854993     
   2649034254.8117476     
   2650668686.8033829     
   2660174089.8612509     
   2677565508.6313114     
   2672698231.4133077     
   2637770654.9254565     
   2617626113.7928038     
   2613408963.1118646     
   2626877256.0948124     
   2646769928.3983421     
   2608775552.8408089     
   2583132610.3613601     
   2570206066.7251463     
   2570512952.0930128     
   2639285293.1017804     
   2603572157.4626284     
   2578509473.8687968     
   2564149453.6623001     
   2560543576.3186898     
   2649810193.0668173     
   2622416873.4552064     
   2604627856.1157928     
   2596666647.7852192     
   2598952712.5211940     
   2677565508.6313114     
   2664940945.3375106     
   2661488659.9076266     
   2668041667.4265509     
   2686137253.6356845     
   1136945988.2996397     
   1335239998.6900911     
   1533863762.8030002     
   1732817280.2574713     
   1932100550.8287458     
   1207166828.9788470     
   1399096370.7239809     
   1590616812.6569552     
   1780951800.3413539     
   1969642974.2076774     
   1393717144.5825894     
   1571077425.4564281     
   1749450736.1160755     
   1926833177.8706365     
   2101974165.3782389     
   1653891818.0854256     
   1820324530.7909741     
   1988456665.1186318     
   2155590711.4220543     
   2319967821.1361647     
   1955364642.8868940     
   2119410878.7829411     
   2284809709.4960032     
   2448598853.0821877     
   2608818637.9150977     
   1932100550.8287458     
   2058772613.9641700     
   2179970959.5675993     
   2295695587.4897308     
   2405946497.6897602     
   1969642974.2076774     
   2086789678.0399308     
   2201049514.6486783     
   2312347561.4857426     
   2420631737.1037064     
   2101974165.3782389     
   2205725961.0616584     
   2309367846.3340740     
   2412664324.2467589     
   2515448979.5721498     
   2319967821.1361647     
   2407031778.9849081     
   2496532133.2935443     
   2588080681.8828588     
   2681402756.7081456     
   2608818637.9150977     
   2676776464.3088703     
   2749251363.1516790     
   2825736865.6246367     
   2905881303.8876209     
   2405946497.6897602     
   2441642099.0331140     
   2482999195.7229548     
   2530017805.0485244     
   2582697958.1026030     
   2420631737.1037064     
   2454462688.4103556     
   2492878731.8701167     
   2535883849.2005239     
   2583482713.1265521     
   2515448979.5721498     
   2544179331.3786249     
   2576405888.9323530     
   2612131379.2698860     
   2651362546.3286157     
   2681402756.7081456     
   2703383588.5131702     
   2727769019.6049356     
   2754542301.6703515     
   2783696462.2347212     
   2905881303.8876209     
   2920967425.3209362     
   2937390627.8252749     
   2955094747.6395912     
   2974040127.2821965     
   2582697958.1026030     
   2590539877.6374388     
   2603195312.3349686     
   2620664228.3091836     
   2642946634.2289572     
   2583482713.1265521     
   2586486115.9718175     
   2595370863.6043048     
   2610144845.3065867     
   2630819207.3660817     
   2651362546.3286157     
   2646100741.7062149     
   2647578817.8257251     
   2655834093.1601405     
   2670917017.2941713     
   2783696462.2347212     
   2766802966.1560912     
   2757244070.5436883     
   2755106094.8243866     
   2760507316.8404560     
   2974040127.2821965     
   2942537884.8667803     
   2918687367.5693393     
   2902629899.1988807     
   2894567448.9648094     
   2642946634.2289572     
   2632426014.4188499     
   2630238801.1464725     
   2636385104.2095461     
   2650865061.6430283     
   2630819207.3660817     
   2619378781.7320433     
   2615901141.7725453     
   2620401421.9964695     
   2632895067.3815255     
   2670917017.2941713     
   2655616168.4572272     
   2647851714.0816145     
   2647677630.6994743     
   2655149373.4433613     
   2760507316.8404560     
   2738922886.2441316     
   2724392552.3826232     
   2717021282.9976730     
   2716918321.5717697     
   2894567448.9648094     
   2864951862.9826007     
   2841859386.0759449     
   2825445483.4024954     
   2815874448.7539158     
   2650865061.6430283     
   2639241401.2841601     
   2636099820.4835324     
   2641440165.3988428     
   2655262524.0854993     
   2632895067.3815255     
   2619477841.0300860     
   2614643881.0443735     
   2618408981.1287456     
   2630789038.9227810     
   2655149373.4433613     
   2636549556.3537259     
   2626556733.6206732     
   2625235715.5762353     
   2632653912.9866920     
   2716918321.5717697     
   2689994882.6247144     
   2671596486.1263199     
   2661864124.8484011     
   2660948495.4927034     
   2815874448.7539158     
   2777951977.5090322     
   2748341006.9870124     
   2727273471.0486245     
   2715004592.9431996     
   2655262524.0854993     
   2649034254.8117476     
   2650668686.8033829     
   2660174089.8612509     
   2677565508.6313114     
   2630789038.9227810     
   2622150748.9668331     
   2621071596.2337012     
   2627566455.3005152     
   2641650746.7128639     
   2632653912.9866920     
   2620474536.4268618     
   2615636209.8859582     
   2618170711.6745076     
   2628108993.8376865     
   2660948495.4927034     
   2644271739.3030314     
   2634791564.3092704     
   2632564124.5033236     
   2637648933.3357825     
   2715004592.9431996     
   2693088096.8427138     
   2678287519.5856872     
   2670687706.5903130     
   2670386884.3221755     
   2677565508.6313114     
   2664940945.3375106     
   2661488659.9076266     
   2668041667.4265509     
   2686137253.6356845     
   2641650746.7128639     
   2640334939.1734185     
   2648952386.0369458     
   2667727543.6053100     
   2697080555.7590327     
   2628108993.8376865     
   2627501947.7170963     
   2637291462.3551550     
   2657526318.3473153     
   2688251432.6702766     
   2637648933.3357825     
   2627159137.6763921     
   2627173149.9980035     
   2638004068.9596834     
   2660059136.4061904     
   2670386884.3221755     
   2639909300.2983222     
   2619527616.3687119     
   2610241156.0655417     
   2613586505.0039148     
   1955364642.8868940     
   2119410878.7829411     
   2284809709.4960032     
   2448598853.0821877     
   2608818637.9150977     
   2298809442.2189403     
   2449494927.5731883     
   2604899400.6962018     
   2763099656.3300142     
   2922665440.0258865     
   2694748242.6065392     
   2830511423.7053423     
   2973585257.8260918     
   3122887849.8274436     
   3277508544.2806082     
   3137973331.6635284     
   3255506180.0835123     
   3382456981.5405612     
   3518357795.5765972     
   3662751814.5199738     
   3624996304.1923561     
   3719686886.8575659     
   3825632038.0394959     
   3942769821.9200954     
   4071009019.4440050     
   2608818637.9150977     
   2676776464.3088703     
   2749251363.1516790     
   2825736865.6246367     
   2905881303.8876209     
   2922665440.0258865     
   2975614351.0983205     
   3030792796.5430651     
   3087519380.5529985     
   3145261690.7080650     
   3277508544.2806082     
   3320770511.7992826     
   3364277811.3680387     
   3407206952.4836679     
   3448879430.9391079     
   3662751814.5199738     
   3702193144.6364789     
   3740252653.1376143     
   3776029784.6617703     
   3808773865.2294474     
   4071009019.4440050     
   4112498104.4478922     
   4151332344.8003058     
   4186610966.5811105     
   4217599968.9134889     
   2905881303.8876209     
   2920967425.3209362     
   2937390627.8252749     
   2955094747.6395912     
   2974040127.2821965     
   3145261690.7080650     
   3141743585.1338267     
   3141829581.6100888     
   3145418615.5264826     
   3152497275.1022687     
   3448879430.9391079     
   3422795432.8880916     
   3401806892.8641529     
   3385684750.1205244     
   3374414501.5835676     
   3808773865.2294474     
   3755813404.8505297     
   3708847313.6756511     
   3667403241.6101832     
   3631387226.0230460     
   4217599968.9134889     
   4133172211.5369987     
   4055257477.2193213     
   3983008491.9508414     
   3916132736.9975476     
   2974040127.2821965     
   2942537884.8667803     
   2918687367.5693393     
   2902629899.1988807     
   2894567448.9648094     
   3152497275.1022687     
   3107455433.3396926     
   3068850913.5194817     
   3036888281.4814463     
   3011825666.3786411     
   3374414501.5835676     
   3316066616.7146883     
   3263075880.8883967     
   3215671626.1220279     
   3174130977.0298219     
   3631387226.0230460     
   3560573953.2238016     
   3494207105.3128791     
   3432511065.9922390     
   3375752262.2595706     
   3916132736.9975476     
   3834014203.1047902     
   3755616582.9726081     
   3681140906.5472598     
   3610824758.8574171     
   2894567448.9648094     
   2864951862.9826007     
   2841859386.0759449     
   2825445483.4024954     
   2815874448.7539158     
   3011825666.3786411     
   2970386903.1901269     
   2935302136.4898462     
   2906801549.6924748     
   2885138883.8614583     
   3174130977.0298219     
   3119032932.6586699     
   3069899004.4281464     
   3027023022.9135571     
   2990744367.1248784     
   3375752262.2595706     
   3305688358.4800968     
   3241020589.4713359     
   3182082247.5675459     
   3129277882.7318754     
   3610824758.8574171     
   3524908564.3558125     
   3443697692.4552050     
   3367534585.0627842     
   3296858259.4828224     
   2815874448.7539158     
   2777951977.5090322     
   2748341006.9870124     
   2727273471.0486245     
   2715004592.9431996     
   2885138883.8614583     
   2834431712.3559790     
   2791542710.4115014     
   2756781043.9211593     
   2730485428.7595325     
   2990744367.1248784     
   2926564459.2767806     
   2869658477.7241664     
   2820394433.3965425     
   2779181580.1586928     
   3129277882.7318754     
   3051424574.4310040     
   2980276284.8052683     
   2916235053.4585485     
   2859758311.6567159     
   3296858259.4828224     
   3205488333.9106750     
   3120264870.4539881     
   3041599163.1176558     
   2969971636.0726171     
   2715004592.9431996     
   2693088096.8427138     
   2678287519.5856872     
   2670687706.5903130     
   2670386884.3221755     
   2730485428.7595325     
   2700756933.5474739     
   2677956101.2926688     
   2662257540.8877449     
   2653839844.5424862     
   2779181580.1586928     
   2738767821.1998949     
   2704874570.5589600     
   2677784627.2254453     
   2657793409.8796124     
   2859758311.6567159     
   2806429581.9138937     
   2758973308.0690417     
   2717777961.6829715     
   2683271935.8327122     
   2969971636.0726171     
   2902199422.2246847     
   2839423249.6733832     
   2782113071.2363076     
   2730821425.4442968     
   2670386884.3221755     
   2639909300.2983222     
   2619527616.3687119     
   2610241156.0655417     
   2613586505.0039148     
   2653839844.5424862     
   2600276321.5028057     
   2556555865.7907219     
   2523432066.1394362     
   2501880818.6802654     
   2657793409.8796124     
   2585363993.7562594     
   2522676568.8204103     
   2470345603.0314441     
   2429041235.3186202     
   2683271935.8327122     
   2596115782.8325348     
   2518814105.7651625     
   2451961848.6113482     
   2396226311.9412532     
   2730821425.4442968     
   2632730970.4638128     
   2544897321.4355283     
   2468022569.7568264     
   2403095764.0364456     
   3624996304.1923561     
   3719686886.8575659     
   3825632038.0394959     
   3942769821.9200954     
   4071009019.4440050     
   4134159473.1952343     
   4224391564.2000360     
   4320545988.4026384     
   4420966346.0401926     
   4524198288.9934359     
   4643493900.4490175     
   4755555642.9028225     
   4868741832.3707342     
   4980416626.5880671     
   5088653839.6837006     
   5151479191.1708984     
   5311354518.1293077     
   5467861311.3174343     
   5618102164.0937500     
   5760609854.2726851     
   5657851890.5873384     
   5890950546.9360142     
   6116409040.2212763     
   6331765946.6683521     
   6536796658.0380201     
   4071009019.4440050     
   4112498104.4478922     
   4151332344.8003058     
   4186610966.5811105     
   4217599968.9134889     
   4524198288.9934359     
   4539069173.4573059     
   4558606989.4440203     
   4580330907.1898031     
   4602517058.5767899     
   5088653839.6837006     
   5054060462.2948189     
   5029979561.9393864     
   5011205130.7119703     
   4994535939.0768061     
   5760609854.2726851     
   5652144999.3232994     
   5559684737.4602242     
   5474169088.5774183     
   5390057706.2239666     
   6536796658.0380201     
   6328727669.2874022     
   6142852927.8850594     
   5965266362.3449802     
   5786960277.1883497     
   4217599968.9134889     
   4133172211.5369987     
   4055257477.2193213     
   3983008491.9508414     
   3916132736.9975476     
   4602517058.5767899     
   4493899689.7742052     
   4389515376.4591208     
   4289049002.0921621     
   4192412715.9723516     
   4994535939.0768061     
   4867082571.4926138     
   4742824514.4348192     
   4621730715.8456764     
   4503843008.4546452     
   5390057706.2239666     
   5248752986.4946203     
   5110667751.3497705     
   4975844281.6781263     
   4844376779.4725466     
   5786960277.1883497     
   5636239320.6264420     
   5489706012.0126591     
   5347275110.1210241     
   5208993599.0527782     
   3916132736.9975476     
   3834014203.1047902     
   3755616582.9726081     
   3681140906.5472598     
   3610824758.8574171     
   4192412715.9723516     
   4097816980.6105371     
   4006477336.9132071     
   3918602391.2141223     
   3834458267.2657728     
   4503843008.4546452     
   4395087878.3786974     
   4288920820.0922766     
   4185527351.6150980     
   4085177466.2077446     
   4844376779.4725466     
   4719928278.7425766     
   4597264572.8600903     
   4476515259.2511177     
   4357923443.2257462     
   5208993599.0527782     
   5067432474.4437542     
   4926776851.1593733     
   4787068167.9042654     
   4648489575.9894028     
   3610824758.8574171     
   3524908564.3558125     
   3443697692.4552050     
   3367534585.0627842     
   3296858259.4828224     
   3834458267.2657728     
   3733732419.7384324     
   3636867840.1037030     
   3544165724.2720451     
   3456007431.8375092     
   4085177466.2077446     
   3971020679.2655087     
   3860083475.3008466     
   3752616284.0577774     
   3648935439.4565673     
   4357923443.2257462     
   4231683306.4541712     
   4108221697.0550785     
   3987737969.4472699     
   3870486988.2489014     
   4648489575.9894028     
   4511403790.9118471     
   4376840587.6657448     
   4244952410.0868063     
   4115941638.5197468     
   3296858259.4828224     
   3205488333.9106750     
   3120264870.4539881     
   3041599163.1176558     
   2969971636.0726171     
   3456007431.8375092     
   3350953424.5624614     
   3251089524.7112460     
   3156842442.6007266     
   3068724117.9131007     
   3648935439.4565673     
   3529939790.8086114     
   3415113709.1795220     
   3304859562.1084456     
   3199675723.9164801     
   3870486988.2489014     
   3737635137.8741670     
   3607928405.0352855     
   3481713439.9718366     
   3359436630.2829170     
   4115941638.5197468     
   3969536719.2257366     
   3825294210.5509114     
   3683484661.7571754     
   3544475635.0799761     
   2969971636.0726171     
   2902199422.2246847     
   2839423249.6733832     
   2782113071.2363076     
   2730821425.4442968     
   3068724117.9131007     
   2986095550.5914340     
   2907682526.3890195     
   2833901645.3097034     
   2765245791.0913143     
   3199675723.9164801     
   3103663340.4322433     
   3011182011.5515223     
   2922575966.4399219     
   2838257291.1523461     
   3359436630.2829170     
   3251578782.2846255     
   3146709565.8912401     
   3045096317.6066236     
   2947065512.6210532     
   3544475635.0799761     
   3426226507.0927300     
   3310584967.8123755     
   3197748318.3147550     
   3087966706.3959661     
   2730821425.4442968     
   2632730970.4638128     
   2544897321.4355283     
   2468022569.7568264     
   2403095764.0364456     
   2765245791.0913143     
   2654394017.0810213     
   2552342962.9632554     
   2459910104.3163567     
   2378083515.8955259     
   2838257291.1523461     
   2711181406.7378354     
   2590727784.3022075     
   2477770399.4862022     
   2373363372.0919218     
   2947065512.6210532     
   2802105548.2528200     
   2661025446.5957642     
   2524636827.4119310     
   2394031892.2830620     
   3087966706.3959661     
   2925097036.9201393     
   2763096865.5991631     
   2602600777.2731905     
   2444679153.3017926     
   5657851890.5873384     
   5890950546.9360142     
   6116409040.2212763     
   6331765946.6683521     
   6536796658.0380201     
   6491699822.6544561     
   6586920107.9245443     
   6757472543.3807650     
   6961275556.2313795     
   7171668586.2057028     
   7982385858.7290897     
   7735011996.6181822     
   7669207896.1940622     
   7669670440.6320858     
   7666468531.0798883     
   10130355963.418079     
   9322067783.8209724     
   8826425146.3497276     
   8443603014.4507694     
   8035795559.5645304     
   12935696041.242157     
   11340801460.945917     
   10210291239.836885     
   9272837461.6167526     
   8304006835.1497278     
   6536796658.0380201     
   6328727669.2874022     
   6142852927.8850594     
   5965266362.3449802     
   5786960277.1883497     
   7171668586.2057028     
   6911031696.5557384     
   6658294204.2047815     
   6409597421.3748016     
   6161796295.1548119     
   7666468531.0798883     
   7381224673.3885069     
   7101366124.4905872     
   6826970634.2474003     
   6558240775.6363592     
   8035795559.5645304     
   7746954969.9888077     
   7473767994.2305794     
   7214278734.3386993     
   6968492730.3315868     
   8304006835.1497278     
   8020783620.8357935     
   7779636835.0924482     
   7569890343.4340477     
   7386571850.2471695     
   5786960277.1883497     
   5636239320.6264420     
   5489706012.0126591     
   5347275110.1210241     
   5208993599.0527782     
   6161796295.1548119     
   6012639015.4913425     
   5864827976.9288797     
   5718401944.9148235     
   5573417557.3370523     
   6558240775.6363592     
   6407517407.6467247     
   6255194740.5811157     
   6101241684.5951567     
   5945687301.9625092     
   6968492730.3315868     
   6814415615.2255383     
   6655771372.8808842     
   6492279017.0222273     
   6323885782.1917982     
   7386571850.2471695     
   7228335893.3046217     
   7062651771.9609098     
   6888829129.9004402     
   6706676406.7878904     
   5208993599.0527782     
   5067432474.4437542     
   4926776851.1593733     
   4787068167.9042654     
   4648489575.9894028     
   5573417557.3370523     
   5414270432.3632154     
   5256031513.9938231     
   5098742905.0716734     
   4942509394.9029484     
   5945687301.9625092     
   5772423051.3088007     
   5600515354.0618496     
   5429989095.0117207     
   5260903136.6597939     
   6323885782.1917982     
   6139479449.8342962     
   5957265126.8216162     
   5777220843.0403767     
   5599369732.3132772     
   6706676406.7878904     
   6513619707.6913328     
   6323939039.8276796     
   6137524448.7828875     
   5954352763.4032774     
   4648489575.9894028     
   4511403790.9118471     
   4376840587.6657448     
   4244952410.0868063     
   4115941638.5197468     
   4942509394.9029484     
   4795769003.8706322     
   4650473610.9304571     
   4506742726.6506567     
   4364736646.5091219     
   5260903136.6597939     
   5104705683.4381332     
   4948920704.3080835     
   4793622998.7186022     
   4638924105.9591208     
   5599369732.3132772     
   5434108400.6665983     
   5268295618.9882336     
   5101955647.3112898     
   4935150443.1935949     
   5954352763.4032774     
   5780558310.3134565     
   5605333271.1918612     
   5428650347.5837059     
   5250525882.7964697     
   4115941638.5197468     
   3969536719.2257366     
   3825294210.5509114     
   3683484661.7571754     
   3544475635.0799761     
   4364736646.5091219     
   4203730378.8925347     
   4044414251.4977775     
   3886969735.3222852     
   3731657283.7876644     
   4638924105.9591208     
   4464468881.4037046     
   4291381573.3876243     
   4119766761.3344526     
   3949794111.5113621     
   4935150443.1935949     
   4748101420.4225340     
   4562225740.8190641     
   4377565255.8760014     
   4194218335.6860375     
   5250525882.7964697     
   5051459257.5072832     
   4853472580.1231537     
   4656557984.3987856     
   4460760859.9092255     
   3544475635.0799761     
   3426226507.0927300     
   3310584967.8123755     
   3197748318.3147550     
   3087966706.3959661     
   3731657283.7876644     
   3603143226.1897292     
   3476278588.6806579     
   3351238226.4222317     
   3228253448.5512271     
   3949794111.5113621     
   3810621888.2943397     
   3672075197.7496200     
   3534287064.6192212     
   3397453877.7373867     
   4194218335.6860375     
   4044242583.2532287     
   3893862232.4747348     
   3743154435.5162864     
   3592268945.8833947     
   4460760859.9092255     
   4300013624.1927538     
   4137873580.7275419     
   3974354191.3534746     
   3809553111.2685328     
   3087966706.3959661     
   2925097036.9201393     
   2763096865.5991631     
   2602600777.2731905     
   2444679153.3017926     
   3228253448.5512271     
   3050222387.9947171     
   2873844479.8182993     
   2699389766.4759436     
   2527274380.4121585     
   3397453877.7373867     
   3207730218.1402173     
   3020871414.2696142     
   2837088354.1233668     
   2656753053.0908875     
   3592268945.8833947     
   3392355929.7476897     
   3196734421.0809512     
   3005788124.2563620     
   2820334032.3109994     
   3809553111.2685328     
   3599225278.7749276     
   3394708492.9827127     
   3196734300.5173779     
   3006940058.2693925     
 </DataArray>
 <DataArray  type="Float64" Name="strain" NumberOfComponents="3" format="ascii">
  0.20347903315552188        0.0000000000000000       0.12539683874797938     
  0.18665169259971257       -2.7319823366441353E-002   7.4350063635043595E-002
  0.16982435204390325       -4.4670213457973160E-002   3.5135285259237682E-002
  0.15299701148809394       -5.2051170274595451E-002   7.7525036205616481E-003
  0.13616967093228460       -4.9462693816308204E-002  -7.7982812809844482E-003
  0.15985163836897434        0.0000000000000000        9.6445978301627960E-002
  0.15317494986130661       -2.1841253493799558E-002   6.2690715401996194E-002
  0.14649826135363889       -3.6170652197584724E-002   3.7404759861517700E-002
  0.13982157284597113       -4.2988196111355514E-002   2.0588111680192436E-002
  0.13314488433830340       -4.2293885235111933E-002   1.2240770858020465E-002
  0.12645645645225720        0.0000000000000000        7.4202476970365888E-002
  0.12656773061475440       -1.6362683621157760E-002   5.5281147799143018E-002
  0.12667900477725161       -2.7671090937196292E-002   4.1466436609096741E-002
  0.12679027893974884       -3.3925221948115598E-002   3.2758343400227138E-002
  0.12690155310224605       -3.5125076653915670E-002   2.9156868172534118E-002
  0.10329348740537045        0.0000000000000000        5.8666334754193195E-002
  0.10683003486005596       -1.0884113748515969E-002   5.2121360826484039E-002
  0.11036658231474149       -1.9171529676807859E-002   4.7320315501974859E-002
  0.11390312976942700       -2.4862247784875672E-002   4.4263198780665709E-002
  0.11743967722411255       -2.7956268072719410E-002   4.2950010662556562E-002
   9.0362731228314092E-002   0.0000000000000000        4.9837551653109879E-002
   9.3961862597211288E-002  -5.4055438758741758E-003   5.3211354484019292E-002
   9.7560993966108497E-002  -1.0671968416419424E-002   5.4966396540152077E-002
  0.10116012533500572       -1.5799273621635745E-002   5.5102677821508260E-002
  0.10475925670390293       -2.0787459491523136E-002   5.3620198328087773E-002
  0.13616967093228460       -4.9462693816308204E-002  -7.7982812809844482E-003
  0.13295816390148835       -4.2934220140937444E-002  -3.3947758969084807E-003
  0.12974665687069209       -3.8495185306309160E-002  -4.0051015776980045E-004
  0.12653514983989581       -3.6145589312423357E-002   1.1845159364318632E-003
  0.12332364280909955       -3.5885432159280084E-002   1.3603023856962604E-003
  0.13314488433830340       -4.2293885235111933E-002   1.2240770858020465E-002
  0.12891138302285274       -3.8432193777054188E-002   1.2179710726738704E-002
  0.12467788170740207       -3.5747595945382502E-002   1.1483901671085407E-002
  0.12044438039195143       -3.4240091740096908E-002   1.0153343691060567E-002
  0.11621087907650074       -3.3909681161197372E-002   8.1880367866640769E-003
  0.12690155310224605       -3.5125076653915670E-002   2.9156868172534118E-002
  0.12242054822270657       -3.3930167413170967E-002   2.5543587740251218E-002
  0.11793954334316707       -3.3000006584455885E-002   2.2070049104162257E-002
  0.11345853846362758       -3.2334594167770465E-002   1.8736252264267342E-002
  0.10897753358408810       -3.1933930163114688E-002   1.5542197220566212E-002
  0.11743967722411255       -2.7956268072719410E-002   4.2950010662556562E-002
  0.11348565950104980       -2.9428141049287725E-002   3.6696855143628922E-002
  0.10953164177798705       -3.0252417223529261E-002   3.1357932141460765E-002
  0.10557762405492430       -3.0429096595444006E-002   2.6933241656052077E-002
  0.10162360633186156       -2.9958179165031990E-002   2.3422783687402981E-002
  0.10475925670390293       -2.0787459491523136E-002   5.3620198328087773E-002
  0.10210671685788250       -2.4926114685404489E-002   4.5639512936871691E-002
   9.9454177011862030E-002  -2.7504827862602617E-002   3.9347550782980793E-002
   9.6801637165841573E-002  -2.8523599023117539E-002   3.4744311866414891E-002
   9.4149097319821143E-002  -2.7982428166949291E-002   3.1829796187174089E-002
  0.12332364280909955       -3.5885432159280084E-002   1.3603023856962604E-003
  0.12040950073133277       -3.6372238506651500E-002   6.4925793875995896E-004
  0.11749535865356604       -3.6263533014309610E-002   1.1573745673876257E-004
  0.11458121657579931       -3.5559315682254539E-002  -2.4025906036705819E-004
  0.11166707449803254       -3.4259586510486217E-002  -4.1873161255751024E-004
  0.11621087907650074       -3.3909681161197372E-002   8.1880367866640769E-003
  0.11346225771332299       -3.3977098405260531E-002   7.8328822396743214E-003
  0.11071363635014525       -3.3663077668863131E-002   7.6312451569473527E-003
  0.10796501498696745       -3.2967618952005028E-002   7.5831255384828933E-003
  0.10521639362378971       -3.1890722254686310E-002   7.6885233842812206E-003
  0.10897753358408810       -3.1933930163114688E-002   1.5542197220566212E-002
  0.10637042643484668       -3.1581958303869700E-002   1.5328858714270737E-002
  0.10376331928560524       -3.1062622323416715E-002   1.5245031171585204E-002
  0.10115621213636380       -3.0375922221755600E-002   1.5290714592509587E-002
   9.8549104987122355E-002  -2.9521857998886514E-002   1.5465908977044016E-002
  0.10162360633186156       -2.9958179165031990E-002   2.3422783687402981E-002
   9.9134006895903820E-002  -2.9186818202478843E-002   2.3137187362548949E-002
   9.6644407459946055E-002  -2.8462166977970212E-002   2.2957095500652343E-002
   9.4154808023988318E-002  -2.7784225491506186E-002   2.2882508101712985E-002
   9.1665208588030567E-002  -2.7152993743086606E-002   2.2913425165731121E-002
   9.4149097319821143E-002  -2.7982428166949291E-002   3.1829796187174089E-002
   9.1752999096494439E-002  -2.6791678101087936E-002   3.1257868184509097E-002
   8.9356900873167722E-002  -2.5861711632523793E-002   3.0767438144148757E-002
   8.6960802649841004E-002  -2.5192528761256723E-002   3.0358506066093131E-002
   8.4564704426514287E-002  -2.4784129487286755E-002   3.0031071950342186E-002
  0.11166707449803254       -3.4259586510486217E-002  -4.1873161255751024E-004
  0.10856559317996217       -3.2760112706980371E-002  -2.1553154103115535E-004
  0.10546411186189181       -3.1456661479712780E-002   6.8162357081513747E-005
  0.10236263054382144       -3.0349232828683088E-002   4.3235008178039991E-004
   9.9261149225751077E-002  -2.9437826753891561E-002   8.7703163306540599E-004
  0.10521639362378971       -3.1890722254686310E-002   7.6885233842812206E-003
  0.10221986459903795       -3.0684148141756434E-002   7.5405212973773117E-003
   9.9223335574286142E-002  -2.9599657178064787E-002   7.5219299705247544E-003
   9.6226806549534361E-002  -2.8637249363611547E-002   7.6327494037231811E-003
   9.3230277524782579E-002  -2.7796924698396397E-002   7.8729795969723348E-003
   9.8549104987122355E-002  -2.9521857998886514E-002   1.5465908977044016E-002
   9.5706445189154027E-002  -2.8608183576532581E-002   1.5040644158709926E-002
   9.2863785391185685E-002  -2.7742652876417008E-002   1.4793707033891636E-002
   9.0021125593217372E-002  -2.6925265898539892E-002   1.4725097602589398E-002
   8.7178465795249030E-002  -2.6156022642901094E-002   1.4834815864802800E-002
   9.1665208588030567E-002  -2.7152993743086606E-002   2.2913425165731121E-002
   8.9025334950310508E-002  -2.6532219011308575E-002   2.2284837042966368E-002
   8.6385461312590478E-002  -2.5885648574769177E-002   2.1883493547182470E-002
   8.3745587674870406E-002  -2.5213282433468241E-002   2.1709394678379273E-002
   8.1105714037150389E-002  -2.4515120587405917E-002   2.1762540436556743E-002
   8.4564704426514287E-002  -2.4784129487286755E-002   3.0031071950342186E-002
   8.2176533882507397E-002  -2.4456254446084680E-002   2.9273099950146930E-002
   7.9788363338500465E-002  -2.4028644273121319E-002   2.8791289510397139E-002
   7.7400192794493561E-002  -2.3501298968396638E-002   2.8585640631092903E-002
   7.5012022250486615E-002  -2.2874218531910739E-002   2.8656153312234228E-002
   9.9261149225751077E-002  -2.9437826753891561E-002   8.7703163306540599E-004
   9.6341747721326254E-002  -2.8595557785322995E-002   6.5031897500233971E-004
   9.3422346216901458E-002  -2.7695540452963088E-002   5.7052229255824538E-004
   9.0502944712476649E-002  -2.6737774756810832E-002   6.3764158573230423E-004
   8.7583543208051839E-002  -2.5722260696866783E-002   8.5167685452525177E-004
   9.3230277524782579E-002  -2.7796924698396397E-002   7.8729795969723348E-003
   9.0459397594520263E-002  -2.6998006848125339E-002   7.6754414504590918E-003
   8.7688517664258031E-002  -2.6159819478504223E-002   7.6280304766521562E-003
   8.4917637733995729E-002  -2.5282362589533151E-002   7.7307466755512574E-003
   8.2146757803733428E-002  -2.4365636181212014E-002   7.9835900471572074E-003
   8.7178465795249030E-002  -2.6156022642901094E-002   1.4834815864802800E-002
   8.4559318636236933E-002  -2.5400455910927613E-002   1.4647973385397153E-002
   8.1940171477224821E-002  -2.4624098504045684E-002   1.4614469275785906E-002
   7.9321024318212696E-002  -2.3826950422255633E-002   1.4734303535968437E-002
   7.6701877159200627E-002  -2.3009011665557355E-002   1.5007476165945111E-002
   8.1105714037150389E-002  -2.4515120587405917E-002   2.1762540436556743E-002
   7.8641510846476165E-002  -2.3802904973729729E-002   2.1567914779817340E-002
   7.6177307655801899E-002  -2.3088377529587093E-002   2.1529838689959557E-002
   7.3713104465127660E-002  -2.2371538254978091E-002   2.1648312166983583E-002
   7.1248901274453408E-002  -2.1652387149902641E-002   2.1923335210889267E-002
   7.5012022250486615E-002  -2.2874218531910739E-002   2.8656153312234228E-002
   7.2705974225237918E-002  -2.2205354036531857E-002   2.8435265633719009E-002
   7.0399926199989207E-002  -2.1552656555128322E-002   2.8374138719173075E-002
   6.8093878174740524E-002  -2.0916126087700420E-002   2.8472772568596802E-002
   6.5787830149491799E-002  -2.0295762634247927E-002   2.8731167181989647E-002
   8.7583543208051839E-002  -2.5722260696866783E-002   8.5167685452525177E-004
   8.4243343558912054E-002  -2.4696752407830314E-002   5.7402297242620248E-004
   8.0903143909772379E-002  -2.3709004024400904E-002   5.1060877633379853E-004
   7.7562944260632705E-002  -2.2759015546578248E-002   6.6143426624803991E-004
   7.4222744611492919E-002  -2.1846786974362487E-002   1.0264994421689266E-003
   8.2146757803733428E-002  -2.4365636181212014E-002   7.9835900471572074E-003
   7.9019561161903895E-002  -2.3441999442214617E-002   7.6649998643448514E-003
   7.5892364520074224E-002  -2.2543811561214405E-002   7.5581760101461337E-003
   7.2765167878244622E-002  -2.1671072538211510E-002   7.6631184845609018E-003
   6.9637971236414964E-002  -2.0823782373205924E-002   7.9798272875888365E-003
   7.6701877159200627E-002  -2.3009011665557355E-002   1.5007476165945111E-002
   7.3785210167287951E-002  -2.2187246476598865E-002   1.4660260730029184E-002
   7.0868543175375248E-002  -2.1378619098027907E-002   1.4522338265333834E-002
   6.7951876183462545E-002  -2.0583129529844882E-002   1.4593708771858505E-002
   6.5035209191549870E-002  -1.9800777772049416E-002   1.4874372249603529E-002
   7.1248901274453408E-002  -2.1652387149902641E-002   2.1923335210889267E-002
   6.8540290575064403E-002  -2.0932493510983030E-002   2.1559805569479500E-002
   6.5831679875675397E-002  -2.0213426634841630E-002   2.1403095541896885E-002
   6.3123069176286420E-002  -1.9495186521478088E-002   2.1453205128141258E-002
   6.0414458476897401E-002  -1.8777773170892770E-002   2.1710134328212893E-002
   6.5787830149491799E-002  -2.0295762634247927E-002   2.8731167181989647E-002
   6.3284802385233263E-002  -1.9677740545367306E-002   2.8363634382695513E-002
   6.0781774620974754E-002  -1.9048234171655173E-002   2.8200447839835580E-002
   5.8278746856716176E-002  -1.8407243513111553E-002   2.8241607553409390E-002
   5.5775719092457654E-002  -1.7754768569736346E-002   2.8487113523416985E-002
   7.4222744611492919E-002  -2.1846786974362487E-002   1.0264994421689266E-003
   7.1639242094135969E-002  -2.0893334805234365E-002   8.3822863551086257E-004
   6.9055739576779129E-002  -1.9819675536673520E-002   7.9733955289873482E-004
   6.6472237059422179E-002  -1.8625809168680951E-002   9.0383219433340378E-004
   6.3888734542065340E-002  -1.7311735701255881E-002   1.1577065598137315E-003
   6.9637971236414964E-002  -2.0823782373205924E-002   7.9798272875888365E-003
   6.7200450886696461E-002  -1.9958508504146377E-002   7.8629799375045106E-003
   6.4762930536977903E-002  -1.9031818368981379E-002   7.8907151986505053E-003
   6.2325410187259372E-002  -1.8043711967710957E-002   8.0630330710269593E-003
   5.9887889837540842E-002  -1.6994189300335472E-002   8.3799335546344000E-003
   6.5035209191549870E-002  -1.9800777772049416E-002   1.4874372249603529E-002
   6.2740871896653977E-002  -1.9023682203058556E-002   1.4770157522766114E-002
   6.0446534601758140E-002  -1.8243961201289016E-002   1.4807726294343071E-002
   5.8152197306862274E-002  -1.7461614766741185E-002   1.4987078564335260E-002
   5.5857860011966465E-002  -1.6676642899415006E-002   1.5308214332742237E-002
   6.0414458476897401E-002  -1.8777773170892770E-002   2.1710134328212893E-002
   5.8260505124008592E-002  -1.8088855901970652E-002   2.1559761391295285E-002
   5.6106551771119770E-002  -1.7456104033596820E-002   2.1548372839976709E-002
   5.3952598418230947E-002  -1.6879517565771524E-002   2.1675968674257369E-002
   5.1798645065342125E-002  -1.6359096498494347E-002   2.1942548894137499E-002
   5.5775719092457654E-002  -1.7754768569736346E-002   2.8487113523416985E-002
   5.3759350568760245E-002  -1.7154029600882803E-002   2.8231791543092355E-002
   5.1742982045062780E-002  -1.6668246865904637E-002   2.8112654835551337E-002
   4.9726613521365315E-002  -1.6297420364801671E-002   2.8129703400793807E-002
   4.7710244997667905E-002  -1.6041550097573853E-002   2.8282937238819861E-002
   6.3888734542065340E-002  -1.7311735701255881E-002   1.1577065598137315E-003
   6.0238533979302122E-002  -1.5648474960726411E-002   1.1891769307792455E-004
   5.6588333416539016E-002  -1.3407046773418613E-002  -6.7790326444028270E-004
   5.2938132853775854E-002  -1.0587451139333397E-002  -1.2327563127418062E-003
   4.9287932291012693E-002  -7.1896880584709777E-003  -1.5456414518264516E-003
   5.9887889837540842E-002  -1.6994189300335472E-002   8.3799335546344000E-003
   5.6474705320498975E-002  -1.5730655403776772E-002   7.7793945228719075E-003
   5.3061520803457080E-002  -1.4100515314958179E-002   7.4109196733348481E-003
   4.9648336286415171E-002  -1.2103769033879198E-002   7.2745090060234163E-003
   4.6235151769373317E-002  -9.7404165605396997E-003   7.3701625209374733E-003
   5.5857860011966465E-002  -1.6676642899415006E-002   1.5308214332742237E-002
   5.2671787813654225E-002  -1.5812835846827689E-002   1.4934363881435653E-002
   4.9485715615342041E-002  -1.4793983856497758E-002   1.4782673885363209E-002
   4.6299643417029898E-002  -1.3620086928425004E-002   1.4853144344524651E-002
   4.3113571218717672E-002  -1.2291145062608866E-002   1.5145775258919469E-002
   5.1798645065342125E-002  -1.6359096498494347E-002   2.1942548894137499E-002
   4.8829781458768012E-002  -1.5895016289878772E-002   2.1583825768769695E-002
   4.5860917852193921E-002  -1.5487452398037331E-002   2.1437359371644361E-002
   4.2892054245619968E-002  -1.5136404822970252E-002   2.1503149702760654E-002
   3.9923190639045730E-002  -1.4841873564677588E-002   2.1781196762120009E-002
   4.7710244997667905E-002  -1.6041550097573853E-002   2.8282937238819861E-002
   4.4948686255840309E-002  -1.5977196732929633E-002   2.7727780184873430E-002
   4.2187127514012740E-002  -1.6180920939576945E-002   2.7374976132177348E-002
   3.9425568772185116E-002  -1.6652722717516066E-002   2.7224525080732323E-002
   3.6664010030357574E-002  -1.7392602066746532E-002   2.7276427030538120E-002
   9.0362731228314092E-002   0.0000000000000000        4.9837551653109879E-002
   9.3961862597211288E-002  -5.4055438758741758E-003   5.3211354484019292E-002
   9.7560993966108497E-002  -1.0671968416419424E-002   5.4966396540152077E-002
  0.10116012533500572       -1.5799273621635745E-002   5.5102677821508260E-002
  0.10475925670390293       -2.0787459491523136E-002   5.3620198328087773E-002
   8.2426059154452253E-002   0.0000000000000000        4.4784585113527675E-002
   8.4635580075832870E-002  -4.5749267842860528E-003   4.8268956027259953E-002
   8.6845100997213459E-002  -9.0380480658926888E-003   5.0592866820735646E-002
   8.9054621918594076E-002  -1.3389363844819905E-002   5.1756317493954804E-002
   9.1264142839974693E-002  -1.7628874121067700E-002   5.1759308046917342E-002
   7.4245342417149071E-002   0.0000000000000000        4.0575892581858355E-002
   7.5523553545533126E-002  -3.7443096926979306E-003   4.4143517745763985E-002
   7.6801764673917194E-002  -7.4041277153659504E-003   4.7008983443933103E-002
   7.8079975802301235E-002  -1.0979454068004057E-002   4.9172289676365673E-002
   7.9358186930685290E-002  -1.4470288750612258E-002   5.0633436443061709E-002
   6.5820581016404575E-002   0.0000000000000000        3.7211474058101907E-002
   6.6625783006312125E-002  -2.9136926011098089E-003   4.0835039639531390E-002
   6.7430984996219662E-002  -5.7702073648392155E-003   4.4214746409744397E-002
   6.8236186986127226E-002  -8.5695442911882143E-003   4.7350594368740923E-002
   6.9041388976034776E-002  -1.1311703380156819E-002   5.0242583516520965E-002
   5.7151774952218737E-002   0.0000000000000000        3.4691329542258335E-002
   5.7942268458169827E-002  -2.0830755095216855E-003   3.8343521708562159E-002
   5.8732761964120923E-002  -4.1362870143124755E-003   4.2210155718169551E-002
   5.9523255470072006E-002  -6.1596345143723665E-003   4.6291231571080498E-002
   6.0313748976023110E-002  -8.1531180097013725E-003   5.0586749267295048E-002
  0.10475925670390293       -2.0787459491523136E-002   5.3620198328087773E-002
  0.10210671685788250       -2.4926114685404489E-002   4.5639512936871691E-002
   9.9454177011862030E-002  -2.7504827862602617E-002   3.9347550782980793E-002
   9.6801637165841573E-002  -2.8523599023117539E-002   3.4744311866414891E-002
   9.4149097319821143E-002  -2.7982428166949291E-002   3.1829796187174089E-002
   9.1264142839974693E-002  -1.7628874121067700E-002   5.1759308046917342E-002
   9.0062567183235645E-002  -2.1202857428077145E-002   4.6519616788536736E-002
   8.8860991526496624E-002  -2.3557592299289325E-002   4.2493130671393882E-002
   8.7659415869757576E-002  -2.4693078734704207E-002   3.9679849695488781E-002
   8.6457840213018555E-002  -2.4609316734321832E-002   3.8079773860821488E-002
   7.9358186930685290E-002  -1.4470288750612258E-002   5.0633436443061709E-002
   7.9132057367140352E-002  -1.7479600170749818E-002   4.7794045736630653E-002
   7.8905927803595427E-002  -1.9610356735976029E-002   4.5692342075349973E-002
   7.8679798240050475E-002  -2.0862558446290879E-002   4.4328325459219789E-002
   7.8453668676505550E-002  -2.1236205301694372E-002   4.3701995888239996E-002
   6.9041388976034776E-002  -1.1311703380156819E-002   5.0242583516520965E-002
   6.9315187409596607E-002  -1.3756342913422488E-002   4.9462799781153498E-002
   6.9588985843158466E-002  -1.5663121172662740E-002   4.8945184994849109E-002
   6.9862784276720283E-002  -1.7032038157877551E-002   4.8689739157607867E-002
   7.0136582710282128E-002  -1.7863093869066926E-002   4.8696462269429690E-002
   6.0313748976023110E-002  -8.1531180097013725E-003   5.0586749267295048E-002
   6.0611957310604411E-002  -1.0033085656095149E-002   5.1525878922105250E-002
   6.0910165645185678E-002  -1.1715885609349448E-002   5.2251659429891240E-002
   6.1208373979766972E-002  -1.3201517869464207E-002   5.2764090790652966E-002
   6.1506582314348253E-002  -1.4489982436439459E-002   5.3063173004390569E-002
   9.4149097319821143E-002  -2.7982428166949291E-002   3.1829796187174089E-002
   9.1752999096494439E-002  -2.6791678101087936E-002   3.1257868184509097E-002
   8.9356900873167722E-002  -2.5861711632523793E-002   3.0767438144148757E-002
   8.6960802649841004E-002  -2.5192528761256723E-002   3.0358506066093131E-002
   8.4564704426514287E-002  -2.4784129487286755E-002   3.0031071950342186E-002
   8.6457840213018555E-002  -2.4609316734321832E-002   3.8079773860821488E-002
   8.4190163674164084E-002  -2.3966261263800616E-002   3.7061132604205203E-002
   8.1922487135309585E-002  -2.3423867288798965E-002   3.6217836754228586E-002
   7.9654810596455100E-002  -2.2982134809316900E-002   3.5549886310891850E-002
   7.7387134057600671E-002  -2.2641063825354357E-002   3.5057281274194774E-002
   7.8453668676505550E-002  -2.1236205301694372E-002   4.3701995888239996E-002
   7.6408261266458347E-002  -2.1140844426513195E-002   4.2396763479449991E-002
   7.4362853856411087E-002  -2.0986022945074109E-002   4.1360723921634757E-002
   7.2317446446363856E-002  -2.0771740857377045E-002   4.0593877214794259E-002
   7.0272039036316625E-002  -2.0497998163422015E-002   4.0096223358928498E-002
   7.0136582710282128E-002  -1.7863093869066926E-002   4.8696462269429690E-002
   6.8407291873377171E-002  -1.8315427589225837E-002   4.7264760810243507E-002
   6.6678001036472215E-002  -1.8548178601349240E-002   4.6196099646367034E-002
   6.4948710199567244E-002  -1.8561346905437218E-002   4.5490478777800408E-002
   6.3219419362662330E-002  -1.8354932501489632E-002   4.5147898204543513E-002
   6.1506582314348253E-002  -1.4489982436439459E-002   5.3063173004390569E-002
   6.0187255494920620E-002  -1.5490010751938451E-002   5.1665124596585718E-002
   5.8867928675492953E-002  -1.6110334257624433E-002   5.0723963928425597E-002
   5.7548601856065321E-002  -1.6350952953497408E-002   5.0239690999910415E-002
   5.6229275036637646E-002  -1.6211866839557290E-002   5.0212305811039928E-002
   8.4564704426514287E-002  -2.4784129487286755E-002   3.0031071950342186E-002
   8.2176533882507397E-002  -2.4456254446084680E-002   2.9273099950146930E-002
   7.9788363338500465E-002  -2.4028644273121319E-002   2.8791289510397139E-002
   7.7400192794493561E-002  -2.3501298968396638E-002   2.8585640631092903E-002
   7.5012022250486615E-002  -2.2874218531910739E-002   2.8656153312234228E-002
   7.7387134057600671E-002  -2.2641063825354357E-002   3.5057281274194774E-002
   7.5261203156748696E-002  -2.2309395750024892E-002   3.4438658109345925E-002
   7.3135272255896791E-002  -2.1895871996442003E-002   3.4068352670361512E-002
   7.1009341355044844E-002  -2.1400492564605599E-002   3.3946364957241591E-002
   6.8883410454192953E-002  -2.0823257454515631E-002   3.4072694969986064E-002
   7.0272039036316625E-002  -2.0497998163422015E-002   4.0096223358928498E-002
   6.8380503944038620E-002  -2.0162537053965174E-002   3.9599069575918376E-002
   6.6488968851760602E-002  -1.9763099719762658E-002   3.9322389684191633E-002
   6.4597433759482625E-002  -1.9299686160814480E-002   3.9266183683748269E-002
   6.2705898667204607E-002  -1.8772296377120634E-002   3.9430451574588160E-002
   6.3219419362662330E-002  -1.8354932501489632E-002   4.5147898204543513E-002
   6.1534436244377114E-002  -1.8015678357905393E-002   4.4754334349864248E-002
   5.9849453126091919E-002  -1.7630327443083314E-002   4.4553400551887334E-002
   5.8164470007806703E-002  -1.7198879757023375E-002   4.4545096810612653E-002
   5.6479486889521507E-002  -1.6721335299725568E-002   4.4729423126040335E-002
   5.6229275036637646E-002  -1.6211866839557290E-002   5.0212305811039928E-002
   5.4723000057764176E-002  -1.5868819661845612E-002   4.9904452431183785E-002
   5.3216725078890699E-002  -1.5497555166404022E-002   4.9761385273448804E-002
   5.1710450100017222E-002  -1.5098073353232273E-002   4.9783104337835032E-002
   5.0204175121143724E-002  -1.4670374222330557E-002   4.9969609624342354E-002
   7.5012022250486615E-002  -2.2874218531910739E-002   2.8656153312234228E-002
   7.2705974225237918E-002  -2.2205354036531857E-002   2.8435265633719009E-002
   7.0399926199989207E-002  -2.1552656555128322E-002   2.8374138719173075E-002
   6.8093878174740524E-002  -2.0916126087700420E-002   2.8472772568596802E-002
   6.5787830149491799E-002  -2.0295762634247927E-002   2.8731167181989647E-002
   6.8883410454192953E-002  -2.0823257454515631E-002   3.4072694969986064E-002
   6.6744280246302676E-002  -2.0207709135340424E-002   3.3799366217135987E-002
   6.4605150038412384E-002  -1.9597390076248111E-002   3.3700112335033415E-002
   6.2466019830522107E-002  -1.8992300277238791E-002   3.3774933323678355E-002
   6.0326889622631830E-002  -1.8392439738312283E-002   3.4023829183070620E-002
   6.2705898667204607E-002  -1.8772296377120634E-002   3.9430451574588160E-002
   6.0748000383450802E-002  -1.8210064234149149E-002   3.9115619501295856E-002
   5.8790102099696970E-002  -1.7642123597367908E-002   3.8989176405528937E-002
   5.6832203815943200E-002  -1.7068474466777110E-002   3.9051122287287687E-002
   5.4874305532189374E-002  -1.6489116842376639E-002   3.9301457146571780E-002
   5.6479486889521507E-002  -1.6721335299725568E-002   4.4729423126040335E-002
   5.4717134636682249E-002  -1.6212419332957684E-002   4.4384025486198131E-002
   5.2954782383842977E-002  -1.5686857118487701E-002   4.4241330930659663E-002
   5.1192430131003740E-002  -1.5144648656315398E-002   4.4301339459424674E-002
   4.9430077878164475E-002  -1.4585793946440939E-002   4.4564051072493199E-002
   5.0204175121143724E-002  -1.4670374222330557E-002   4.9969609624342354E-002
   4.8651683005997079E-002  -1.4214774431766442E-002   4.9604584171843047E-002
   4.7099190890850434E-002  -1.3731590639607445E-002   4.9456575910425446E-002
   4.5546698775703789E-002  -1.3220822845853785E-002   4.9525584840089502E-002
   4.3994206660557145E-002  -1.2682471050505351E-002   4.9811610960835140E-002
   6.5787830149491799E-002  -2.0295762634247927E-002   2.8731167181989647E-002
   6.3284802385233263E-002  -1.9677740545367306E-002   2.8363634382695513E-002
   6.0781774620974754E-002  -1.9048234171655173E-002   2.8200447839835580E-002
   5.8278746856716176E-002  -1.8407243513111553E-002   2.8241607553409390E-002
   5.5775719092457654E-002  -1.7754768569736346E-002   2.8487113523416985E-002
   6.0326889622631830E-002  -1.8392439738312283E-002   3.4023829183070620E-002
   5.8026314030239778E-002  -1.7790793395733293E-002   3.3672901311736461E-002
   5.5725738437847755E-002  -1.7180346185766804E-002   3.3522531527701474E-002
   5.3425162845455704E-002  -1.6561098108412359E-002   3.3572719830965728E-002
   5.1124587253063680E-002  -1.5933049163670387E-002   3.3823466221529153E-002
   5.4874305532189374E-002  -1.6489116842376639E-002   3.9301457146571780E-002
   5.2772393942529125E-002  -1.5903846246099307E-002   3.8964450785753724E-002
   5.0670482352868952E-002  -1.5312458199878275E-002   3.8824214343100107E-002
   4.8568570763208779E-002  -1.4714952703713221E-002   3.8880747818610978E-002
   4.6466659173548586E-002  -1.4111329757604485E-002   3.9134051212286344E-002
   4.9430077878164475E-002  -1.4585793946440939E-002   4.4564051072493199E-002
   4.7523042122101386E-002  -1.4016899096465252E-002   4.4238282804747411E-002
   4.5616006366038339E-002  -1.3444570213989714E-002   4.4105496286031200E-002
   4.3708970609975285E-002  -1.2868807299014195E-002   4.4165691516344766E-002
   4.1801934853912204E-002  -1.2289610351538471E-002   4.4418868495688296E-002
   4.3994206660557145E-002  -1.2682471050505351E-002   4.9811610960835140E-002
   4.2278258568956548E-002  -1.2129951946831335E-002   4.9494397368717413E-002
   4.0562310477355923E-002  -1.1576682228101376E-002   4.9366377356494739E-002
   3.8846362385755340E-002  -1.1022661894314917E-002   4.9427550924167493E-002
   3.7130414294154729E-002  -1.0467890945472680E-002   4.9677918071735050E-002
   5.5775719092457654E-002  -1.7754768569736346E-002   2.8487113523416985E-002
   5.3759350568760245E-002  -1.7154029600882803E-002   2.8231791543092355E-002
   5.1742982045062780E-002  -1.6668246865904637E-002   2.8112654835551337E-002
   4.9726613521365315E-002  -1.6297420364801671E-002   2.8129703400793807E-002
   4.7710244997667905E-002  -1.6041550097573853E-002   2.8282937238819861E-002
   5.1124587253063680E-002  -1.5933049163670387E-002   3.3823466221529153E-002
   4.9248496721316676E-002  -1.5330057395219476E-002   3.3478504993327579E-002
   4.7372406189569671E-002  -1.4785980846738642E-002   3.3277914476243259E-002
   4.5496315657822611E-002  -1.4300819518227894E-002   3.3221694670276372E-002
   4.3620225126075579E-002  -1.3874573409687063E-002   3.3309845575426822E-002
   4.6466659173548586E-002  -1.4111329757604485E-002   3.9134051212286344E-002
   4.4739032072085655E-002  -1.3506085189556122E-002   3.8755491750113044E-002
   4.3011404970622752E-002  -1.2903714827572750E-002   3.8529488437390617E-002
   4.1283777869159877E-002  -1.2304218671654115E-002   3.8456041274119335E-002
   3.9556150767696960E-002  -1.1707596721800301E-002   3.8535150260299036E-002
   4.1801934853912204E-002  -1.2289610351538471E-002   4.4418868495688296E-002
   4.0230956621067154E-002  -1.1682112983892753E-002   4.4062751813448403E-002
   3.8659978388222105E-002  -1.1021448808406751E-002   4.3867376718993226E-002
   3.7089000155377042E-002  -1.0307617825080280E-002   4.3832743212322764E-002
   3.5518021922532006E-002  -9.5406200339135244E-003   4.3958851293436949E-002
   3.7130414294154729E-002  -1.0467890945472680E-002   4.9677918071735050E-002
   3.5724270368261229E-002  -9.8581407782293851E-003   4.9400285183333725E-002
   3.4318126442367689E-002  -9.1391827892408628E-003   4.9291579321050993E-002
   3.2911982516474196E-002  -8.3110169785065025E-003   4.9351800484886327E-002
   3.1505838590580676E-002  -7.3736433460266926E-003   4.9580948674840475E-002
   4.7710244997667905E-002  -1.6041550097573853E-002   2.8282937238819861E-002
   4.4948686255840309E-002  -1.5977196732929633E-002   2.7727780184873430E-002
   4.2187127514012740E-002  -1.6180920939576945E-002   2.7374976132177348E-002
   3.9425568772185116E-002  -1.6652722717516066E-002   2.7224525080732323E-002
   3.6664010030357574E-002  -1.7392602066746532E-002   2.7276427030538120E-002
   4.3620225126075579E-002  -1.3874573409687063E-002   3.3309845575426822E-002
   4.1057953558307908E-002  -1.3536259127358397E-002   3.2585055205630098E-002
   3.8495681990540209E-002  -1.3314893277483947E-002   3.2056486182702598E-002
   3.5933410422772538E-002  -1.3210475860063221E-002   3.1724138506644295E-002
   3.3371138855004867E-002  -1.3223006875096921E-002   3.1588012177455216E-002
   3.9556150767696960E-002  -1.1707596721800301E-002   3.8535150260299036E-002
   3.7187034719607603E-002  -1.1095321521787382E-002   3.7791855713489947E-002
   3.4817918671518233E-002  -1.0448865615390733E-002   3.7238650859168755E-002
   3.2448802623428905E-002  -9.7682290026108228E-003   3.6875535697334802E-002
   3.0079686575339493E-002  -9.0534116834473100E-003   3.6702510227988594E-002
   3.5518021922532006E-002  -9.5406200339135244E-003   4.3958851293436949E-002
   3.3335929739739416E-002  -8.6543839162161462E-003   4.3348181708453108E-002
   3.1153837556946742E-002  -7.5828379532978489E-003   4.2921470161575347E-002
   2.8971745374154145E-002  -6.3259821451582569E-003   4.2678716652803331E-002
   2.6789653191361486E-002  -4.8838164917976989E-003   4.2619921182137310E-002
   3.1505838590580676E-002  -7.3736433460266926E-003   4.9580948674840475E-002
   2.9504638618703227E-002  -6.2134463106450211E-003   4.9254033190519464E-002
   2.7503438646825792E-002  -4.7168102912044790E-003   4.9104944089922525E-002
   2.5502238674948295E-002  -2.8837352877057638E-003   4.9133681373050200E-002
   2.3501038703070909E-002  -7.1422130014808793E-004   4.9340245039902086E-002
   5.7151774952218737E-002   0.0000000000000000        3.4691329542258335E-002
   5.7942268458169827E-002  -2.0830755095216855E-003   3.8343521708562159E-002
   5.8732761964120923E-002  -4.1362870143124755E-003   4.2210155718169551E-002
   5.9523255470072006E-002  -6.1596345143723665E-003   4.6291231571080498E-002
   6.0313748976023110E-002  -8.1531180097013725E-003   5.0586749267295048E-002
   4.8651313240347632E-002   0.0000000000000000        3.2791483488363499E-002
   4.9590807471845147E-002  -1.7089287704990744E-003   3.6966655732749897E-002
   5.0530301703342675E-002  -3.4323458901912175E-003   4.1225387584925582E-002
   5.1469795934840183E-002  -5.1702513590764325E-003   4.5567679044890542E-002
   5.2409290166337712E-002  -6.9226451771547126E-003   4.9993530112644777E-002
   4.0731584896547331E-002   0.0000000000000000        3.1287960350453253E-002
   4.1689197618076990E-002  -1.3347820314764634E-003   3.5941760318998262E-002
   4.2646810339606649E-002  -2.7284047660699603E-003   4.0548237659818256E-002
   4.3604423061136308E-002  -4.1808682037804924E-003   4.5107392372913266E-002
   4.4562035782665960E-002  -5.6921723446080631E-003   4.9619224458283241E-002
   3.3392589920817846E-002   0.0000000000000000        3.0180760128527610E-002
   3.4237438896865348E-002  -9.6063529245385242E-004   3.5268835467307268E-002
   3.5082287872912857E-002  -2.0244636419487071E-003   4.0178705942847621E-002
   3.5927136848960366E-002  -3.1914850484845545E-003   4.4910371555148682E-002
   3.6771985825007868E-002  -4.4616995120614136E-003   4.9463832304210448E-002
   2.6634328313159157E-002   0.0000000000000000        2.9469882822586550E-002
   2.7235531308210228E-002  -5.8648855343124140E-004   3.4947881177676880E-002
   2.7836734303261296E-002  -1.3205225178274452E-003   4.0116792434013636E-002
   2.8437937298312361E-002  -2.2021018931886165E-003   4.4976616591596796E-002
   2.9039140293363429E-002  -3.2312266795147563E-003   4.9527353650426383E-002
   6.0313748976023110E-002  -8.1531180097013725E-003   5.0586749267295048E-002
   6.0611957310604411E-002  -1.0033085656095149E-002   5.1525878922105250E-002
   6.0910165645185678E-002  -1.1715885609349448E-002   5.2251659429891240E-002
   6.1208373979766972E-002  -1.3201517869464207E-002   5.2764090790652966E-002
   6.1506582314348253E-002  -1.4489982436439459E-002   5.3063173004390569E-002
   5.2409290166337712E-002  -6.9226451771547126E-003   4.9993530112644777E-002
   5.2533419938825973E-002  -8.5870919206857844E-003   5.1222909874113313E-002
   5.2657549711314228E-002  -1.0061156165929381E-002   5.2317481658419998E-002
   5.2781679483802489E-002  -1.1344837912885443E-002   5.3277245465564817E-002
   5.2905809256290744E-002  -1.2438137161554036E-002   5.4102201295547825E-002
   4.4562035782665960E-002  -5.6921723446080631E-003   4.9619224458283241E-002
   4.4590628162923550E-002  -7.1410981852764047E-003   5.1132069131558107E-002
   4.4619220543181140E-002  -8.4064267225092935E-003   5.2588646997533461E-002
   4.4647812923438737E-002  -9.4881579563066837E-003   5.3988958056209353E-002
   4.4676405303696320E-002  -1.0386291886668623E-002   5.5333002307585748E-002
   3.6771985825007868E-002  -4.4616995120614136E-003   4.9463832304210448E-002
   3.6783581982897169E-002  -5.6951044498670372E-003   5.1253356694439603E-002
   3.6795178140786450E-002  -6.7516972790891989E-003   5.3065155447231636E-002
   3.6806774298675723E-002  -7.6314779997279231E-003   5.4899228562586520E-002
   3.6818370456565039E-002  -8.3344466117831906E-003   5.6755576040504310E-002
   2.9039140293363429E-002  -3.2312266795147563E-003   4.9527353650426383E-002
   2.9112281398746782E-002  -4.2491107144576540E-003   5.1586772562757802E-002
   2.9185422504130122E-002  -5.0969678356691380E-003   5.3747007007514482E-002
   2.9258563609513472E-002  -5.7747980431491590E-003   5.6008056984696387E-002
   2.9331704714896822E-002  -6.2826013368977793E-003   5.8369922494303540E-002
   6.1506582314348253E-002  -1.4489982436439459E-002   5.3063173004390569E-002
   6.0187255494920620E-002  -1.5490010751938451E-002   5.1665124596585718E-002
   5.8867928675492953E-002  -1.6110334257624433E-002   5.0723963928425597E-002
   5.7548601856065321E-002  -1.6350952953497408E-002   5.0239690999910415E-002
   5.6229275036637646E-002  -1.6211866839557290E-002   5.0212305811039928E-002
   5.2905809256290744E-002  -1.2438137161554036E-002   5.4102201295547825E-002
   5.1989965618669545E-002  -1.3285664367946100E-002   5.3362550633406981E-002
   5.1074121981048326E-002  -1.3832029988072553E-002   5.2972978595234199E-002
   5.0158278343427107E-002  -1.4077234021933418E-002   5.2933485181029520E-002
   4.9242434705805894E-002  -1.4021276469528651E-002   5.3244070390792847E-002
   4.4676405303696320E-002  -1.0386291886668623E-002   5.5333002307585748E-002
   4.4057235732204804E-002  -1.1081317983953730E-002   5.5173206167561564E-002
   4.3438066160713294E-002  -1.1553725718520650E-002   5.5256679535828641E-002
   4.2818896589221792E-002  -1.1803515090369442E-002   5.5583422412387028E-002
   4.2199727017730268E-002  -1.1830686099500033E-002   5.6153434797236751E-002
   3.6818370456565039E-002  -8.3344466117831906E-003   5.6755576040504310E-002
   3.6389065835526452E-002  -8.8769715999613558E-003   5.7097091199049266E-002
   3.5959761214487872E-002  -9.2754214489687587E-003   5.7575066750208806E-002
   3.5530456593449292E-002  -9.5297961588054446E-003   5.8189502693982903E-002
   3.5101151972410718E-002  -9.6400957294713908E-003   5.8940399030371550E-002
   2.9331704714896822E-002  -6.2826013368977793E-003   5.8369922494303540E-002
   2.8985455928634447E-002  -6.6726252159690011E-003   5.9134205727870252E-002
   2.8639207142372062E-002  -6.9971171794169073E-003   5.9928140238374811E-002
   2.8292958356109683E-002  -7.2560772272414996E-003   6.0751726025817174E-002
   2.7946709569847308E-002  -7.4495053594427763E-003   6.1604963090197362E-002
   5.6229275036637646E-002  -1.6211866839557290E-002   5.0212305811039928E-002
   5.4723000057764176E-002  -1.5868819661845612E-002   4.9904452431183785E-002
   5.3216725078890699E-002  -1.5497555166404022E-002   4.9761385273448804E-002
   5.1710450100017222E-002  -1.5098073353232273E-002   4.9783104337835032E-002
   5.0204175121143724E-002  -1.4670374222330557E-002   4.9969609624342354E-002
   4.9242434705805894E-002  -1.4021276469528651E-002   5.3244070390792847E-002
   4.7909618071135036E-002  -1.3794343996822458E-002   5.2923524561807947E-002
   4.6576801436464144E-002  -1.3526623269778871E-002   5.2785109199107116E-002
   4.5243984801793272E-002  -1.3218114288398006E-002   5.2828824302690314E-002
   4.3911168167122427E-002  -1.2868817052679699E-002   5.3054669872557525E-002
   4.2199727017730268E-002  -1.1830686099500033E-002   5.6153434797236751E-002
   4.1057712971424867E-002  -1.1719868331799221E-002   5.5832767455730431E-002
   3.9915698925119480E-002  -1.1555691373153749E-002   5.5711574824671012E-002
   3.8773684878814087E-002  -1.1338155223563618E-002   5.5789856904058500E-002
   3.7631670832508707E-002  -1.1067259883028827E-002   5.6067613693892952E-002
   3.5101151972410718E-002  -9.6400957294713908E-003   5.8940399030371550E-002
   3.4167284758633690E-002  -9.6453926667760259E-003   5.8632181112951091E-002
   3.3233417544856661E-002  -9.5847594765286689E-003   5.8540782150140455E-002
   3.2299550331079632E-002  -9.4581961587292627E-003   5.8666202141939607E-002
   3.1365683117302617E-002  -9.2657027133780170E-003   5.9008441088348448E-002
   2.7946709569847308E-002  -7.4495053594427763E-003   6.1604963090197362E-002
   2.7238333432761511E-002  -7.5709170017528027E-003   6.1321765533470074E-002
   2.6529957295675713E-002  -7.6138275799034760E-003   6.1272731175515405E-002
   2.5821581158589919E-002  -7.5782370938949351E-003   6.1457860016333535E-002
   2.5113205021504117E-002  -7.4641455437270965E-003   6.1877152055924201E-002
   5.0204175121143724E-002  -1.4670374222330557E-002   4.9969609624342354E-002
   4.8651683005997079E-002  -1.4214774431766442E-002   4.9604584171843047E-002
   4.7099190890850434E-002  -1.3731590639607445E-002   4.9456575910425446E-002
   4.5546698775703789E-002  -1.3220822845853785E-002   4.9525584840089502E-002
   4.3994206660557145E-002  -1.2682471050505351E-002   4.9811610960835140E-002
   4.3911168167122427E-002  -1.2868817052679699E-002   5.3054669872557525E-002
   4.2570463897063780E-002  -1.2486537995055336E-002   5.2724304389006965E-002
   4.1229759627005147E-002  -1.2079083547956414E-002   5.2600497404550708E-002
   3.9889055356946493E-002  -1.1646453711382806E-002   5.2683248919189019E-002
   3.8548351086887880E-002  -1.1188648485334518E-002   5.2972558932921604E-002
   3.7631670832508707E-002  -1.1067259883028827E-002   5.6067613693892952E-002
   3.6492295715550821E-002  -1.0758301558344396E-002   5.5769499567170998E-002
   3.5352920598592928E-002  -1.0426576456305434E-002   5.5667485247556103E-002
   3.4213545481635049E-002  -1.0072084576911826E-002   5.5761570735048380E-002
   3.3074170364677177E-002  -9.6948259201636855E-003   5.6051756029647765E-002
   3.1365683117302617E-002  -9.2657027133780170E-003   5.9008441088348448E-002
   3.0417178461458211E-002  -9.0300651216334293E-003   5.8740169706335034E-002
   2.9468673805613833E-002  -8.7740693646544288E-003   5.8657539439441554E-002
   2.8520169149769424E-002  -8.4977154424408750E-003   5.8760550287667745E-002
   2.7571664493925053E-002  -8.2010033549928252E-003   5.9049202251013996E-002
   2.5113205021504117E-002  -7.4641455437270965E-003   6.1877152055924201E-002
   2.4345112134785962E-002  -7.3018286849223651E-003   6.1636314806499198E-002
   2.3577019248067807E-002  -7.1215622730034372E-003   6.1570659980206860E-002
   2.2808926361349659E-002  -6.9233463079698583E-003   6.1680187577047116E-002
   2.2040833474631497E-002  -6.7071807898220759E-003   6.1964897597019897E-002
   4.3994206660557145E-002  -1.2682471050505351E-002   4.9811610960835140E-002
   4.2278258568956548E-002  -1.2129951946831335E-002   4.9494397368717413E-002
   4.0562310477355923E-002  -1.1576682228101376E-002   4.9366377356494739E-002
   3.8846362385755340E-002  -1.1022661894314917E-002   4.9427550924167493E-002
   3.7130414294154729E-002  -1.0467890945472680E-002   4.9677918071735050E-002
   3.8548351086887880E-002  -1.1188648485334518E-002   5.2972558932921604E-002
   3.7026594499534188E-002  -1.0716500438202103E-002   5.2634148550488952E-002
   3.5504837912180461E-002  -1.0240842138376144E-002   5.2494927596655236E-002
   3.3983081324826747E-002  -9.7616735858566603E-003   5.2554896071420158E-002
   3.2461324737472999E-002  -9.2789947806437567E-003   5.2814053974783615E-002
   3.3074170364677177E-002  -9.6948259201636855E-003   5.6051756029647765E-002
   3.1756601130273898E-002  -9.3030489295727464E-003   5.5694908494537898E-002
   3.0439031895870626E-002  -8.9050020486509673E-003   5.5547246236730186E-002
   2.9121462661467357E-002  -8.5006852773982927E-003   5.5608769256224627E-002
   2.7803893427064082E-002  -8.0900986158148058E-003   5.5879477553021362E-002
   2.7571664493925053E-002  -8.2010033549928252E-003   5.9049202251013996E-002
   2.6468278461175790E-002  -7.8895974209435074E-003   5.8676677200863843E-002
   2.5364892428426496E-002  -7.5691619589257630E-003   5.8523333276719616E-002
   2.4261506395677212E-002  -7.2396969689400362E-003   5.8589170478580997E-002
   2.3158120362927907E-002  -6.9012024509858133E-003   5.8874188806448291E-002
   2.2040833474631497E-002  -6.7071807898220759E-003   6.1964897597019897E-002
   2.1161626492239752E-002  -6.4761459123141296E-003   6.1579454669467015E-002
   2.0282419509848014E-002  -6.2333218692005726E-003   6.1423188716623583E-002
   1.9403212527456280E-002  -5.9787086604816166E-003   6.1496099738489421E-002
   1.8524005545064545E-002  -5.7123062861569318E-003   6.1798187735064680E-002
   3.7130414294154729E-002  -1.0467890945472680E-002   4.9677918071735050E-002
   3.5724270368261229E-002  -9.8581407782293851E-003   4.9400285183333725E-002
   3.4318126442367689E-002  -9.1391827892408628E-003   4.9291579321050993E-002
   3.2911982516474196E-002  -8.3110169785065025E-003   4.9351800484886327E-002
   3.1505838590580676E-002  -7.3736433460266926E-003   4.9580948674840475E-002
   3.2461324737472999E-002  -9.2789947806437567E-003   5.2814053974783615E-002
   3.1224058915403238E-002  -8.7557205996836585E-003   5.2641474570633673E-002
   2.9986793093333471E-002  -8.1547659199227573E-003   5.2637724348012560E-002
   2.8749527271263686E-002  -7.4761307413610117E-003   5.2802803306920790E-002
   2.7512261449193928E-002  -6.7198150639985466E-003   5.3136711447357821E-002
   2.7803893427064082E-002  -8.0900986158148058E-003   5.5879477553021362E-002
   2.6735407864228698E-002  -7.6533004211377376E-003   5.5780424310177878E-002
   2.5666922301393311E-002  -7.1703490506047074E-003   5.5850102404274071E-002
   2.4598436738557952E-002  -6.6412445042154100E-003   5.6088511835309940E-002
   2.3529951175722506E-002  -6.0659867819702062E-003   5.6495652603285693E-002
   2.3158120362927907E-002  -6.9012024509858133E-003   5.8874188806448291E-002
   2.2258317214737582E-002  -6.5508802425919693E-003   5.8817134401966578E-002
   2.1358514066547235E-002  -6.1859321812866852E-003   5.8928713489835444E-002
   2.0458710918356892E-002  -5.8063582670700303E-003   5.9208926070054388E-002
   1.9558907770166563E-002  -5.4121584999420186E-003   5.9657772142623980E-002
   1.8524005545064545E-002  -5.7123062861569318E-003   6.1798187735064680E-002
   1.7792786966929902E-002  -5.4484600640460901E-003   6.1751604846000008E-002
   1.7061568388795238E-002  -5.2015153119687185E-003   6.1873557604696566E-002
   1.6330349810660578E-002  -4.9714720299242204E-003   6.2164046011154050E-002
   1.5599131232525931E-002  -4.7583302179136089E-003   6.2623070065372599E-002
   3.1505838590580676E-002  -7.3736433460266926E-003   4.9580948674840475E-002
   2.9504638618703227E-002  -6.2134463106450211E-003   4.9254033190519464E-002
   2.7503438646825792E-002  -4.7168102912044790E-003   4.9104944089922525E-002
   2.5502238674948295E-002  -2.8837352877057638E-003   4.9133681373050200E-002
   2.3501038703070909E-002  -7.1422130014808793E-004   4.9340245039902086E-002
   2.7512261449193928E-002  -6.7198150639985466E-003   5.3136711447357821E-002
   2.5704372882627474E-002  -5.8519218038693976E-003   5.3077504677934262E-002
   2.3896484316061041E-002  -4.8385538770080450E-003   5.3227094335408287E-002
   2.2088595749494708E-002  -3.6797112834144330E-003   5.3585480419779827E-002
   2.0280707182928182E-002  -2.3753940230886172E-003   5.4152662931049256E-002
   2.3529951175722506E-002  -6.0659867819702062E-003   5.6495652603285693E-002
   2.1946344057640468E-002  -5.4903972970939408E-003   5.6513190231433197E-002
   2.0362736939558378E-002  -4.9602974628115484E-003   5.6770494329651623E-002
   1.8779129821476302E-002  -4.4756872791233780E-003   5.7267564897941381E-002
   1.7195522703394236E-002  -4.0365667460291466E-003   5.8004401936301686E-002
   1.9558907770166563E-002  -5.4121584999420186E-003   5.9657772142623980E-002
   1.8230552143742116E-002  -5.1288727903183451E-003   5.9561089851016324E-002
   1.6902196517317700E-002  -5.0820410486150276E-003   5.9735144072653047E-002
   1.5573840890893293E-002  -5.2716632748322405E-003   6.0179934807533982E-002
   1.4245485264468834E-002  -5.6977394689697314E-003   6.0895462055659086E-002
   1.5599131232525931E-002  -4.7583302179136089E-003   6.2623070065372599E-002
   1.4556997140932490E-002  -4.7673482835429160E-003   6.2221203536683423E-002
   1.3514863049339007E-002  -5.2037846344184235E-003   6.2121043564412115E-002
   1.2472728957745552E-002  -6.0676392705410823E-003   6.2322590148558232E-002
   1.1430594866152111E-002  -7.3589121919102052E-003   6.2825843289122218E-002
   2.6634328313159157E-002   0.0000000000000000        2.9469882822586550E-002
   2.7235531308210228E-002  -5.8648855343124140E-004   3.4947881177676880E-002
   2.7836734303261296E-002  -1.3205225178274452E-003   4.0116792434013636E-002
   2.8437937298312361E-002  -2.2021018931886165E-003   4.4976616591596796E-002
   2.9039140293363429E-002  -3.2312266795147563E-003   4.9527353650426383E-002
   2.0118865199704267E-002   0.0000000000000000        2.9021271783138049E-002
   2.0450648223315875E-002  -4.3983635095326198E-004   3.4314698060391773E-002
   2.0782431246927482E-002  -9.9033294191656299E-004   3.9378371493520171E-002
   2.1114214270539090E-002  -1.6514897728899004E-003   4.4212292082523239E-002
   2.1445997294150698E-002  -2.4233068438732804E-003   4.8816459827400960E-002
   1.3508265706586146E-002   0.0000000000000000        2.8700870360690068E-002
   1.3649963013386545E-002  -2.9318414847528257E-004   3.3846609731062106E-002
   1.3791660320186942E-002  -6.6014336600567908E-004   3.8841930511937080E-002
   1.3933357626987337E-002  -1.1008776525911887E-003   4.3686832703314957E-002
   1.4075054933787735E-002  -1.6153870082318152E-003   4.8381316305195730E-002
   6.8025298338048081E-003   0.0000000000000000        2.8508678555242604E-002
   6.8334756784222397E-003  -1.4653194599730272E-004   3.3543616189687903E-002
   6.8644215230396705E-003  -3.2995379009479343E-004   3.8507469489264368E-002
   6.8953673676571021E-003  -5.5026553229247819E-004   4.3400238453971972E-002
   6.9263132122745355E-003  -8.0746717259034119E-004   4.8221923083810750E-002
   1.6575813602450612E-006   0.0000000000000000        2.8444696366795651E-002
   1.1862184229579145E-006   1.2025648067626182E-007   3.3405717436269126E-002
   7.1485548567120152E-007   2.3578581608875437E-007   3.8374988425502000E-002
   2.4349254838383801E-007   3.4658800624094710E-007   4.3352509334494284E-002
  -2.2787038890265815E-007   4.5266305112503374E-007   4.8338280163245977E-002
   2.9039140293363429E-002  -3.2312266795147563E-003   4.9527353650426383E-002
   2.9112281398746782E-002  -4.2491107144576540E-003   5.1586772562757802E-002
   2.9185422504130122E-002  -5.0969678356691380E-003   5.3747007007514482E-002
   2.9258563609513472E-002  -5.7747980431491590E-003   5.6008056984696387E-002
   2.9331704714896822E-002  -6.2826013368977793E-003   5.8369922494303540E-002
   2.1445997294150698E-002  -2.4233068438732804E-003   4.8816459827400960E-002
   2.1590233953773436E-002  -3.1867094986436041E-003   5.1217117393480109E-002
   2.1734470613396166E-002  -3.8226230809777243E-003   5.3659150535612765E-002
   2.1878707273018896E-002  -4.3310475908757045E-003   5.6142559253798956E-002
   2.2022943932641637E-002  -4.7119830283374811E-003   5.8667343548038715E-002
   1.4075054933787735E-002  -1.6153870082318152E-003   4.8381316305195730E-002
   1.4230947191278147E-002  -2.1243082828295468E-003   5.1080674683727338E-002
   1.4386839448768559E-002  -2.5482783262863388E-003   5.3761968681940775E-002
   1.4542731706258973E-002  -2.8872971386022361E-003   5.6425198299836013E-002
   1.4698623963749382E-002  -3.1413647197772003E-003   5.9070363537413087E-002
   6.9263132122745355E-003  -8.0746717259034119E-004   4.8221923083810750E-002
   7.0344211112609136E-003  -1.0619070670154862E-003   5.1177444433499544E-002
   7.1425290102472916E-003  -1.2739335715949496E-003   5.4055461446498469E-002
   7.2506369092336705E-003  -1.4435466863287850E-003   5.6855974122807497E-002
   7.3587448082200468E-003  -1.5707464112169247E-003   5.9578982462426607E-002
  -2.2787038890265815E-007   4.5266305112503374E-007   4.8338280163245977E-002
   6.5571372173667264E-007   4.9414879857000854E-007   5.1507426642796721E-002
   1.5392978323738350E-006   4.1118309644628225E-007   5.4539628829285862E-002
   2.4228819430112142E-006   2.0376594469720529E-007   5.7434886722713414E-002
   3.3064660536503282E-006  -1.2810265663520948E-007   6.0193200323079385E-002
   2.9331704714896822E-002  -6.2826013368977793E-003   5.8369922494303540E-002
   2.8985455928634447E-002  -6.6726252159690011E-003   5.9134205727870252E-002
   2.8639207142372062E-002  -6.9971171794169073E-003   5.9928140238374811E-002
   2.8292958356109683E-002  -7.2560772272414996E-003   6.0751726025817174E-002
   2.7946709569847308E-002  -7.4495053594427763E-003   6.1604963090197362E-002
   2.2022943932641637E-002  -4.7119830283374811E-003   5.8667343548038715E-002
   2.1720345213095061E-002  -5.0043528655941902E-003   5.9487653406544987E-002
   2.1417746493548481E-002  -5.2470805748769268E-003   6.0365612121545065E-002
   2.1115147774001905E-002  -5.4401661561856336E-003   6.1301219693038908E-002
   2.0812549054455329E-002  -5.5836096095203680E-003   6.2294476121026524E-002
   1.4698623963749382E-002  -3.1413647197772003E-003   5.9070363537413087E-002
   1.4467672890474565E-002  -3.3360805152193827E-003   5.9930810233209592E-002
   1.4236721817199753E-002  -3.4970439703368916E-003   6.0876903365055877E-002
   1.4005770743924936E-002  -3.6242550851297416E-003   6.1908642932951875E-002
   1.3774819670650123E-002  -3.7177138595979320E-003   6.3026028936897599E-002
   7.3587448082200468E-003  -1.5707464112169247E-003   5.9578982462426607E-002
   7.2274389607729569E-003  -1.6678081648445735E-003   6.0463676207864074E-002
   7.0961331133258670E-003  -1.7470073657968837E-003   6.1462013968907200E-002
   6.9648272658787737E-003  -1.8083440140738765E-003   6.2573995745556013E-002
   6.8335214184316881E-003  -1.8518181096754821E-003   6.3799621537810533E-002
   3.3064660536503282E-006  -1.2810265663520948E-007   6.0193200323079385E-002
  -3.5657600975895487E-007   4.6418553023563902E-007   6.1086251330508393E-002
  -4.0196180731673706E-006   3.0292387430998213E-006   6.2120943933099075E-002
  -7.6826601365757863E-006   7.5670569820102465E-006   6.3297278130851425E-002
  -1.1345702199985069E-005   1.4077640246912271E-005   6.4615253923765409E-002
   2.7946709569847308E-002  -7.4495053594427763E-003   6.1604963090197362E-002
   2.7238333432761511E-002  -7.5709170017528027E-003   6.1321765533470074E-002
   2.6529957295675713E-002  -7.6138275799034760E-003   6.1272731175515405E-002
   2.5821581158589919E-002  -7.5782370938949351E-003   6.1457860016333535E-002
   2.5113205021504117E-002  -7.4641455437270965E-003   6.1877152055924201E-002
   2.0812549054455329E-002  -5.5836096095203680E-003   6.2294476121026524E-002
   2.0324119260386953E-002  -5.6731985631098478E-003   6.2161776807968604E-002
   1.9835689466318591E-002  -5.7047206451827370E-003   6.2234806982172958E-002
   1.9347259672250226E-002  -5.6781758557392578E-003   6.2513566643639412E-002
   1.8858829878181854E-002  -5.5935641947792436E-003   6.2998055792368016E-002
   1.3774819670650123E-002  -3.7177138595979320E-003   6.3026028936897599E-002
   1.3477902508088686E-002  -3.7754801244668929E-003   6.3023393674866368E-002
   1.3180985345527247E-002  -3.7956137104621090E-003   6.3198054188586775E-002
   1.2884068182965808E-002  -3.7781146175835667E-003   6.3550010478058958E-002
   1.2587151020404377E-002  -3.7229828458312797E-003   6.4079262543282708E-002
   6.8335214184316881E-003  -1.8518181096754821E-003   6.3799621537810533E-002
   6.6996831758666829E-003  -1.8777616858239241E-003   6.3906616134163208E-002
   6.5658449333016802E-003  -1.8865067757414533E-003   6.4162472794757106E-002
   6.4320066907366785E-003  -1.8780533794279242E-003   6.4567191519592115E-002
   6.2981684481716732E-003  -1.8524014968833297E-003   6.5120772308668404E-002
  -1.1345702199985069E-005   1.4077640246912271E-005   6.4615253923765409E-002
  -1.0538736279049055E-005   1.9956752819016987E-005   6.4811444185859185E-002
  -9.7317703581095705E-006   2.2600158979250995E-005   6.5128062800683714E-002
  -8.9248044371735558E-006   2.2007858727813787E-005   6.5565109768238899E-002
  -8.1178385162340716E-006   1.8179852064564850E-005   6.6122585088524782E-002
   2.5113205021504117E-002  -7.4641455437270965E-003   6.1877152055924201E-002
   2.4345112134785962E-002  -7.3018286849223651E-003   6.1636314806499198E-002
   2.3577019248067807E-002  -7.1215622730034372E-003   6.1570659980206860E-002
   2.2808926361349659E-002  -6.9233463079698583E-003   6.1680187577047116E-002
   2.2040833474631497E-002  -6.7071807898220759E-003   6.1964897597019897E-002
   1.8858829878181854E-002  -5.5935641947792436E-003   6.2998055792368016E-002
   1.8270082622448683E-002  -5.4735447101949553E-003   6.2759427200763440E-002
   1.7681335366715508E-002  -5.3407764498787647E-003   6.2704307447996099E-002
   1.7092588110982333E-002  -5.1952594138307620E-003   6.2832696534066187E-002
   1.6503840855249162E-002  -5.0369936020507877E-003   6.3144594458973718E-002
   1.2587151020404377E-002  -3.7229828458312797E-003   6.4079262543282708E-002
   1.2186075811360955E-002  -3.6452607354673719E-003   6.3837641832115932E-002
   1.1785000602317540E-002  -3.5599906267541684E-003   6.3787856375491281E-002
   1.1383925393274125E-002  -3.4671725196915252E-003   6.3929906173408671E-002
   1.0982850184230713E-002  -3.3668064142794718E-003   6.4263791225868297E-002
   6.2981684481716732E-003  -1.8524014968833297E-003   6.5120772308668404E-002
   6.0930917015227879E-003  -1.8169767607398198E-003   6.4870958700556813E-002
   5.8880149548738974E-003  -1.7792048036294784E-003   6.4821306762692210E-002
   5.6829382082250069E-003  -1.7390856255522754E-003   6.4971816495074469E-002
   5.4778614615761207E-003  -1.6966192265081975E-003   6.5322487897703646E-002
  -8.1178385162340716E-006   1.8179852064564850E-005   6.6122585088524782E-002
  -8.8697070658241839E-006   1.1307213987649112E-005   6.5859377806086028E-002
  -9.6215756154160309E-006   1.5810194951490497E-006   6.5804658609598957E-002
  -1.0373444165006143E-005  -1.0998731413207688E-005   6.5958427499063554E-002
  -1.1125312714597990E-005  -2.6432038736923236E-005   6.6320684474479863E-002
   2.2040833474631497E-002  -6.7071807898220759E-003   6.1964897597019897E-002
   2.1161626492239752E-002  -6.4761459123141296E-003   6.1579454669467015E-002
   2.0282419509848014E-002  -6.2333218692005726E-003   6.1423188716623583E-002
   1.9403212527456280E-002  -5.9787086604816166E-003   6.1496099738489421E-002
   1.8524005545064545E-002  -5.7123062861569318E-003   6.1798187735064680E-002
   1.6503840855249162E-002  -5.0369936020507877E-003   6.3144594458973718E-002
   1.5851690683360106E-002  -4.8669625976198311E-003   6.2784318703165962E-002
   1.5199540511471040E-002  -4.6861499836186177E-003   6.2648979593654383E-002
   1.4547390339581972E-002  -4.4945557600474147E-003   6.2738577130438650E-002
   1.3895240167692918E-002  -4.2921799269061700E-003   6.3053111313519095E-002
   1.0982850184230713E-002  -3.3668064142794718E-003   6.4263791225868297E-002
   1.0553516494431040E-002  -3.2577792829255187E-003   6.3927675085770186E-002
   1.0124182804631380E-002  -3.1389780980367113E-003   6.3812255263554885E-002
   9.6948491148317120E-003  -3.0104028596133776E-003   6.3917531759222337E-002
   9.2655154250320497E-003  -2.8720535676552417E-003   6.4243504572772475E-002
   5.4778614615761207E-003  -1.6966192265081975E-003   6.5322487897703646E-002
   5.2671039254525752E-003  -1.6485959682311577E-003   6.5009523817279799E-002
   5.0563463893290358E-003  -1.5918062124548084E-003   6.4913015726325365E-002
   4.8455888532054920E-003  -1.5262499591792581E-003   6.5032963624840415E-002
   4.6348313170819578E-003  -1.4519272084045076E-003   6.5369367512824988E-002
  -1.1125312714597990E-005  -2.6432038736923236E-005   6.6320684474479863E-002
  -7.5470235752946035E-006  -3.9412653536852194E-005   6.6029864897694690E-002
  -3.9687344359912169E-006  -4.4634326872836083E-005   6.5951260981965742E-002
  -3.9044529668869760E-007  -4.2097058745107357E-005   6.6084872727292979E-002
   3.1878438426155564E-006  -3.1800849153607036E-005   6.6430700133676468E-002
   1.8524005545064545E-002  -5.7123062861569318E-003   6.1798187735064680E-002
   1.7792786966929902E-002  -5.4484600640460901E-003   6.1751604846000008E-002
   1.7061568388795238E-002  -5.2015153119687185E-003   6.1873557604696566E-002
   1.6330349810660578E-002  -4.9714720299242204E-003   6.2164046011154050E-002
   1.5599131232525931E-002  -4.7583302179136089E-003   6.2623070065372599E-002
   1.3895240167692918E-002  -4.2921799269061700E-003   6.3053111313519095E-002
   1.3336067476474013E-002  -4.0961043398013985E-003   6.2988937512481469E-002
   1.2776894785255108E-002  -3.9234108543406004E-003   6.3100319837514324E-002
   1.2217722094036203E-002  -3.7740994705233004E-003   6.3387258288617659E-002
   1.1658549402817311E-002  -3.6481701883497863E-003   6.3849752865791531E-002
   9.2655154250320497E-003  -2.8720535676552417E-003   6.4243504572772475E-002
   8.8854090990383439E-003  -2.7437486155569291E-003   6.4155259228151587E-002
   8.5053027730446328E-003  -2.6453063967125934E-003   6.4249590487910568E-002
   8.1251964470509287E-003  -2.5767269111222693E-003   6.4526498352049544E-002
   7.7450901210572090E-003  -2.5380101587860193E-003   6.4985982820568222E-002
   4.6348313170819578E-003  -1.4519272084045076E-003   6.5369367512824988E-002
   4.4408118346228823E-003  -1.3913928913124041E-003   6.5250569993010363E-002
   4.2467923521638130E-003  -1.3672019390845863E-003   6.5321369555884995E-002
   4.0527728697047497E-003  -1.3793543517211272E-003   6.5581766201448982E-002
   3.8587533872456743E-003  -1.4278501292222801E-003   6.6031759929702394E-002
   3.1878438426155564E-006  -3.1800849153607036E-005   6.6430700133676468E-002
   2.2756832276267513E-006  -3.9037167067740297E-005   6.6274869807057601E-002
   1.3635226126483546E-006  -8.9097481456384964E-005   6.6315657041437659E-002
   4.5136199766475371E-007  -1.8198179232024186E-004   6.6553061836816502E-002
  -4.6079861731884719E-007  -3.1769009965837425E-004   6.6987084193194157E-002
   1.5599131232525931E-002  -4.7583302179136089E-003   6.2623070065372599E-002
   1.4556997140932490E-002  -4.7673482835429160E-003   6.2221203536683423E-002
   1.3514863049339007E-002  -5.2037846344184235E-003   6.2121043564412115E-002
   1.2472728957745552E-002  -6.0676392705410823E-003   6.2322590148558232E-002
   1.1430594866152111E-002  -7.3589121919102052E-003   6.2825843289122218E-002
   1.1658549402817311E-002  -3.6481701883497863E-003   6.3849752865791531E-002
   1.0909037462363297E-002  -3.6398851429784440E-003   6.3146262151169336E-002
   1.0159525521909275E-002  -3.8435064695673815E-003   6.2726309182408430E-002
   9.4100135814552538E-003  -4.2590341681171678E-003   6.2589893959508688E-002
   8.6605016410012670E-003  -4.8864682386273728E-003   6.2737016482470542E-002
   7.7450901210572090E-003  -2.5380101587860193E-003   6.4985982820568222E-002
   7.2700315211863160E-003  -2.5124220024139998E-003   6.4196379833298900E-002
   6.7949729213154057E-003  -2.4832283047163811E-003   6.3672145781334469E-002
   6.3199143214444954E-003  -2.4504290656933055E-003   6.3413280664674804E-002
   5.8448557215736024E-003  -2.4140242853445404E-003   6.3419784483320418E-002
   3.8587533872456743E-003  -1.4278501292222801E-003   6.6031759929702394E-002
   3.6399793174015276E-003  -1.3849588618496528E-003   6.5371556583072116E-002
   3.4212052475573801E-003  -1.1229501398654154E-003   6.4958553361190233E-002
   3.2024311777132186E-003  -6.4182396326925052E-004   6.4792750264057286E-002
   2.9836571078690789E-003   5.8419667938292008E-005   6.4874147291672679E-002
  -4.6079861731884719E-007  -3.1769009965837425E-004   6.6987084193194157E-002
   1.8880851008942767E-005  -2.5749572128508369E-004   6.6671792400488983E-002
   3.8222500635211321E-005   2.3732802498573069E-004   6.6585531921975999E-002
   5.7564150261479874E-005   1.1667811391545442E-003   6.6728302757654970E-002
   7.6905799887741488E-005   2.5308636212211244E-003   6.7100104907526603E-002
   1.6575813602450612E-006   0.0000000000000000        2.8444696366795651E-002
   1.1862184229579145E-006   1.2025648067626182E-007   3.3405717436269126E-002
   7.1485548567120152E-007   2.3578581608875437E-007   3.8374988425502000E-002
   2.4349254838383801E-007   3.4658800624094710E-007   4.3352509334494284E-002
  -2.2787038890265815E-007   4.5266305112503374E-007   4.8338280163245977E-002
  -6.7993450569363480E-003   0.0000000000000000        2.8508779827801138E-002
  -6.8311473173281040E-003   1.4653656666596161E-004   3.3543585589155565E-002
  -6.8629495777198565E-003   3.3005766274852352E-004   3.8507479635841654E-002
  -6.8947518381116089E-003   5.5056328824768137E-004   4.3400461967859419E-002
  -6.9265540985033623E-003   8.0805344316344559E-004   4.8222532585208831E-002
  -1.3505472087273786E-002   0.0000000000000000        2.8700784970710977E-002
  -1.3647766879547748E-002   2.9295287685124696E-004   3.3846364680508230E-002
  -1.3790061671821710E-002   6.5987953968095567E-004   3.8841871041209397E-002
  -1.3932356464095670E-002   1.1007799884891279E-003   4.3687304052814478E-002
  -1.4074651256369631E-002   1.6156542232757666E-003   4.8382663715323508E-002
  -2.0116723509652063E-002   0.0000000000000000        2.9020711795525164E-002
  -2.0448672468235979E-002   4.3936918703653231E-004   3.4314054710327099E-002
  -2.0780621426819888E-002   9.8970141661339347E-004   3.9378162641605201E-002
  -2.1112570385403800E-002   1.6509966887305765E-003   4.4213035589359496E-002
  -2.1444519343987709E-002   2.4232550033880928E-003   4.8818673553589965E-002
  -2.6633099324071187E-002   0.0000000000000000        2.9468560302243714E-002
  -2.7233864083392793E-002   5.8578549722181766E-004   3.4946655678612187E-002
  -2.7834628842714391E-002   1.3195232935458226E-003   4.0116354437029100E-002
  -2.8435393602035990E-002   2.2012133889720183E-003   4.4977656577494460E-002
  -2.9036158361357593E-002   3.2308557835004107E-003   4.9530562100008245E-002
  -2.2787038890265815E-007   4.5266305112503374E-007   4.8338280163245977E-002
   6.5571372173667264E-007   4.9414879857000854E-007   5.1507426642796721E-002
   1.5392978323738350E-006   4.1118309644628225E-007   5.4539628829285862E-002
   2.4228819430112142E-006   2.0376594469720529E-007   5.7434886722713414E-002
   3.3064660536503282E-006  -1.2810265663520948E-007   6.0193200323079385E-002
  -6.9265540985033623E-003   8.0805344316344559E-004   4.8222532585208831E-002
  -7.0330318080413312E-003   1.0626670699282249E-003   5.1178060115836671E-002
  -7.1395095175793011E-003   1.2745431109744164E-003   5.4055809352228881E-002
  -7.2459872271172726E-003   1.4436815663020830E-003   5.6855780294385483E-002
  -7.3524649366552390E-003   1.5700824359111409E-003   5.9577972942306462E-002
  -1.4074651256369631E-002   1.6156542232757666E-003   4.8382663715323508E-002
  -1.4229324260730238E-002   2.1248399910578689E-003   5.1081959162759448E-002
  -1.4383997265090841E-002   2.5486750388524285E-003   5.3762642314785759E-002
  -1.4538670269451446E-002   2.8871593666594513E-003   5.6424713171402428E-002
  -1.4693343273812052E-002   3.1402929744789240E-003   5.9068171732609448E-002
  -2.1444519343987709E-002   2.4232550033880928E-003   4.8818673553589965E-002
  -2.1588221644344974E-002   3.1870129121875151E-003   5.1219123783565079E-002
  -2.1731923944702240E-002   3.8228069667304056E-003   5.3660127716956531E-002
  -2.1875626245059503E-002   4.3306371670168214E-003   5.6141685353764285E-002
  -2.2019328545416769E-002   4.7105035130467314E-003   5.8663796693988399E-002
  -2.9036158361357593E-002   3.2308557835004107E-003   4.9530562100008245E-002
  -2.9109723958885544E-002   4.2491858333171635E-003   5.1589553978253544E-002
  -2.9183289556413500E-002   5.0969388946084165E-003   5.3748265558741140E-002
  -2.9256855153941455E-002   5.7741149673742036E-003   5.6006696841471061E-002
  -2.9330420751469403E-002   6.2807140516144902E-003   5.8364847826443252E-002
   3.3064660536503282E-006  -1.2810265663520948E-007   6.0193200323079385E-002
  -3.5657600975895487E-007   4.6418553023563902E-007   6.1086251330508393E-002
  -4.0196180731673706E-006   3.0292387430998213E-006   6.2120943933099075E-002
  -7.6826601365757863E-006   7.5670569820102465E-006   6.3297278130851425E-002
  -1.1345702199985069E-005   1.4077640246912271E-005   6.4615253923765409E-002
  -7.3524649366552390E-003   1.5700824359111409E-003   5.9577972942306462E-002
  -7.2278385568603559E-003   1.6676513659128686E-003   6.0466088077749135E-002
  -7.1032121770654684E-003   1.7502940024184226E-003   6.1469140461746702E-002
  -6.9785857972705870E-003   1.8180103454278921E-003   6.2587130094299254E-002
  -6.8539594174757031E-003   1.8708003949411967E-003   6.3820056975406672E-002
  -1.4693343273812052E-002   3.1402929744789240E-003   5.9068171732609448E-002
  -1.4467131818765603E-002   3.3348385462955016E-003   5.9934451937543626E-002
  -1.4240920363719160E-002   3.4975587660937713E-003   6.0888965044426008E-002
  -1.4014708908672714E-002   3.6284536338737875E-003   6.1931711053256532E-002
  -1.3788497453626265E-002   3.7275231496354533E-003   6.3062689964035329E-002
  -2.2019328545416769E-002   4.7105035130467314E-003   5.8663796693988399E-002
  -2.1718236361725502E-002   5.0020257266780999E-003   5.9491342909891928E-002
  -2.1417144178034232E-002   5.2448235297691210E-003   6.0380417681136903E-002
  -2.1116051994342973E-002   5.4388969223196481E-003   6.1331021007723342E-002
  -2.0814959810651696E-002   5.5842459043297515E-003   6.2343152889651185E-002
  -2.9330420751469403E-002   6.2807140516144902E-003   5.8364847826443252E-002
  -2.8981152185740044E-002   6.6692129070607710E-003   5.9136760994793952E-002
  -2.8631883620010696E-002   6.9920882934444480E-003   5.9943498371879414E-002
  -2.8282615054281344E-002   7.2493402107655317E-003   6.0785059957699582E-002
  -2.7933346488551988E-002   7.4409686590239804E-003   6.1661445752254476E-002
  -1.1345702199985069E-005   1.4077640246912271E-005   6.4615253923765409E-002
  -1.0538736279049055E-005   1.9956752819016987E-005   6.4811444185859185E-002
  -9.7317703581095705E-006   2.2600158979250995E-005   6.5128062800683714E-002
  -8.9248044371735558E-006   2.2007858727813787E-005   6.5565109768238899E-002
  -8.1178385162340716E-006   1.8179852064564850E-005   6.6122585088524782E-002
  -6.8539594174757031E-003   1.8708003949411967E-003   6.3820056975406672E-002
  -6.7182807557038511E-003   1.9039277689347628E-003   6.3924948877768298E-002
  -6.5826020939320044E-003   1.9126560853849131E-003   6.4179155819101052E-002
  -6.4469234321601603E-003   1.8969853442917742E-003   6.4582677799404922E-002
  -6.3112447703883058E-003   1.8569155456551745E-003   6.5135514818679907E-002
  -1.3788497453626265E-002   3.7275231496354533E-003   6.3062689964035329E-002
  -1.3489060409763075E-002   3.7878987850505363E-003   6.3055120155533079E-002
  -1.3189623365899884E-002   3.8027120117905509E-003   6.3225752072242430E-002
  -1.2890186322036690E-002   3.7719628298556523E-003   6.3574585714163342E-002
  -1.2590749278173496E-002   3.6956512392457147E-003   6.4101621081295829E-002
  -2.0814959810651696E-002   5.5842459043297515E-003   6.2343152889651185E-002
  -2.0322877698456723E-002   5.6718698011663099E-003   6.2201958019153548E-002
  -1.9830795586261746E-002   5.6927679381962425E-003   6.2267851560107897E-002
  -1.9338713474066776E-002   5.6469403154195859E-003   6.2540833512514243E-002
  -1.8846631361871796E-002   5.5343869328362480E-003   6.3020903876372603E-002
  -2.7933346488551988E-002   7.4409686590239804E-003   6.1661445752254476E-002
  -2.7219732621784790E-002   7.5558408172820835E-003   6.1365462468629742E-002
  -2.6506118755017599E-002   7.5828238646018821E-003   6.1305454282697437E-002
  -2.5792504888250415E-002   7.5219178009835125E-003   6.1481421194457569E-002
  -2.5078891021483214E-002   7.3731226264268368E-003   6.1893363203910118E-002
  -8.1178385162340716E-006   1.8179852064564850E-005   6.6122585088524782E-002
  -8.8697070658241839E-006   1.1307213987649112E-005   6.5859377806086028E-002
  -9.6215756154160309E-006   1.5810194951490497E-006   6.5804658609598957E-002
  -1.0373444165006143E-005  -1.0998731413207688E-005   6.5958427499063554E-002
  -1.1125312714597990E-005  -2.6432038736923236E-005   6.6320684474479863E-002
  -6.3112447703883058E-003   1.8569155456551745E-003   6.5135514818679907E-002
  -6.1077363163419213E-003   1.8041101347274491E-003   6.4889739335245084E-002
  -5.9042278622955420E-003   1.7502325567609958E-003   6.4843996411050514E-002
  -5.7007194082491662E-003   1.6952828117557540E-003   6.4998286046096199E-002
  -5.4972109542027782E-003   1.6392608997117253E-003   6.5352608240382137E-002
  -1.2590749278173496E-002   3.6956512392457147E-003   6.4101621081295829E-002
  -1.2191436028242568E-002   3.5969130554672629E-003   6.3875058786241806E-002
  -1.1792122778311641E-002   3.4988840940270126E-003   6.3840073523716664E-002
  -1.1392809528380711E-002   3.4015643549246610E-003   6.3996665293720320E-002
  -1.0993496278449779E-002   3.3049538381604571E-003   6.4344834096252815E-002
  -1.8846631361871796E-002   5.5343869328362480E-003   6.3020903876372603E-002
  -1.8259968842767739E-002   5.3897159762070282E-003   6.2815336159076196E-002
  -1.7673306323663696E-002   5.2475356312928888E-003   6.2792889947597255E-002
  -1.7086643804559647E-002   5.1078458980935125E-003   6.2953565241935794E-002
  -1.6499981285455594E-002   4.9706467766092305E-003   6.3297362042091521E-002
  -2.5078891021483214E-002   7.3731226264268368E-003   6.1893363203910118E-002
  -2.4313334759917461E-002   7.1825188969468906E-003   6.1710571453748309E-002
  -2.3547778498351712E-002   6.9961871685588692E-003   6.1702445682692467E-002
  -2.2782222236785960E-002   6.8141274412624447E-003   6.1868985890742682E-002
  -2.2016665975220211E-002   6.6363397150578929E-003   6.2210192077898741E-002
  -1.1125312714597990E-005  -2.6432038736923236E-005   6.6320684474479863E-002
  -7.5470235752946035E-006  -3.9412653536852194E-005   6.6029864897694690E-002
  -3.9687344359912169E-006  -4.4634326872836083E-005   6.5951260981965742E-002
  -3.9044529668869760E-007  -4.2097058745107357E-005   6.6084872727292979E-002
   3.1878438426155564E-006  -3.1800849153607036E-005   6.6430700133676468E-002
  -5.4972109542027782E-003   1.6392608997117253E-003   6.5352608240382137E-002
  -5.2799554641834549E-003   1.5803220243499755E-003   6.5054549111595597E-002
  -5.0626999741641421E-003   1.5166213893918340E-003   6.4971628723512892E-002
  -4.8454444841448171E-003   1.4481589948367700E-003   6.5103847076134022E-002
  -4.6281889941254990E-003   1.3749348406854045E-003   6.5451204169458960E-002
  -1.0993496278449779E-002   3.3049538381604571E-003   6.4344834096252815E-002
  -1.0559640507902812E-002   3.2000567022368032E-003   6.4027014714404515E-002
  -1.0125784737355847E-002   3.0778771056563306E-003   6.3927257152907646E-002
  -9.6919289668088819E-003   2.9384150484188121E-003   6.4045561411762195E-002
  -9.2580731962619098E-003   2.7816705305244438E-003   6.4381927490968299E-002
  -1.6499981285455594E-002   4.9706467766092305E-003   6.3297362042091521E-002
  -1.5846602154733349E-002   4.8197913801236864E-003   6.2947261706121221E-002
  -1.5193223024011115E-002   4.6391328219208029E-003   6.2818146270149963E-002
  -1.4539843893288882E-002   4.4286711020008552E-003   6.2910015734177802E-002
  -1.3886464762566648E-002   4.1884062203634970E-003   6.3222870098204709E-002
  -2.2016665975220211E-002   6.6363397150578929E-003   6.2210192077898741E-002
  -2.1140840404675079E-002   6.4395260580104585E-003   6.1815290086745994E-002
  -2.0265014834129950E-002   6.2003885381854695E-003   6.1644296075239913E-002
  -1.9389189263584811E-002   5.9189271555827802E-003   6.1697210043380551E-002
  -1.8513363693039686E-002   5.5951419102025501E-003   6.1974031991167855E-002
   3.1878438426155564E-006  -3.1800849153607036E-005   6.6430700133676468E-002
   2.2756832276267513E-006  -3.9037167067740297E-005   6.6274869807057601E-002
   1.3635226126483546E-006  -8.9097481456384964E-005   6.6315657041437659E-002
   4.5136199766475371E-007  -1.8198179232024186E-004   6.6553061836816502E-002
  -4.6079861731884719E-007  -3.1769009965837425E-004   6.6987084193194157E-002
  -4.6281889941254990E-003   1.3749348406854045E-003   6.5451204169458960E-002
  -4.4361685152513059E-003   1.2922867841367591E-003   6.5264726536325757E-002
  -4.2441480363771267E-003   1.1955526823899110E-003   6.5267496621172302E-002
  -4.0521275575029327E-003   1.0847325354452764E-003   6.5459514423998277E-002
  -3.8601070786287474E-003   9.5982634330277206E-004   6.5840779944803751E-002
  -9.2580731962619098E-003   2.7816705305244438E-003   6.4381927490968299E-002
  -8.8804899209178334E-003   2.6236107353410781E-003   6.4193540502597624E-002
  -8.5029066455737518E-003   2.4802028462365538E-003   6.4187031389187313E-002
  -8.1253233702296788E-003   2.3514468632106870E-003   6.4362400150737270E-002
  -7.7477400948855919E-003   2.2373427862638906E-003   6.4719646787247329E-002
  -1.3886464762566648E-002   4.1884062203634970E-003   6.3222870098204709E-002
  -1.3330688533771951E-002   3.9549346865454596E-003   6.3061311705873341E-002
  -1.2774912304977253E-002   3.7648530100831343E-003   6.3074261345482968E-002
  -1.2219136076182569E-002   3.6181611909760960E-003   6.3261719017033521E-002
  -1.1663359847387863E-002   3.5148592292248565E-003   6.3623684720525167E-002
  -1.8513363693039686E-002   5.5951419102025501E-003   6.1974031991167855E-002
  -1.7786764353813649E-002   5.2862586377498966E-003   6.1868040146152603E-002
  -1.7060165014587618E-002   5.0495031739295343E-003   6.1929186490059074E-002
  -1.6333565675361573E-002   4.8848755187415431E-003   6.2157471022887142E-002
  -1.5606966336135550E-002   4.7923756721861555E-003   6.2552893744636906E-002
  -4.6079861731884719E-007  -3.1769009965837425E-004   6.6987084193194157E-002
   1.8880851008942767E-005  -2.5749572128508369E-004   6.6671792400488983E-002
   3.8222500635211321E-005   2.3732802498573069E-004   6.6585531921975999E-002
   5.7564150261479874E-005   1.1667811391545442E-003   6.6728302757654970E-002
   7.6905799887741488E-005   2.5308636212211244E-003   6.7100104907526603E-002
  -3.8601070786287474E-003   9.5982634330277206E-004   6.5840779944803751E-002
  -3.6058028018791204E-003   9.4563809299352819E-004   6.5838508377165483E-002
  -3.3514985251294916E-003   1.1669717715491190E-003   6.6077130749581714E-002
  -3.0971942483798524E-003   1.6238273789697666E-003   6.6556647062052721E-002
  -2.8428899716302219E-003   2.3162049152551933E-003   6.7277057314577893E-002
  -7.7477400948855919E-003   2.2373427862638906E-003   6.4719646787247329E-002
  -7.2466105651503646E-003   2.1487719072722511E-003   6.4831288005643167E-002
  -6.7454810354151233E-003   2.0966155181126114E-003   6.5195685789955854E-002
  -6.2443515056798890E-003   2.0808736187848762E-003   6.5812840140185000E-002
  -5.7432219759446547E-003   2.1015462092890402E-003   6.6682751056331424E-002
  -1.1663359847387863E-002   3.5148592292248565E-003   6.3623684720525167E-002
  -1.0903542438804778E-002   3.3519057215511405E-003   6.3650131285922215E-002
  -1.0143725030221703E-002   3.0262592646759408E-003   6.3941197043098225E-002
  -9.3839076216386003E-003   2.5379198586000977E-003   6.4496881992053015E-002
  -8.6240902130555255E-003   1.8868875033229426E-003   6.5317186132786947E-002
  -1.5606966336135550E-002   4.7923756721861555E-003   6.2552893744636906E-002
  -1.4576598422842382E-002   4.5550395358297524E-003   6.2295038218002197E-002
  -1.3546230509549180E-002   3.9559030112395199E-003   6.2313664509008604E-002
  -1.2515862596255992E-002   2.9949660984152429E-003   6.2608772617656322E-002
  -1.1485494682962810E-002   1.6722287973569561E-003   6.3180362543945323E-002
  -2.6633099324071187E-002   0.0000000000000000        2.9468560302243714E-002
  -2.7233864083392793E-002   5.8578549722181766E-004   3.4946655678612187E-002
  -2.7834628842714391E-002   1.3195232935458226E-003   4.0116354437029100E-002
  -2.8435393602035990E-002   2.2012133889720183E-003   4.4977656577494460E-002
  -2.9036158361357593E-002   3.2308557835004107E-003   4.9530562100008245E-002
  -3.3392252763136260E-002   0.0000000000000000        3.0178782383089416E-002
  -3.4236125839045430E-002   9.6028707456400318E-004   3.5267363613665247E-002
  -3.5079998914954585E-002   2.0238786702146449E-003   4.0178124829017510E-002
  -3.5923871990863762E-002   3.1907747869519207E-003   4.4911066029146206E-002
  -3.6767745066772925E-002   4.4609754247758350E-003   4.9466187214051320E-002
  -4.0731837059452387E-002   0.0000000000000000        3.1285829930285086E-002
  -4.1688241849221118E-002   1.3347886519061904E-003   3.5940249237052711E-002
  -4.2644646638989862E-002   2.7282340468834636E-003   4.0547425131324775E-002
  -4.3601051428758600E-002   4.1803361849318214E-003   4.5107357613101244E-002
  -4.4557456218527337E-002   5.6910950660512567E-003   4.9620046682382166E-002
  -4.8651852213019570E-002   0.0000000000000000        3.2789702943830719E-002
  -4.9590212113919882E-002   1.7092902292483773E-003   3.6965312548774595E-002
  -5.0528572014820194E-002   3.4325894235522820E-003   4.1224255343950883E-002
  -5.1466931915720514E-002   5.1698975829117194E-003   4.5566531329359609E-002
  -5.2405291816620819E-002   6.9212147073266827E-003   4.9992140505000733E-002
  -5.7152298223837807E-002   0.0000000000000000        3.4690401423726307E-002
  -5.7942036633141701E-002   2.0837918065905641E-003   3.8342553548830878E-002
  -5.8731775042445603E-002   4.1369448002211030E-003   4.2208615466895860E-002
  -5.9521513451749497E-002   6.1594589808916227E-003   4.6288587177921267E-002
  -6.0311251861053398E-002   8.1513343486021017E-003   5.0582468681907078E-002
  -2.9036158361357593E-002   3.2308557835004107E-003   4.9530562100008245E-002
  -2.9109723958885544E-002   4.2491858333171635E-003   5.1589553978253544E-002
  -2.9183289556413500E-002   5.0969388946084165E-003   5.3748265558741140E-002
  -2.9256855153941455E-002   5.7741149673742036E-003   5.6006696841471061E-002
  -2.9330420751469403E-002   6.2807140516144902E-003   5.8364847826443252E-002
  -3.6767745066772925E-002   4.4609754247758350E-003   4.9466187214051320E-002
  -3.6780675483439773E-002   5.6945039690274209E-003   5.1254357276197975E-002
  -3.6793605900106621E-002   6.7513838050477235E-003   5.3064077997824546E-002
  -3.6806536316773462E-002   7.6316149328367350E-003   5.4895349378930987E-002
  -3.6819466733440311E-002   8.3351973523944634E-003   5.6748171419517407E-002
  -4.4557456218527337E-002   5.6910950660512567E-003   4.9620046682382166E-002
  -4.4587920497095451E-002   7.1398221047376930E-003   5.1131323208724343E-002
  -4.4618384775663586E-002   8.4058287154870244E-003   5.2585981351784057E-002
  -4.4648849054231721E-002   9.4891148982992873E-003   5.3984021111561295E-002
  -4.4679313332799828E-002   1.0389680653174433E-002   5.5325442488056036E-002
  -5.2405291816620819E-002   6.9212147073266827E-003   4.9992140505000733E-002
  -5.2531458999852627E-002   8.5851402404479634E-003   5.1220451775832641E-002
  -5.2657626183084415E-002   1.0060273625926338E-002   5.2313975620619714E-002
  -5.2783793366316202E-002   1.1346614863761824E-002   5.3272712039361889E-002
  -5.2909960549548003E-002   1.2444163953954398E-002   5.4096661032059262E-002
  -6.0311251861053398E-002   8.1513343486021017E-003   5.0582468681907078E-002
  -6.0611290991711232E-002   1.0030458376158225E-002   5.1521742977522912E-002
  -6.0911330122369087E-002   1.1714718536365631E-002   5.2248060804331503E-002
  -6.1211369253026934E-002   1.3204114829224390E-002   5.2761422162332844E-002
  -6.1511408383684782E-002   1.4498647254734362E-002   5.3061827051526927E-002
  -2.9330420751469403E-002   6.2807140516144902E-003   5.8364847826443252E-002
  -2.8981152185740044E-002   6.6692129070607710E-003   5.9136760994793952E-002
  -2.8631883620010696E-002   6.9920882934444480E-003   5.9943498371879414E-002
  -2.8282615054281344E-002   7.2493402107655317E-003   6.0785059957699582E-002
  -2.7933346488551988E-002   7.4409686590239804E-003   6.1661445752254476E-002
  -3.6819466733440311E-002   8.3351973523944634E-003   5.6748171419517407E-002
  -3.6383183886831837E-002   8.8774711061953455E-003   5.7095677996451377E-002
  -3.5946901040223349E-002   9.2737762367137815E-003   5.7582388926408892E-002
  -3.5510618193614868E-002   9.5241127439497884E-003   5.8208304209389897E-002
  -3.5074335347006394E-002   9.6284806279033491E-003   5.8973423845394446E-002
  -4.4679313332799828E-002   1.0389680653174433E-002   5.5325442488056036E-002
  -4.4051636061023434E-002   1.1085729305329891E-002   5.5168197319353476E-002
  -4.3423958789247041E-002   1.1555464179983117E-002   5.5254536647963190E-002
  -4.2796281517470627E-002   1.1798885277134002E-002   5.5584460473885267E-002
  -4.2168604245694227E-002   1.1815992596782725E-002   5.6157968797119678E-002
  -5.2909960549548003E-002   1.2444163953954398E-002   5.4096661032059262E-002
  -5.1986508708314859E-002   1.3293987504464450E-002   5.3354318963500250E-002
  -5.1063056867081728E-002   1.3837152123252443E-002   5.2959941536542356E-002
  -5.0139605025848584E-002   1.4073657810318307E-002   5.2913528751185650E-002
  -4.9216153184615460E-002   1.4003504565662041E-002   5.3215080607430000E-002
  -6.1511408383684782E-002   1.4498647254734362E-002   5.3061827051526927E-002
  -6.0187801828706117E-002   1.5502245703599003E-002   5.1654042928891683E-002
  -5.8864195273727445E-002   1.6118840066521780E-002   5.0698603592146375E-002
  -5.7540588718748759E-002   1.6348430343502501E-002   5.0195509041291025E-002
  -5.6216982163770107E-002   1.6191016534541441E-002   5.0144759276325612E-002
  -2.7933346488551988E-002   7.4409686590239804E-003   6.1661445752254476E-002
  -2.7219732621784790E-002   7.5558408172820835E-003   6.1365462468629742E-002
  -2.6506118755017599E-002   7.5828238646018821E-003   6.1305454282697437E-002
  -2.5792504888250415E-002   7.5219178009835125E-003   6.1481421194457569E-002
  -2.5078891021483214E-002   7.3731226264268368E-003   6.1893363203910118E-002
  -3.5074335347006394E-002   9.6284806279033491E-003   5.8973423845394446E-002
  -3.4134816794340744E-002   9.6281075741189992E-003   5.8638388928176535E-002
  -3.3195298241675081E-002   9.5642212681411980E-003   5.8519188285063098E-002
  -3.2255779689009431E-002   9.4368217099700218E-003   5.8615821916054134E-002
  -3.1316261136343775E-002   9.2459088996054151E-003   5.8928289821149740E-002
  -4.2168604245694227E-002   1.1815992596782725E-002   5.6157968797119678E-002
  -4.1023321830718038E-002   1.1700374330955984E-002   5.5808258105053341E-002
  -3.9878039415741841E-002   1.1545618671680595E-002   5.5654240863503582E-002
  -3.8732757000765658E-002   1.1351725618956626E-002   5.5695917072470374E-002
  -3.7587474585789461E-002   1.1118695172784063E-002   5.5933286731953767E-002
  -4.9216153184615460E-002   1.4003504565662041E-002   5.3215080607430000E-002
  -4.7885247730916666E-002   1.3772641087792907E-002   5.2875069999260185E-002
  -4.6554342277217865E-002   1.3527016075219868E-002   5.2710612018018868E-002
  -4.5223436823519092E-002   1.3266629527943210E-002   5.2721706663706243E-002
  -4.3892531369820284E-002   1.2991481445962662E-002   5.2908353936322275E-002
  -5.6216982163770107E-002   1.6191016534541441E-002   5.0144759276325612E-002
  -5.4720594494936645E-002   1.5844907844629878E-002   4.9838824610796945E-002
  -5.3224206826103182E-002   1.5508413478759281E-002   4.9688301748609012E-002
  -5.1727819157269747E-002   1.5181533436929733E-002   4.9693190689761774E-002
  -5.0231431488436271E-002   1.4864267719141316E-002   4.9853491434255243E-002
  -2.5078891021483214E-002   7.3731226264268368E-003   6.1893363203910118E-002
  -2.4313334759917461E-002   7.1825188969468906E-003   6.1710571453748309E-002
  -2.3547778498351712E-002   6.9961871685588692E-003   6.1702445682692467E-002
  -2.2782222236785960E-002   6.8141274412624447E-003   6.1868985890742682E-002
  -2.2016665975220211E-002   6.6363397150578929E-003   6.2210192077898741E-002
  -3.1316261136343775E-002   9.2459088996054151E-003   5.8928289821149740E-002
  -3.0370135063057226E-002   9.0160321877019167E-003   5.8712487294121263E-002
  -2.9424008989770715E-002   8.7717409249141384E-003   5.8683158411428384E-002
  -2.8477882916484183E-002   8.5130351112419674E-003   5.8840303173071082E-002
  -2.7531756843197659E-002   8.2399147466855338E-003   5.9183921579049281E-002
  -3.7587474585789461E-002   1.1118695172784063E-002   5.5933286731953767E-002
  -3.6448971035552585E-002   1.0849545478456991E-002   5.5665786876082597E-002
  -3.5310467485315689E-002   1.0547294681269467E-002   5.5596568329776566E-002
  -3.4171963935078820E-002   1.0211942781221520E-002   5.5725631093035660E-002
  -3.3033460384841909E-002   9.8434897783132025E-003   5.6052975165859928E-002
  -4.3892531369820284E-002   1.2991481445962662E-002   5.2908353936322275E-002
  -4.2549842677403478E-002   1.2683058769211972E-002   5.2570470199632249E-002
  -4.1207153984986658E-002   1.2322848437624793E-002   5.2442675437736952E-002
  -3.9864465292569859E-002   1.1910850451201056E-002   5.2524969650636397E-002
  -3.8521776600153032E-002   1.1447064809940830E-002   5.2817352838330507E-002
  -5.0231431488436271E-002   1.4864267719141316E-002   4.9853491434255243E-002
  -4.8672749988609945E-002   1.4516572059967078E-002   4.9426537264770254E-002
  -4.7114068488783613E-002   1.4098402193980113E-002   4.9221479735309673E-002
  -4.5555386988957294E-002   1.3609758121180591E-002   4.9238318845873312E-002
  -4.3996705489130955E-002   1.3050639841568512E-002   4.9477054596461290E-002
  -2.2016665975220211E-002   6.6363397150578929E-003   6.2210192077898741E-002
  -2.1140840404675079E-002   6.4395260580104585E-003   6.1815290086745994E-002
  -2.0265014834129950E-002   6.2003885381854695E-003   6.1644296075239913E-002
  -1.9389189263584811E-002   5.9189271555827802E-003   6.1697210043380551E-002
  -1.8513363693039686E-002   5.5951419102025501E-003   6.1974031991167855E-002
  -2.7531756843197659E-002   8.2399147466855338E-003   5.9183921579049281E-002
  -2.6435452022005812E-002   7.9484303243460841E-003   5.8766659471500032E-002
  -2.5339147200814011E-002   7.6346323373249550E-003   5.8566447885597506E-002
  -2.4242842379622199E-002   7.2985207856221066E-003   5.8583286821341618E-002
  -2.3146537558430366E-002   6.9400956692377003E-003   5.8817176278732397E-002
  -3.3033460384841909E-002   9.8434897783132025E-003   5.6052975165859928E-002
  -3.1723533771003440E-002   9.4573345906817652E-003   5.5633363240010066E-002
  -3.0413607157164946E-002   9.0688761364644960E-003   5.5423944377806941E-002
  -2.9103680543326491E-002   8.6781144156616551E-003   5.5424718579250472E-002
  -2.7793753929487984E-002   8.2850494282728782E-003   5.5635685844340574E-002
  -3.8521776600153032E-002   1.1447064809940830E-002   5.2817352838330507E-002
  -3.7005085651667921E-002   1.0966238857017391E-002   5.2415401392276080E-002
  -3.5488394703182831E-002   1.0503119935603981E-002   5.2216785551868247E-002
  -3.3971703754697734E-002   1.0057708045700981E-002   5.2221505317107023E-002
  -3.2455012806212630E-002   9.6300031873080422E-003   5.2429560687992496E-002
  -4.3996705489130955E-002   1.3050639841568512E-002   4.9477054596461290E-002
  -4.2280107663999256E-002   1.2475143123353100E-002   4.9112773928298048E-002
  -4.0563509838867570E-002   1.1937363734743564E-002   4.8944971407781507E-002
  -3.8846912013735878E-002   1.1437301675740485E-002   4.8973647034911416E-002
  -3.7130314188604185E-002   1.0974956946343151E-002   4.9198800809687970E-002
  -1.8513363693039686E-002   5.5951419102025501E-003   6.1974031991167855E-002
  -1.7786764353813649E-002   5.2862586377498966E-003   6.1868040146152603E-002
  -1.7060165014587618E-002   5.0495031739295343E-003   6.1929186490059074E-002
  -1.6333565675361573E-002   4.8848755187415431E-003   6.2157471022887142E-002
  -1.5606966336135550E-002   4.7923756721861555E-003   6.2552893744636906E-002
  -2.3146537558430366E-002   6.9400956692377003E-003   5.8817176278732397E-002
  -2.2252174135986812E-002   6.5879852127008198E-003   5.8751303168850466E-002
  -2.1357810713543257E-002   6.2708176405406046E-003   5.8853820036481985E-002
  -2.0463447291099703E-002   5.9885929527570547E-003   5.9124726881626816E-002
  -1.9569083868656145E-002   5.7413111493502811E-003   5.9564023704284985E-002
  -2.7793753929487984E-002   8.2850494282728782E-003   5.5635685844340574E-002
  -2.6730374635235289E-002   7.8897117876517986E-003   5.5572746545336407E-002
  -2.5666995340982584E-002   7.4921321071516819E-003   5.5679449012437175E-002
  -2.4603616046729872E-002   7.0923103867726791E-003   5.5955793245643065E-002
  -2.3540236752477184E-002   6.6902466265145177E-003   5.6401779244953765E-002
  -3.2455012806212630E-002   9.6300031873080422E-003   5.2429560687992496E-002
  -3.1221365851559119E-002   9.1914383626027774E-003   5.2332370275610232E-002
  -2.9987718896905609E-002   8.7134465737627280E-003   5.2406073417924658E-002
  -2.8754071942252098E-002   8.1960278207881369E-003   5.2650670114935759E-002
  -2.7520424987598588E-002   7.6391821036788099E-003   5.3066160366643460E-002
  -3.7130314188604185E-002   1.0974956946343151E-002   4.9198800809687970E-002
  -3.5725147784958236E-002   1.0493164937553701E-002   4.9030174359672107E-002
  -3.4319981381312314E-002   9.9347610403738712E-003   4.9033693252944460E-002
  -3.2914814977666365E-002   9.2997452548037422E-003   4.9209357489505126E-002
  -3.1509648574020444E-002   8.5881175808429910E-003   4.9557167069353980E-002
  -1.5606966336135550E-002   4.7923756721861555E-003   6.2552893744636906E-002
  -1.4576598422842382E-002   4.5550395358297524E-003   6.2295038218002197E-002
  -1.3546230509549180E-002   3.9559030112395199E-003   6.2313664509008604E-002
  -1.2515862596255992E-002   2.9949660984152429E-003   6.2608772617656322E-002
  -1.1485494682962810E-002   1.6722287973569561E-003   6.3180362543945323E-002
  -1.9569083868656145E-002   5.7413111493502811E-003   5.9564023704284985E-002
  -1.8270899701529980E-002   5.4063246539690357E-003   5.9002390934261656E-002
  -1.6972715534403812E-002   4.8609858902617931E-003   5.8699908854262905E-002
  -1.5674531367277641E-002   4.1052948582286780E-003   5.8656577464289109E-002
  -1.4376347200151483E-002   3.1392515578698710E-003   5.8872396764339863E-002
  -2.3540236752477184E-002   6.6902466265145177E-003   5.6401779244953765E-002
  -2.1991567459134515E-002   6.2576097721081803E-003   5.5687817351450009E-002
  -2.0442898165791847E-002   5.7660687692839968E-003   5.5215675020354474E-002
  -1.8894228872449178E-002   5.2156236180423039E-003   5.4985352251667403E-002
  -1.7345559579106516E-002   4.6062743183828969E-003   5.4996849045388208E-002
  -2.7520424987598588E-002   7.6391821036788099E-003   5.3066160366643460E-002
  -2.5738601695655890E-002   7.1088948902475052E-003   5.2351317469567435E-002
  -2.3956778403713214E-002   6.6711516483062352E-003   5.1860963007283323E-002
  -2.2174955111770527E-002   6.3259523778560010E-003   5.1595096979790908E-002
  -2.0393131819827860E-002   6.0732970788958118E-003   5.1553719387090205E-002
  -3.1509648574020444E-002   8.5881175808429910E-003   4.9557167069353980E-002
  -2.9512002411094224E-002   7.9601800083865526E-003   4.8992891288613838E-002
  -2.7514356248167976E-002   7.5762345273285292E-003   4.8635772815049327E-002
  -2.5516710085241735E-002   7.4362811376693788E-003   4.8485811648659671E-002
  -2.3519063922315508E-002   7.5403198394088378E-003   4.8543007789445758E-002
  -5.7152298223837807E-002   0.0000000000000000        3.4690401423726307E-002
  -5.7942036633141701E-002   2.0837918065905641E-003   3.8342553548830878E-002
  -5.8731775042445603E-002   4.1369448002211030E-003   4.2208615466895860E-002
  -5.9521513451749497E-002   6.1594589808916227E-003   4.6288587177921267E-002
  -6.0311251861053398E-002   8.1513343486021017E-003   5.0582468681907078E-002
  -6.5820968145767128E-002   0.0000000000000000        3.7211366284983831E-002
  -6.6625925079714196E-002   2.9140684440260084E-003   4.0834303655615231E-002
  -6.7430882013661278E-002   5.7706367572150962E-003   4.4212894183999860E-002
  -6.8235838947608360E-002   8.5697049395672548E-003   4.7347137870137730E-002
  -6.9040795881555428E-002   1.1311272991082491E-002   5.0237034714028808E-002
  -7.4245655032667543E-002   0.0000000000000000        4.0576038442615245E-002
  -7.5524087126464967E-002   3.7443450814614557E-003   4.4142899740896580E-002
  -7.6802519220262433E-002   7.4043287142090885E-003   4.7007157561723960E-002
  -7.8080951314059857E-002   1.0979950898242899E-002   4.9168811905097379E-002
  -7.9359383407857309E-002   1.4471211633562887E-002   5.0627862771016829E-002
  -8.2426358884539072E-002   0.0000000000000000        4.4784417896620569E-002
  -8.4636522773394063E-002   4.5746217188969021E-003   4.8268341804674923E-002
  -8.6846686662249067E-002   9.0380206712030800E-003   5.0591405600068147E-002
  -8.9056850551104030E-002   1.3390196856918534E-002   5.1753609282800220E-002
  -9.1267014439959021E-002   1.7631150276043266E-002   5.1754952852871176E-002
  -9.0363079701381702E-002   0.0000000000000000        4.9836504646999777E-002
  -9.3963232020501414E-002   5.4048983563323473E-003   5.3210629846950276E-002
  -9.7563384339621140E-002   1.0671712628197072E-002   5.4965638299032442E-002
 -0.10116353665874087        1.5800442815594177E-002   5.5101530003246267E-002
 -0.10476368897786058        2.0791088918523666E-002   5.3618304959591800E-002
  -6.0311251861053398E-002   8.1513343486021017E-003   5.0582468681907078E-002
  -6.0611290991711232E-002   1.0030458376158225E-002   5.1521742977522912E-002
  -6.0911330122369087E-002   1.1714718536365631E-002   5.2248060804331503E-002
  -6.1211369253026934E-002   1.3204114829224390E-002   5.2761422162332844E-002
  -6.1511408383684782E-002   1.4498647254734362E-002   5.3061827051526927E-002
  -6.9040795881555428E-002   1.1311272991082491E-002   5.0237034714028808E-002
  -6.9315901164520646E-002   1.3755715953107806E-002   4.9459348862598840E-002
  -6.9591006447485865E-002   1.5663408866990216E-002   4.8944487175361408E-002
  -6.9866111730451097E-002   1.7034351732729696E-002   4.8692449652316457E-002
  -7.0141217013416302E-002   1.7868544550326285E-002   4.8703236293463979E-002
  -7.9359383407857309E-002   1.4471211633562887E-002   5.0627862771016829E-002
  -7.9133774210130139E-002   1.7480973530057408E-002   4.7791330591746894E-002
  -7.8908165012403012E-002   1.9612099197614787E-002   4.5693403209669192E-002
  -7.8682555814675856E-002   2.0864588636235065E-002   4.4334080624783764E-002
  -7.8456946616948714E-002   2.1238441845918214E-002   4.3713362837090541E-002
  -9.1267014439959021E-002   1.7631150276043266E-002   5.1754952852871176E-002
  -9.0064910128539760E-002   2.1206231107006982E-002   4.6517688164967014E-002
  -8.8862805817120485E-002   2.3560789528239350E-002   4.2494808907254877E-002
  -8.7660701505701197E-002   2.4694825539740426E-002   3.9686315079734719E-002
  -8.6458597194281950E-002   2.4608339141510140E-002   3.8092206682406538E-002
 -0.10476368897786058        2.0791088918523666E-002   5.3618304959591800E-002
 -0.10210930891974947        2.4931488683956567E-002   4.5638421582259246E-002
  -9.9454928861638328E-002   2.7509479858863935E-002   3.9348704268118435E-002
  -9.6800548803527203E-002   2.8525062443245756E-002   3.4749153017169340E-002
  -9.4146168745416065E-002   2.7978236437102073E-002   3.1839767829412009E-002
  -6.1511408383684782E-002   1.4498647254734362E-002   5.3061827051526927E-002
  -6.0187801828706117E-002   1.5502245703599003E-002   5.1654042928891683E-002
  -5.8864195273727445E-002   1.6118840066521780E-002   5.0698603592146375E-002
  -5.7540588718748759E-002   1.6348430343502501E-002   5.0195509041291025E-002
  -5.6216982163770107E-002   1.6191016534541441E-002   5.0144759276325612E-002
  -7.0141217013416302E-002   1.7868544550326285E-002   4.8703236293463979E-002
  -6.8411861147637781E-002   1.8323144095513041E-002   4.7258215430628470E-002
  -6.6682505281859247E-002   1.8555307144023075E-002   4.6172348403502761E-002
  -6.4953149416080699E-002   1.8565033695856319E-002   4.5445635212086818E-002
  -6.3223793550302179E-002   1.8352323751012922E-002   4.5078075856380691E-002
  -7.8456946616948714E-002   2.1238441845918214E-002   4.3713362837090541E-002
  -7.6415032390550475E-002   2.1144042487427055E-002   4.2395672823319963E-002
  -7.4373118164152208E-002   2.0991774221524345E-002   4.1343945695079015E-002
  -7.2331203937753968E-002   2.0781637048210136E-002   4.0558181452367698E-002
  -7.0289289711355715E-002   2.0513630967484417E-002   4.0038380095186024E-002
  -8.6458597194281950E-002   2.4608339141510140E-002   3.8092206682406538E-002
  -8.4197315557444169E-002   2.3964940879341055E-002   3.7066415106966122E-002
  -8.1936033920606360E-002   2.3428241299025668E-002   3.6213395466875214E-002
  -7.9674752283768552E-002   2.2998240400563967E-002   3.5533147762133704E-002
  -7.7413470646930757E-002   2.2674938183955905E-002   3.5025671992741772E-002
  -9.4146168745416065E-002   2.7978236437102073E-002   3.1839767829412009E-002
  -9.1758710648318836E-002   2.6785839271255097E-002   3.1270442281566953E-002
  -8.9371252551221636E-002   2.5864708376526907E-002   3.0780697718891237E-002
  -8.6983794454124436E-002   2.5214843752917729E-002   3.0370534141384797E-002
  -8.4596336357027221E-002   2.4836245400427420E-002   3.0039951549047705E-002
  -5.6216982163770107E-002   1.6191016534541441E-002   5.0144759276325612E-002
  -5.4720594494936645E-002   1.5844907844629878E-002   4.9838824610796945E-002
  -5.3224206826103182E-002   1.5508413478759281E-002   4.9688301748609012E-002
  -5.1727819157269747E-002   1.5181533436929733E-002   4.9693190689761774E-002
  -5.0231431488436271E-002   1.4864267719141316E-002   4.9853491434255243E-002
  -6.3223793550302179E-002   1.8352323751012922E-002   4.5078075856380691E-002
  -6.1554811409579129E-002   1.8013443355338915E-002   4.4720494044407727E-002
  -5.9885829268856085E-002   1.7644658554680399E-002   4.4552689372873336E-002
  -5.8216847128133020E-002   1.7245969349037396E-002   4.4574661841777316E-002
  -5.6547864987409983E-002   1.6817375738409940E-002   4.4786411451119820E-002
  -7.0289289711355715E-002   2.0513630967484417E-002   4.0038380095186024E-002
  -6.8413347761645288E-002   2.0181978866047941E-002   3.9589632407743290E-002
  -6.6537405811934874E-002   1.9780903630601462E-002   3.9365027197836841E-002
  -6.4661463862224447E-002   1.9310405261145022E-002   3.9364564465466712E-002
  -6.2785521912514020E-002   1.8770483757678549E-002   3.9588244210632749E-002
  -7.7413470646930757E-002   2.2674938183955905E-002   3.5025671992741772E-002
  -7.5296203551135157E-002   2.2350514376756989E-002   3.4446239700803669E-002
  -7.3178936455339558E-002   2.1917148706522539E-002   3.4125315223499639E-002
  -7.1061669359543972E-002   2.1374841173252612E-002   3.4062898560829766E-002
  -6.8944402263748358E-002   2.0723591776947138E-002   3.4258989712793841E-002
  -8.4596336357027221E-002   2.4836245400427420E-002   3.0039951549047705E-002
  -8.2203378778048702E-002   2.4519049887466032E-002   2.9290315923588828E-002
  -7.9810421199070142E-002   2.4053393782443672E-002   2.8833553449861812E-002
  -7.7417463620091609E-002   2.3439277085360234E-002   2.8669664127866631E-002
  -7.5024506041113076E-002   2.2676699796215810E-002   2.8798647957603229E-002
  -5.0231431488436271E-002   1.4864267719141316E-002   4.9853491434255243E-002
  -4.8672749988609945E-002   1.4516572059967078E-002   4.9426537264770254E-002
  -4.7114068488783613E-002   1.4098402193980113E-002   4.9221479735309673E-002
  -4.5555386988957294E-002   1.3609758121180591E-002   4.9238318845873312E-002
  -4.3996705489130955E-002   1.3050639841568512E-002   4.9477054596461290E-002
  -5.6547864987409983E-002   1.6817375738409940E-002   4.4786411451119820E-002
  -5.4776103546657948E-002   1.6354788723796906E-002   4.4375138851506429E-002
  -5.3004342105905891E-002   1.5854119306197338E-002   4.4168129493720114E-002
  -5.1232580665153786E-002   1.5315367485611129E-002   4.4165383377761006E-002
  -4.9460819224401750E-002   1.4738533262038334E-002   4.4366900503629125E-002
  -6.2785521912514020E-002   1.8770483757678549E-002   3.9588244210632749E-002
  -6.0818313929033377E-002   1.8193005387626741E-002   3.9225044984716788E-002
  -5.8851105945552706E-002   1.7609836418414539E-002   3.9048475602430910E-002
  -5.6883897962072036E-002   1.7020976850041614E-002   3.9058536063774997E-002
  -5.4916689978591372E-002   1.6426426682508211E-002   3.9255226368749216E-002
  -6.8944402263748358E-002   2.0723591776947138E-002   3.4258989712793841E-002
  -6.6799381135736274E-002   2.0031222051456795E-002   3.3976255664401461E-002
  -6.4654360007724135E-002   1.9365553530631685E-002   3.3862518061442089E-002
  -6.2509338879711981E-002   1.8726586214472180E-002   3.3917776903915411E-002
  -6.0364317751699897E-002   1.8114320102978060E-002   3.4142032191821797E-002
  -7.5024506041113076E-002   2.2676699796215810E-002   2.8798647957603229E-002
  -7.2719305166766640E-002   2.1869438715286543E-002   2.8628770890560429E-002
  -7.0414104292420163E-002   2.1121270642848945E-002   2.8610256870753456E-002
  -6.8108903418073685E-002   2.0432195578902641E-002   2.8743105898182110E-002
  -6.5803702543727249E-002   1.9802213523447965E-002   2.9027317972846689E-002
  -4.3996705489130955E-002   1.3050639841568512E-002   4.9477054596461290E-002
  -4.2280107663999256E-002   1.2475143123353100E-002   4.9112773928298048E-002
  -4.0563509838867570E-002   1.1937363734743564E-002   4.8944971407781507E-002
  -3.8846912013735878E-002   1.1437301675740485E-002   4.8973647034911416E-002
  -3.7130314188604185E-002   1.0974956946343151E-002   4.9198800809687970E-002
  -4.9460819224401750E-002   1.4738533262038334E-002   4.4366900503629125E-002
  -4.7547228201373512E-002   1.4152187670562838E-002   4.4039766365190552E-002
  -4.5633637178345177E-002   1.3584901746268224E-002   4.3910140474898648E-002
  -4.3720046155316931E-002   1.3036675489154791E-002   4.3978022832753268E-002
  -4.1806455132288617E-002   1.2507508899222530E-002   4.4243413438754486E-002
  -5.4916689978591372E-002   1.6426426682508211E-002   3.9255226368749216E-002
  -5.2805075657166557E-002   1.5829232217772618E-002   3.8946581097610428E-002
  -5.0693461335741721E-002   1.5232439757792891E-002   3.8836474175118200E-002
  -4.8581847014316899E-002   1.4636049302569431E-002   3.8924905601272555E-002
  -4.6470232692892063E-002   1.4040060852101827E-002   3.9211875376073499E-002
  -6.0364317751699897E-002   1.8114320102978060E-002   3.4142032191821797E-002
  -5.8053650031378481E-002   1.7506276764982294E-002   3.3833218125557715E-002
  -5.5742982311057086E-002   1.6879977769317610E-002   3.3723972508440142E-002
  -5.3432314590735698E-002   1.6235423115983794E-002   3.3814295340469223E-002
  -5.1121646870414289E-002   1.5572612804981248E-002   3.4104186621644689E-002
  -6.5803702543727249E-002   1.9802213523447965E-002   2.9027317972846689E-002
  -6.3292951324009278E-002   1.9183321312192136E-002   2.8699677449032290E-002
  -6.0782200104291362E-002   1.8527515780842108E-002   2.8572635474864522E-002
  -5.8271448884573418E-002   1.7834796929398378E-002   2.8646192050343230E-002
  -5.5760697664855446E-002   1.7105164757860503E-002   2.8920347175468430E-002
  -3.7130314188604185E-002   1.0974956946343151E-002   4.9198800809687970E-002
  -3.5725147784958236E-002   1.0493164937553701E-002   4.9030174359672107E-002
  -3.4319981381312314E-002   9.9347610403738712E-003   4.9033693252944460E-002
  -3.2914814977666365E-002   9.2997452548037422E-003   4.9209357489505126E-002
  -3.1509648574020444E-002   8.5881175808429910E-003   4.9557167069353980E-002
  -4.1806455132288617E-002   1.2507508899222530E-002   4.4243413438754486E-002
  -4.0234404015333021E-002   1.1964005926208499E-002   4.4019717580974033E-002
  -3.8662352898377376E-002   1.1372770519850417E-002   4.3957645806524476E-002
  -3.7090301781421767E-002   1.0733802680148008E-002   4.4057198115406301E-002
  -3.5518250664466136E-002   1.0047102407101327E-002   4.4318374507619218E-002
  -4.6470232692892063E-002   1.4040060852101827E-002   3.9211875376073499E-002
  -4.4741818122583765E-002   1.3434846914863352E-002   3.8961989565574395E-002
  -4.3013403552275474E-002   1.2810779999326914E-002   3.8863206578449321E-002
  -4.1284988981967169E-002   1.2167860105492275E-002   3.8915526414698337E-002
  -3.9556574411658892E-002   1.1506087233359719E-002   3.9118949074321507E-002
  -5.1121646870414289E-002   1.5572612804981248E-002   3.4104186621644689E-002
  -4.9247390106710469E-002   1.4905687903518122E-002   3.3856990313473265E-002
  -4.7373133343006621E-002   1.4248789478803408E-002   3.3750375568718759E-002
  -4.5498876579302759E-002   1.3601917530836765E-002   3.3784342387381379E-002
  -4.3624619815598967E-002   1.2965072059618082E-002   3.3958890769460945E-002
  -5.5760697664855446E-002   1.7105164757860503E-002   2.8920347175468430E-002
  -5.3751119967713146E-002   1.6376528892173003E-002   2.8704719824670877E-002
  -5.1741542270570762E-002   1.5686798958279916E-002   2.8619152777333040E-002
  -4.9731964573428447E-002   1.5035974956180882E-002   2.8663646033455337E-002
  -4.7722386876286133E-002   1.4424056885876391E-002   2.8838199593037517E-002
  -3.1509648574020444E-002   8.5881175808429910E-003   4.9557167069353980E-002
  -2.9512002411094224E-002   7.9601800083865526E-003   4.8992891288613838E-002
  -2.7514356248167976E-002   7.5762345273285292E-003   4.8635772815049327E-002
  -2.5516710085241735E-002   7.4362811376693788E-003   4.8485811648659671E-002
  -2.3519063922315508E-002   7.5403198394088378E-003   4.8543007789445758E-002
  -3.5518250664466136E-002   1.0047102407101327E-002   4.4318374507619218E-002
  -3.3315821413923842E-002   9.4006764478150040E-003   4.3908139426704268E-002
  -3.1113392163381624E-002   8.8825315493933216E-003   4.3700313213846181E-002
  -2.8910962912839375E-002   8.4926677118364567E-003   4.3694895869044750E-002
  -2.6708533662297057E-002   8.2310849351443505E-003   4.3891887392299989E-002
  -3.9556574411658892E-002   1.1506087233359719E-002   3.9118949074321507E-002
  -3.7154110512619215E-002   1.0841172887243594E-002   3.8747043662697891E-002
  -3.4751646613579587E-002   1.0188828571458114E-002   3.8572798680012427E-002
  -3.2349182714540022E-002   9.5490542860036179E-003   3.8596214126265085E-002
  -2.9946718815500303E-002   8.9218500308797521E-003   3.8817290001455673E-002
  -4.3624619815598967E-002   1.2965072059618082E-002   3.3958890769460945E-002
  -4.1026869707180433E-002   1.2281669326672170E-002   3.3509603996594653E-002
  -3.8429119598761975E-002   1.1495125593523017E-002   3.3253229213547980E-002
  -3.5831369490343420E-002   1.0605440860170737E-002   3.3189766420320788E-002
  -3.3233619381924914E-002   9.6126151266150983E-003   3.3319215616913256E-002
  -4.7722386876286133E-002   1.4424056885876391E-002   2.8838199593037517E-002
  -4.4934098997607391E-002   1.3722165766100636E-002   2.8195820428394636E-002
  -4.2145811118928664E-002   1.2801422615587602E-002   2.7741604814452897E-002
  -3.9357523240250013E-002   1.1661827434337805E-002   2.7475552751211704E-002
  -3.6569235361571251E-002   1.0303380222350667E-002   2.7397664238671959E-002
  -9.0363079701381702E-002   0.0000000000000000        4.9836504646999777E-002
  -9.3963232020501414E-002   5.4048983563323473E-003   5.3210629846950276E-002
  -9.7563384339621140E-002   1.0671712628197072E-002   5.4965638299032442E-002
 -0.10116353665874087        1.5800442815594177E-002   5.5101530003246267E-002
 -0.10476368897786058        2.0791088918523666E-002   5.3618304959591800E-002
 -0.10329438980909572        0.0000000000000000        5.8664999999966994E-002
 -0.10683199645437434        1.0884675349618535E-002   5.2120209004871673E-002
 -0.11036960309965296        1.9172600783737569E-002   4.7319626105326897E-002
 -0.11390720974493160        2.4863776302357109E-002   4.4263251301332636E-002
 -0.11744481639021020        2.7958201905477140E-002   4.2951084592888898E-002
 -0.12645886153358141        0.0000000000000000        7.4202605261736346E-002
 -0.12657059766160009        1.6364452342904724E-002   5.5280232240563332E-002
 -0.12668233378961874        2.7673488939278065E-002   4.1465392158359718E-002
 -0.12679406991763745        3.3927109789120023E-002   3.2758085015125470E-002
 -0.12690580604565610        3.5125314892430620E-002   2.9158310810860621E-002
 -0.15985649487483877        0.0000000000000000        9.6449320432307806E-002
 -0.15317903564217866        2.1844229336190915E-002   6.2690699554025259E-002
 -0.14650157640951852        3.6174377094818563E-002   3.7402936458130913E-002
 -0.13982411717685839        4.2990443275882972E-002   2.0586031144624827E-002
 -0.13314665794419825        4.2292427879384115E-002   1.2239983613506941E-002
 -0.20348728983286782        0.0000000000000000       0.12540514551168142     
 -0.18665731039611003        2.7324006329477093E-002   7.4351610945257399E-002
 -0.16982733095935224        4.4675265250359059E-002   3.5132259004640488E-002
 -0.15299735152259444        5.2053776762645894E-002   7.7470896898306496E-003
 -0.13616737208583668        4.9459540866337595E-002  -7.8038969991721177E-003
 -0.10476368897786058        2.0791088918523666E-002   5.3618304959591800E-002
 -0.10210930891974947        2.4931488683956567E-002   4.5638421582259246E-002
  -9.9454928861638328E-002   2.7509479858863935E-002   3.9348704268118435E-002
  -9.6800548803527203E-002   2.8525062443245756E-002   3.4749153017169340E-002
  -9.4146168745416065E-002   2.7978236437102073E-002   3.1839767829412009E-002
 -0.11744481639021020        2.7958201905477140E-002   4.2951084592888898E-002
 -0.11348835527596954        2.9430237670954686E-002   3.6698034790242404E-002
 -0.10953189416172883        3.0254243676646694E-002   3.1358981036663271E-002
 -0.10557543304748816        3.0430219922553157E-002   2.6933923332151534E-002
 -0.10161897193324745        2.9958166408674165E-002   2.3422861676707190E-002
 -0.12690580604565610        3.5125314892430620E-002   2.9158310810860621E-002
 -0.12242343388941020        3.3928986657952756E-002   2.5546473413640147E-002
 -0.11794106173316429        3.2999007494429432E-002   2.2072462051362741E-002
 -0.11345868957691840        3.2335377401860592E-002   1.8736276724028385E-002
 -0.10897631742067246        3.1938096380246236E-002   1.5537917431637077E-002
 -0.13314665794419825        4.2292427879384115E-002   1.2239983613506941E-002
 -0.12891454476007150        3.8427735644950889E-002   1.2183737452452579E-002
 -0.12468243157594468        3.5743771312212173E-002   1.1489147312216804E-002
 -0.12045031839181788        3.4240534881167975E-002   1.0156213192799971E-002
 -0.11621820520769112        3.3918026351818314E-002   8.1849350942016248E-003
 -0.13616737208583668        4.9459540866337595E-002  -7.8038969991721177E-003
 -0.13296168788795334        4.2926484631948973E-002  -3.3901730933203755E-003
 -0.12975600369007007        3.8488535129994922E-002  -3.9096318077429422E-004
 -0.12655031949218676        3.6145692360475393E-002   1.1937327384661275E-003
 -0.12334463529430345        3.5897956323390434E-002   1.3639146644008615E-003
  -9.4146168745416065E-002   2.7978236437102073E-002   3.1839767829412009E-002
  -9.1758710648318836E-002   2.6785839271255097E-002   3.1270442281566953E-002
  -8.9371252551221636E-002   2.5864708376526907E-002   3.0780697718891237E-002
  -8.6983794454124436E-002   2.5214843752917729E-002   3.0370534141384797E-002
  -8.4596336357027221E-002   2.4836245400427420E-002   3.0039951549047705E-002
 -0.10161897193324745        2.9958166408674165E-002   2.3422861676707190E-002
  -9.9137761025283822E-002   2.9187564415300966E-002   2.3144265190923601E-002
  -9.6656550117320217E-002   2.8467895222724957E-002   2.2973593341703451E-002
  -9.4175339209356626E-002   2.7799158830946084E-002   2.2910846129046727E-002
  -9.1694128301392952E-002   2.7181355239964428E-002   2.2956023552953508E-002
 -0.10897631742067246        3.1938096380246236E-002   1.5537917431637077E-002
 -0.10637301005044832        3.1589289559346888E-002   1.5329716537593142E-002
 -0.10376970268022420        3.1071082068922937E-002   1.5257783931506841E-002
 -0.10116639531000005        3.0383473908974452E-002   1.5322119613378149E-002
  -9.8563087939775904E-002   2.9526465079501421E-002   1.5522723583207082E-002
 -0.11621820520769112        3.3918026351818314E-002   8.1849350942016248E-003
 -0.11346445772381229        3.3991014703392775E-002   7.8267963215756849E-003
 -0.11071071023993355        3.3674268915120889E-002   7.6332694883015327E-003
 -0.10795696275605472        3.2967788987002755E-002   7.6043545943790224E-003
 -0.10520321527217594        3.1871574919038283E-002   7.7400516398082823E-003
 -0.12334463529430345        3.5897956323390434E-002   1.3639146644008615E-003
 -0.12041210404537586        3.6392739847438654E-002   6.3550454287127078E-004
 -0.11747957279644827        3.6277455761319008E-002   1.0005001208746728E-004
 -0.11454704154752071        3.5552104065031120E-002  -2.4244892795049870E-004
 -0.11161451029859309        3.4216684758575422E-002  -3.9199227724256991E-004
  -8.4596336357027221E-002   2.4836245400427420E-002   3.0039951549047705E-002
  -8.2203378778048702E-002   2.4519049887466032E-002   2.9290315923588828E-002
  -7.9810421199070142E-002   2.4053393782443672E-002   2.8833553449861812E-002
  -7.7417463620091609E-002   2.3439277085360234E-002   2.8669664127866631E-002
  -7.5024506041113076E-002   2.2676699796215810E-002   2.8798647957603229E-002
  -9.1694128301392952E-002   2.7181355239964428E-002   2.2956023552953508E-002
  -8.9038260381041748E-002   2.6563956979515899E-002   2.2305966057222446E-002
  -8.6382392460690544E-002   2.5896436579336594E-002   2.1888856092504884E-002
  -8.3726524540339339E-002   2.5178794039426383E-002   2.1704693658800830E-002
  -8.1070656619988121E-002   2.4411029359785452E-002   2.1753478756110389E-002
  -9.8563087939775904E-002   2.9526465079501421E-002   1.5522723583207082E-002
  -9.5704235298770313E-002   2.8608864071565723E-002   1.5070582669533976E-002
  -9.2845382657764639E-002   2.7739479376229517E-002   1.4791463666156086E-002
  -8.9986530016759034E-002   2.6918310993492584E-002   1.4685366573073535E-002
  -8.7127677375753387E-002   2.6145358923355191E-002   1.4752291390286158E-002
 -0.10520321527217594        3.1871574919038283E-002   7.7400516398082823E-003
 -0.10220130353123422        3.0653771163615569E-002   7.5841657605235108E-003
  -9.9199391790292510E-002   2.9582522173122412E-002   7.5413761708156002E-003
  -9.6197480049350775E-002   2.8657827947558771E-002   7.6116828706845312E-003
  -9.3195568308409069E-002   2.7879688486924882E-002   7.7950858601305312E-003
 -0.11161451029859309        3.4216684758575422E-002  -3.9199227724256991E-004
 -0.10852946507843358        3.2698678255665470E-002  -1.5328466980887856E-004
 -0.10544441985827405        3.1425564970015377E-002   1.3859360648303676E-004
 -0.10235937463811455        3.0397344901624965E-002   4.8364255163396361E-004
  -9.9274329417954998E-002   2.9614018050494517E-002   8.8186216564356545E-004
  -7.5024506041113076E-002   2.2676699796215810E-002   2.8798647957603229E-002
  -7.2719305166766640E-002   2.1869438715286543E-002   2.8628770890560429E-002
  -7.0414104292420163E-002   2.1121270642848945E-002   2.8610256870753456E-002
  -6.8108903418073685E-002   2.0432195578902641E-002   2.8743105898182110E-002
  -6.5803702543727249E-002   1.9802213523447965E-002   2.9027317972846689E-002
  -8.1070656619988121E-002   2.4411029359785452E-002   2.1753478756110389E-002
  -7.8612812330999288E-002   2.3626346410743793E-002   2.1611701184294230E-002
  -7.6154968042010523E-002   2.2857949062631527E-002   2.1623847394527149E-002
  -7.3697123753021690E-002   2.2105837315448747E-002   2.1789917386808938E-002
  -7.1239279464032898E-002   2.1370011169195346E-002   2.2109911161139584E-002
  -8.7127677375753387E-002   2.6145358923355191E-002   1.4752291390286158E-002
  -8.4514628937309155E-002   2.5383254106201000E-002   1.4595805906134705E-002
  -8.1901580498864895E-002   2.4594627482414217E-002   1.4595804938845314E-002
  -7.9288532060420649E-002   2.3779479051994682E-002   1.4752288488417928E-002
  -7.6675483621976404E-002   2.2937808814942701E-002   1.5065256554852732E-002
  -9.3195568308409069E-002   2.7879688486924882E-002   7.7950858601305312E-003
  -9.0424754985696187E-002   2.7140161801658312E-002   7.5810850560815470E-003
  -8.7653941662983306E-002   2.6331305902196907E-002   7.5261295037079247E-003
  -8.4883128340270439E-002   2.5453120788540787E-002   7.6302192030092437E-003
  -8.2112315017557558E-002   2.4505606460689902E-002   7.8933541539859924E-003
  -9.9274329417954998E-002   2.9614018050494517E-002   8.8186216564356545E-004
  -9.6343190476160356E-002   2.8897069497115402E-002   5.6753863413508410E-004
  -9.3412051534365770E-002   2.8067984321979420E-002   4.1482108911480853E-004
  -9.0480912592571155E-002   2.7126762525086803E-002   4.2370953058287059E-004
  -8.7549773650776541E-002   2.6073404106437437E-002   5.9420395853959640E-004
  -6.5803702543727249E-002   1.9802213523447965E-002   2.9027317972846689E-002
  -6.3292951324009278E-002   1.9183321312192136E-002   2.8699677449032290E-002
  -6.0782200104291362E-002   1.8527515780842108E-002   2.8572635474864522E-002
  -5.8271448884573418E-002   1.7834796929398378E-002   2.8646192050343230E-002
  -5.5760697664855446E-002   1.7105164757860503E-002   2.8920347175468430E-002
  -7.1239279464032898E-002   2.1370011169195346E-002   2.2109911161139584E-002
  -6.8528750962510931E-002   2.0638549026559233E-002   2.1758586674950453E-002
  -6.5818222460988979E-002   1.9899529290228146E-002   2.1606218202722918E-002
  -6.3107693959466929E-002   1.9152951960202141E-002   2.1652805744456882E-002
  -6.0397165457945032E-002   1.8398817036481330E-002   2.1898349300152387E-002
  -7.6675483621976404E-002   2.2937808814942701E-002   1.5065256554852732E-002
  -7.3766820374335379E-002   2.2093776740926274E-002   1.4719603832688027E-002
  -7.0858157126694396E-002   2.1271542799614018E-002   1.4571264588799676E-002
  -6.7949493879053455E-002   2.0471106991005961E-002   1.4620238823187831E-002
  -6.5040830631412444E-002   1.9692469315102101E-002   1.4866526535852478E-002
  -8.2112315017557558E-002   2.4505606460689902E-002   7.8933541539859924E-003
  -7.9007159559482648E-002   2.3549004455293315E-002   7.5827289222447289E-003
  -7.5902004101407683E-002   2.2643556308999724E-002   7.4677746330947259E-003
  -7.2796848643332732E-002   2.1789262021809697E-002   7.5484912865362835E-003
  -6.9691693185257836E-002   2.0986121593722734E-002   7.8248788825692681E-003
  -8.7549773650776541E-002   2.6073404106437437E-002   5.9420395853959640E-004
  -8.4249768517952628E-002   2.5004232169660467E-002   3.4796194362085586E-004
  -8.0949763385128826E-002   2.4015569818385901E-002   2.9574833560819247E-004
  -7.7649758252304996E-002   2.3107417052613648E-002   4.3756313450227236E-004
  -7.4349753119481110E-002   2.2279773872343589E-002   7.7340634030254041E-004
  -5.5760697664855446E-002   1.7105164757860503E-002   2.8920347175468430E-002
  -5.3751119967713146E-002   1.6376528892173003E-002   2.8704719824670877E-002
  -5.1741542270570762E-002   1.5686798958279916E-002   2.8619152777333040E-002
  -4.9731964573428447E-002   1.5035974956180882E-002   2.8663646033455337E-002
  -4.7722386876286133E-002   1.4424056885876391E-002   2.8838199593037517E-002
  -6.0397165457945032E-002   1.8398817036481330E-002   2.1898349300152387E-002
  -5.8248853413619517E-002   1.7641614600966971E-002   2.1704362863651100E-002
  -5.6100541369294023E-002   1.6885834735560601E-002   2.1657784818056192E-002
  -5.3952229324968529E-002   1.6131477440261943E-002   2.1758615163367689E-002
  -5.1803917280643014E-002   1.5378542715071275E-002   2.2006853899585455E-002
  -6.5040830631412444E-002   1.9692469315102101E-002   1.4866526535852478E-002
  -6.2736436152457345E-002   1.8906700309760993E-002   1.4656697651961176E-002
  -6.0432041673502315E-002   1.8084870512841224E-002   1.4611625246422615E-002
  -5.8127647194547313E-002   1.7226979924343001E-002   1.4731309319237194E-002
  -5.5823252715592235E-002   1.6333028544266187E-002   1.5015749870404035E-002
  -6.9691693185257836E-002   2.0986121593722734E-002   7.8248788825692681E-003
  -6.7213868184226755E-002   2.0171786018555099E-002   7.5617241896015763E-003
  -6.4736043183195729E-002   1.9283906290121933E-002   7.4806740624328242E-003
  -6.2258218182164676E-002   1.8322482408424063E-002   7.5817285010635225E-003
  -5.9780393181133602E-002   1.7287514373460863E-002   7.8648875054931448E-003
  -7.4349753119481110E-002   2.2279773872343589E-002   7.7340634030254041E-004
  -7.1681149508927733E-002   2.1436871727349094E-002   4.1944247657188516E-004
  -6.9012545898374245E-002   2.0482942067402449E-002   2.6493126608662099E-004
  -6.6343942287820812E-002   1.9417984892505187E-002   3.0987270884721974E-004
  -6.3675338677267379E-002   1.8242000202655761E-002   5.5426680485304303E-004
  -4.7722386876286133E-002   1.4424056885876391E-002   2.8838199593037517E-002
  -4.4934098997607391E-002   1.3722165766100636E-002   2.8195820428394636E-002
  -4.2145811118928664E-002   1.2801422615587602E-002   2.7741604814452897E-002
  -3.9357523240250013E-002   1.1661827434337805E-002   2.7475552751211704E-002
  -3.6569235361571251E-002   1.0303380222350667E-002   2.7397664238671959E-002
  -5.1803917280643014E-002   1.5378542715071275E-002   2.2006853899585455E-002
  -4.8828994086864932E-002   1.4600884505381911E-002   2.1290280683827684E-002
  -4.5854070893086726E-002   1.3772356756587348E-002   2.0758814547567755E-002
  -4.2879147699308548E-002   1.2892959468686922E-002   2.0412455490805712E-002
  -3.9904224505530439E-002   1.1962692641681372E-002   2.0251203513541705E-002
  -5.5823252715592235E-002   1.6333028544266187E-002   1.5015749870404035E-002
  -5.2664750677917621E-002   1.5479603244663354E-002   1.4392965095163066E-002
  -4.9506248640243028E-002   1.4743290897586588E-002   1.3952230928216687E-002
  -4.6347746602568525E-002   1.4124091503036148E-002   1.3693547369565542E-002
  -4.3189244564893828E-002   1.3622005061012188E-002   1.3616914419209092E-002
  -5.9780393181133602E-002   1.7287514373460863E-002   7.8648875054931448E-003
  -5.6441368770765707E-002   1.6358321983944546E-002   7.5038736624006876E-003
  -5.3102344360397666E-002   1.5714225038586081E-002   7.3218539563993396E-003
  -4.9763319950029673E-002   1.5355223537385651E-002   7.3188283874906805E-003
  -4.6424295539661709E-002   1.5281317480343060E-002   7.4947969556735383E-003
  -6.3675338677267379E-002   1.8242000202655761E-002   5.5426680485304303E-004
  -6.0158848365408968E-002   1.7237040723225849E-002   6.2300638554002585E-004
  -5.6642358053550501E-002   1.6685159179585518E-002   8.6768363211656152E-004
  -5.3125867741692118E-002   1.6586355571734476E-002   1.2882985445818243E-003
  -4.9609377429833623E-002   1.6940629899673709E-002   1.8848511229356824E-003
 </DataArray>
 </PointData>
 </Piece>
 <Piece  NumberOfPoints="          1600 "  NumberOfCells="         1024 ">
 <Points>
 <DataArray  type="Float64" NumberOfComponents="3"  format="ascii" >
  0.50000000000000000        0.0000000000000000        0.0000000000000000     
  0.53125000000000000        0.0000000000000000        0.0000000000000000     
  0.56250000000000000        0.0000000000000000        0.0000000000000000     
  0.59375000000000000        0.0000000000000000        0.0000000000000000     
  0.62500000000000000        0.0000000000000000        0.0000000000000000     
  0.50000000000000000        3.1250000000000000E-002   0.0000000000000000     
  0.53125000000000000        3.1250000000000000E-002   0.0000000000000000     
  0.56250000000000000        3.1250000000000000E-002   0.0000000000000000     
  0.59375000000000000        3.1250000000000000E-002   0.0000000000000000     
  0.62500000000000000        3.1250000000000000E-002   0.0000000000000000     
  0.50000000000000000        6.2500000000000000E-002   0.0000000000000000     
  0.53125000000000000        6.2500000000000000E-002   0.0000000000000000     
  0.56250000000000000        6.2500000000000000E-002   0.0000000000000000     
  0.59375000000000000        6.2500000000000000E-002   0.0000000000000000     
  0.62500000000000000        6.2500000000000000E-002   0.0000000000000000     
  0.50000000000000000        9.3750000000000000E-002   0.0000000000000000     
  0.53125000000000000        9.3750000000000000E-002   0.0000000000000000     
  0.56250000000000000        9.3750000000000000E-002   0.0000000000000000     
  0.59375000000000000        9.3750000000000000E-002   0.0000000000000000     
  0.62500000000000000        9.3750000000000000E-002   0.0000000000000000     
  0.50000000000000000       0.12500000000000000        0.0000000000000000     
  0.53125000000000000       0.12500000000000000        0.0000000000000000     
  0.56250000000000000       0.12500000000000000        0.0000000000000000     
  0.59375000000000000       0.12500000000000000        0.0000000000000000     
  0.62500000000000000       0.12500000000000000        0.0000000000000000     
  0.62500000000000000        0.0000000000000000        0.0000000000000000     
  0.65625000000000000        0.0000000000000000        0.0000000000000000     
  0.68750000000000000        0.0000000000000000        0.0000000000000000     
  0.71875000000000000        0.0000000000000000        0.0000000000000000     
  0.75000000000000000        0.0000000000000000        0.0000000000000000     
  0.62500000000000000        3.1250000000000000E-002   0.0000000000000000     
  0.65625000000000000        3.1250000000000000E-002   0.0000000000000000     
  0.68750000000000000        3.1250000000000000E-002   0.0000000000000000     
  0.71875000000000000        3.1250000000000000E-002   0.0000000000000000     
  0.75000000000000000        3.1250000000000000E-002   0.0000000000000000     
  0.62500000000000000        6.2500000000000000E-002   0.0000000000000000     
  0.65625000000000000        6.2500000000000000E-002   0.0000000000000000     
  0.68750000000000000        6.2500000000000000E-002   0.0000000000000000     
  0.71875000000000000        6.2500000000000000E-002   0.0000000000000000     
  0.75000000000000000        6.2500000000000000E-002   0.0000000000000000     
  0.62500000000000000        9.3750000000000000E-002   0.0000000000000000     
  0.65625000000000000        9.3750000000000000E-002   0.0000000000000000     
  0.68750000000000000        9.3750000000000000E-002   0.0000000000000000     
  0.71875000000000000        9.3750000000000000E-002   0.0000000000000000     
  0.75000000000000000        9.3750000000000000E-002   0.0000000000000000     
  0.62500000000000000       0.12500000000000000        0.0000000000000000     
  0.65625000000000000       0.12500000000000000        0.0000000000000000     
  0.68750000000000000       0.12500000000000000        0.0000000000000000     
  0.71875000000000000       0.12500000000000000        0.0000000000000000     
  0.75000000000000000       0.12500000000000000        0.0000000000000000     
  0.75000000000000000        0.0000000000000000        0.0000000000000000     
  0.78125000000000000        0.0000000000000000        0.0000000000000000     
  0.81250000000000000        0.0000000000000000        0.0000000000000000     
  0.84375000000000000        0.0000000000000000        0.0000000000000000     
  0.87500000000000000        0.0000000000000000        0.0000000000000000     
  0.75000000000000000        3.1250000000000000E-002   0.0000000000000000     
  0.78125000000000000        3.1250000000000000E-002   0.0000000000000000     
  0.81250000000000000        3.1250000000000000E-002   0.0000000000000000     
  0.84375000000000000        3.1250000000000000E-002   0.0000000000000000     
  0.87500000000000000        3.1250000000000000E-002   0.0000000000000000     
  0.75000000000000000        6.2500000000000000E-002   0.0000000000000000     
  0.78125000000000000        6.2500000000000000E-002   0.0000000000000000     
  0.81250000000000000        6.2500000000000000E-002   0.0000000000000000     
  0.84375000000000000        6.2500000000000000E-002   0.0000000000000000     
  0.87500000000000000        6.2500000000000000E-002   0.0000000000000000     
  0.75000000000000000        9.3750000000000000E-002   0.0000000000000000     
  0.78125000000000000        9.3750000000000000E-002   0.0000000000000000     
  0.81250000000000000        9.3750000000000000E-002   0.0000000000000000     
  0.84375000000000000        9.3750000000000000E-002   0.0000000000000000     
  0.87500000000000000        9.3750000000000000E-002   0.0000000000000000     
  0.75000000000000000       0.12500000000000000        0.0000000000000000     
  0.78125000000000000       0.12500000000000000        0.0000000000000000     
  0.81250000000000000       0.12500000000000000        0.0000000000000000     
  0.84375000000000000       0.12500000000000000        0.0000000000000000     
  0.87500000000000000       0.12500000000000000        0.0000000000000000     
  0.87500000000000000        0.0000000000000000        0.0000000000000000     
  0.90625000000000000        0.0000000000000000        0.0000000000000000     
  0.93750000000000000        0.0000000000000000        0.0000000000000000     
  0.96875000000000000        0.0000000000000000        0.0000000000000000     
   1.0000000000000000        0.0000000000000000        0.0000000000000000     
  0.87500000000000000        3.1250000000000000E-002   0.0000000000000000     
  0.90625000000000000        3.1250000000000000E-002   0.0000000000000000     
  0.93750000000000000        3.1250000000000000E-002   0.0000000000000000     
  0.96875000000000000        3.1250000000000000E-002   0.0000000000000000     
   1.0000000000000000        3.1250000000000000E-002   0.0000000000000000     
  0.87500000000000000        6.2500000000000000E-002   0.0000000000000000     
  0.90625000000000000        6.2500000000000000E-002   0.0000000000000000     
  0.93750000000000000        6.2500000000000000E-002   0.0000000000000000     
  0.96875000000000000        6.2500000000000000E-002   0.0000000000000000     
   1.0000000000000000        6.2500000000000000E-002   0.0000000000000000     
  0.87500000000000000        9.3750000000000000E-002   0.0000000000000000     
  0.90625000000000000        9.3750000000000000E-002   0.0000000000000000     
  0.93750000000000000        9.3750000000000000E-002   0.0000000000000000     
  0.96875000000000000        9.3750000000000000E-002   0.0000000000000000     
   1.0000000000000000        9.3750000000000000E-002   0.0000000000000000     
  0.87500000000000000       0.12500000000000000        0.0000000000000000     
  0.90625000000000000       0.12500000000000000        0.0000000000000000     
  0.93750000000000000       0.12500000000000000        0.0000000000000000     
  0.96875000000000000       0.12500000000000000        0.0000000000000000     
   1.0000000000000000       0.12500000000000000        0.0000000000000000     
   1.0000000000000000        0.0000000000000000        0.0000000000000000     
   1.0312500000000000        0.0000000000000000        0.0000000000000000     
   1.0625000000000000        0.0000000000000000        0.0000000000000000     
   1.0937500000000000        0.0000000000000000        0.0000000000000000     
   1.1250000000000000        0.0000000000000000        0.0000000000000000     
   1.0000000000000000        3.1250000000000000E-002   0.0000000000000000     
   1.0312500000000000        3.1250000000000000E-002   0.0000000000000000     
   1.0625000000000000        3.1250000000000000E-002   0.0000000000000000     
   1.0937500000000000        3.1250000000000000E-002   0.0000000000000000     
   1.1250000000000000        3.1250000000000000E-002   0.0000000000000000     
   1.0000000000000000        6.2500000000000000E-002   0.0000000000000000     
   1.0312500000000000        6.2500000000000000E-002   0.0000000000000000     
   1.0625000000000000        6.2500000000000000E-002   0.0000000000000000     
   1.0937500000000000        6.2500000000000000E-002   0.0000000000000000     
   1.1250000000000000        6.2500000000000000E-002   0.0000000000000000     
   1.0000000000000000        9.3750000000000000E-002   0.0000000000000000     
   1.0312500000000000        9.3750000000000000E-002   0.0000000000000000     
   1.0625000000000000        9.3750000000000000E-002   0.0000000000000000     
   1.0937500000000000        9.3750000000000000E-002   0.0000000000000000     
   1.1250000000000000        9.3750000000000000E-002   0.0000000000000000     
   1.0000000000000000       0.12500000000000000        0.0000000000000000     
   1.0312500000000000       0.12500000000000000        0.0000000000000000     
   1.0625000000000000       0.12500000000000000        0.0000000000000000     
   1.0937500000000000       0.12500000000000000        0.0000000000000000     
   1.1250000000000000       0.12500000000000000        0.0000000000000000     
   1.1250000000000000        0.0000000000000000        0.0000000000000000     
   1.1562500000000000        0.0000000000000000        0.0000000000000000     
   1.1875000000000000        0.0000000000000000        0.0000000000000000     
   1.2187500000000000        0.0000000000000000        0.0000000000000000     
   1.2500000000000000        0.0000000000000000        0.0000000000000000     
   1.1250000000000000        3.1250000000000000E-002   0.0000000000000000     
   1.1562500000000000        3.1250000000000000E-002   0.0000000000000000     
   1.1875000000000000        3.1250000000000000E-002   0.0000000000000000     
   1.2187500000000000        3.1250000000000000E-002   0.0000000000000000     
   1.2500000000000000        3.1250000000000000E-002   0.0000000000000000     
   1.1250000000000000        6.2500000000000000E-002   0.0000000000000000     
   1.1562500000000000        6.2500000000000000E-002   0.0000000000000000     
   1.1875000000000000        6.2500000000000000E-002   0.0000000000000000     
   1.2187500000000000        6.2500000000000000E-002   0.0000000000000000     
   1.2500000000000000        6.2500000000000000E-002   0.0000000000000000     
   1.1250000000000000        9.3750000000000000E-002   0.0000000000000000     
   1.1562500000000000        9.3750000000000000E-002   0.0000000000000000     
   1.1875000000000000        9.3750000000000000E-002   0.0000000000000000     
   1.2187500000000000        9.3750000000000000E-002   0.0000000000000000     
   1.2500000000000000        9.3750000000000000E-002   0.0000000000000000     
   1.1250000000000000       0.12500000000000000        0.0000000000000000     
   1.1562500000000000       0.12500000000000000        0.0000000000000000     
   1.1875000000000000       0.12500000000000000        0.0000000000000000     
   1.2187500000000000       0.12500000000000000        0.0000000000000000     
   1.2500000000000000       0.12500000000000000        0.0000000000000000     
   1.2500000000000000        0.0000000000000000        0.0000000000000000     
   1.2812500000000000        0.0000000000000000        0.0000000000000000     
   1.3125000000000000        0.0000000000000000        0.0000000000000000     
   1.3437500000000000        0.0000000000000000        0.0000000000000000     
   1.3750000000000000        0.0000000000000000        0.0000000000000000     
   1.2500000000000000        3.1250000000000000E-002   0.0000000000000000     
   1.2812500000000000        3.1250000000000000E-002   0.0000000000000000     
   1.3125000000000000        3.1250000000000000E-002   0.0000000000000000     
   1.3437500000000000        3.1250000000000000E-002   0.0000000000000000     
   1.3750000000000000        3.1250000000000000E-002   0.0000000000000000     
   1.2500000000000000        6.2500000000000000E-002   0.0000000000000000     
   1.2812500000000000        6.2500000000000000E-002   0.0000000000000000     
   1.3125000000000000        6.2500000000000000E-002   0.0000000000000000     
   1.3437500000000000        6.2500000000000000E-002   0.0000000000000000     
   1.3750000000000000        6.2500000000000000E-002   0.0000000000000000     
   1.2500000000000000        9.3750000000000000E-002   0.0000000000000000     
   1.2812500000000000        9.3750000000000000E-002   0.0000000000000000     
   1.3125000000000000        9.3750000000000000E-002   0.0000000000000000     
   1.3437500000000000        9.3750000000000000E-002   0.0000000000000000     
   1.3750000000000000        9.3750000000000000E-002   0.0000000000000000     
   1.2500000000000000       0.12500000000000000        0.0000000000000000     
   1.2812500000000000       0.12500000000000000        0.0000000000000000     
   1.3125000000000000       0.12500000000000000        0.0000000000000000     
   1.3437500000000000       0.12500000000000000        0.0000000000000000     
   1.3750000000000000       0.12500000000000000        0.0000000000000000     
   1.3750000000000000        0.0000000000000000        0.0000000000000000     
   1.4062500000000000        0.0000000000000000        0.0000000000000000     
   1.4375000000000000        0.0000000000000000        0.0000000000000000     
   1.4687500000000000        0.0000000000000000        0.0000000000000000     
   1.5000000000000000        0.0000000000000000        0.0000000000000000     
   1.3750000000000000        3.1250000000000000E-002   0.0000000000000000     
   1.4062500000000000        3.1250000000000000E-002   0.0000000000000000     
   1.4375000000000000        3.1250000000000000E-002   0.0000000000000000     
   1.4687500000000000        3.1250000000000000E-002   0.0000000000000000     
   1.5000000000000000        3.1250000000000000E-002   0.0000000000000000     
   1.3750000000000000        6.2500000000000000E-002   0.0000000000000000     
   1.4062500000000000        6.2500000000000000E-002   0.0000000000000000     
   1.4375000000000000        6.2500000000000000E-002   0.0000000000000000     
   1.4687500000000000        6.2500000000000000E-002   0.0000000000000000     
   1.5000000000000000        6.2500000000000000E-002   0.0000000000000000     
   1.3750000000000000        9.3750000000000000E-002   0.0000000000000000     
   1.4062500000000000        9.3750000000000000E-002   0.0000000000000000     
   1.4375000000000000        9.3750000000000000E-002   0.0000000000000000     
   1.4687500000000000        9.3750000000000000E-002   0.0000000000000000     
   1.5000000000000000        9.3750000000000000E-002   0.0000000000000000     
   1.3750000000000000       0.12500000000000000        0.0000000000000000     
   1.4062500000000000       0.12500000000000000        0.0000000000000000     
   1.4375000000000000       0.12500000000000000        0.0000000000000000     
   1.4687500000000000       0.12500000000000000        0.0000000000000000     
   1.5000000000000000       0.12500000000000000        0.0000000000000000     
  0.50000000000000000       0.12500000000000000        0.0000000000000000     
  0.53125000000000000       0.12500000000000000        0.0000000000000000     
  0.56250000000000000       0.12500000000000000        0.0000000000000000     
  0.59375000000000000       0.12500000000000000        0.0000000000000000     
  0.62500000000000000       0.12500000000000000        0.0000000000000000     
  0.50000000000000000       0.15625000000000000        0.0000000000000000     
  0.53125000000000000       0.15625000000000000        0.0000000000000000     
  0.56250000000000000       0.15625000000000000        0.0000000000000000     
  0.59375000000000000       0.15625000000000000        0.0000000000000000     
  0.62500000000000000       0.15625000000000000        0.0000000000000000     
  0.50000000000000000       0.18750000000000000        0.0000000000000000     
  0.53125000000000000       0.18750000000000000        0.0000000000000000     
  0.56250000000000000       0.18750000000000000        0.0000000000000000     
  0.59375000000000000       0.18750000000000000        0.0000000000000000     
  0.62500000000000000       0.18750000000000000        0.0000000000000000     
  0.50000000000000000       0.21875000000000000        0.0000000000000000     
  0.53125000000000000       0.21875000000000000        0.0000000000000000     
  0.56250000000000000       0.21875000000000000        0.0000000000000000     
  0.59375000000000000       0.21875000000000000        0.0000000000000000     
  0.62500000000000000       0.21875000000000000        0.0000000000000000     
  0.50000000000000000       0.25000000000000000        0.0000000000000000     
  0.53125000000000000       0.25000000000000000        0.0000000000000000     
  0.56250000000000000       0.25000000000000000        0.0000000000000000     
  0.59375000000000000       0.25000000000000000        0.0000000000000000     
  0.62500000000000000       0.25000000000000000        0.0000000000000000     
  0.62500000000000000       0.12500000000000000        0.0000000000000000     
  0.65625000000000000       0.12500000000000000        0.0000000000000000     
  0.68750000000000000       0.12500000000000000        0.0000000000000000     
  0.71875000000000000       0.12500000000000000        0.0000000000000000     
  0.75000000000000000       0.12500000000000000        0.0000000000000000     
  0.62500000000000000       0.15625000000000000        0.0000000000000000     
  0.65625000000000000       0.15625000000000000        0.0000000000000000     
  0.68750000000000000       0.15625000000000000        0.0000000000000000     
  0.71875000000000000       0.15625000000000000        0.0000000000000000     
  0.75000000000000000       0.15625000000000000        0.0000000000000000     
  0.62500000000000000       0.18750000000000000        0.0000000000000000     
  0.65625000000000000       0.18750000000000000        0.0000000000000000     
  0.68750000000000000       0.18750000000000000        0.0000000000000000     
  0.71875000000000000       0.18750000000000000        0.0000000000000000     
  0.75000000000000000       0.18750000000000000        0.0000000000000000     
  0.62500000000000000       0.21875000000000000        0.0000000000000000     
  0.65625000000000000       0.21875000000000000        0.0000000000000000     
  0.68750000000000000       0.21875000000000000        0.0000000000000000     
  0.71875000000000000       0.21875000000000000        0.0000000000000000     
  0.75000000000000000       0.21875000000000000        0.0000000000000000     
  0.62500000000000000       0.25000000000000000        0.0000000000000000     
  0.65625000000000000       0.25000000000000000        0.0000000000000000     
  0.68750000000000000       0.25000000000000000        0.0000000000000000     
  0.71875000000000000       0.25000000000000000        0.0000000000000000     
  0.75000000000000000       0.25000000000000000        0.0000000000000000     
  0.75000000000000000       0.12500000000000000        0.0000000000000000     
  0.78125000000000000       0.12500000000000000        0.0000000000000000     
  0.81250000000000000       0.12500000000000000        0.0000000000000000     
  0.84375000000000000       0.12500000000000000        0.0000000000000000     
  0.87500000000000000       0.12500000000000000        0.0000000000000000     
  0.75000000000000000       0.15625000000000000        0.0000000000000000     
  0.78125000000000000       0.15625000000000000        0.0000000000000000     
  0.81250000000000000       0.15625000000000000        0.0000000000000000     
  0.84375000000000000       0.15625000000000000        0.0000000000000000     
  0.87500000000000000       0.15625000000000000        0.0000000000000000     
  0.75000000000000000       0.18750000000000000        0.0000000000000000     
  0.78125000000000000       0.18750000000000000        0.0000000000000000     
  0.81250000000000000       0.18750000000000000        0.0000000000000000     
  0.84375000000000000       0.18750000000000000        0.0000000000000000     
  0.87500000000000000       0.18750000000000000        0.0000000000000000     
  0.75000000000000000       0.21875000000000000        0.0000000000000000     
  0.78125000000000000       0.21875000000000000        0.0000000000000000     
  0.81250000000000000       0.21875000000000000        0.0000000000000000     
  0.84375000000000000       0.21875000000000000        0.0000000000000000     
  0.87500000000000000       0.21875000000000000        0.0000000000000000     
  0.75000000000000000       0.25000000000000000        0.0000000000000000     
  0.78125000000000000       0.25000000000000000        0.0000000000000000     
  0.81250000000000000       0.25000000000000000        0.0000000000000000     
  0.84375000000000000       0.25000000000000000        0.0000000000000000     
  0.87500000000000000       0.25000000000000000        0.0000000000000000     
  0.87500000000000000       0.12500000000000000        0.0000000000000000     
  0.90625000000000000       0.12500000000000000        0.0000000000000000     
  0.93750000000000000       0.12500000000000000        0.0000000000000000     
  0.96875000000000000       0.12500000000000000        0.0000000000000000     
   1.0000000000000000       0.12500000000000000        0.0000000000000000     
  0.87500000000000000       0.15625000000000000        0.0000000000000000     
  0.90625000000000000       0.15625000000000000        0.0000000000000000     
  0.93750000000000000       0.15625000000000000        0.0000000000000000     
  0.96875000000000000       0.15625000000000000        0.0000000000000000     
   1.0000000000000000       0.15625000000000000        0.0000000000000000     
  0.87500000000000000       0.18750000000000000        0.0000000000000000     
  0.90625000000000000       0.18750000000000000        0.0000000000000000     
  0.93750000000000000       0.18750000000000000        0.0000000000000000     
  0.96875000000000000       0.18750000000000000        0.0000000000000000     
   1.0000000000000000       0.18750000000000000        0.0000000000000000     
  0.87500000000000000       0.21875000000000000        0.0000000000000000     
  0.90625000000000000       0.21875000000000000        0.0000000000000000     
  0.93750000000000000       0.21875000000000000        0.0000000000000000     
  0.96875000000000000       0.21875000000000000        0.0000000000000000     
   1.0000000000000000       0.21875000000000000        0.0000000000000000     
  0.87500000000000000       0.25000000000000000        0.0000000000000000     
  0.90625000000000000       0.25000000000000000        0.0000000000000000     
  0.93750000000000000       0.25000000000000000        0.0000000000000000     
  0.96875000000000000       0.25000000000000000        0.0000000000000000     
   1.0000000000000000       0.25000000000000000        0.0000000000000000     
   1.0000000000000000       0.12500000000000000        0.0000000000000000     
   1.0312500000000000       0.12500000000000000        0.0000000000000000     
   1.0625000000000000       0.12500000000000000        0.0000000000000000     
   1.0937500000000000       0.12500000000000000        0.0000000000000000     
   1.1250000000000000       0.12500000000000000        0.0000000000000000     
   1.0000000000000000       0.15625000000000000        0.0000000000000000     
   1.0312500000000000       0.15625000000000000        0.0000000000000000     
   1.0625000000000000       0.15625000000000000        0.0000000000000000     
   1.0937500000000000       0.15625000000000000        0.0000000000000000     
   1.1250000000000000       0.15625000000000000        0.0000000000000000     
   1.0000000000000000       0.18750000000000000        0.0000000000000000     
   1.0312500000000000       0.18750000000000000        0.0000000000000000     
   1.0625000000000000       0.18750000000000000        0.0000000000000000     
   1.0937500000000000       0.18750000000000000        0.0000000000000000     
   1.1250000000000000       0.18750000000000000        0.0000000000000000     
   1.0000000000000000       0.21875000000000000        0.0000000000000000     
   1.0312500000000000       0.21875000000000000        0.0000000000000000     
   1.0625000000000000       0.21875000000000000        0.0000000000000000     
   1.0937500000000000       0.21875000000000000        0.0000000000000000     
   1.1250000000000000       0.21875000000000000        0.0000000000000000     
   1.0000000000000000       0.25000000000000000        0.0000000000000000     
   1.0312500000000000       0.25000000000000000        0.0000000000000000     
   1.0625000000000000       0.25000000000000000        0.0000000000000000     
   1.0937500000000000       0.25000000000000000        0.0000000000000000     
   1.1250000000000000       0.25000000000000000        0.0000000000000000     
   1.1250000000000000       0.12500000000000000        0.0000000000000000     
   1.1562500000000000       0.12500000000000000        0.0000000000000000     
   1.1875000000000000       0.12500000000000000        0.0000000000000000     
   1.2187500000000000       0.12500000000000000        0.0000000000000000     
   1.2500000000000000       0.12500000000000000        0.0000000000000000     
   1.1250000000000000       0.15625000000000000        0.0000000000000000     
   1.1562500000000000       0.15625000000000000        0.0000000000000000     
   1.1875000000000000       0.15625000000000000        0.0000000000000000     
   1.2187500000000000       0.15625000000000000        0.0000000000000000     
   1.2500000000000000       0.15625000000000000        0.0000000000000000     
   1.1250000000000000       0.18750000000000000        0.0000000000000000     
   1.1562500000000000       0.18750000000000000        0.0000000000000000     
   1.1875000000000000       0.18750000000000000        0.0000000000000000     
   1.2187500000000000       0.18750000000000000        0.0000000000000000     
   1.2500000000000000       0.18750000000000000        0.0000000000000000     
   1.1250000000000000       0.21875000000000000        0.0000000000000000     
   1.1562500000000000       0.21875000000000000        0.0000000000000000     
   1.1875000000000000       0.21875000000000000        0.0000000000000000     
   1.2187500000000000       0.21875000000000000        0.0000000000000000     
   1.2500000000000000       0.21875000000000000        0.0000000000000000     
   1.1250000000000000       0.25000000000000000        0.0000000000000000     
   1.1562500000000000       0.25000000000000000        0.0000000000000000     
   1.1875000000000000       0.25000000000000000        0.0000000000000000     
   1.2187500000000000       0.25000000000000000        0.0000000000000000     
   1.2500000000000000       0.25000000000000000        0.0000000000000000     
   1.2500000000000000       0.12500000000000000        0.0000000000000000     
   1.2812500000000000       0.12500000000000000        0.0000000000000000     
   1.3125000000000000       0.12500000000000000        0.0000000000000000     
   1.3437500000000000       0.12500000000000000        0.0000000000000000     
   1.3750000000000000       0.12500000000000000        0.0000000000000000     
   1.2500000000000000       0.15625000000000000        0.0000000000000000     
   1.2812500000000000       0.15625000000000000        0.0000000000000000     
   1.3125000000000000       0.15625000000000000        0.0000000000000000     
   1.3437500000000000       0.15625000000000000        0.0000000000000000     
   1.3750000000000000       0.15625000000000000        0.0000000000000000     
   1.2500000000000000       0.18750000000000000        0.0000000000000000     
   1.2812500000000000       0.18750000000000000        0.0000000000000000     
   1.3125000000000000       0.18750000000000000        0.0000000000000000     
   1.3437500000000000       0.18750000000000000        0.0000000000000000     
   1.3750000000000000       0.18750000000000000        0.0000000000000000     
   1.2500000000000000       0.21875000000000000        0.0000000000000000     
   1.2812500000000000       0.21875000000000000        0.0000000000000000     
   1.3125000000000000       0.21875000000000000        0.0000000000000000     
   1.3437500000000000       0.21875000000000000        0.0000000000000000     
   1.3750000000000000       0.21875000000000000        0.0000000000000000     
   1.2500000000000000       0.25000000000000000        0.0000000000000000     
   1.2812500000000000       0.25000000000000000        0.0000000000000000     
   1.3125000000000000       0.25000000000000000        0.0000000000000000     
   1.3437500000000000       0.25000000000000000        0.0000000000000000     
   1.3750000000000000       0.25000000000000000        0.0000000000000000     
   1.3750000000000000       0.12500000000000000        0.0000000000000000     
   1.4062500000000000       0.12500000000000000        0.0000000000000000     
   1.4375000000000000       0.12500000000000000        0.0000000000000000     
   1.4687500000000000       0.12500000000000000        0.0000000000000000     
   1.5000000000000000       0.12500000000000000        0.0000000000000000     
   1.3750000000000000       0.15625000000000000        0.0000000000000000     
   1.4062500000000000       0.15625000000000000        0.0000000000000000     
   1.4375000000000000       0.15625000000000000        0.0000000000000000     
   1.4687500000000000       0.15625000000000000        0.0000000000000000     
   1.5000000000000000       0.15625000000000000        0.0000000000000000     
   1.3750000000000000       0.18750000000000000        0.0000000000000000     
   1.4062500000000000       0.18750000000000000        0.0000000000000000     
   1.4375000000000000       0.18750000000000000        0.0000000000000000     
   1.4687500000000000       0.18750000000000000        0.0000000000000000     
   1.5000000000000000       0.18750000000000000        0.0000000000000000     
   1.3750000000000000       0.21875000000000000        0.0000000000000000     
   1.4062500000000000       0.21875000000000000        0.0000000000000000     
   1.4375000000000000       0.21875000000000000        0.0000000000000000     
   1.4687500000000000       0.21875000000000000        0.0000000000000000     
   1.5000000000000000       0.21875000000000000        0.0000000000000000     
   1.3750000000000000       0.25000000000000000        0.0000000000000000     
   1.4062500000000000       0.25000000000000000        0.0000000000000000     
   1.4375000000000000       0.25000000000000000        0.0000000000000000     
   1.4687500000000000       0.25000000000000000        0.0000000000000000     
   1.5000000000000000       0.25000000000000000        0.0000000000000000     
  0.50000000000000000       0.25000000000000000        0.0000000000000000     
  0.53125000000000000       0.25000000000000000        0.0000000000000000     
  0.56250000000000000       0.25000000000000000        0.0000000000000000     
  0.59375000000000000       0.25000000000000000        0.0000000000000000     
  0.62500000000000000       0.25000000000000000        0.0000000000000000     
  0.50000000000000000       0.28125000000000000        0.0000000000000000     
  0.53125000000000000       0.28125000000000000        0.0000000000000000     
  0.56250000000000000       0.28125000000000000        0.0000000000000000     
  0.59375000000000000       0.28125000000000000        0.0000000000000000     
  0.62500000000000000       0.28125000000000000        0.0000000000000000     
  0.50000000000000000       0.31250000000000000        0.0000000000000000     
  0.53125000000000000       0.31250000000000000        0.0000000000000000     
  0.56250000000000000       0.31250000000000000        0.0000000000000000     
  0.59375000000000000       0.31250000000000000        0.0000000000000000     
  0.62500000000000000       0.31250000000000000        0.0000000000000000     
  0.50000000000000000       0.34375000000000000        0.0000000000000000     
  0.53125000000000000       0.34375000000000000        0.0000000000000000     
  0.56250000000000000       0.34375000000000000        0.0000000000000000     
  0.59375000000000000       0.34375000000000000        0.0000000000000000     
  0.62500000000000000       0.34375000000000000        0.0000000000000000     
  0.50000000000000000       0.37500000000000000        0.0000000000000000     
  0.53125000000000000       0.37500000000000000        0.0000000000000000     
  0.56250000000000000       0.37500000000000000        0.0000000000000000     
  0.59375000000000000       0.37500000000000000        0.0000000000000000     
  0.62500000000000000       0.37500000000000000        0.0000000000000000     
  0.62500000000000000       0.25000000000000000        0.0000000000000000     
  0.65625000000000000       0.25000000000000000        0.0000000000000000     
  0.68750000000000000       0.25000000000000000        0.0000000000000000     
  0.71875000000000000       0.25000000000000000        0.0000000000000000     
  0.75000000000000000       0.25000000000000000        0.0000000000000000     
  0.62500000000000000       0.28125000000000000        0.0000000000000000     
  0.65625000000000000       0.28125000000000000        0.0000000000000000     
  0.68750000000000000       0.28125000000000000        0.0000000000000000     
  0.71875000000000000       0.28125000000000000        0.0000000000000000     
  0.75000000000000000       0.28125000000000000        0.0000000000000000     
  0.62500000000000000       0.31250000000000000        0.0000000000000000     
  0.65625000000000000       0.31250000000000000        0.0000000000000000     
  0.68750000000000000       0.31250000000000000        0.0000000000000000     
  0.71875000000000000       0.31250000000000000        0.0000000000000000     
  0.75000000000000000       0.31250000000000000        0.0000000000000000     
  0.62500000000000000       0.34375000000000000        0.0000000000000000     
  0.65625000000000000       0.34375000000000000        0.0000000000000000     
  0.68750000000000000       0.34375000000000000        0.0000000000000000     
  0.71875000000000000       0.34375000000000000        0.0000000000000000     
  0.75000000000000000       0.34375000000000000        0.0000000000000000     
  0.62500000000000000       0.37500000000000000        0.0000000000000000     
  0.65625000000000000       0.37500000000000000        0.0000000000000000     
  0.68750000000000000       0.37500000000000000        0.0000000000000000     
  0.71875000000000000       0.37500000000000000        0.0000000000000000     
  0.75000000000000000       0.37500000000000000        0.0000000000000000     
  0.75000000000000000       0.25000000000000000        0.0000000000000000     
  0.78125000000000000       0.25000000000000000        0.0000000000000000     
  0.81250000000000000       0.25000000000000000        0.0000000000000000     
  0.84375000000000000       0.25000000000000000        0.0000000000000000     
  0.87500000000000000       0.25000000000000000        0.0000000000000000     
  0.75000000000000000       0.28125000000000000        0.0000000000000000     
  0.78125000000000000       0.28125000000000000        0.0000000000000000     
  0.81250000000000000       0.28125000000000000        0.0000000000000000     
  0.84375000000000000       0.28125000000000000        0.0000000000000000     
  0.87500000000000000       0.28125000000000000        0.0000000000000000     
  0.75000000000000000       0.31250000000000000        0.0000000000000000     
  0.78125000000000000       0.31250000000000000        0.0000000000000000     
  0.81250000000000000       0.31250000000000000        0.0000000000000000     
  0.84375000000000000       0.31250000000000000        0.0000000000000000     
  0.87500000000000000       0.31250000000000000        0.0000000000000000     
  0.75000000000000000       0.34375000000000000        0.0000000000000000     
  0.78125000000000000       0.34375000000000000        0.0000000000000000     
  0.81250000000000000       0.34375000000000000        0.0000000000000000     
  0.84375000000000000       0.34375000000000000        0.0000000000000000     
  0.87500000000000000       0.34375000000000000        0.0000000000000000     
  0.75000000000000000       0.37500000000000000        0.0000000000000000     
  0.78125000000000000       0.37500000000000000        0.0000000000000000     
  0.81250000000000000       0.37500000000000000        0.0000000000000000     
  0.84375000000000000       0.37500000000000000        0.0000000000000000     
  0.87500000000000000       0.37500000000000000        0.0000000000000000     
  0.87500000000000000       0.25000000000000000        0.0000000000000000     
  0.90625000000000000       0.25000000000000000        0.0000000000000000     
  0.93750000000000000       0.25000000000000000        0.0000000000000000     
  0.96875000000000000       0.25000000000000000        0.0000000000000000     
   1.0000000000000000       0.25000000000000000        0.0000000000000000     
  0.87500000000000000       0.28125000000000000        0.0000000000000000     
  0.90625000000000000       0.28125000000000000        0.0000000000000000     
  0.93750000000000000       0.28125000000000000        0.0000000000000000     
  0.96875000000000000       0.28125000000000000        0.0000000000000000     
   1.0000000000000000       0.28125000000000000        0.0000000000000000     
  0.87500000000000000       0.31250000000000000        0.0000000000000000     
  0.90625000000000000       0.31250000000000000        0.0000000000000000     
  0.93750000000000000       0.31250000000000000        0.0000000000000000     
  0.96875000000000000       0.31250000000000000        0.0000000000000000     
   1.0000000000000000       0.31250000000000000        0.0000000000000000     
  0.87500000000000000       0.34375000000000000        0.0000000000000000     
  0.90625000000000000       0.34375000000000000        0.0000000000000000     
  0.93750000000000000       0.34375000000000000        0.0000000000000000     
  0.96875000000000000       0.34375000000000000        0.0000000000000000     
   1.0000000000000000       0.34375000000000000        0.0000000000000000     
  0.87500000000000000       0.37500000000000000        0.0000000000000000     
  0.90625000000000000       0.37500000000000000        0.0000000000000000     
  0.93750000000000000       0.37500000000000000        0.0000000000000000     
  0.96875000000000000       0.37500000000000000        0.0000000000000000     
   1.0000000000000000       0.37500000000000000        0.0000000000000000     
   1.0000000000000000       0.25000000000000000        0.0000000000000000     
   1.0312500000000000       0.25000000000000000        0.0000000000000000     
   1.0625000000000000       0.25000000000000000        0.0000000000000000     
   1.0937500000000000       0.25000000000000000        0.0000000000000000     
   1.1250000000000000       0.25000000000000000        0.0000000000000000     
   1.0000000000000000       0.28125000000000000        0.0000000000000000     
   1.0312500000000000       0.28125000000000000        0.0000000000000000     
   1.0625000000000000       0.28125000000000000        0.0000000000000000     
   1.0937500000000000       0.28125000000000000        0.0000000000000000     
   1.1250000000000000       0.28125000000000000        0.0000000000000000     
   1.0000000000000000       0.31250000000000000        0.0000000000000000     
   1.0312500000000000       0.31250000000000000        0.0000000000000000     
   1.0625000000000000       0.31250000000000000        0.0000000000000000     
   1.0937500000000000       0.31250000000000000        0.0000000000000000     
   1.1250000000000000       0.31250000000000000        0.0000000000000000     
   1.0000000000000000       0.34375000000000000        0.0000000000000000     
   1.0312500000000000       0.34375000000000000        0.0000000000000000     
   1.0625000000000000       0.34375000000000000        0.0000000000000000     
   1.0937500000000000       0.34375000000000000        0.0000000000000000     
   1.1250000000000000       0.34375000000000000        0.0000000000000000     
   1.0000000000000000       0.37500000000000000        0.0000000000000000     
   1.0312500000000000       0.37500000000000000        0.0000000000000000     
   1.0625000000000000       0.37500000000000000        0.0000000000000000     
   1.0937500000000000       0.37500000000000000        0.0000000000000000     
   1.1250000000000000       0.37500000000000000        0.0000000000000000     
   1.1250000000000000       0.25000000000000000        0.0000000000000000     
   1.1562500000000000       0.25000000000000000        0.0000000000000000     
   1.1875000000000000       0.25000000000000000        0.0000000000000000     
   1.2187500000000000       0.25000000000000000        0.0000000000000000     
   1.2500000000000000       0.25000000000000000        0.0000000000000000     
   1.1250000000000000       0.28125000000000000        0.0000000000000000     
   1.1562500000000000       0.28125000000000000        0.0000000000000000     
   1.1875000000000000       0.28125000000000000        0.0000000000000000     
   1.2187500000000000       0.28125000000000000        0.0000000000000000     
   1.2500000000000000       0.28125000000000000        0.0000000000000000     
   1.1250000000000000       0.31250000000000000        0.0000000000000000     
   1.1562500000000000       0.31250000000000000        0.0000000000000000     
   1.1875000000000000       0.31250000000000000        0.0000000000000000     
   1.2187500000000000       0.31250000000000000        0.0000000000000000     
   1.2500000000000000       0.31250000000000000        0.0000000000000000     
   1.1250000000000000       0.34375000000000000        0.0000000000000000     
   1.1562500000000000       0.34375000000000000        0.0000000000000000     
   1.1875000000000000       0.34375000000000000        0.0000000000000000     
   1.2187500000000000       0.34375000000000000        0.0000000000000000     
   1.2500000000000000       0.34375000000000000        0.0000000000000000     
   1.1250000000000000       0.37500000000000000        0.0000000000000000     
   1.1562500000000000       0.37500000000000000        0.0000000000000000     
   1.1875000000000000       0.37500000000000000        0.0000000000000000     
   1.2187500000000000       0.37500000000000000        0.0000000000000000     
   1.2500000000000000       0.37500000000000000        0.0000000000000000     
   1.2500000000000000       0.25000000000000000        0.0000000000000000     
   1.2812500000000000       0.25000000000000000        0.0000000000000000     
   1.3125000000000000       0.25000000000000000        0.0000000000000000     
   1.3437500000000000       0.25000000000000000        0.0000000000000000     
   1.3750000000000000       0.25000000000000000        0.0000000000000000     
   1.2500000000000000       0.28125000000000000        0.0000000000000000     
   1.2812500000000000       0.28125000000000000        0.0000000000000000     
   1.3125000000000000       0.28125000000000000        0.0000000000000000     
   1.3437500000000000       0.28125000000000000        0.0000000000000000     
   1.3750000000000000       0.28125000000000000        0.0000000000000000     
   1.2500000000000000       0.31250000000000000        0.0000000000000000     
   1.2812500000000000       0.31250000000000000        0.0000000000000000     
   1.3125000000000000       0.31250000000000000        0.0000000000000000     
   1.3437500000000000       0.31250000000000000        0.0000000000000000     
   1.3750000000000000       0.31250000000000000        0.0000000000000000     
   1.2500000000000000       0.34375000000000000        0.0000000000000000     
   1.2812500000000000       0.34375000000000000        0.0000000000000000     
   1.3125000000000000       0.34375000000000000        0.0000000000000000     
   1.3437500000000000       0.34375000000000000        0.0000000000000000     
   1.3750000000000000       0.34375000000000000        0.0000000000000000     
   1.2500000000000000       0.37500000000000000        0.0000000000000000     
   1.2812500000000000       0.37500000000000000        0.0000000000000000     
   1.3125000000000000       0.37500000000000000        0.0000000000000000     
   1.3437500000000000       0.37500000000000000        0.0000000000000000     
   1.3750000000000000       0.37500000000000000        0.0000000000000000     
   1.3750000000000000       0.25000000000000000        0.0000000000000000     
   1.4062500000000000       0.25000000000000000        0.0000000000000000     
   1.4375000000000000       0.25000000000000000        0.0000000000000000     
   1.4687500000000000       0.25000000000000000        0.0000000000000000     
   1.5000000000000000       0.25000000000000000        0.0000000000000000     
   1.3750000000000000       0.28125000000000000        0.0000000000000000     
   1.4062500000000000       0.28125000000000000        0.0000000000000000     
   1.4375000000000000       0.28125000000000000        0.0000000000000000     
   1.4687500000000000       0.28125000000000000        0.0000000000000000     
   1.5000000000000000       0.28125000000000000        0.0000000000000000     
   1.3750000000000000       0.31250000000000000        0.0000000000000000     
   1.4062500000000000       0.31250000000000000        0.0000000000000000     
   1.4375000000000000       0.31250000000000000        0.0000000000000000     
   1.4687500000000000       0.31250000000000000        0.0000000000000000     
   1.5000000000000000       0.31250000000000000        0.0000000000000000     
   1.3750000000000000       0.34375000000000000        0.0000000000000000     
   1.4062500000000000       0.34375000000000000        0.0000000000000000     
   1.4375000000000000       0.34375000000000000        0.0000000000000000     
   1.4687500000000000       0.34375000000000000        0.0000000000000000     
   1.5000000000000000       0.34375000000000000        0.0000000000000000     
   1.3750000000000000       0.37500000000000000        0.0000000000000000     
   1.4062500000000000       0.37500000000000000        0.0000000000000000     
   1.4375000000000000       0.37500000000000000        0.0000000000000000     
   1.4687500000000000       0.37500000000000000        0.0000000000000000     
   1.5000000000000000       0.37500000000000000        0.0000000000000000     
  0.50000000000000000       0.37500000000000000        0.0000000000000000     
  0.53125000000000000       0.37500000000000000        0.0000000000000000     
  0.56250000000000000       0.37500000000000000        0.0000000000000000     
  0.59375000000000000       0.37500000000000000        0.0000000000000000     
  0.62500000000000000       0.37500000000000000        0.0000000000000000     
  0.50000000000000000       0.40625000000000000        0.0000000000000000     
  0.53125000000000000       0.40625000000000000        0.0000000000000000     
  0.56250000000000000       0.40625000000000000        0.0000000000000000     
  0.59375000000000000       0.40625000000000000        0.0000000000000000     
  0.62500000000000000       0.40625000000000000        0.0000000000000000     
  0.50000000000000000       0.43750000000000000        0.0000000000000000     
  0.53125000000000000       0.43750000000000000        0.0000000000000000     
  0.56250000000000000       0.43750000000000000        0.0000000000000000     
  0.59375000000000000       0.43750000000000000        0.0000000000000000     
  0.62500000000000000       0.43750000000000000        0.0000000000000000     
  0.50000000000000000       0.46875000000000000        0.0000000000000000     
  0.53125000000000000       0.46875000000000000        0.0000000000000000     
  0.56250000000000000       0.46875000000000000        0.0000000000000000     
  0.59375000000000000       0.46875000000000000        0.0000000000000000     
  0.62500000000000000       0.46875000000000000        0.0000000000000000     
  0.50000000000000000       0.50000000000000000        0.0000000000000000     
  0.53125000000000000       0.50000000000000000        0.0000000000000000     
  0.56250000000000000       0.50000000000000000        0.0000000000000000     
  0.59375000000000000       0.50000000000000000        0.0000000000000000     
  0.62500000000000000       0.50000000000000000        0.0000000000000000     
  0.62500000000000000       0.37500000000000000        0.0000000000000000     
  0.65625000000000000       0.37500000000000000        0.0000000000000000     
  0.68750000000000000       0.37500000000000000        0.0000000000000000     
  0.71875000000000000       0.37500000000000000        0.0000000000000000     
  0.75000000000000000       0.37500000000000000        0.0000000000000000     
  0.62500000000000000       0.40625000000000000        0.0000000000000000     
  0.65625000000000000       0.40625000000000000        0.0000000000000000     
  0.68750000000000000       0.40625000000000000        0.0000000000000000     
  0.71875000000000000       0.40625000000000000        0.0000000000000000     
  0.75000000000000000       0.40625000000000000        0.0000000000000000     
  0.62500000000000000       0.43750000000000000        0.0000000000000000     
  0.65625000000000000       0.43750000000000000        0.0000000000000000     
  0.68750000000000000       0.43750000000000000        0.0000000000000000     
  0.71875000000000000       0.43750000000000000        0.0000000000000000     
  0.75000000000000000       0.43750000000000000        0.0000000000000000     
  0.62500000000000000       0.46875000000000000        0.0000000000000000     
  0.65625000000000000       0.46875000000000000        0.0000000000000000     
  0.68750000000000000       0.46875000000000000        0.0000000000000000     
  0.71875000000000000       0.46875000000000000        0.0000000000000000     
  0.75000000000000000       0.46875000000000000        0.0000000000000000     
  0.62500000000000000       0.50000000000000000        0.0000000000000000     
  0.65625000000000000       0.50000000000000000        0.0000000000000000     
  0.68750000000000000       0.50000000000000000        0.0000000000000000     
  0.71875000000000000       0.50000000000000000        0.0000000000000000     
  0.75000000000000000       0.50000000000000000        0.0000000000000000     
  0.75000000000000000       0.37500000000000000        0.0000000000000000     
  0.78125000000000000       0.37500000000000000        0.0000000000000000     
  0.81250000000000000       0.37500000000000000        0.0000000000000000     
  0.84375000000000000       0.37500000000000000        0.0000000000000000     
  0.87500000000000000       0.37500000000000000        0.0000000000000000     
  0.75000000000000000       0.40625000000000000        0.0000000000000000     
  0.78125000000000000       0.40625000000000000        0.0000000000000000     
  0.81250000000000000       0.40625000000000000        0.0000000000000000     
  0.84375000000000000       0.40625000000000000        0.0000000000000000     
  0.87500000000000000       0.40625000000000000        0.0000000000000000     
  0.75000000000000000       0.43750000000000000        0.0000000000000000     
  0.78125000000000000       0.43750000000000000        0.0000000000000000     
  0.81250000000000000       0.43750000000000000        0.0000000000000000     
  0.84375000000000000       0.43750000000000000        0.0000000000000000     
  0.87500000000000000       0.43750000000000000        0.0000000000000000     
  0.75000000000000000       0.46875000000000000        0.0000000000000000     
  0.78125000000000000       0.46875000000000000        0.0000000000000000     
  0.81250000000000000       0.46875000000000000        0.0000000000000000     
  0.84375000000000000       0.46875000000000000        0.0000000000000000     
  0.87500000000000000       0.46875000000000000        0.0000000000000000     
  0.75000000000000000       0.50000000000000000        0.0000000000000000     
  0.78125000000000000       0.50000000000000000        0.0000000000000000     
  0.81250000000000000       0.50000000000000000        0.0000000000000000     
  0.84375000000000000       0.50000000000000000        0.0000000000000000     
  0.87500000000000000       0.50000000000000000        0.0000000000000000     
  0.87500000000000000       0.37500000000000000        0.0000000000000000     
  0.90625000000000000       0.37500000000000000        0.0000000000000000     
  0.93750000000000000       0.37500000000000000        0.0000000000000000     
  0.96875000000000000       0.37500000000000000        0.0000000000000000     
   1.0000000000000000       0.37500000000000000        0.0000000000000000     
  0.87500000000000000       0.40625000000000000        0.0000000000000000     
  0.90625000000000000       0.40625000000000000        0.0000000000000000     
  0.93750000000000000       0.40625000000000000        0.0000000000000000     
  0.96875000000000000       0.40625000000000000        0.0000000000000000     
   1.0000000000000000       0.40625000000000000        0.0000000000000000     
  0.87500000000000000       0.43750000000000000        0.0000000000000000     
  0.90625000000000000       0.43750000000000000        0.0000000000000000     
  0.93750000000000000       0.43750000000000000        0.0000000000000000     
  0.96875000000000000       0.43750000000000000        0.0000000000000000     
   1.0000000000000000       0.43750000000000000        0.0000000000000000     
  0.87500000000000000       0.46875000000000000        0.0000000000000000     
  0.90625000000000000       0.46875000000000000        0.0000000000000000     
  0.93750000000000000       0.46875000000000000        0.0000000000000000     
  0.96875000000000000       0.46875000000000000        0.0000000000000000     
   1.0000000000000000       0.46875000000000000        0.0000000000000000     
  0.87500000000000000       0.50000000000000000        0.0000000000000000     
  0.90625000000000000       0.50000000000000000        0.0000000000000000     
  0.93750000000000000       0.50000000000000000        0.0000000000000000     
  0.96875000000000000       0.50000000000000000        0.0000000000000000     
   1.0000000000000000       0.50000000000000000        0.0000000000000000     
   1.0000000000000000       0.37500000000000000        0.0000000000000000     
   1.0312500000000000       0.37500000000000000        0.0000000000000000     
   1.0625000000000000       0.37500000000000000        0.0000000000000000     
   1.0937500000000000       0.37500000000000000        0.0000000000000000     
   1.1250000000000000       0.37500000000000000        0.0000000000000000     
   1.0000000000000000       0.40625000000000000        0.0000000000000000     
   1.0312500000000000       0.40625000000000000        0.0000000000000000     
   1.0625000000000000       0.40625000000000000        0.0000000000000000     
   1.0937500000000000       0.40625000000000000        0.0000000000000000     
   1.1250000000000000       0.40625000000000000        0.0000000000000000     
   1.0000000000000000       0.43750000000000000        0.0000000000000000     
   1.0312500000000000       0.43750000000000000        0.0000000000000000     
   1.0625000000000000       0.43750000000000000        0.0000000000000000     
   1.0937500000000000       0.43750000000000000        0.0000000000000000     
   1.1250000000000000       0.43750000000000000        0.0000000000000000     
   1.0000000000000000       0.46875000000000000        0.0000000000000000     
   1.0312500000000000       0.46875000000000000        0.0000000000000000     
   1.0625000000000000       0.46875000000000000        0.0000000000000000     
   1.0937500000000000       0.46875000000000000        0.0000000000000000     
   1.1250000000000000       0.46875000000000000        0.0000000000000000     
   1.0000000000000000       0.50000000000000000        0.0000000000000000     
   1.0312500000000000       0.50000000000000000        0.0000000000000000     
   1.0625000000000000       0.50000000000000000        0.0000000000000000     
   1.0937500000000000       0.50000000000000000        0.0000000000000000     
   1.1250000000000000       0.50000000000000000        0.0000000000000000     
   1.1250000000000000       0.37500000000000000        0.0000000000000000     
   1.1562500000000000       0.37500000000000000        0.0000000000000000     
   1.1875000000000000       0.37500000000000000        0.0000000000000000     
   1.2187500000000000       0.37500000000000000        0.0000000000000000     
   1.2500000000000000       0.37500000000000000        0.0000000000000000     
   1.1250000000000000       0.40625000000000000        0.0000000000000000     
   1.1562500000000000       0.40625000000000000        0.0000000000000000     
   1.1875000000000000       0.40625000000000000        0.0000000000000000     
   1.2187500000000000       0.40625000000000000        0.0000000000000000     
   1.2500000000000000       0.40625000000000000        0.0000000000000000     
   1.1250000000000000       0.43750000000000000        0.0000000000000000     
   1.1562500000000000       0.43750000000000000        0.0000000000000000     
   1.1875000000000000       0.43750000000000000        0.0000000000000000     
   1.2187500000000000       0.43750000000000000        0.0000000000000000     
   1.2500000000000000       0.43750000000000000        0.0000000000000000     
   1.1250000000000000       0.46875000000000000        0.0000000000000000     
   1.1562500000000000       0.46875000000000000        0.0000000000000000     
   1.1875000000000000       0.46875000000000000        0.0000000000000000     
   1.2187500000000000       0.46875000000000000        0.0000000000000000     
   1.2500000000000000       0.46875000000000000        0.0000000000000000     
   1.1250000000000000       0.50000000000000000        0.0000000000000000     
   1.1562500000000000       0.50000000000000000        0.0000000000000000     
   1.1875000000000000       0.50000000000000000        0.0000000000000000     
   1.2187500000000000       0.50000000000000000        0.0000000000000000     
   1.2500000000000000       0.50000000000000000        0.0000000000000000     
   1.2500000000000000       0.37500000000000000        0.0000000000000000     
   1.2812500000000000       0.37500000000000000        0.0000000000000000     
   1.3125000000000000       0.37500000000000000        0.0000000000000000     
   1.3437500000000000       0.37500000000000000        0.0000000000000000     
   1.3750000000000000       0.37500000000000000        0.0000000000000000     
   1.2500000000000000       0.40625000000000000        0.0000000000000000     
   1.2812500000000000       0.40625000000000000        0.0000000000000000     
   1.3125000000000000       0.40625000000000000        0.0000000000000000     
   1.3437500000000000       0.40625000000000000        0.0000000000000000     
   1.3750000000000000       0.40625000000000000        0.0000000000000000     
   1.2500000000000000       0.43750000000000000        0.0000000000000000     
   1.2812500000000000       0.43750000000000000        0.0000000000000000     
   1.3125000000000000       0.43750000000000000        0.0000000000000000     
   1.3437500000000000       0.43750000000000000        0.0000000000000000     
   1.3750000000000000       0.43750000000000000        0.0000000000000000     
   1.2500000000000000       0.46875000000000000        0.0000000000000000     
   1.2812500000000000       0.46875000000000000        0.0000000000000000     
   1.3125000000000000       0.46875000000000000        0.0000000000000000     
   1.3437500000000000       0.46875000000000000        0.0000000000000000     
   1.3750000000000000       0.46875000000000000        0.0000000000000000     
   1.2500000000000000       0.50000000000000000        0.0000000000000000     
   1.2812500000000000       0.50000000000000000        0.0000000000000000     
   1.3125000000000000       0.50000000000000000        0.0000000000000000     
   1.3437500000000000       0.50000000000000000        0.0000000000000000     
   1.3750000000000000       0.50000000000000000        0.0000000000000000     
   1.3750000000000000       0.37500000000000000        0.0000000000000000     
   1.4062500000000000       0.37500000000000000        0.0000000000000000     
   1.4375000000000000       0.37500000000000000        0.0000000000000000     
   1.4687500000000000       0.37500000000000000        0.0000000000000000     
   1.5000000000000000       0.37500000000000000        0.0000000000000000     
   1.3750000000000000       0.40625000000000000        0.0000000000000000     
   1.4062500000000000       0.40625000000000000        0.0000000000000000     
   1.4375000000000000       0.40625000000000000        0.0000000000000000     
   1.4687500000000000       0.40625000000000000        0.0000000000000000     
   1.5000000000000000       0.40625000000000000        0.0000000000000000     
   1.3750000000000000       0.43750000000000000        0.0000000000000000     
   1.4062500000000000       0.43750000000000000        0.0000000000000000     
   1.4375000000000000       0.43750000000000000        0.0000000000000000     
   1.4687500000000000       0.43750000000000000        0.0000000000000000     
   1.5000000000000000       0.43750000000000000        0.0000000000000000     
   1.3750000000000000       0.46875000000000000        0.0000000000000000     
   1.4062500000000000       0.46875000000000000        0.0000000000000000     
   1.4375000000000000       0.46875000000000000        0.0000000000000000     
   1.4687500000000000       0.46875000000000000        0.0000000000000000     
   1.5000000000000000       0.46875000000000000        0.0000000000000000     
   1.3750000000000000       0.50000000000000000        0.0000000000000000     
   1.4062500000000000       0.50000000000000000        0.0000000000000000     
   1.4375000000000000       0.50000000000000000        0.0000000000000000     
   1.4687500000000000       0.50000000000000000        0.0000000000000000     
   1.5000000000000000       0.50000000000000000        0.0000000000000000     
  0.50000000000000000       0.50000000000000000        0.0000000000000000     
  0.53125000000000000       0.50000000000000000        0.0000000000000000     
  0.56250000000000000       0.50000000000000000        0.0000000000000000     
  0.59375000000000000       0.50000000000000000        0.0000000000000000     
  0.62500000000000000       0.50000000000000000        0.0000000000000000     
  0.50000000000000000       0.53125000000000000        0.0000000000000000     
  0.53125000000000000       0.53125000000000000        0.0000000000000000     
  0.56250000000000000       0.53125000000000000        0.0000000000000000     
  0.59375000000000000       0.53125000000000000        0.0000000000000000     
  0.62500000000000000       0.53125000000000000        0.0000000000000000     
  0.50000000000000000       0.56250000000000000        0.0000000000000000     
  0.53125000000000000       0.56250000000000000        0.0000000000000000     
  0.56250000000000000       0.56250000000000000        0.0000000000000000     
  0.59375000000000000       0.56250000000000000        0.0000000000000000     
  0.62500000000000000       0.56250000000000000        0.0000000000000000     
  0.50000000000000000       0.59375000000000000        0.0000000000000000     
  0.53125000000000000       0.59375000000000000        0.0000000000000000     
  0.56250000000000000       0.59375000000000000        0.0000000000000000     
  0.59375000000000000       0.59375000000000000        0.0000000000000000     
  0.62500000000000000       0.59375000000000000        0.0000000000000000     
  0.50000000000000000       0.62500000000000000        0.0000000000000000     
  0.53125000000000000       0.62500000000000000        0.0000000000000000     
  0.56250000000000000       0.62500000000000000        0.0000000000000000     
  0.59375000000000000       0.62500000000000000        0.0000000000000000     
  0.62500000000000000       0.62500000000000000        0.0000000000000000     
  0.62500000000000000       0.50000000000000000        0.0000000000000000     
  0.65625000000000000       0.50000000000000000        0.0000000000000000     
  0.68750000000000000       0.50000000000000000        0.0000000000000000     
  0.71875000000000000       0.50000000000000000        0.0000000000000000     
  0.75000000000000000       0.50000000000000000        0.0000000000000000     
  0.62500000000000000       0.53125000000000000        0.0000000000000000     
  0.65625000000000000       0.53125000000000000        0.0000000000000000     
  0.68750000000000000       0.53125000000000000        0.0000000000000000     
  0.71875000000000000       0.53125000000000000        0.0000000000000000     
  0.75000000000000000       0.53125000000000000        0.0000000000000000     
  0.62500000000000000       0.56250000000000000        0.0000000000000000     
  0.65625000000000000       0.56250000000000000        0.0000000000000000     
  0.68750000000000000       0.56250000000000000        0.0000000000000000     
  0.71875000000000000       0.56250000000000000        0.0000000000000000     
  0.75000000000000000       0.56250000000000000        0.0000000000000000     
  0.62500000000000000       0.59375000000000000        0.0000000000000000     
  0.65625000000000000       0.59375000000000000        0.0000000000000000     
  0.68750000000000000       0.59375000000000000        0.0000000000000000     
  0.71875000000000000       0.59375000000000000        0.0000000000000000     
  0.75000000000000000       0.59375000000000000        0.0000000000000000     
  0.62500000000000000       0.62500000000000000        0.0000000000000000     
  0.65625000000000000       0.62500000000000000        0.0000000000000000     
  0.68750000000000000       0.62500000000000000        0.0000000000000000     
  0.71875000000000000       0.62500000000000000        0.0000000000000000     
  0.75000000000000000       0.62500000000000000        0.0000000000000000     
  0.75000000000000000       0.50000000000000000        0.0000000000000000     
  0.78125000000000000       0.50000000000000000        0.0000000000000000     
  0.81250000000000000       0.50000000000000000        0.0000000000000000     
  0.84375000000000000       0.50000000000000000        0.0000000000000000     
  0.87500000000000000       0.50000000000000000        0.0000000000000000     
  0.75000000000000000       0.53125000000000000        0.0000000000000000     
  0.78125000000000000       0.53125000000000000        0.0000000000000000     
  0.81250000000000000       0.53125000000000000        0.0000000000000000     
  0.84375000000000000       0.53125000000000000        0.0000000000000000     
  0.87500000000000000       0.53125000000000000        0.0000000000000000     
  0.75000000000000000       0.56250000000000000        0.0000000000000000     
  0.78125000000000000       0.56250000000000000        0.0000000000000000     
  0.81250000000000000       0.56250000000000000        0.0000000000000000     
  0.84375000000000000       0.56250000000000000        0.0000000000000000     
  0.87500000000000000       0.56250000000000000        0.0000000000000000     
  0.75000000000000000       0.59375000000000000        0.0000000000000000     
  0.78125000000000000       0.59375000000000000        0.0000000000000000     
  0.81250000000000000       0.59375000000000000        0.0000000000000000     
  0.84375000000000000       0.59375000000000000        0.0000000000000000     
  0.87500000000000000       0.59375000000000000        0.0000000000000000     
  0.75000000000000000       0.62500000000000000        0.0000000000000000     
  0.78125000000000000       0.62500000000000000        0.0000000000000000     
  0.81250000000000000       0.62500000000000000        0.0000000000000000     
  0.84375000000000000       0.62500000000000000        0.0000000000000000     
  0.87500000000000000       0.62500000000000000        0.0000000000000000     
  0.87500000000000000       0.50000000000000000        0.0000000000000000     
  0.90625000000000000       0.50000000000000000        0.0000000000000000     
  0.93750000000000000       0.50000000000000000        0.0000000000000000     
  0.96875000000000000       0.50000000000000000        0.0000000000000000     
   1.0000000000000000       0.50000000000000000        0.0000000000000000     
  0.87500000000000000       0.53125000000000000        0.0000000000000000     
  0.90625000000000000       0.53125000000000000        0.0000000000000000     
  0.93750000000000000       0.53125000000000000        0.0000000000000000     
  0.96875000000000000       0.53125000000000000        0.0000000000000000     
   1.0000000000000000       0.53125000000000000        0.0000000000000000     
  0.87500000000000000       0.56250000000000000        0.0000000000000000     
  0.90625000000000000       0.56250000000000000        0.0000000000000000     
  0.93750000000000000       0.56250000000000000        0.0000000000000000     
  0.96875000000000000       0.56250000000000000        0.0000000000000000     
   1.0000000000000000       0.56250000000000000        0.0000000000000000     
  0.87500000000000000       0.59375000000000000        0.0000000000000000     
  0.90625000000000000       0.59375000000000000        0.0000000000000000     
  0.93750000000000000       0.59375000000000000        0.0000000000000000     
  0.96875000000000000       0.59375000000000000        0.0000000000000000     
   1.0000000000000000       0.59375000000000000        0.0000000000000000     
  0.87500000000000000       0.62500000000000000        0.0000000000000000     
  0.90625000000000000       0.62500000000000000        0.0000000000000000     
  0.93750000000000000       0.62500000000000000        0.0000000000000000     
  0.96875000000000000       0.62500000000000000        0.0000000000000000     
   1.0000000000000000       0.62500000000000000        0.0000000000000000     
   1.0000000000000000       0.50000000000000000        0.0000000000000000     
   1.0312500000000000       0.50000000000000000        0.0000000000000000     
   1.0625000000000000       0.50000000000000000        0.0000000000000000     
   1.0937500000000000       0.50000000000000000        0.0000000000000000     
   1.1250000000000000       0.50000000000000000        0.0000000000000000     
   1.0000000000000000       0.53125000000000000        0.0000000000000000     
   1.0312500000000000       0.53125000000000000        0.0000000000000000     
   1.0625000000000000       0.53125000000000000        0.0000000000000000     
   1.0937500000000000       0.53125000000000000        0.0000000000000000     
   1.1250000000000000       0.53125000000000000        0.0000000000000000     
   1.0000000000000000       0.56250000000000000        0.0000000000000000     
   1.0312500000000000       0.56250000000000000        0.0000000000000000     
   1.0625000000000000       0.56250000000000000        0.0000000000000000     
   1.0937500000000000       0.56250000000000000        0.0000000000000000     
   1.1250000000000000       0.56250000000000000        0.0000000000000000     
   1.0000000000000000       0.59375000000000000        0.0000000000000000     
   1.0312500000000000       0.59375000000000000        0.0000000000000000     
   1.0625000000000000       0.59375000000000000        0.0000000000000000     
   1.0937500000000000       0.59375000000000000        0.0000000000000000     
   1.1250000000000000       0.59375000000000000        0.0000000000000000     
   1.0000000000000000       0.62500000000000000        0.0000000000000000     
   1.0312500000000000       0.62500000000000000        0.0000000000000000     
   1.0625000000000000       0.62500000000000000        0.0000000000000000     
   1.0937500000000000       0.62500000000000000        0.0000000000000000     
   1.1250000000000000       0.62500000000000000        0.0000000000000000     
   1.1250000000000000       0.50000000000000000        0.0000000000000000     
   1.1562500000000000       0.50000000000000000        0.0000000000000000     
   1.1875000000000000       0.50000000000000000        0.0000000000000000     
   1.2187500000000000       0.50000000000000000        0.0000000000000000     
   1.2500000000000000       0.50000000000000000        0.0000000000000000     
   1.1250000000000000       0.53125000000000000        0.0000000000000000     
   1.1562500000000000       0.53125000000000000        0.0000000000000000     
   1.1875000000000000       0.53125000000000000        0.0000000000000000     
   1.2187500000000000       0.53125000000000000        0.0000000000000000     
   1.2500000000000000       0.53125000000000000        0.0000000000000000     
   1.1250000000000000       0.56250000000000000        0.0000000000000000     
   1.1562500000000000       0.56250000000000000        0.0000000000000000     
   1.1875000000000000       0.56250000000000000        0.0000000000000000     
   1.2187500000000000       0.56250000000000000        0.0000000000000000     
   1.2500000000000000       0.56250000000000000        0.0000000000000000     
   1.1250000000000000       0.59375000000000000        0.0000000000000000     
   1.1562500000000000       0.59375000000000000        0.0000000000000000     
   1.1875000000000000       0.59375000000000000        0.0000000000000000     
   1.2187500000000000       0.59375000000000000        0.0000000000000000     
   1.2500000000000000       0.59375000000000000        0.0000000000000000     
   1.1250000000000000       0.62500000000000000        0.0000000000000000     
   1.1562500000000000       0.62500000000000000        0.0000000000000000     
   1.1875000000000000       0.62500000000000000        0.0000000000000000     
   1.2187500000000000       0.62500000000000000        0.0000000000000000     
   1.2500000000000000       0.62500000000000000        0.0000000000000000     
   1.2500000000000000       0.50000000000000000        0.0000000000000000     
   1.2812500000000000       0.50000000000000000        0.0000000000000000     
   1.3125000000000000       0.50000000000000000        0.0000000000000000     
   1.3437500000000000       0.50000000000000000        0.0000000000000000     
   1.3750000000000000       0.50000000000000000        0.0000000000000000     
   1.2500000000000000       0.53125000000000000        0.0000000000000000     
   1.2812500000000000       0.53125000000000000        0.0000000000000000     
   1.3125000000000000       0.53125000000000000        0.0000000000000000     
   1.3437500000000000       0.53125000000000000        0.0000000000000000     
   1.3750000000000000       0.53125000000000000        0.0000000000000000     
   1.2500000000000000       0.56250000000000000        0.0000000000000000     
   1.2812500000000000       0.56250000000000000        0.0000000000000000     
   1.3125000000000000       0.56250000000000000        0.0000000000000000     
   1.3437500000000000       0.56250000000000000        0.0000000000000000     
   1.3750000000000000       0.56250000000000000        0.0000000000000000     
   1.2500000000000000       0.59375000000000000        0.0000000000000000     
   1.2812500000000000       0.59375000000000000        0.0000000000000000     
   1.3125000000000000       0.59375000000000000        0.0000000000000000     
   1.3437500000000000       0.59375000000000000        0.0000000000000000     
   1.3750000000000000       0.59375000000000000        0.0000000000000000     
   1.2500000000000000       0.62500000000000000        0.0000000000000000     
   1.2812500000000000       0.62500000000000000        0.0000000000000000     
   1.3125000000000000       0.62500000000000000        0.0000000000000000     
   1.3437500000000000       0.62500000000000000        0.0000000000000000     
   1.3750000000000000       0.62500000000000000        0.0000000000000000     
   1.3750000000000000       0.50000000000000000        0.0000000000000000     
   1.4062500000000000       0.50000000000000000        0.0000000000000000     
   1.4375000000000000       0.50000000000000000        0.0000000000000000     
   1.4687500000000000       0.50000000000000000        0.0000000000000000     
   1.5000000000000000       0.50000000000000000        0.0000000000000000     
   1.3750000000000000       0.53125000000000000        0.0000000000000000     
   1.4062500000000000       0.53125000000000000        0.0000000000000000     
   1.4375000000000000       0.53125000000000000        0.0000000000000000     
   1.4687500000000000       0.53125000000000000        0.0000000000000000     
   1.5000000000000000       0.53125000000000000        0.0000000000000000     
   1.3750000000000000       0.56250000000000000        0.0000000000000000     
   1.4062500000000000       0.56250000000000000        0.0000000000000000     
   1.4375000000000000       0.56250000000000000        0.0000000000000000     
   1.4687500000000000       0.56250000000000000        0.0000000000000000     
   1.5000000000000000       0.56250000000000000        0.0000000000000000     
   1.3750000000000000       0.59375000000000000        0.0000000000000000     
   1.4062500000000000       0.59375000000000000        0.0000000000000000     
   1.4375000000000000       0.59375000000000000        0.0000000000000000     
   1.4687500000000000       0.59375000000000000        0.0000000000000000     
   1.5000000000000000       0.59375000000000000        0.0000000000000000     
   1.3750000000000000       0.62500000000000000        0.0000000000000000     
   1.4062500000000000       0.62500000000000000        0.0000000000000000     
   1.4375000000000000       0.62500000000000000        0.0000000000000000     
   1.4687500000000000       0.62500000000000000        0.0000000000000000     
   1.5000000000000000       0.62500000000000000        0.0000000000000000     
  0.50000000000000000       0.62500000000000000        0.0000000000000000     
  0.53125000000000000       0.62500000000000000        0.0000000000000000     
  0.56250000000000000       0.62500000000000000        0.0000000000000000     
  0.59375000000000000       0.62500000000000000        0.0000000000000000     
  0.62500000000000000       0.62500000000000000        0.0000000000000000     
  0.50000000000000000       0.65625000000000000        0.0000000000000000     
  0.53125000000000000       0.65625000000000000        0.0000000000000000     
  0.56250000000000000       0.65625000000000000        0.0000000000000000     
  0.59375000000000000       0.65625000000000000        0.0000000000000000     
  0.62500000000000000       0.65625000000000000        0.0000000000000000     
  0.50000000000000000       0.68750000000000000        0.0000000000000000     
  0.53125000000000000       0.68750000000000000        0.0000000000000000     
  0.56250000000000000       0.68750000000000000        0.0000000000000000     
  0.59375000000000000       0.68750000000000000        0.0000000000000000     
  0.62500000000000000       0.68750000000000000        0.0000000000000000     
  0.50000000000000000       0.71875000000000000        0.0000000000000000     
  0.53125000000000000       0.71875000000000000        0.0000000000000000     
  0.56250000000000000       0.71875000000000000        0.0000000000000000     
  0.59375000000000000       0.71875000000000000        0.0000000000000000     
  0.62500000000000000       0.71875000000000000        0.0000000000000000     
  0.50000000000000000       0.75000000000000000        0.0000000000000000     
  0.53125000000000000       0.75000000000000000        0.0000000000000000     
  0.56250000000000000       0.75000000000000000        0.0000000000000000     
  0.59375000000000000       0.75000000000000000        0.0000000000000000     
  0.62500000000000000       0.75000000000000000        0.0000000000000000     
  0.62500000000000000       0.62500000000000000        0.0000000000000000     
  0.65625000000000000       0.62500000000000000        0.0000000000000000     
  0.68750000000000000       0.62500000000000000        0.0000000000000000     
  0.71875000000000000       0.62500000000000000        0.0000000000000000     
  0.75000000000000000       0.62500000000000000        0.0000000000000000     
  0.62500000000000000       0.65625000000000000        0.0000000000000000     
  0.65625000000000000       0.65625000000000000        0.0000000000000000     
  0.68750000000000000       0.65625000000000000        0.0000000000000000     
  0.71875000000000000       0.65625000000000000        0.0000000000000000     
  0.75000000000000000       0.65625000000000000        0.0000000000000000     
  0.62500000000000000       0.68750000000000000        0.0000000000000000     
  0.65625000000000000       0.68750000000000000        0.0000000000000000     
  0.68750000000000000       0.68750000000000000        0.0000000000000000     
  0.71875000000000000       0.68750000000000000        0.0000000000000000     
  0.75000000000000000       0.68750000000000000        0.0000000000000000     
  0.62500000000000000       0.71875000000000000        0.0000000000000000     
  0.65625000000000000       0.71875000000000000        0.0000000000000000     
  0.68750000000000000       0.71875000000000000        0.0000000000000000     
  0.71875000000000000       0.71875000000000000        0.0000000000000000     
  0.75000000000000000       0.71875000000000000        0.0000000000000000     
  0.62500000000000000       0.75000000000000000        0.0000000000000000     
  0.65625000000000000       0.75000000000000000        0.0000000000000000     
  0.68750000000000000       0.75000000000000000        0.0000000000000000     
  0.71875000000000000       0.75000000000000000        0.0000000000000000     
  0.75000000000000000       0.75000000000000000        0.0000000000000000     
  0.75000000000000000       0.62500000000000000        0.0000000000000000     
  0.78125000000000000       0.62500000000000000        0.0000000000000000     
  0.81250000000000000       0.62500000000000000        0.0000000000000000     
  0.84375000000000000       0.62500000000000000        0.0000000000000000     
  0.87500000000000000       0.62500000000000000        0.0000000000000000     
  0.75000000000000000       0.65625000000000000        0.0000000000000000     
  0.78125000000000000       0.65625000000000000        0.0000000000000000     
  0.81250000000000000       0.65625000000000000        0.0000000000000000     
  0.84375000000000000       0.65625000000000000        0.0000000000000000     
  0.87500000000000000       0.65625000000000000        0.0000000000000000     
  0.75000000000000000       0.68750000000000000        0.0000000000000000     
  0.78125000000000000       0.68750000000000000        0.0000000000000000     
  0.81250000000000000       0.68750000000000000        0.0000000000000000     
  0.84375000000000000       0.68750000000000000        0.0000000000000000     
  0.87500000000000000       0.68750000000000000        0.0000000000000000     
  0.75000000000000000       0.71875000000000000        0.0000000000000000     
  0.78125000000000000       0.71875000000000000        0.0000000000000000     
  0.81250000000000000       0.71875000000000000        0.0000000000000000     
  0.84375000000000000       0.71875000000000000        0.0000000000000000     
  0.87500000000000000       0.71875000000000000        0.0000000000000000     
  0.75000000000000000       0.75000000000000000        0.0000000000000000     
  0.78125000000000000       0.75000000000000000        0.0000000000000000     
  0.81250000000000000       0.75000000000000000        0.0000000000000000     
  0.84375000000000000       0.75000000000000000        0.0000000000000000     
  0.87500000000000000       0.75000000000000000        0.0000000000000000     
  0.87500000000000000       0.62500000000000000        0.0000000000000000     
  0.90625000000000000       0.62500000000000000        0.0000000000000000     
  0.93750000000000000       0.62500000000000000        0.0000000000000000     
  0.96875000000000000       0.62500000000000000        0.0000000000000000     
   1.0000000000000000       0.62500000000000000        0.0000000000000000     
  0.87500000000000000       0.65625000000000000        0.0000000000000000     
  0.90625000000000000       0.65625000000000000        0.0000000000000000     
  0.93750000000000000       0.65625000000000000        0.0000000000000000     
  0.96875000000000000       0.65625000000000000        0.0000000000000000     
   1.0000000000000000       0.65625000000000000        0.0000000000000000     
  0.87500000000000000       0.68750000000000000        0.0000000000000000     
  0.90625000000000000       0.68750000000000000        0.0000000000000000     
  0.93750000000000000       0.68750000000000000        0.0000000000000000     
  0.96875000000000000       0.68750000000000000        0.0000000000000000     
   1.0000000000000000       0.68750000000000000        0.0000000000000000     
  0.87500000000000000       0.71875000000000000        0.0000000000000000     
  0.90625000000000000       0.71875000000000000        0.0000000000000000     
  0.93750000000000000       0.71875000000000000        0.0000000000000000     
  0.96875000000000000       0.71875000000000000        0.0000000000000000     
   1.0000000000000000       0.71875000000000000        0.0000000000000000     
  0.87500000000000000       0.75000000000000000        0.0000000000000000     
  0.90625000000000000       0.75000000000000000        0.0000000000000000     
  0.93750000000000000       0.75000000000000000        0.0000000000000000     
  0.96875000000000000       0.75000000000000000        0.0000000000000000     
   1.0000000000000000       0.75000000000000000        0.0000000000000000     
   1.0000000000000000       0.62500000000000000        0.0000000000000000     
   1.0312500000000000       0.62500000000000000        0.0000000000000000     
   1.0625000000000000       0.62500000000000000        0.0000000000000000     
   1.0937500000000000       0.62500000000000000        0.0000000000000000     
   1.1250000000000000       0.62500000000000000        0.0000000000000000     
   1.0000000000000000       0.65625000000000000        0.0000000000000000     
   1.0312500000000000       0.65625000000000000        0.0000000000000000     
   1.0625000000000000       0.65625000000000000        0.0000000000000000     
   1.0937500000000000       0.65625000000000000        0.0000000000000000     
   1.1250000000000000       0.65625000000000000        0.0000000000000000     
   1.0000000000000000       0.68750000000000000        0.0000000000000000     
   1.0312500000000000       0.68750000000000000        0.0000000000000000     
   1.0625000000000000       0.68750000000000000        0.0000000000000000     
   1.0937500000000000       0.68750000000000000        0.0000000000000000     
   1.1250000000000000       0.68750000000000000        0.0000000000000000     
   1.0000000000000000       0.71875000000000000        0.0000000000000000     
   1.0312500000000000       0.71875000000000000        0.0000000000000000     
   1.0625000000000000       0.71875000000000000        0.0000000000000000     
   1.0937500000000000       0.71875000000000000        0.0000000000000000     
   1.1250000000000000       0.71875000000000000        0.0000000000000000     
   1.0000000000000000       0.75000000000000000        0.0000000000000000     
   1.0312500000000000       0.75000000000000000        0.0000000000000000     
   1.0625000000000000       0.75000000000000000        0.0000000000000000     
   1.0937500000000000       0.75000000000000000        0.0000000000000000     
   1.1250000000000000       0.75000000000000000        0.0000000000000000     
   1.1250000000000000       0.62500000000000000        0.0000000000000000     
   1.1562500000000000       0.62500000000000000        0.0000000000000000     
   1.1875000000000000       0.62500000000000000        0.0000000000000000     
   1.2187500000000000       0.62500000000000000        0.0000000000000000     
   1.2500000000000000       0.62500000000000000        0.0000000000000000     
   1.1250000000000000       0.65625000000000000        0.0000000000000000     
   1.1562500000000000       0.65625000000000000        0.0000000000000000     
   1.1875000000000000       0.65625000000000000        0.0000000000000000     
   1.2187500000000000       0.65625000000000000        0.0000000000000000     
   1.2500000000000000       0.65625000000000000        0.0000000000000000     
   1.1250000000000000       0.68750000000000000        0.0000000000000000     
   1.1562500000000000       0.68750000000000000        0.0000000000000000     
   1.1875000000000000       0.68750000000000000        0.0000000000000000     
   1.2187500000000000       0.68750000000000000        0.0000000000000000     
   1.2500000000000000       0.68750000000000000        0.0000000000000000     
   1.1250000000000000       0.71875000000000000        0.0000000000000000     
   1.1562500000000000       0.71875000000000000        0.0000000000000000     
   1.1875000000000000       0.71875000000000000        0.0000000000000000     
   1.2187500000000000       0.71875000000000000        0.0000000000000000     
   1.2500000000000000       0.71875000000000000        0.0000000000000000     
   1.1250000000000000       0.75000000000000000        0.0000000000000000     
   1.1562500000000000       0.75000000000000000        0.0000000000000000     
   1.1875000000000000       0.75000000000000000        0.0000000000000000     
   1.2187500000000000       0.75000000000000000        0.0000000000000000     
   1.2500000000000000       0.75000000000000000        0.0000000000000000     
   1.2500000000000000       0.62500000000000000        0.0000000000000000     
   1.2812500000000000       0.62500000000000000        0.0000000000000000     
   1.3125000000000000       0.62500000000000000        0.0000000000000000     
   1.3437500000000000       0.62500000000000000        0.0000000000000000     
   1.3750000000000000       0.62500000000000000        0.0000000000000000     
   1.2500000000000000       0.65625000000000000        0.0000000000000000     
   1.2812500000000000       0.65625000000000000        0.0000000000000000     
   1.3125000000000000       0.65625000000000000        0.0000000000000000     
   1.3437500000000000       0.65625000000000000        0.0000000000000000     
   1.3750000000000000       0.65625000000000000        0.0000000000000000     
   1.2500000000000000       0.68750000000000000        0.0000000000000000     
   1.2812500000000000       0.68750000000000000        0.0000000000000000     
   1.3125000000000000       0.68750000000000000        0.0000000000000000     
   1.3437500000000000       0.68750000000000000        0.0000000000000000     
   1.3750000000000000       0.68750000000000000        0.0000000000000000     
   1.2500000000000000       0.71875000000000000        0.0000000000000000     
   1.2812500000000000       0.71875000000000000        0.0000000000000000     
   1.3125000000000000       0.71875000000000000        0.0000000000000000     
   1.3437500000000000       0.71875000000000000        0.0000000000000000     
   1.3750000000000000       0.71875000000000000        0.0000000000000000     
   1.2500000000000000       0.75000000000000000        0.0000000000000000     
   1.2812500000000000       0.75000000000000000        0.0000000000000000     
   1.3125000000000000       0.75000000000000000        0.0000000000000000     
   1.3437500000000000       0.75000000000000000        0.0000000000000000     
   1.3750000000000000       0.75000000000000000        0.0000000000000000     
   1.3750000000000000       0.62500000000000000        0.0000000000000000     
   1.4062500000000000       0.62500000000000000        0.0000000000000000     
   1.4375000000000000       0.62500000000000000        0.0000000000000000     
   1.4687500000000000       0.62500000000000000        0.0000000000000000     
   1.5000000000000000       0.62500000000000000        0.0000000000000000     
   1.3750000000000000       0.65625000000000000        0.0000000000000000     
   1.4062500000000000       0.65625000000000000        0.0000000000000000     
   1.4375000000000000       0.65625000000000000        0.0000000000000000     
   1.4687500000000000       0.65625000000000000        0.0000000000000000     
   1.5000000000000000       0.65625000000000000        0.0000000000000000     
   1.3750000000000000       0.68750000000000000        0.0000000000000000     
   1.4062500000000000       0.68750000000000000        0.0000000000000000     
   1.4375000000000000       0.68750000000000000        0.0000000000000000     
   1.4687500000000000       0.68750000000000000        0.0000000000000000     
   1.5000000000000000       0.68750000000000000        0.0000000000000000     
   1.3750000000000000       0.71875000000000000        0.0000000000000000     
   1.4062500000000000       0.71875000000000000        0.0000000000000000     
   1.4375000000000000       0.71875000000000000        0.0000000000000000     
   1.4687500000000000       0.71875000000000000        0.0000000000000000     
   1.5000000000000000       0.71875000000000000        0.0000000000000000     
   1.3750000000000000       0.75000000000000000        0.0000000000000000     
   1.4062500000000000       0.75000000000000000        0.0000000000000000     
   1.4375000000000000       0.75000000000000000        0.0000000000000000     
   1.4687500000000000       0.75000000000000000        0.0000000000000000     
   1.5000000000000000       0.75000000000000000        0.0000000000000000     
  0.50000000000000000       0.75000000000000000        0.0000000000000000     
  0.53125000000000000       0.75000000000000000        0.0000000000000000     
  0.56250000000000000       0.75000000000000000        0.0000000000000000     
  0.59375000000000000       0.75000000000000000        0.0000000000000000     
  0.62500000000000000       0.75000000000000000        0.0000000000000000     
  0.50000000000000000       0.78125000000000000        0.0000000000000000     
  0.53125000000000000       0.78125000000000000        0.0000000000000000     
  0.56250000000000000       0.78125000000000000        0.0000000000000000     
  0.59375000000000000       0.78125000000000000        0.0000000000000000     
  0.62500000000000000       0.78125000000000000        0.0000000000000000     
  0.50000000000000000       0.81250000000000000        0.0000000000000000     
  0.53125000000000000       0.81250000000000000        0.0000000000000000     
  0.56250000000000000       0.81250000000000000        0.0000000000000000     
  0.59375000000000000       0.81250000000000000        0.0000000000000000     
  0.62500000000000000       0.81250000000000000        0.0000000000000000     
  0.50000000000000000       0.84375000000000000        0.0000000000000000     
  0.53125000000000000       0.84375000000000000        0.0000000000000000     
  0.56250000000000000       0.84375000000000000        0.0000000000000000     
  0.59375000000000000       0.84375000000000000        0.0000000000000000     
  0.62500000000000000       0.84375000000000000        0.0000000000000000     
  0.50000000000000000       0.87500000000000000        0.0000000000000000     
  0.53125000000000000       0.87500000000000000        0.0000000000000000     
  0.56250000000000000       0.87500000000000000        0.0000000000000000     
  0.59375000000000000       0.87500000000000000        0.0000000000000000     
  0.62500000000000000       0.87500000000000000        0.0000000000000000     
  0.62500000000000000       0.75000000000000000        0.0000000000000000     
  0.65625000000000000       0.75000000000000000        0.0000000000000000     
  0.68750000000000000       0.75000000000000000        0.0000000000000000     
  0.71875000000000000       0.75000000000000000        0.0000000000000000     
  0.75000000000000000       0.75000000000000000        0.0000000000000000     
  0.62500000000000000       0.78125000000000000        0.0000000000000000     
  0.65625000000000000       0.78125000000000000        0.0000000000000000     
  0.68750000000000000       0.78125000000000000        0.0000000000000000     
  0.71875000000000000       0.78125000000000000        0.0000000000000000     
  0.75000000000000000       0.78125000000000000        0.0000000000000000     
  0.62500000000000000       0.81250000000000000        0.0000000000000000     
  0.65625000000000000       0.81250000000000000        0.0000000000000000     
  0.68750000000000000       0.81250000000000000        0.0000000000000000     
  0.71875000000000000       0.81250000000000000        0.0000000000000000     
  0.75000000000000000       0.81250000000000000        0.0000000000000000     
  0.62500000000000000       0.84375000000000000        0.0000000000000000     
  0.65625000000000000       0.84375000000000000        0.0000000000000000     
  0.68750000000000000       0.84375000000000000        0.0000000000000000     
  0.71875000000000000       0.84375000000000000        0.0000000000000000     
  0.75000000000000000       0.84375000000000000        0.0000000000000000     
  0.62500000000000000       0.87500000000000000        0.0000000000000000     
  0.65625000000000000       0.87500000000000000        0.0000000000000000     
  0.68750000000000000       0.87500000000000000        0.0000000000000000     
  0.71875000000000000       0.87500000000000000        0.0000000000000000     
  0.75000000000000000       0.87500000000000000        0.0000000000000000     
  0.75000000000000000       0.75000000000000000        0.0000000000000000     
  0.78125000000000000       0.75000000000000000        0.0000000000000000     
  0.81250000000000000       0.75000000000000000        0.0000000000000000     
  0.84375000000000000       0.75000000000000000        0.0000000000000000     
  0.87500000000000000       0.75000000000000000        0.0000000000000000     
  0.75000000000000000       0.78125000000000000        0.0000000000000000     
  0.78125000000000000       0.78125000000000000        0.0000000000000000     
  0.81250000000000000       0.78125000000000000        0.0000000000000000     
  0.84375000000000000       0.78125000000000000        0.0000000000000000     
  0.87500000000000000       0.78125000000000000        0.0000000000000000     
  0.75000000000000000       0.81250000000000000        0.0000000000000000     
  0.78125000000000000       0.81250000000000000        0.0000000000000000     
  0.81250000000000000       0.81250000000000000        0.0000000000000000     
  0.84375000000000000       0.81250000000000000        0.0000000000000000     
  0.87500000000000000       0.81250000000000000        0.0000000000000000     
  0.75000000000000000       0.84375000000000000        0.0000000000000000     
  0.78125000000000000       0.84375000000000000        0.0000000000000000     
  0.81250000000000000       0.84375000000000000        0.0000000000000000     
  0.84375000000000000       0.84375000000000000        0.0000000000000000     
  0.87500000000000000       0.84375000000000000        0.0000000000000000     
  0.75000000000000000       0.87500000000000000        0.0000000000000000     
  0.78125000000000000       0.87500000000000000        0.0000000000000000     
  0.81250000000000000       0.87500000000000000        0.0000000000000000     
  0.84375000000000000       0.87500000000000000        0.0000000000000000     
  0.87500000000000000       0.87500000000000000        0.0000000000000000     
  0.87500000000000000       0.75000000000000000        0.0000000000000000     
  0.90625000000000000       0.75000000000000000        0.0000000000000000     
  0.93750000000000000       0.75000000000000000        0.0000000000000000     
  0.96875000000000000       0.75000000000000000        0.0000000000000000     
   1.0000000000000000       0.75000000000000000        0.0000000000000000     
  0.87500000000000000       0.78125000000000000        0.0000000000000000     
  0.90625000000000000       0.78125000000000000        0.0000000000000000     
  0.93750000000000000       0.78125000000000000        0.0000000000000000     
  0.96875000000000000       0.78125000000000000        0.0000000000000000     
   1.0000000000000000       0.78125000000000000        0.0000000000000000     
  0.87500000000000000       0.81250000000000000        0.0000000000000000     
  0.90625000000000000       0.81250000000000000        0.0000000000000000     
  0.93750000000000000       0.81250000000000000        0.0000000000000000     
  0.96875000000000000       0.81250000000000000        0.0000000000000000     
   1.0000000000000000       0.81250000000000000        0.0000000000000000     
  0.87500000000000000       0.84375000000000000        0.0000000000000000     
  0.90625000000000000       0.84375000000000000        0.0000000000000000     
  0.93750000000000000       0.84375000000000000        0.0000000000000000     
  0.96875000000000000       0.84375000000000000        0.0000000000000000     
   1.0000000000000000       0.84375000000000000        0.0000000000000000     
  0.87500000000000000       0.87500000000000000        0.0000000000000000     
  0.90625000000000000       0.87500000000000000        0.0000000000000000     
  0.93750000000000000       0.87500000000000000        0.0000000000000000     
  0.96875000000000000       0.87500000000000000        0.0000000000000000     
   1.0000000000000000       0.87500000000000000        0.0000000000000000     
   1.0000000000000000       0.75000000000000000        0.0000000000000000     
   1.0312500000000000       0.75000000000000000        0.0000000000000000     
   1.0625000000000000       0.75000000000000000        0.0000000000000000     
   1.0937500000000000       0.75000000000000000        0.0000000000000000     
   1.1250000000000000       0.75000000000000000        0.0000000000000000     
   1.0000000000000000       0.78125000000000000        0.0000000000000000     
   1.0312500000000000       0.78125000000000000        0.0000000000000000     
   1.0625000000000000       0.78125000000000000        0.0000000000000000     
   1.0937500000000000       0.78125000000000000        0.0000000000000000     
   1.1250000000000000       0.78125000000000000        0.0000000000000000     
   1.0000000000000000       0.81250000000000000        0.0000000000000000     
   1.0312500000000000       0.81250000000000000        0.0000000000000000     
   1.0625000000000000       0.81250000000000000        0.0000000000000000     
   1.0937500000000000       0.81250000000000000        0.0000000000000000     
   1.1250000000000000       0.81250000000000000        0.0000000000000000     
   1.0000000000000000       0.84375000000000000        0.0000000000000000     
   1.0312500000000000       0.84375000000000000        0.0000000000000000     
   1.0625000000000000       0.84375000000000000        0.0000000000000000     
   1.0937500000000000       0.84375000000000000        0.0000000000000000     
   1.1250000000000000       0.84375000000000000        0.0000000000000000     
   1.0000000000000000       0.87500000000000000        0.0000000000000000     
   1.0312500000000000       0.87500000000000000        0.0000000000000000     
   1.0625000000000000       0.87500000000000000        0.0000000000000000     
   1.0937500000000000       0.87500000000000000        0.0000000000000000     
   1.1250000000000000       0.87500000000000000        0.0000000000000000     
   1.1250000000000000       0.75000000000000000        0.0000000000000000     
   1.1562500000000000       0.75000000000000000        0.0000000000000000     
   1.1875000000000000       0.75000000000000000        0.0000000000000000     
   1.2187500000000000       0.75000000000000000        0.0000000000000000     
   1.2500000000000000       0.75000000000000000        0.0000000000000000     
   1.1250000000000000       0.78125000000000000        0.0000000000000000     
   1.1562500000000000       0.78125000000000000        0.0000000000000000     
   1.1875000000000000       0.78125000000000000        0.0000000000000000     
   1.2187500000000000       0.78125000000000000        0.0000000000000000     
   1.2500000000000000       0.78125000000000000        0.0000000000000000     
   1.1250000000000000       0.81250000000000000        0.0000000000000000     
   1.1562500000000000       0.81250000000000000        0.0000000000000000     
   1.1875000000000000       0.81250000000000000        0.0000000000000000     
   1.2187500000000000       0.81250000000000000        0.0000000000000000     
   1.2500000000000000       0.81250000000000000        0.0000000000000000     
   1.1250000000000000       0.84375000000000000        0.0000000000000000     
   1.1562500000000000       0.84375000000000000        0.0000000000000000     
   1.1875000000000000       0.84375000000000000        0.0000000000000000     
   1.2187500000000000       0.84375000000000000        0.0000000000000000     
   1.2500000000000000       0.84375000000000000        0.0000000000000000     
   1.1250000000000000       0.87500000000000000        0.0000000000000000     
   1.1562500000000000       0.87500000000000000        0.0000000000000000     
   1.1875000000000000       0.87500000000000000        0.0000000000000000     
   1.2187500000000000       0.87500000000000000        0.0000000000000000     
   1.2500000000000000       0.87500000000000000        0.0000000000000000     
   1.2500000000000000       0.75000000000000000        0.0000000000000000     
   1.2812500000000000       0.75000000000000000        0.0000000000000000     
   1.3125000000000000       0.75000000000000000        0.0000000000000000     
   1.3437500000000000       0.75000000000000000        0.0000000000000000     
   1.3750000000000000       0.75000000000000000        0.0000000000000000     
   1.2500000000000000       0.78125000000000000        0.0000000000000000     
   1.2812500000000000       0.78125000000000000        0.0000000000000000     
   1.3125000000000000       0.78125000000000000        0.0000000000000000     
   1.3437500000000000       0.78125000000000000        0.0000000000000000     
   1.3750000000000000       0.78125000000000000        0.0000000000000000     
   1.2500000000000000       0.81250000000000000        0.0000000000000000     
   1.2812500000000000       0.81250000000000000        0.0000000000000000     
   1.3125000000000000       0.81250000000000000        0.0000000000000000     
   1.3437500000000000       0.81250000000000000        0.0000000000000000     
   1.3750000000000000       0.81250000000000000        0.0000000000000000     
   1.2500000000000000       0.84375000000000000        0.0000000000000000     
   1.2812500000000000       0.84375000000000000        0.0000000000000000     
   1.3125000000000000       0.84375000000000000        0.0000000000000000     
   1.3437500000000000       0.84375000000000000        0.0000000000000000     
   1.3750000000000000       0.84375000000000000        0.0000000000000000     
   1.2500000000000000       0.87500000000000000        0.0000000000000000     
   1.2812500000000000       0.87500000000000000        0.0000000000000000     
   1.3125000000000000       0.87500000000000000        0.0000000000000000     
   1.3437500000000000       0.87500000000000000        0.0000000000000000     
   1.3750000000000000       0.87500000000000000        0.0000000000000000     
   1.3750000000000000       0.75000000000000000        0.0000000000000000     
   1.4062500000000000       0.75000000000000000        0.0000000000000000     
   1.4375000000000000       0.75000000000000000        0.0000000000000000     
   1.4687500000000000       0.75000000000000000        0.0000000000000000     
   1.5000000000000000       0.75000000000000000        0.0000000000000000     
   1.3750000000000000       0.78125000000000000        0.0000000000000000     
   1.4062500000000000       0.78125000000000000        0.0000000000000000     
   1.4375000000000000       0.78125000000000000        0.0000000000000000     
   1.4687500000000000       0.78125000000000000        0.0000000000000000     
   1.5000000000000000       0.78125000000000000        0.0000000000000000     
   1.3750000000000000       0.81250000000000000        0.0000000000000000     
   1.4062500000000000       0.81250000000000000        0.0000000000000000     
   1.4375000000000000       0.81250000000000000        0.0000000000000000     
   1.4687500000000000       0.81250000000000000        0.0000000000000000     
   1.5000000000000000       0.81250000000000000        0.0000000000000000     
   1.3750000000000000       0.84375000000000000        0.0000000000000000     
   1.4062500000000000       0.84375000000000000        0.0000000000000000     
   1.4375000000000000       0.84375000000000000        0.0000000000000000     
   1.4687500000000000       0.84375000000000000        0.0000000000000000     
   1.5000000000000000       0.84375000000000000        0.0000000000000000     
   1.3750000000000000       0.87500000000000000        0.0000000000000000     
   1.4062500000000000       0.87500000000000000        0.0000000000000000     
   1.4375000000000000       0.87500000000000000        0.0000000000000000     
   1.4687500000000000       0.87500000000000000        0.0000000000000000     
   1.5000000000000000       0.87500000000000000        0.0000000000000000     
  0.50000000000000000       0.87500000000000000        0.0000000000000000     
  0.53125000000000000       0.87500000000000000        0.0000000000000000     
  0.56250000000000000       0.87500000000000000        0.0000000000000000     
  0.59375000000000000       0.87500000000000000        0.0000000000000000     
  0.62500000000000000       0.87500000000000000        0.0000000000000000     
  0.50000000000000000       0.90625000000000000        0.0000000000000000     
  0.53125000000000000       0.90625000000000000        0.0000000000000000     
  0.56250000000000000       0.90625000000000000        0.0000000000000000     
  0.59375000000000000       0.90625000000000000        0.0000000000000000     
  0.62500000000000000       0.90625000000000000        0.0000000000000000     
  0.50000000000000000       0.93750000000000000        0.0000000000000000     
  0.53125000000000000       0.93750000000000000        0.0000000000000000     
  0.56250000000000000       0.93750000000000000        0.0000000000000000     
  0.59375000000000000       0.93750000000000000        0.0000000000000000     
  0.62500000000000000       0.93750000000000000        0.0000000000000000     
  0.50000000000000000       0.96875000000000000        0.0000000000000000     
  0.53125000000000000       0.96875000000000000        0.0000000000000000     
  0.56250000000000000       0.96875000000000000        0.0000000000000000     
  0.59375000000000000       0.96875000000000000        0.0000000000000000     
  0.62500000000000000       0.96875000000000000        0.0000000000000000     
  0.50000000000000000        1.0000000000000000        0.0000000000000000     
  0.53125000000000000        1.0000000000000000        0.0000000000000000     
  0.56250000000000000        1.0000000000000000        0.0000000000000000     
  0.59375000000000000        1.0000000000000000        0.0000000000000000     
  0.62500000000000000        1.0000000000000000        0.0000000000000000     
  0.62500000000000000       0.87500000000000000        0.0000000000000000     
  0.65625000000000000       0.87500000000000000        0.0000000000000000     
  0.68750000000000000       0.87500000000000000        0.0000000000000000     
  0.71875000000000000       0.87500000000000000        0.0000000000000000     
  0.75000000000000000       0.87500000000000000        0.0000000000000000     
  0.62500000000000000       0.90625000000000000        0.0000000000000000     
  0.65625000000000000       0.90625000000000000        0.0000000000000000     
  0.68750000000000000       0.90625000000000000        0.0000000000000000     
  0.71875000000000000       0.90625000000000000        0.0000000000000000     
  0.75000000000000000       0.90625000000000000        0.0000000000000000     
  0.62500000000000000       0.93750000000000000        0.0000000000000000     
  0.65625000000000000       0.93750000000000000        0.0000000000000000     
  0.68750000000000000       0.93750000000000000        0.0000000000000000     
  0.71875000000000000       0.93750000000000000        0.0000000000000000     
  0.75000000000000000       0.93750000000000000        0.0000000000000000     
  0.62500000000000000       0.96875000000000000        0.0000000000000000     
  0.65625000000000000       0.96875000000000000        0.0000000000000000     
  0.68750000000000000       0.96875000000000000        0.0000000000000000     
  0.71875000000000000       0.96875000000000000        0.0000000000000000     
  0.75000000000000000       0.96875000000000000        0.0000000000000000     
  0.62500000000000000        1.0000000000000000        0.0000000000000000     
  0.65625000000000000        1.0000000000000000        0.0000000000000000     
  0.68750000000000000        1.0000000000000000        0.0000000000000000     
  0.71875000000000000        1.0000000000000000        0.0000000000000000     
  0.75000000000000000        1.0000000000000000        0.0000000000000000     
  0.75000000000000000       0.87500000000000000        0.0000000000000000     
  0.78125000000000000       0.87500000000000000        0.0000000000000000     
  0.81250000000000000       0.87500000000000000        0.0000000000000000     
  0.84375000000000000       0.87500000000000000        0.0000000000000000     
  0.87500000000000000       0.87500000000000000        0.0000000000000000     
  0.75000000000000000       0.90625000000000000        0.0000000000000000     
  0.78125000000000000       0.90625000000000000        0.0000000000000000     
  0.81250000000000000       0.90625000000000000        0.0000000000000000     
  0.84375000000000000       0.90625000000000000        0.0000000000000000     
  0.87500000000000000       0.90625000000000000        0.0000000000000000     
  0.75000000000000000       0.93750000000000000        0.0000000000000000     
  0.78125000000000000       0.93750000000000000        0.0000000000000000     
  0.81250000000000000       0.93750000000000000        0.0000000000000000     
  0.84375000000000000       0.93750000000000000        0.0000000000000000     
  0.87500000000000000       0.93750000000000000        0.0000000000000000     
  0.75000000000000000       0.96875000000000000        0.0000000000000000     
  0.78125000000000000       0.96875000000000000        0.0000000000000000     
  0.81250000000000000       0.96875000000000000        0.0000000000000000     
  0.84375000000000000       0.96875000000000000        0.0000000000000000     
  0.87500000000000000       0.96875000000000000        0.0000000000000000     
  0.75000000000000000        1.0000000000000000        0.0000000000000000     
  0.78125000000000000        1.0000000000000000        0.0000000000000000     
  0.81250000000000000        1.0000000000000000        0.0000000000000000     
  0.84375000000000000        1.0000000000000000        0.0000000000000000     
  0.87500000000000000        1.0000000000000000        0.0000000000000000     
  0.87500000000000000       0.87500000000000000        0.0000000000000000     
  0.90625000000000000       0.87500000000000000        0.0000000000000000     
  0.93750000000000000       0.87500000000000000        0.0000000000000000     
  0.96875000000000000       0.87500000000000000        0.0000000000000000     
   1.0000000000000000       0.87500000000000000        0.0000000000000000     
  0.87500000000000000       0.90625000000000000        0.0000000000000000     
  0.90625000000000000       0.90625000000000000        0.0000000000000000     
  0.93750000000000000       0.90625000000000000        0.0000000000000000     
  0.96875000000000000       0.90625000000000000        0.0000000000000000     
   1.0000000000000000       0.90625000000000000        0.0000000000000000     
  0.87500000000000000       0.93750000000000000        0.0000000000000000     
  0.90625000000000000       0.93750000000000000        0.0000000000000000     
  0.93750000000000000       0.93750000000000000        0.0000000000000000     
  0.96875000000000000       0.93750000000000000        0.0000000000000000     
   1.0000000000000000       0.93750000000000000        0.0000000000000000     
  0.87500000000000000       0.96875000000000000        0.0000000000000000     
  0.90625000000000000       0.96875000000000000        0.0000000000000000     
  0.93750000000000000       0.96875000000000000        0.0000000000000000     
  0.96875000000000000       0.96875000000000000        0.0000000000000000     
   1.0000000000000000       0.96875000000000000        0.0000000000000000     
  0.87500000000000000        1.0000000000000000        0.0000000000000000     
  0.90625000000000000        1.0000000000000000        0.0000000000000000     
  0.93750000000000000        1.0000000000000000        0.0000000000000000     
  0.96875000000000000        1.0000000000000000        0.0000000000000000     
   1.0000000000000000        1.0000000000000000        0.0000000000000000     
   1.0000000000000000       0.87500000000000000        0.0000000000000000     
   1.0312500000000000       0.87500000000000000        0.0000000000000000     
   1.0625000000000000       0.87500000000000000        0.0000000000000000     
   1.0937500000000000       0.87500000000000000        0.0000000000000000     
   1.1250000000000000       0.87500000000000000        0.0000000000000000     
   1.0000000000000000       0.90625000000000000        0.0000000000000000     
   1.0312500000000000       0.90625000000000000        0.0000000000000000     
   1.0625000000000000       0.90625000000000000        0.0000000000000000     
   1.0937500000000000       0.90625000000000000        0.0000000000000000     
   1.1250000000000000       0.90625000000000000        0.0000000000000000     
   1.0000000000000000       0.93750000000000000        0.0000000000000000     
   1.0312500000000000       0.93750000000000000        0.0000000000000000     
   1.0625000000000000       0.93750000000000000        0.0000000000000000     
   1.0937500000000000       0.93750000000000000        0.0000000000000000     
   1.1250000000000000       0.93750000000000000        0.0000000000000000     
   1.0000000000000000       0.96875000000000000        0.0000000000000000     
   1.0312500000000000       0.96875000000000000        0.0000000000000000     
   1.0625000000000000       0.96875000000000000        0.0000000000000000     
   1.0937500000000000       0.96875000000000000        0.0000000000000000     
   1.1250000000000000       0.96875000000000000        0.0000000000000000     
   1.0000000000000000        1.0000000000000000        0.0000000000000000     
   1.0312500000000000        1.0000000000000000        0.0000000000000000     
   1.0625000000000000        1.0000000000000000        0.0000000000000000     
   1.0937500000000000        1.0000000000000000        0.0000000000000000     
   1.1250000000000000        1.0000000000000000        0.0000000000000000     
   1.1250000000000000       0.87500000000000000        0.0000000000000000     
   1.1562500000000000       0.87500000000000000        0.0000000000000000     
   1.1875000000000000       0.87500000000000000        0.0000000000000000     
   1.2187500000000000       0.87500000000000000        0.0000000000000000     
   1.2500000000000000       0.87500000000000000        0.0000000000000000     
   1.1250000000000000       0.90625000000000000        0.0000000000000000     
   1.1562500000000000       0.90625000000000000        0.0000000000000000     
   1.1875000000000000       0.90625000000000000        0.0000000000000000     
   1.2187500000000000       0.90625000000000000        0.0000000000000000     
   1.2500000000000000       0.90625000000000000        0.0000000000000000     
   1.1250000000000000       0.93750000000000000        0.0000000000000000     
   1.1562500000000000       0.93750000000000000        0.0000000000000000     
   1.1875000000000000       0.93750000000000000        0.0000000000000000     
   1.2187500000000000       0.93750000000000000        0.0000000000000000     
   1.2500000000000000       0.93750000000000000        0.0000000000000000     
   1.1250000000000000       0.96875000000000000        0.0000000000000000     
   1.1562500000000000       0.96875000000000000        0.0000000000000000     
   1.1875000000000000       0.96875000000000000        0.0000000000000000     
   1.2187500000000000       0.96875000000000000        0.0000000000000000     
   1.2500000000000000       0.96875000000000000        0.0000000000000000     
   1.1250000000000000        1.0000000000000000        0.0000000000000000     
   1.1562500000000000        1.0000000000000000        0.0000000000000000     
   1.1875000000000000        1.0000000000000000        0.0000000000000000     
   1.2187500000000000        1.0000000000000000        0.0000000000000000     
   1.2500000000000000        1.0000000000000000        0.0000000000000000     
   1.2500000000000000       0.87500000000000000        0.0000000000000000     
   1.2812500000000000       0.87500000000000000        0.0000000000000000     
   1.3125000000000000       0.87500000000000000        0.0000000000000000     
   1.3437500000000000       0.87500000000000000        0.0000000000000000     
   1.3750000000000000       0.87500000000000000        0.0000000000000000     
   1.2500000000000000       0.90625000000000000        0.0000000000000000     
   1.2812500000000000       0.90625000000000000        0.0000000000000000     
   1.3125000000000000       0.90625000000000000        0.0000000000000000     
   1.3437500000000000       0.90625000000000000        0.0000000000000000     
   1.3750000000000000       0.90625000000000000        0.0000000000000000     
   1.2500000000000000       0.93750000000000000        0.0000000000000000     
   1.2812500000000000       0.93750000000000000        0.0000000000000000     
   1.3125000000000000       0.93750000000000000        0.0000000000000000     
   1.3437500000000000       0.93750000000000000        0.0000000000000000     
   1.3750000000000000       0.93750000000000000        0.0000000000000000     
   1.2500000000000000       0.96875000000000000        0.0000000000000000     
   1.2812500000000000       0.96875000000000000        0.0000000000000000     
   1.3125000000000000       0.96875000000000000        0.0000000000000000     
   1.3437500000000000       0.96875000000000000        0.0000000000000000     
   1.3750000000000000       0.96875000000000000        0.0000000000000000     
   1.2500000000000000        1.0000000000000000        0.0000000000000000     
   1.2812500000000000        1.0000000000000000        0.0000000000000000     
   1.3125000000000000        1.0000000000000000        0.0000000000000000     
   1.3437500000000000        1.0000000000000000        0.0000000000000000     
   1.3750000000000000        1.0000000000000000        0.0000000000000000     
   1.3750000000000000       0.87500000000000000        0.0000000000000000     
   1.4062500000000000       0.87500000000000000        0.0000000000000000     
   1.4375000000000000       0.87500000000000000        0.0000000000000000     
   1.4687500000000000       0.87500000000000000        0.0000000000000000     
   1.5000000000000000       0.87500000000000000        0.0000000000000000     
   1.3750000000000000       0.90625000000000000        0.0000000000000000     
   1.4062500000000000       0.90625000000000000        0.0000000000000000     
   1.4375000000000000       0.90625000000000000        0.0000000000000000     
   1.4687500000000000       0.90625000000000000        0.0000000000000000     
   1.5000000000000000       0.90625000000000000        0.0000000000000000     
   1.3750000000000000       0.93750000000000000        0.0000000000000000     
   1.4062500000000000       0.93750000000000000        0.0000000000000000     
   1.4375000000000000       0.93750000000000000        0.0000000000000000     
   1.4687500000000000       0.93750000000000000        0.0000000000000000     
   1.5000000000000000       0.93750000000000000        0.0000000000000000     
   1.3750000000000000       0.96875000000000000        0.0000000000000000     
   1.4062500000000000       0.96875000000000000        0.0000000000000000     
   1.4375000000000000       0.96875000000000000        0.0000000000000000     
   1.4687500000000000       0.96875000000000000        0.0000000000000000     
   1.5000000000000000       0.96875000000000000        0.0000000000000000     
   1.3750000000000000        1.0000000000000000        0.0000000000000000     
   1.4062500000000000        1.0000000000000000        0.0000000000000000     
   1.4375000000000000        1.0000000000000000        0.0000000000000000     
   1.4687500000000000        1.0000000000000000        0.0000000000000000     
   1.5000000000000000        1.0000000000000000        0.0000000000000000     
 </DataArray>
 </Points>
 <Cells>
 <DataArray  type="Int32"  Name="connectivity"  format="ascii">
           0           1           6           5
           1           2           7           6
           2           3           8           7
           3           4           9           8
           5           6          11          10
           6           7          12          11
           7           8          13          12
           8           9          14          13
          10          11          16          15
          11          12          17          16
          12          13          18          17
          13          14          19          18
          15          16          21          20
          16          17          22          21
          17          18          23          22
          18          19          24          23
          25          26          31          30
          26          27          32          31
          27          28          33          32
          28          29          34          33
          30          31          36          35
          31          32          37          36
          32          33          38          37
          33          34          39          38
          35          36          41          40
          36          37          42          41
          37          38          43          42
          38          39          44          43
          40          41          46          45
          41          42          47          46
          42          43          48          47
          43          44          49          48
          50          51          56          55
          51          52          57          56
          52          53          58          57
          53          54          59          58
          55          56          61          60
          56          57          62          61
          57          58          63          62
          58          59          64          63
          60          61          66          65
          61          62          67          66
          62          63          68          67
          63          64          69          68
          65          66          71          70
          66          67          72          71
          67          68          73          72
          68          69          74          73
          75          76          81          80
          76          77          82          81
          77          78          83          82
          78          79          84          83
          80          81          86          85
          81          82          87          86
          82          83          88          87
          83          84          89          88
          85          86          91          90
          86          87          92          91
          87          88          93          92
          88          89          94          93
          90          91          96          95
          91          92          97          96
          92          93          98          97
          93          94          99          98
         100         101         106         105
         101         102         107         106
         102         103         108         107
         103         104         109         108
         105         106         111         110
         106         107         112         111
         107         108         113         112
         108         109         114         113
         110         111         116         115
         111         112         117         116
         112         113         118         117
         113         114         119         118
         115         116         121         120
         116         117         122         121
         117         118         123         122
         118         119         124         123
         125         126         131         130
         126         127         132         131
         127         128         133         132
         128         129         134         133
         130         131         136         135
         131         132         137         136
         132         133         138         137
         133         134         139         138
         135         136         141         140
         136         137         142         141
         137         138         143         142
         138         139         144         143
         140         141         146         145
         141         142         147         146
         142         143         148         147
         143         144         149         148
         150         151         156         155
         151         152         157         156
         152         153         158         157
         153         154         159         158
         155         156         161         160
         156         157         162         161
         157         158         163         162
         158         159         164         163
         160         161         166         165
         161         162         167         166
         162         163         168         167
         163         164         169         168
         165         166         171         170
         166         167         172         171
         167         168         173         172
         168         169         174         173
         175         176         181         180
         176         177         182         181
         177         178         183         182
         178         179         184         183
         180         181         186         185
         181         182         187         186
         182         183         188         187
         183         184         189         188
         185         186         191         190
         186         187         192         191
         187         188         193         192
         188         189         194         193
         190         191         196         195
         191         192         197         196
         192         193         198         197
         193         194         199         198
         200         201         206         205
         201         202         207         206
         202         203         208         207
         203         204         209         208
         205         206         211         210
         206         207         212         211
         207         208         213         212
         208         209         214         213
         210         211         216         215
         211         212         217         216
         212         213         218         217
         213         214         219         218
         215         216         221         220
         216         217         222         221
         217         218         223         222
         218         219         224         223
         225         226         231         230
         226         227         232         231
         227         228         233         232
         228         229         234         233
         230         231         236         235
         231         232         237         236
         232         233         238         237
         233         234         239         238
         235         236         241         240
         236         237         242         241
         237         238         243         242
         238         239         244         243
         240         241         246         245
         241         242         247         246
         242         243         248         247
         243         244         249         248
         250         251         256         255
         251         252         257         256
         252         253         258         257
         253         254         259         258
         255         256         261         260
         256         257         262         261
         257         258         263         262
         258         259         264         263
         260         261         266         265
         261         262         267         266
         262         263         268         267
         263         264         269         268
         265         266         271         270
         266         267         272         271
         267         268         273         272
         268         269         274         273
         275         276         281         280
         276         277         282         281
         277         278         283         282
         278         279         284         283
         280         281         286         285
         281         282         287         286
         282         283         288         287
         283         284         289         288
         285         286         291         290
         286         287         292         291
         287         288         293         292
         288         289         294         293
         290         291         296         295
         291         292         297         296
         292         293         298         297
         293         294         299         298
         300         301         306         305
         301         302         307         306
         302         303         308         307
         303         304         309         308
         305         306         311         310
         306         307         312         311
         307         308         313         312
         308         309         314         313
         310         311         316         315
         311         312         317         316
         312         313         318         317
         313         314         319         318
         315         316         321         320
         316         317         322         321
         317         318         323         322
         318         319         324         323
         325         326         331         330
         326         327         332         331
         327         328         333         332
         328         329         334         333
         330         331         336         335
         331         332         337         336
         332         333         338         337
         333         334         339         338
         335         336         341         340
         336         337         342         341
         337         338         343         342
         338         339         344         343
         340         341         346         345
         341         342         347         346
         342         343         348         347
         343         344         349         348
         350         351         356         355
         351         352         357         356
         352         353         358         357
         353         354         359         358
         355         356         361         360
         356         357         362         361
         357         358         363         362
         358         359         364         363
         360         361         366         365
         361         362         367         366
         362         363         368         367
         363         364         369         368
         365         366         371         370
         366         367         372         371
         367         368         373         372
         368         369         374         373
         375         376         381         380
         376         377         382         381
         377         378         383         382
         378         379         384         383
         380         381         386         385
         381         382         387         386
         382         383         388         387
         383         384         389         388
         385         386         391         390
         386         387         392         391
         387         388         393         392
         388         389         394         393
         390         391         396         395
         391         392         397         396
         392         393         398         397
         393         394         399         398
         400         401         406         405
         401         402         407         406
         402         403         408         407
         403         404         409         408
         405         406         411         410
         406         407         412         411
         407         408         413         412
         408         409         414         413
         410         411         416         415
         411         412         417         416
         412         413         418         417
         413         414         419         418
         415         416         421         420
         416         417         422         421
         417         418         423         422
         418         419         424         423
         425         426         431         430
         426         427         432         431
         427         428         433         432
         428         429         434         433
         430         431         436         435
         431         432         437         436
         432         433         438         437
         433         434         439         438
         435         436         441         440
         436         437         442         441
         437         438         443         442
         438         439         444         443
         440         441         446         445
         441         442         447         446
         442         443         448         447
         443         444         449         448
         450         451         456         455
         451         452         457         456
         452         453         458         457
         453         454         459         458
         455         456         461         460
         456         457         462         461
         457         458         463         462
         458         459         464         463
         460         461         466         465
         461         462         467         466
         462         463         468         467
         463         464         469         468
         465         466         471         470
         466         467         472         471
         467         468         473         472
         468         469         474         473
         475         476         481         480
         476         477         482         481
         477         478         483         482
         478         479         484         483
         480         481         486         485
         481         482         487         486
         482         483         488         487
         483         484         489         488
         485         486         491         490
         486         487         492         491
         487         488         493         492
         488         489         494         493
         490         491         496         495
         491         492         497         496
         492         493         498         497
         493         494         499         498
         500         501         506         505
         501         502         507         506
         502         503         508         507
         503         504         509         508
         505         506         511         510
         506         507         512         511
         507         508         513         512
         508         509         514         513
         510         511         516         515
         511         512         517         516
         512         513         518         517
         513         514         519         518
         515         516         521         520
         516         517         522         521
         517         518         523         522
         518         519         524         523
         525         526         531         530
         526         527         532         531
         527         528         533         532
         528         529         534         533
         530         531         536         535
         531         532         537         536
         532         533         538         537
         533         534         539         538
         535         536         541         540
         536         537         542         541
         537         538         543         542
         538         539         544         543
         540         541         546         545
         541         542         547         546
         542         543         548         547
         543         544         549         548
         550         551         556         555
         551         552         557         556
         552         553         558         557
         553         554         559         558
         555         556         561         560
         556         557         562         561
         557         558         563         562
         558         559         564         563
         560         561         566         565
         561         562         567         566
         562         563         568         567
         563         564         569         568
         565         566         571         570
         566         567         572         571
         567         568         573         572
         568         569         574         573
         575         576         581         580
         576         577         582         581
         577         578         583         582
         578         579         584         583
         580         581         586         585
         581         582         587         586
         582         583         588         587
         583         584         589         588
         585         586         591         590
         586         587         592         591
         587         588         593         592
         588         589         594         593
         590         591         596         595
         591         592         597         596
         592         593         598         597
         593         594         599         598
         600         601         606         605
         601         602         607         606
         602         603         608         607
         603         604         609         608
         605         606         611         610
         606         607         612         611
         607         608         613         612
         608         609         614         613
         610         611         616         615
         611         612         617         616
         612         613         618         617
         613         614         619         618
         615         616         621         620
         616         617         622         621
         617         618         623         622
         618         619         624         623
         625         626         631         630
         626         627         632         631
         627         628         633         632
         628         629         634         633
         630         631         636         635
         631         632         637         636
         632         633         638         637
         633         634         639         638
         635         636         641         640
         636         637         642         641
         637         638         643         642
         638         639         644         643
         640         641         646         645
         641         642         647         646
         642         643         648         647
         643         644         649         648
         650         651         656         655
         651         652         657         656
         652         653         658         657
         653         654         659         658
         655         656         661         660
         656         657         662         661
         657         658         663         662
         658         659         664         663
         660         661         666         665
         661         662         667         666
         662         663         668         667
         663         664         669         668
         665         666         671         670
         666         667         672         671
         667         668         673         672
         668         669         674         673
         675         676         681         680
         676         677         682         681
         677         678         683         682
         678         679         684         683
         680         681         686         685
         681         682         687         686
         682         683         688         687
         683         684         689         688
         685         686         691         690
         686         687         692         691
         687         688         693         692
         688         689         694         693
         690         691         696         695
         691         692         697         696
         692         693         698         697
         693         694         699         698
         700         701         706         705
         701         702         707         706
         702         703         708         707
         703         704         709         708
         705         706         711         710
         706         707         712         711
         707         708         713         712
         708         709         714         713
         710         711         716         715
         711         712         717         716
         712         713         718         717
         713         714         719         718
         715         716         721         720
         716         717         722         721
         717         718         723         722
         718         719         724         723
         725         726         731         730
         726         727         732         731
         727         728         733         732
         728         729         734         733
         730         731         736         735
         731         732         737         736
         732         733         738         737
         733         734         739         738
         735         736         741         740
         736         737         742         741
         737         738         743         742
         738         739         744         743
         740         741         746         745
         741         742         747         746
         742         743         748         747
         743         744         749         748
         750         751         756         755
         751         752         757         756
         752         753         758         757
         753         754         759         758
         755         756         761         760
         756         757         762         761
         757         758         763         762
         758         759         764         763
         760         761         766         765
         761         762         767         766
         762         763         768         767
         763         764         769         768
         765         766         771         770
         766         767         772         771
         767         768         773         772
         768         769         774         773
         775         776         781         780
         776         777         782         781
         777         778         783         782
         778         779         784         783
         780         781         786         785
         781         782         787         786
         782         783         788         787
         783         784         789         788
         785         786         791         790
         786         787         792         791
         787         788         793         792
         788         789         794         793
         790         791         796         795
         791         792         797         796
         792         793         798         797
         793         794         799         798
         800         801         806         805
         801         802         807         806
         802         803         808         807
         803         804         809         808
         805         806         811         810
         806         807         812         811
         807         808         813         812
         808         809         814         813
         810         811         816         815
         811         812         817         816
         812         813         818         817
         813         814         819         818
         815         816         821         820
         816         817         822         821
         817         818         823         822
         818         819         824         823
         825         826         831         830
         826         827         832         831
         827         828         833         832
         828         829         834         833
         830         831         836         835
         831         832         837         836
         832         833         838         837
         833         834         839         838
         835         836         841         840
         836         837         842         841
         837         838         843         842
         838         839         844         843
         840         841         846         845
         841         842         847         846
         842         843         848         847
         843         844         849         848
         850         851         856         855
         851         852         857         856
         852         853         858         857
         853         854         859         858
         855         856         861         860
         856         857         862         861
         857         858         863         862
         858         859         864         863
         860         861         866         865
         861         862         867         866
         862         863         868         867
         863         864         869         868
         865         866         871         870
         866         867         872         871
         867         868         873         872
         868         869         874         873
         875         876         881         880
         876         877         882         881
         877         878         883         882
         878         879         884         883
         880         881         886         885
         881         882         887         886
         882         883         888         887
         883         884         889         888
         885         886         891         890
         886         887         892         891
         887         888         893         892
         888         889         894         893
         890         891         896         895
         891         892         897         896
         892         893         898         897
         893         894         899         898
         900         901         906         905
         901         902         907         906
         902         903         908         907
         903         904         909         908
         905         906         911         910
         906         907         912         911
         907         908         913         912
         908         909         914         913
         910         911         916         915
         911         912         917         916
         912         913         918         917
         913         914         919         918
         915         916         921         920
         916         917         922         921
         917         918         923         922
         918         919         924         923
         925         926         931         930
         926         927         932         931
         927         928         933         932
         928         929         934         933
         930         931         936         935
         931         932         937         936
         932         933         938         937
         933         934         939         938
         935         936         941         940
         936         937         942         941
         937         938         943         942
         938         939         944         943
         940         941         946         945
         941         942         947         946
         942         943         948         947
         943         944         949         948
         950         951         956         955
         951         952         957         956
         952         953         958         957
         953         954         959         958
         955         956         961         960
         956         957         962         961
         957         958         963         962
         958         959         964         963
         960         961         966         965
         961         962         967         966
         962         963         968         967
         963         964         969         968
         965         966         971         970
         966         967         972         971
         967         968         973         972
         968         969         974         973
         975         976         981         980
         976         977         982         981
         977         978         983         982
         978         979         984         983
         980         981         986         985
         981         982         987         986
         982         983         988         987
         983         984         989         988
         985         986         991         990
         986         987         992         991
         987         988         993         992
         988         989         994         993
         990         991         996         995
         991         992         997         996
         992         993         998         997
         993         994         999         998
        1000        1001        1006        1005
        1001        1002        1007        1006
        1002        1003        1008        1007
        1003        1004        1009        1008
        1005        1006        1011        1010
        1006        1007        1012        1011
        1007        1008        1013        1012
        1008        1009        1014        1013
        1010        1011        1016        1015
        1011        1012        1017        1016
        1012        1013        1018        1017
        1013        1014        1019        1018
        1015        1016        1021        1020
        1016        1017        1022        1021
        1017        1018        1023        1022
        1018        1019        1024        1023
        1025        1026        1031        1030
        1026        1027        1032        1031
        1027        1028        1033        1032
        1028        1029        1034        1033
        1030        1031        1036        1035
        1031        1032        1037        1036
        1032        1033        1038        1037
        1033        1034        1039        1038
        1035        1036        1041        1040
        1036        1037        1042        1041
        1037        1038        1043        1042
        1038        1039        1044        1043
        1040        1041        1046        1045
        1041        1042        1047        1046
        1042        1043        1048        1047
        1043        1044        1049        1048
        1050        1051        1056        1055
        1051        1052        1057        1056
        1052        1053        1058        1057
        1053        1054        1059        1058
        1055        1056        1061        1060
        1056        1057        1062        1061
        1057        1058        1063        1062
        1058        1059        1064        1063
        1060        1061        1066        1065
        1061        1062        1067        1066
        1062        1063        1068        1067
        1063        1064        1069        1068
        1065        1066        1071        1070
        1066        1067        1072        1071
        1067        1068        1073        1072
        1068        1069        1074        1073
        1075        1076        1081        1080
        1076        1077        1082        1081
        1077        1078        1083        1082
        1078        1079        1084        1083
        1080        1081        1086        1085
        1081        1082        1087        1086
        1082        1083        1088        1087
        1083        1084        1089        1088
        1085        1086        1091        1090
        1086        1087        1092        1091
        1087        1088        1093        1092
        1088        1089        1094        1093
        1090        1091        1096        1095
        1091        1092        1097        1096
        1092        1093        1098        1097
        1093        1094        1099        1098
        1100        1101        1106        1105
        1101        1102        1107        1106
        1102        1103        1108        1107
        1103        1104        1109        1108
        1105        1106        1111        1110
        1106        1107        1112        1111
        1107        1108        1113        1112
        1108        1109        1114        1113
        1110        1111        1116        1115
        1111        1112        1117        1116
        1112        1113        1118        1117
        1113        1114        1119        1118
        1115        1116        1121        1120
        1116        1117        1122        1121
        1117        1118        1123        1122
        1118        1119        1124        1123
        1125        1126        1131        1130
        1126        1127        1132        1131
        1127        1128        1133        1132
        1128        1129        1134        1133
        1130        1131        1136        1135
        1131        1132        1137        1136
        1132        1133        1138        1137
        1133        1134        1139        1138
        1135        1136        1141        1140
        1136        1137        1142        1141
        1137        1138        1143        1142
        1138        1139        1144        1143
        1140        1141        1146        1145
        1141        1142        1147        1146
        1142        1143        1148        1147
        1143        1144        1149        1148
        1150        1151        1156        1155
        1151        1152        1157        1156
        1152        1153        1158        1157
        1153        1154        1159        1158
        1155        1156        1161        1160
        1156        1157        1162        1161
        1157        1158        1163        1162
        1158        1159        1164        1163
        1160        1161        1166        1165
        1161        1162        1167        1166
        1162        1163        1168        1167
        1163        1164        1169        1168
        1165        1166        1171        1170
        1166        1167        1172        1171
        1167        1168        1173        1172
        1168        1169        1174        1173
        1175        1176        1181        1180
        1176        1177        1182        1181
        1177        1178        1183        1182
        1178        1179        1184        1183
        1180        1181        1186        1185
        1181        1182        1187        1186
        1182        1183        1188        1187
        1183        1184        1189        1188
        1185        1186        1191        1190
        1186        1187        1192        1191
        1187        1188        1193        1192
        1188        1189        1194        1193
        1190        1191        1196        1195
        1191        1192        1197        1196
        1192        1193        1198        1197
        1193        1194        1199        1198
        1200        1201        1206        1205
        1201        1202        1207        1206
        1202        1203        1208        1207
        1203        1204        1209        1208
        1205        1206        1211        1210
        1206        1207        1212        1211
        1207        1208        1213        1212
        1208        1209        1214        1213
        1210        1211        1216        1215
        1211        1212        1217        1216
        1212        1213        1218        1217
        1213        1214        1219        1218
        1215        1216        1221        1220
        1216        1217        1222        1221
        1217        1218        1223        1222
        1218        1219        1224        1223
        1225        1226        1231        1230
        1226        1227        1232        1231
        1227        1228        1233        1232
        1228        1229        1234        1233
        1230        1231        1236        1235
        1231        1232        1237        1236
        1232        1233        1238        1237
        1233        1234        1239        1238
        1235        1236        1241        1240
        1236        1237        1242        1241
        1237        1238        1243        1242
        1238        1239        1244        1243
        1240        1241        1246        1245
        1241        1242        1247        1246
        1242        1243        1248        1247
        1243        1244        1249        1248
        1250        1251        1256        1255
        1251        1252        1257        1256
        1252        1253        1258        1257
        1253        1254        1259        1258
        1255        1256        1261        1260
        1256        1257        1262        1261
        1257        1258        1263        1262
        1258        1259        1264        1263
        1260        1261        1266        1265
        1261        1262        1267        1266
        1262        1263        1268        1267
        1263        1264        1269        1268
        1265        1266        1271        1270
        1266        1267        1272        1271
        1267        1268        1273        1272
        1268        1269        1274        1273
        1275        1276        1281        1280
        1276        1277        1282        1281
        1277        1278        1283        1282
        1278        1279        1284        1283
        1280        1281        1286        1285
        1281        1282        1287        1286
        1282        1283        1288        1287
        1283        1284        1289        1288
        1285        1286        1291        1290
        1286        1287        1292        1291
        1287        1288        1293        1292
        1288        1289        1294        1293
        1290        1291        1296        1295
        1291        1292        1297        1296
        1292        1293        1298        1297
        1293        1294        1299        1298
        1300        1301        1306        1305
        1301        1302        1307        1306
        1302        1303        1308        1307
        1303        1304        1309        1308
        1305        1306        1311        1310
        1306        1307        1312        1311
        1307        1308        1313        1312
        1308        1309        1314        1313
        1310        1311        1316        1315
        1311        1312        1317        1316
        1312        1313        1318        1317
        1313        1314        1319        1318
        1315        1316        1321        1320
        1316        1317        1322        1321
        1317        1318        1323        1322
        1318        1319        1324        1323
        1325        1326        1331        1330
        1326        1327        1332        1331
        1327        1328        1333        1332
        1328        1329        1334        1333
        1330        1331        1336        1335
        1331        1332        1337        1336
        1332        1333        1338        1337
        1333        1334        1339        1338
        1335        1336        1341        1340
        1336        1337        1342        1341
        1337        1338        1343        1342
        1338        1339        1344        1343
        1340        1341        1346        1345
        1341        1342        1347        1346
        1342        1343        1348        1347
        1343        1344        1349        1348
        1350        1351        1356        1355
        1351        1352        1357        1356
        1352        1353        1358        1357
        1353        1354        1359        1358
        1355        1356        1361        1360
        1356        1357        1362        1361
        1357        1358        1363        1362
        1358        1359        1364        1363
        1360        1361        1366        1365
        1361        1362        1367        1366
        1362        1363        1368        1367
        1363        1364        1369        1368
        1365        1366        1371        1370
        1366        1367        1372        1371
        1367        1368        1373        1372
        1368        1369        1374        1373
        1375        1376        1381        1380
        1376        1377        1382        1381
        1377        1378        1383        1382
        1378        1379        1384        1383
        1380        1381        1386        1385
        1381        1382        1387        1386
        1382        1383        1388        1387
        1383        1384        1389        1388
        1385        1386        1391        1390
        1386        1387        1392        1391
        1387        1388        1393        1392
        1388        1389        1394        1393
        1390        1391        1396        1395
        1391        1392        1397        1396
        1392        1393        1398        1397
        1393        1394        1399        1398
        1400        1401        1406        1405
        1401        1402        1407        1406
        1402        1403        1408        1407
        1403        1404        1409        1408
        1405        1406        1411        1410
        1406        1407        1412        1411
        1407        1408        1413        1412
        1408        1409        1414        1413
        1410        1411        1416        1415
        1411        1412        1417        1416
        1412        1413        1418        1417
        1413        1414        1419        1418
        1415        1416        1421        1420
        1416        1417        1422        1421
        1417        1418        1423        1422
        1418        1419        1424        1423
        1425        1426        1431        1430
        1426        1427        1432        1431
        1427        1428        1433        1432
        1428        1429        1434        1433
        1430        1431        1436        1435
        1431        1432        1437        1436
        1432        1433        1438        1437
        1433        1434        1439        1438
        1435        1436        1441        1440
        1436        1437        1442        1441
        1437        1438        1443        1442
        1438        1439        1444        1443
        1440        1441        1446        1445
        1441        1442        1447        1446
        1442        1443        1448        1447
        1443        1444        1449        1448
        1450        1451        1456        1455
        1451        1452        1457        1456
        1452        1453        1458        1457
        1453        1454        1459        1458
        1455        1456        1461        1460
        1456        1457        1462        1461
        1457        1458        1463        1462
        1458        1459        1464        1463
        1460        1461        1466        1465
        1461        1462        1467        1466
        1462        1463        1468        1467
        1463        1464        1469        1468
        1465        1466        1471        1470
        1466        1467        1472        1471
        1467        1468        1473        1472
        1468        1469        1474        1473
        1475        1476        1481        1480
        1476        1477        1482        1481
        1477        1478        1483        1482
        1478        1479        1484        1483
        1480        1481        1486        1485
        1481        1482        1487        1486
        1482        1483        1488        1487
        1483        1484        1489        1488
        1485        1486        1491        1490
        1486        1487        1492        1491
        1487        1488        1493        1492
        1488        1489        1494        1493
        1490        1491        1496        1495
        1491        1492        1497        1496
        1492        1493        1498        1497
        1493        1494        1499        1498
        1500        1501        1506        1505
        1501        1502        1507        1506
        1502        1503        1508        1507
        1503        1504        1509        1508
        1505        1506        1511        1510
        1506        1507        1512        1511
        1507        1508        1513        1512
        1508        1509        1514        1513
        1510        1511        1516        1515
        1511        1512        1517        1516
        1512        1513        1518        1517
        1513        1514        1519        1518
        1515        1516        1521        1520
        1516        1517        1522        1521
        1517        1518        1523        1522
        1518        1519        1524        1523
        1525        1526        1531        1530
        1526        1527        1532        1531
        1527        1528        1533        1532
        1528        1529        1534        1533
        1530        1531        1536        1535
        1531        1532        1537        1536
        1532        1533        1538        1537
        1533        1534        1539        1538
        1535        1536        1541        1540
        1536        1537        1542        1541
        1537        1538        1543        1542
        1538        1539        1544        1543
        1540        1541        1546        1545
        1541        1542        1547        1546
        1542        1543        1548        1547
        1543        1544        1549        1548
        1550        1551        1556        1555
        1551        1552        1557        1556
        1552        1553        1558        1557
        1553        1554        1559        1558
        1555        1556        1561        1560
        1556        1557        1562        1561
        1557        1558        1563        1562
        1558        1559        1564        1563
        1560        1561        1566        1565
        1561        1562        1567        1566
        1562        1563        1568        1567
        1563        1564        1569        1568
        1565        1566        1571        1570
        1566        1567        1572        1571
        1567        1568        1573        1572
        1568        1569        1574        1573
        1575        1576        1581        1580
        1576        1577        1582        1581
        1577        1578        1583        1582
        1578        1579        1584        1583
        1580        1581        1586        1585
        1581        1582        1587        1586
        1582        1583        1588        1587
        1583        1584        1589        1588
        1585        1586        1591        1590
        1586        1587        1592        1591
        1587        1588        1593        1592
        1588        1589        1594        1593
        1590        1591        1596        1595
        1591        1592        1597        1596
        1592        1593        1598        1597
        1593        1594        1599        1598
 </DataArray>
 <DataArray  type="Int32"  Name="offsets"  format="ascii"> 
           4
           8
          12
          16
          20
          24
          28
          32
          36
          40
          44
          48
          52
          56
          60
          64
          68
          72
          76
          80
          84
          88
          92
          96
         100
         104
         108
         112
         116
         120
         124
         128
         132
         136
         140
         144
         148
         152
         156
         160
         164
         168
         172
         176
         180
         184
         188
         192
         196
         200
         204
         208
         212
         216
         220
         224
         228
         232
         236
         240
         244
         248
         252
         256
         260
         264
         268
         272
         276
         280
         284
         288
         292
         296
         300
         304
         308
         312
         316
         320
         324
         328
         332
         336
         340
         344
         348
         352
         356
         360
         364
         368
         372
         376
         380
         384
         388
         392
         396
         400
         404
         408
         412
         416
         420
         424
         428
         432
         436
         440
         444
         448
         452
         456
         460
         464
         468
         472
         476
         480
         484
         488
         492
         496
         500
         504
         508
         512
         516
         520
         524
         528
         532
         536
         540
         544
         548
         552
         556
         560
         564
         568
         572
         576
         580
         584
         588
         592
         596
         600
         604
         608
         612
         616
         620
         624
         628
         632
         636
         640
         644
         648
         652
         656
         660
         664
         668
         672
         676
         680
         684
         688
         692
         696
         700
         704
         708
         712
         716
         720
         724
         728
         732
         736
         740
         744
         748
         752
         756
         760
         764
         768
         772
         776
         780
         784
         788
         792
         796
         800
         804
         808
         812
         816
         820
         824
         828
         832
         836
         840
         844
         848
         852
         856
         860
         864
         868
         872
         876
         880
         884
         888
         892
         896
         900
         904
         908
         912
         916
         920
         924
         928
         932
         936
         940
         944
         948
         952
         956
         960
         964
         968
         972
         976
         980
         984
         988
         992
         996
        1000
        1004
        1008
        1012
        1016
        1020
        1024
        1028
        1032
        1036
        1040
        1044
        1048
        1052
        1056
        1060
        1064
        1068
        1072
        1076
        1080
        1084
        1088
        1092
        1096
        1100
        1104
        1108
        1112
        1116
        1120
        1124
        1128
        1132
        1136
        1140
        1144
        1148
        1152
        1156
        1160
        1164
        1168
        1172
        1176
        1180
        1184
        1188
        1192
        1196
        1200
        1204
        1208
        1212
        1216
        1220
        1224
        1228
        1232
        1236
        1240
        1244
        1248
        1252
        1256
        1260
        1264
        1268
        1272
        1276
        1280
        1284
        1288
        1292
        1296
        1300
        1304
        1308
        1312
        1316
        1320
        1324
        1328
        1332
        1336
        1340
        1344
        1348
        1352
        1356
        1360
        1364
        1368
        1372
        1376
        1380
        1384
        1388
        1392
        1396
        1400
        1404
        1408
        1412
        1416
        1420
        1424
        1428
        1432
        1436
        1440
        1444
        1448
        1452
        1456
        1460
        1464
        1468
        1472
        1476
        1480
        1484
        1488
        1492
        1496
        1500
        1504
        1508
        1512
        1516
        1520
        1524
        1528
        1532
        1536
        1540
        1544
        1548
        1552
        1556
        1560
        1564
        1568
        1572
        1576
        1580
        1584
        1588
        1592
        1596
        1600
        1604
        1608
        1612
        1616
        1620
        1624
        1628
        1632
        1636
        1640
        1644
        1648
        1652
        1656
        1660
        1664
        1668
        1672
        1676
        1680
        1684
        1688
        1692
        1696
        1700
        1704
        1708
        1712
        1716
        1720
        1724
        1728
        1732
        1736
        1740
        1744
        1748
        1752
        1756
        1760
        1764
        1768
        1772
        1776
        1780
        1784
        1788
        1792
        1796
        1800
        1804
        1808
        1812
        1816
        1820
        1824
        1828
        1832
        1836
        1840
        1844
        1848
        1852
        1856
        1860
        1864
        1868
        1872
        1876
        1880
        1884
        1888
        1892
        1896
        1900
        1904
        1908
        1912
        1916
        1920
        1924
        1928
        1932
        1936
        1940
        1944
        1948
        1952
        1956
        1960
        1964
        1968
        1972
        1976
        1980
        1984
        1988
        1992
        1996
        2000
        2004
        2008
        2012
        2016
        2020
        2024
        2028
        2032
        2036
        2040
        2044
        2048
        2052
        2056
        2060
        2064
        2068
        2072
        2076
        2080
        2084
        2088
        2092
        2096
        2100
        2104
        2108
        2112
        2116
        2120
        2124
        2128
        2132
        2136
        2140
        2144
        2148
        2152
        2156
        2160
        2164
        2168
        2172
        2176
        2180
        2184
        2188
        2192
        2196
        2200
        2204
        2208
        2212
        2216
        2220
        2224
        2228
        2232
        2236
        2240
        2244
        2248
        2252
        2256
        2260
        2264
        2268
        2272
        2276
        2280
        2284
        2288
        2292
        2296
        2300
        2304
        2308
        2312
        2316
        2320
        2324
        2328
        2332
        2336
        2340
        2344
        2348
        2352
        2356
        2360
        2364
        2368
        2372
        2376
        2380
        2384
        2388
        2392
        2396
        2400
        2404
        2408
        2412
        2416
        2420
        2424
        2428
        2432
        2436
        2440
        2444
        2448
        2452
        2456
        2460
        2464
        2468
        2472
        2476
        2480
        2484
        2488
        2492
        2496
        2500
        2504
        2508
        2512
        2516
        2520
        2524
        2528
        2532
        2536
        2540
        2544
        2548
        2552
        2556
        2560
        2564
        2568
        2572
        2576
        2580
        2584
        2588
        2592
        2596
        2600
        2604
        2608
        2612
        2616
        2620
        2624
        2628
        2632
        2636
        2640
        2644
        2648
        2652
        2656
        2660
        2664
        2668
        2672
        2676
        2680
        2684
        2688
        2692
        2696
        2700
        2704
        2708
        2712
        2716
        2720
        2724
        2728
        2732
        2736
        2740
        2744
        2748
        2752
        2756
        2760
        2764
        2768
        2772
        2776
        2780
        2784
        2788
        2792
        2796
        2800
        2804
        2808
        2812
        2816
        2820
        2824
        2828
        2832
        2836
        2840
        2844
        2848
        2852
        2856
        2860
        2864
        2868
        2872
        2876
        2880
        2884
        2888
        2892
        2896
        2900
        2904
        2908
        2912
        2916
        2920
        2924
        2928
        2932
        2936
        2940
        2944
        2948
        2952
        2956
        2960
        2964
        2968
        2972
        2976
        2980
        2984
        2988
        2992
        2996
        3000
        3004
        3008
        3012
        3016
        3020
        3024
        3028
        3032
        3036
        3040
        3044
        3048
        3052
        3056
        3060
        3064
        3068
        3072
        3076
        3080
        3084
        3088
        3092
        3096
        3100
        3104
        3108
        3112
        3116
        3120
        3124
        3128
        3132
        3136
        3140
        3144
        3148
        3152
        3156
        3160
        3164
        3168
        3172
        3176
        3180
        3184
        3188
        3192
        3196
        3200
        3204
        3208
        3212
        3216
        3220
        3224
        3228
        3232
        3236
        3240
        3244
        3248
        3252
        3256
        3260
        3264
        3268
        3272
        3276
        3280
        3284
        3288
        3292
        3296
        3300
        3304
        3308
        3312
        3316
        3320
        3324
        3328
        3332
        3336
        3340
        3344
        3348
        3352
        3356
        3360
        3364
        3368
        3372
        3376
        3380
        3384
        3388
        3392
        3396
        3400
        3404
        3408
        3412
        3416
        3420
        3424
        3428
        3432
        3436
        3440
        3444
        3448
        3452
        3456
        3460
        3464
        3468
        3472
        3476
        3480
        3484
        3488
        3492
        3496
        3500
        3504
        3508
        3512
        3516
        3520
        3524
        3528
        3532
        3536
        3540
        3544
        3548
        3552
        3556
        3560
        3564
        3568
        3572
        3576
        3580
        3584
        3588
        3592
        3596
        3600
        3604
        3608
        3612
        3616
        3620
        3624
        3628
        3632
        3636
        3640
        3644
        3648
        3652
        3656
        3660
        3664
        3668
        3672
        3676
        3680
        3684
        3688
        3692
        3696
        3700
        3704
        3708
        3712
        3716
        3720
        3724
        3728
        3732
        3736
        3740
        3744
        3748
        3752
        3756
        3760
        3764
        3768
        3772
        3776
        3780
        3784
        3788
        3792
        3796
        3800
        3804
        3808
        3812
        3816
        3820
        3824
        3828
        3832
        3836
        3840
        3844
        3848
        3852
        3856
        3860
        3864
        3868
        3872
        3876
        3880
        3884
        3888
        3892
        3896
        3900
        3904
        3908
        3912
        3916
        3920
        3924
        3928
        3932
        3936
        3940
        3944
        3948
        3952
        3956
        3960
        3964
        3968
        3972
        3976
        3980
        3984
        3988
        3992
        3996
        4000
        4004
        4008
        4012
        4016
        4020
        4024
        4028
        4032
        4036
        4040
        4044
        4048
        4052
        4056
        4060
        4064
        4068
        4072
        4076
        4080
        4084
        4088
        4092
        4096
 </DataArray>
 <DataArray  type="UInt8"  Name="types"  format="ascii">
 9
 9
 9
 9
 9
 9
 9
 9
 9
 9
 9
 9
 9
 9
 9
 9
 9
 9
 9
 9
 9
 9
 9
 9
 9
 9
 9
 9
 9
 9
 9
 9
 9
 9
 9
 9
 9
 9
 9
 9
 9
 9
 9
 9
 9
 9
 9
 9
 9
 9
 9
 9
 9
 9
 9
 9
 9
 9
 9
 9
 9
 9
 9
 9
 9
 9
 9
 9
 9
 9
 9
 9
 9
 9
 9
 9
 9
 9
 9
 9
 9
 9
 9
 9
 9
 9
 9
 9
 9
 9
 9
 9
 9
 9
 9
 9
 9
 9
 9
 9
 9
 9
 9
 9
 9
 9
 9
 9
 9
 9
 9
 9
 9
 9
 9
 9
 9
 9
 9
 9
 9
 9
 9
 9
 9
 9
 9
 9
 9
 9
 9
 9
 9
 9
 9
 9
 9
 9
 9
 9
 9
 9
 9
 9
 9
 9
 9
 9
 9
 9
 9
 9
 9
 9
 9
 9
 9
 9
 9
 9
 9
 9
 9
 9
 9
 9
 9
 9
 9
 9
 9
 9
 9
 9
 9
 9
 9
 9
 9
 9
 9
 9
 9
 9
 9
 9
 9
 9
 9
 9
 9
 9
 9
 9
 9
 9
 9
 9
 9
 9
 9
 9
 9
 9
 9
 9
 9
 9
 9
 9
 9
 9
 9
 9
 9
 9
 9
 9
 9
 9
 9
 9
 9
 9
 9
 9
 9
 9
 9
 9
 9
 9
 9
 9
 9
 9
 9
 9
 9
 9
 9
 9
 9
 9
 9
 9
 9
 9
 9
 9
 9
 9
 9
 9
 9
 9
 9
 9
 9
 9
 9
 9
 9
 9
 9
 9
 9
 9
 9
 9
 9
 9
 9
 9
 9
 9
 9
 9
 9
 9
 9
 9
 9
 9
 9
 9
 9
 9
 9
 9
 9
 9
 9
 9
 9
 9
 9
 9
 9
 9
 9
 9
 9
 9
 9
 9
 9
 9
 9
 9
 9
 9
 9
 9
 9
 9
 9
 9
 9
 9
 9
 9
 9
 9
 9
 9
 9
 9
 9
 9
 9
 9
 9
 9
 9
 9
 9
 9
 9
 9
 9
 9
 9
 9
 9
 9
 9
 9
 9
 9
 9
 9
 9
 9
 9
 9
 9
 9
 9
 9
 9
 9
 9
 9
 9
 9
 9
 9
 9
 9
 9
 9
 9
 9
 9
 9
 9
 9
 9
 9
 9
 9
 9
 9
 9
 9
 9
 9
 9
 9
 9
 9
 9
 9
 9
 9
 9
 9
 9
 9
 9
 9
 9
 9
 9
 9
 9
 9
 9
 9
 9
 9
 9
 9
 9
 9
 9
 9
 9
 9
 9
 9
 9
 9
 9
 9
 9
 9
 9
 9
 9
 9
 9
 9
 9
 9
 9
 9
 9
 9
 9
 9
 9
 9
 9
 9
 9
 9
 9
 9
 9
 9
 9
 9
 9
 9
 9
 9
 9
 9
 9
 9
 9
 9
 9
 9
 9
 9
 9
 9
 9
 9
 9
 9
 9
 9
 9
 9
 9
 9
 9
 9
 9
 9
 9
 9
 9
 9
 9
 9
 9
 9
 9
 9
 9
 9
 9
 9
 9
 9
 9
 9
 9
 9
 9
 9
 9
 9
 9
 9
 9
 9
 9
 9
 9
 9
 9
 9
 9
 9
 9
 9
 9
 9
 9
 9
 9
 9
 9
 9
 9
 9
 9
 9
 9
 9
 9
 9
 9
 9
 9
 9
 9
 9
 9
 9
 9
 9
 9
 9
 9
 9
 9
 9
 9
 9
 9
 9
 9
 9
 9
 9
 9
 9
 9
 9
 9
 9
 9
 9
 9
 9
 9
 9
 9
 9
 9
 9
 9
 9
 9
 9
 9
 9
 9
 9
 9
 9
 9
 9
 9
 9
 9
 9
 9
 9
 9
 9
 9
 9
 9
 9
 9
 9
 9
 9
 9
 9
 9
 9
 9
 9
 9
 9
 9
 9
 9
 9
 9
 9
 9
 9
 9
 9
 9
 9
 9
 9
 9
 9
 9
 9
 9
 9
 9
 9
 9
 9
 9
 9
 9
 9
 9
 9
 9
 9
 9
 9
 9
 9
 9
 9
 9
 9
 9
 9
 9
 9
 9
 9
 9
 9
 9
 9
 9
 9
 9
 9
 9
 9
 9
 9
 9
 9
 9
 9
 9
 9
 9
 9
 9
 9
 9
 9
 9
 9
 9
 9
 9
 9
 9
 9
 9
 9
 9
 9
 9
 9
 9
 9
 9
 9
 9
 9
 9
 9
 9
 9
 9
 9
 9
 9
 9
 9
 9
 9
 9
 9
 9
 9
 9
 9
 9
 9
 9
 9
 9
 9
 9
 9
 9
 9
 9
 9
 9
 9
 9
 9
 9
 9
 9
 9
 9
 9
 9
 9
 9
 9
 9
 9
 9
 9
 9
 9
 9
 9
 9
 9
 9
 9
 9
 9
 9
 9
 9
 9
 9
 9
 9
 9
 9
 9
 9
 9
 9
 9
 9
 9
 9
 9
 9
 9
 9
 9
 9
 9
 9
 9
 9
 9
 9
 9
 9
 9
 9
 9
 9
 9
 9
 9
 9
 9
 9
 9
 9
 9
 9
 9
 9
 9
 9
 9
 9
 9
 9
 9
 9
 9
 9
 9
 9
 9
 9
 9
 9
 9
 9
 9
 9
 9
 9
 9
 9
 9
 9
 9
 9
 9
 9
 9
 9
 9
 9
 9
 9
 9
 9
 9
 9
 9
 9
 9
 9
 9
 9
 9
 9
 9
 9
 9
 9
 9
 9
 9
 9
 9
 9
 9
 9
 9
 9
 9
 9
 9
 9
 9
 9
 9
 9
 9
 9
 9
 9
 9
 9
 9
 9
 9
 9
 9
 9
 9
 9
 9
 9
 9
 9
 9
 9
 9
 9
 9
 9
 9
 9
 9
 9
 9
 9
 9
 9
 9
 9
 9
 9
 9
 9
 9
 9
 9
 9
 9
 9
 9
 9
 9
 9
 9
 9
 9
 9
 9
 9
 9
 9
 9
 9
 9
 9
 9
 9
 9
 9
 9
 9
 9
 9
 9
 9
 9
 9
 9
 9
 9
 9
 9
 9
 9
 9
 9
 9
 9
 9
 9
 9
 9
 9
 9
 9
 9
 9
 9
 9
 9
 9
 9
 9
 9
 9
 9
 9
 9
 9
 9
 9
 9
 9
 9
 9
 9
 9
 9
 9
 9
 9
 9
 9
 9
 9
 9
 9
 9
 9
 9
 9
 9
 9
 9
 9
 9
 9
 9
 9
 9
 9
 9
 9
 9
 9
 9
 9
 9
 9
 9
 </DataArray>
 </Cells> 
 <PointData>
 <DataArray  type="Float64" Name="disp" NumberOfComponents="3" format="ascii">
   6.5344339391941036E-002   6.2920807712597601E-002   0.0000000000000000     
   6.8404570765402115E-002   6.8244277426732267E-002   0.0000000000000000     
   7.1363833916118530E-002   7.3765615332260254E-002   0.0000000000000000     
   7.4222128844090296E-002   7.9484821429181549E-002   0.0000000000000000     
   7.6979455549317399E-002   8.5401895717496165E-002   0.0000000000000000     
   6.0096510348807815E-002   6.1820967407336253E-002   0.0000000000000000     
   6.2983068876329429E-002   6.7233557926701590E-002   0.0000000000000000     
   6.5772293454317510E-002   7.2829615925684946E-002   0.0000000000000000     
   6.8464184082772037E-002   7.8609141404286348E-002   0.0000000000000000     
   7.1058740761693051E-002   8.4572134362505796E-002   0.0000000000000000     
   5.5086216214711950E-002   6.0890035833796846E-002   0.0000000000000000     
   5.7791176028020384E-002   6.6360390390257526E-002   0.0000000000000000     
   6.0403453182870756E-002   7.2005922086217630E-002   0.0000000000000000     
   6.2923047679263058E-002   7.7826630921677187E-002   0.0000000000000000     
   6.5349959517197312E-002   8.3822516896636168E-002   0.0000000000000000     
   5.0313456989653435E-002   6.0128012991979368E-002   0.0000000000000000     
   5.2828892220474946E-002   6.5624774817400103E-002   0.0000000000000000     
   5.5257313101778255E-002   7.1294533813858321E-002   0.0000000000000000     
   5.7598719633563347E-002   7.7137289981354079E-002   0.0000000000000000     
   5.9853111815830209E-002   8.3153043319887321E-002   0.0000000000000000     
   4.5778232673632277E-002   5.9534898881883846E-002   0.0000000000000000     
   4.8096217453693177E-002   6.5026711208129293E-002   0.0000000000000000     
   5.0333873211040055E-002   7.0695451108607019E-002   0.0000000000000000     
   5.2491199945672903E-002   7.6541118583316969E-002   0.0000000000000000     
   5.4568197657591737E-002   8.2563713632259228E-002   0.0000000000000000     
   7.6979455549317399E-002   8.5401895717496165E-002   0.0000000000000000     
   7.9643516154659214E-002   9.1497258952456695E-002   0.0000000000000000     
   8.2222012782975071E-002   9.7751331889315701E-002   0.0000000000000000     
   8.4714945434264971E-002  0.10416411452807321        0.0000000000000000     
   8.7122314108528914E-002  0.11073560686872921        0.0000000000000000     
   7.1058740761693051E-002   8.4572134362505796E-002   0.0000000000000000     
   7.3563652606303556E-002   9.0704895024223062E-002   0.0000000000000000     
   7.5986608731826596E-002   9.6993723613317914E-002   0.0000000000000000     
   7.8327609138262200E-002  0.10343862012979038        0.0000000000000000     
   8.0586653825610338E-002  0.11003958457364048        0.0000000000000000     
   6.5349959517197312E-002   8.3822516896636168E-002   0.0000000000000000     
   6.7691766051340210E-002   8.9983697506589674E-002   0.0000000000000000     
   6.9956044636358475E-002   9.6300290247032766E-002   0.0000000000000000     
   7.2142795272252092E-002  0.10277229511796546        0.0000000000000000     
   7.4252017959021074E-002  0.10939971211938773        0.0000000000000000     
   5.9853111815830209E-002   8.3153043319887321E-002   0.0000000000000000     
   6.2027856489769204E-002   8.9333666399556533E-002   0.0000000000000000     
   6.4130320496570678E-002   9.5671031790460243E-002   0.0000000000000000     
   6.6160503836234660E-002  0.10216513949259838        0.0000000000000000     
   6.8118406508761109E-002  0.10881598950597100        0.0000000000000000     
   5.4568197657591737E-002   8.2563713632259228E-002   0.0000000000000000     
   5.6571923921590522E-002   8.8754801703123679E-002   0.0000000000000000     
   5.8509436312463234E-002   9.5105948243600330E-002   0.0000000000000000     
   6.0380734830209892E-002  0.10161715325368918        0.0000000000000000     
   6.2185819474830491E-002  0.10828841673339024        0.0000000000000000     
   8.7122314108528914E-002  0.11073560686872921        0.0000000000000000     
   8.9434696919945156E-002  0.11745279463254081        0.0000000000000000     
   9.1642671982691881E-002  0.12430266354076516        0.0000000000000000     
   9.3746239296769104E-002  0.13128521359340223        0.0000000000000000     
   9.5745398862176825E-002  0.13840044479045205        0.0000000000000000     
   8.0586653825610338E-002  0.11003958457364048        0.0000000000000000     
   8.2755843579771435E-002  0.11678499418426641        0.0000000000000000     
   8.4827279186645899E-002  0.12366322620106639        0.0000000000000000     
   8.6800960646233730E-002  0.13067428062404041        0.0000000000000000     
   8.8676887958534928E-002  0.13781815745318848        0.0000000000000000     
   7.4252017959021074E-002  0.10939971211938773        0.0000000000000000     
   7.6276854310278377E-002  0.11617126473660624        0.0000000000000000     
   7.8210445939637024E-002  0.12307567645492754        0.0000000000000000     
   8.0052792847096960E-002  0.13011294727435160        0.0000000000000000     
   8.1803895032658253E-002  0.13728307719487853        0.0000000000000000     
   6.8118406508761109E-002  0.10881598950597100        0.0000000000000000     
   6.9997729111465998E-002  0.11561160628956034        0.0000000000000000     
   7.1792172241665245E-002  0.12254001430234861        0.0000000000000000     
   7.3501735899358836E-002  0.12960121354433585        0.0000000000000000     
   7.5126420084546772E-002  0.13679520401552206        0.0000000000000000     
   6.2185819474830491E-002  0.10828841673339024        0.0000000000000000     
   6.3918467983334282E-002  0.11510601884312864        0.0000000000000000     
   6.5572458092730559E-002  0.12205623974332962        0.0000000000000000     
   6.7147789803019317E-002  0.12913907943399314        0.0000000000000000     
   6.8644463114200527E-002  0.13635453791511923        0.0000000000000000     
   9.5745398862176825E-002  0.13840044479045205        0.0000000000000000     
   9.7647822368144802E-002  0.14563685471795060        0.0000000000000000     
   9.9461181503902790E-002  0.15298294096193388        0.0000000000000000     
  0.10118547626945074       0.16043870352240183        0.0000000000000000     
  0.10282070666478871       0.16800414239935457        0.0000000000000000     
   8.8676887958534928E-002  0.13781815745318848        0.0000000000000000     
   9.0461954553709395E-002  0.14508323862939809        0.0000000000000000     
   9.2163053861917046E-002  0.15245790609355667        0.0000000000000000     
   9.3780185883157896E-002  0.15994215984566418        0.0000000000000000     
   9.5313350617431916E-002  0.16753599988572071        0.0000000000000000     
   8.1803895032658253E-002  0.13728307719487853        0.0000000000000000     
   8.3469810930389493E-002  0.14457439010321957        0.0000000000000000     
   8.5056598974359438E-002  0.15197520988608607        0.0000000000000000     
   8.6564259164568058E-002  0.15948553654347811        0.0000000000000000     
   8.7992791501015341E-002  0.16710537007539564        0.0000000000000000     
   7.5126420084546772E-002  0.13679520401552206        0.0000000000000000     
   7.6671391498185124E-002  0.14411030913941492        0.0000000000000000     
   7.8141816841229950E-002  0.15153485233952213        0.0000000000000000     
   7.9537696113681236E-002  0.15906883361584362        0.0000000000000000     
   8.0859029315539011E-002  0.16671225296837944        0.0000000000000000     
   6.8644463114200527E-002  0.13635453791511923        0.0000000000000000     
   7.0066696257096273E-002  0.14369099573798427        0.0000000000000000     
   7.1418707462528597E-002  0.15113683345386475        0.0000000000000000     
   7.2700496730497444E-002  0.15869205106276074        0.0000000000000000     
   7.3912064061002897E-002  0.16635664856467211        0.0000000000000000     
  0.10282070666478871       0.16800414239935457        0.0000000000000000     
  0.10436817854151795       0.17566923622901376        0.0000000000000000     
  0.10582919775123971       0.18342396364760122        0.0000000000000000     
  0.10720376429395399       0.19126832465511689        0.0000000000000000     
  0.10849187816966080       0.19920231925156079        0.0000000000000000     
   9.5313350617431916E-002  0.16753599988572071        0.0000000000000000     
   9.6762337573906287E-002  0.17522925161690153        0.0000000000000000     
   9.8126936261748149E-002  0.18301174044238205        0.0000000000000000     
   9.9407146680957514E-002  0.19088346636216230        0.0000000000000000     
  0.10060296883153438       0.19884442937624225        0.0000000000000000     
   8.7992791501015341E-002  0.16710537007539564        0.0000000000000000     
   8.9340875971521017E-002  0.17482452289436240        0.0000000000000000     
   9.0607192563904787E-002  0.18263280741290214        0.0000000000000000     
   9.1791741278166653E-002  0.19053022363101491        0.0000000000000000     
   9.2894522114306599E-002  0.19851677154870057        0.0000000000000000     
   8.0859029315539011E-002  0.16671225296837944        0.0000000000000000     
   8.2103793734362149E-002  0.17445505006139644        0.0000000000000000     
   8.3269966657709596E-002  0.18228716455916155        0.0000000000000000     
   8.4357548085581394E-002  0.19020859646167462        0.0000000000000000     
   8.5366538017977459E-002  0.19821934576893585        0.0000000000000000     
   7.3912064061002897E-002  0.16635664856467211        0.0000000000000000     
   7.5051090862429684E-002  0.17412083311800367        0.0000000000000000     
   7.6115258543162631E-002  0.18197481188116019        0.0000000000000000     
   7.7104567103201710E-002  0.18991858485414165        0.0000000000000000     
   7.8019016542546948E-002  0.19795215203694799        0.0000000000000000     
  0.10849187816966080       0.19920231925156079        0.0000000000000000     
  0.10969927467819302       0.20722188825285287        0.0000000000000000     
  0.11083168911938354       0.21532297247491311        0.0000000000000000     
  0.11188912149323238       0.22350557191774140        0.0000000000000000     
  0.11287157179973951       0.23176968658133779        0.0000000000000000     
  0.10060296883153438       0.19884442937624225        0.0000000000000000     
  0.10172005976986148       0.20688883430313915        0.0000000000000000     
  0.10276407655232153       0.21501088596137030        0.0000000000000000     
  0.10373501917891456       0.22321058435093563        0.0000000000000000     
  0.10463288764964054       0.23148792947183519        0.0000000000000000     
   9.2894522114306599E-002  0.19851677154870057        0.0000000000000000     
   9.3920334535181796E-002  0.20658554561742853        0.0000000000000000     
   9.4873978003649370E-002  0.21472964028866798        0.0000000000000000     
   9.5755452519709378E-002  0.22294905556241901        0.0000000000000000     
   9.6564758083361735E-002  0.23124379143868146        0.0000000000000000     
   8.5366538017977459E-002  0.19821934576893585        0.0000000000000000     
   8.6300098974153999E-002  0.20631202219572106        0.0000000000000000     
   8.7161393473367099E-002  0.21447923545680625        0.0000000000000000     
   8.7950421515616814E-002  0.22272098555219144        0.0000000000000000     
   8.8667183100903102E-002  0.23103727248187655        0.0000000000000000     
   7.8019016542546948E-002  0.19795215203694799        0.0000000000000000     
   7.8859353086778050E-002  0.20606826403801670        0.0000000000000000     
   7.9626322961474677E-002  0.21425967146578501        0.0000000000000000     
   8.0319926166636899E-002  0.22252637432025299        0.0000000000000000     
   8.0940162702264659E-002  0.23086837260142057        0.0000000000000000     
  0.11287157179973951       0.23176968658133779        0.0000000000000000     
  0.11380690416424855       0.24013209531344340        0.0000000000000000     
  0.11472298271210304       0.24860957696179931        0.0000000000000000     
  0.11561980744330301       0.25720213152640548        0.0000000000000000     
  0.11649737835784846       0.26590975900726188        0.0000000000000000     
  0.10463288764964054       0.23148792947183519        0.0000000000000000     
  0.10546260123584186       0.23986637520383167        0.0000000000000000     
  0.10622907920886092       0.24836937542668774        0.0000000000000000     
  0.10693232156869768       0.25699693014040348        0.0000000000000000     
  0.10757232831535217       0.26574903934497884        0.0000000000000000     
   9.6564758083361735E-002  0.23124379143868146        0.0000000000000000     
   9.7292766332545216E-002  0.23964016868774268        0.0000000000000000     
   9.7930348905198555E-002  0.24816450807988991        0.0000000000000000     
   9.8477505801321696E-002  0.25681680961512321        0.0000000000000000     
   9.8934237020914695E-002  0.26559707329344251        0.0000000000000000     
   8.8667183100903102E-002  0.23103727248187655        0.0000000000000000     
   8.9297399454358606E-002  0.23945347576517642        0.0000000000000000     
   8.9826791801115927E-002  0.24799497492140582        0.0000000000000000     
   9.0255360141175064E-002  0.25666176995056461        0.0000000000000000     
   9.0583104474536047E-002  0.26545386085265293        0.0000000000000000     
   8.0940162702264659E-002  0.23086837260142057        0.0000000000000000     
   8.1476500601282031E-002  0.23930629643613299        0.0000000000000000     
   8.1918407896613102E-002  0.24786077595123537        0.0000000000000000     
   8.2265884588257829E-002  0.25653181114672774        0.0000000000000000     
   8.2518930676216240E-002  0.26531940202261006        0.0000000000000000     
  0.11649737835784846       0.26590975900726188        0.0000000000000000     
  0.11729619355556720       0.27489685690423177        0.0000000000000000     
  0.11795675113628708       0.28432782271717832        0.0000000000000000     
  0.11847905110000805       0.29420265644610150        0.0000000000000000     
  0.11886309344673016       0.30452135809100128        0.0000000000000000     
  0.10757232831535217       0.26574903934497884        0.0000000000000000     
  0.10813018306817970       0.27475777289910919        0.0000000000000000     
  0.10858696944653562       0.28415520066148986        0.0000000000000000     
  0.10894268745041993       0.29394132263212097        0.0000000000000000     
  0.10919733707983258       0.30411613881100230        0.0000000000000000     
   9.8934237020914695E-002  0.26559707329344251        0.0000000000000000     
   9.9311563320337762E-002  0.27460358897722820        0.0000000000000000     
   9.9620505455951053E-002  0.28393464652886075        0.0000000000000000     
   9.9861063427754637E-002  0.29359024594833999        0.0000000000000000     
  0.10003323723574847       0.30357038723566598        0.0000000000000000     
   9.0583104474536047E-002  0.26545386085265293        0.0000000000000000     
   9.0840334312041318E-002  0.27443430513858885        0.0000000000000000     
   9.1057359164533364E-002  0.28366616031929076        0.0000000000000000     
   9.1234179032012211E-002  0.29314942639475849        0.0000000000000000     
   9.1370793914477819E-002  0.30288410336499211        0.0000000000000000     
   8.2518930676216240E-002  0.26531940202261006        0.0000000000000000     
   8.2716496043290441E-002  0.27424992138319115        0.0000000000000000     
   8.2897530572282579E-002  0.28334974203278007        0.0000000000000000     
   8.3062034263192627E-002  0.29261886397137654        0.0000000000000000     
   8.3210007116020626E-002  0.30205728719898084        0.0000000000000000     
   4.5778232673632277E-002   5.9534898881883846E-002   0.0000000000000000     
   4.8096217453693177E-002   6.5026711208129293E-002   0.0000000000000000     
   5.0333873211040055E-002   7.0695451108607019E-002   0.0000000000000000     
   5.2491199945672903E-002   7.6541118583316969E-002   0.0000000000000000     
   5.4568197657591737E-002   8.2563713632259228E-002   0.0000000000000000     
   4.1416437071508105E-002   5.9008652176010368E-002   0.0000000000000000     
   4.3535684533748197E-002   6.4489667323234703E-002   0.0000000000000000     
   4.5581510768887050E-002   7.0152748106658253E-002   0.0000000000000000     
   4.7553915776924666E-002   7.5997894526280987E-002   0.0000000000000000     
   4.9452899557861044E-002   8.2025106582102963E-002   0.0000000000000000     
   3.7163963988140564E-002   5.8447231546858998E-002   0.0000000000000000     
   3.9089826266713194E-002   6.3937110923505860E-002   0.0000000000000000     
   4.0948603033550184E-002   6.9610498944206581E-002   0.0000000000000000     
   4.2740294288651552E-002   7.5467395608961221E-002   0.0000000000000000     
   4.4464900032017286E-002   8.1507800917769727E-002   0.0000000000000000     
   3.3020813423529659E-002   5.7850636994429772E-002   0.0000000000000000     
   3.4758642652588163E-002   6.3369042008942764E-002   0.0000000000000000     
   3.6435150005029469E-002   6.9068703621252059E-002   0.0000000000000000     
   3.8050335480853577E-002   7.4949621831357602E-002   0.0000000000000000     
   3.9604199080060472E-002   8.1011796639259420E-002   0.0000000000000000     
   2.8986985377675391E-002   5.7218868518722668E-002   0.0000000000000000     
   3.0542133691373111E-002   6.2785460579545468E-002   0.0000000000000000     
   3.2041151683324887E-002   6.8527362137794631E-002   0.0000000000000000     
   3.3484039353530712E-002   7.4444573193470184E-002   0.0000000000000000     
   3.4870796701990593E-002   8.0537093746572114E-002   0.0000000000000000     
   5.4568197657591737E-002   8.2563713632259228E-002   0.0000000000000000     
   5.6571923921590522E-002   8.8754801703123679E-002   0.0000000000000000     
   5.8509436312463234E-002   9.5105948243600330E-002   0.0000000000000000     
   6.0380734830209892E-002  0.10161715325368918        0.0000000000000000     
   6.2185819474830491E-002  0.10828841673339024        0.0000000000000000     
   4.9452899557861044E-002   8.2025106582102963E-002   0.0000000000000000     
   5.1285159934987008E-002   8.8225050009562614E-002   0.0000000000000000     
   5.3057394731593391E-002   9.4588390544098344E-002   0.0000000000000000     
   5.4769603947680205E-002  0.10111512818571021        0.0000000000000000     
   5.6421787583247437E-002  0.10780526293439815        0.0000000000000000     
   4.4464900032017286E-002   8.1507800917769727E-002   0.0000000000000000     
   4.6128756118141538E-002   8.7722357911144910E-002   0.0000000000000000     
   4.7738198401518439E-002   9.4101709629599586E-002   0.0000000000000000     
   4.9293226882148010E-002  0.10064585607313378        0.0000000000000000     
   5.0793841560030237E-002  0.10735479724174746        0.0000000000000000     
   3.9604199080060472E-002   8.1011796639259420E-002   0.0000000000000000     
   4.1102712471054098E-002   8.7246725407870568E-002   0.0000000000000000     
   4.2551847322238365E-002   9.3645905500104071E-002   0.0000000000000000     
   4.3951603633613306E-002  0.10020933691595994        0.0000000000000000     
   4.5301981405178889E-002  0.10693701965543816        0.0000000000000000     
   3.4870796701990593E-002   8.0537093746572114E-002   0.0000000000000000     
   3.6207028993724702E-002   8.6798152499739586E-002   0.0000000000000000     
   3.7498341493753196E-002   9.3220978155611756E-002   0.0000000000000000     
   3.8744734202076088E-002   9.9805570714188635E-002   0.0000000000000000     
   3.9946207118693372E-002  0.10655193017547022        0.0000000000000000     
   6.2185819474830491E-002  0.10828841673339024        0.0000000000000000     
   6.3918467983334282E-002  0.11510601884312864        0.0000000000000000     
   6.5572458092730559E-002  0.12205623974332962        0.0000000000000000     
   6.7147789803019317E-002  0.12913907943399314        0.0000000000000000     
   6.8644463114200527E-002  0.13635453791511923        0.0000000000000000     
   5.6421787583247437E-002  0.10780526293439815        0.0000000000000000     
   5.8007689659618736E-002  0.11464333726382556        0.0000000000000000     
   5.9521054198117769E-002  0.12161389364765572        0.0000000000000000     
   6.0961881198744516E-002  0.12871693208588866        0.0000000000000000     
   6.2330170661498985E-002  0.13595245257852440        0.0000000000000000     
   5.0793841560030237E-002  0.10735479724174746        0.0000000000000000     
   5.2234012874054866E-002  0.11421239641816530        0.0000000000000000     
   5.3607711263111632E-002  0.12120251688511205        0.0000000000000000     
   5.4914936727200540E-002  0.12832515864258767        0.0000000000000000     
   5.6155689266321598E-002  0.13558032169059217        0.0000000000000000     
   4.5301981405178889E-002  0.10693701965543816        0.0000000000000000     
   4.6597437626642653E-002  0.11381319630614799        0.0000000000000000     
   4.7832429287712155E-002  0.12082210945569863        0.0000000000000000     
   4.9006956388387389E-002  0.12796375910409011        0.0000000000000000     
   5.0121018928668361E-002  0.13523814525132249        0.0000000000000000     
   3.9946207118693372E-002  0.10655193017547022        0.0000000000000000     
   4.1097963917382116E-002  0.11344573692777349        0.0000000000000000     
   4.2195208271919339E-002  0.12047267135941545        0.0000000000000000     
   4.3237940182305062E-002  0.12763273347039603        0.0000000000000000     
   4.4226159648539279E-002  0.13492592326071534        0.0000000000000000     
   6.8644463114200527E-002  0.13635453791511923        0.0000000000000000     
   7.0066696257096273E-002  0.14369099573798427        0.0000000000000000     
   7.1418707462528597E-002  0.15113683345386475        0.0000000000000000     
   7.2700496730497444E-002  0.15869205106276074        0.0000000000000000     
   7.3912064061002897E-002  0.16635664856467211        0.0000000000000000     
   6.2330170661498985E-002  0.13595245257852440        0.0000000000000000     
   6.3629253986225348E-002  0.14330893852344817        0.0000000000000000     
   6.4862462572767746E-002  0.15077487331854519        0.0000000000000000     
   6.6029796421126177E-002  0.15835025696381555        0.0000000000000000     
   6.7131255531300671E-002  0.16603508945925916        0.0000000000000000     
   5.6155689266321598E-002  0.13558032169059217        0.0000000000000000     
   5.7332593464674717E-002  0.14295662612032720        0.0000000000000000     
   5.8448273906459826E-002  0.15044269202299460        0.0000000000000000     
   5.9502730591676913E-002  0.15803851939859420        0.0000000000000000     
   6.0495963520326004E-002  0.16574410824712615        0.0000000000000000     
   5.0121018928668361E-002  0.13523814525132249        0.0000000000000000     
   5.1176714692444399E-002  0.14263405852862143        0.0000000000000000     
   5.2176141463604830E-002  0.15014028956721284        0.0000000000000000     
   5.3119299242149663E-002  0.15775683836709675        0.0000000000000000     
   5.4006188028078883E-002  0.16548370492827308        0.0000000000000000     
   4.4226159648539279E-002  0.13492592326071534        0.0000000000000000     
   4.5161617669534387E-002  0.14234123574833082        0.0000000000000000     
   4.6046065244202759E-002  0.14986766595120010        0.0000000000000000     
   4.6879502372544402E-002  0.15750521386932317        0.0000000000000000     
   4.7661929054559321E-002  0.16525387950269996        0.0000000000000000     
   7.3912064061002897E-002  0.16635664856467211        0.0000000000000000     
   7.5051090862429684E-002  0.17412083311800367        0.0000000000000000     
   7.6115258543162631E-002  0.18197481188116019        0.0000000000000000     
   7.7104567103201710E-002  0.18991858485414165        0.0000000000000000     
   7.8019016542546948E-002  0.19795215203694799        0.0000000000000000     
   6.7131255531300671E-002  0.16603508945925916        0.0000000000000000     
   6.8164434655695091E-002  0.17381975557196722        0.0000000000000000     
   6.9126928546713318E-002  0.18169464006903085        0.0000000000000000     
   7.0018737204355364E-002  0.18965974295045004        0.0000000000000000     
   7.0839860628621243E-002  0.19771506421622484        0.0000000000000000     
   6.0495963520326004E-002  0.16574410824712615        0.0000000000000000     
   6.1425492414129840E-002  0.17354970093107019        0.0000000000000000     
   6.2288836994811192E-002  0.18144553981290623        0.0000000000000000     
   6.3085997262370075E-002  0.18943162489263418        0.0000000000000000     
   6.3816973216806475E-002  0.19750795617025407        0.0000000000000000     
   5.4006188028078883E-002  0.16548370492827308        0.0000000000000000     
   5.4834264137733936E-002  0.17331066919531268        0.0000000000000000     
   5.5600983887456254E-002  0.18122751111278629        0.0000000000000000     
   5.6306347277245830E-002  0.18923423068069400        0.0000000000000000     
   5.6950354307102644E-002  0.19733082789903572        0.0000000000000000     
   4.7661929054559321E-002  0.16525387950269996        0.0000000000000000     
   4.8390749826507387E-002  0.17310266036469457        0.0000000000000000     
   4.9063369224648483E-002  0.18104055396867111        0.0000000000000000     
   4.9679787248982622E-002  0.18906756031462951        0.0000000000000000     
   5.0240003899509778E-002  0.19718367940256981        0.0000000000000000     
   7.8019016542546948E-002  0.19795215203694799        0.0000000000000000     
   7.8859353086778050E-002  0.20606826403801670        0.0000000000000000     
   7.9626322961474677E-002  0.21425967146578501        0.0000000000000000     
   8.0319926166636899E-002  0.22252637432025299        0.0000000000000000     
   8.0940162702264659E-002  0.23086837260142057        0.0000000000000000     
   7.0839860628621243E-002  0.19771506421622484        0.0000000000000000     
   7.1588761379576038E-002  0.20585359870376699        0.0000000000000000     
   7.2263902017284859E-002  0.21406834125048818        0.0000000000000000     
   7.2865282541747747E-002  0.22235929185638839        0.0000000000000000     
   7.3392902952964675E-002  0.23072645052146776        0.0000000000000000     
   6.3816973216806475E-002  0.19750795617025407        0.0000000000000000     
   6.4478988359070039E-002  0.20566735375242340        0.0000000000000000     
   6.5069266190110386E-002  0.21390263774579957        0.0000000000000000     
   6.5587806709927532E-002  0.22221380815038258        0.0000000000000000     
   6.6034609918521461E-002  0.23060086496617246        0.0000000000000000     
   5.6950354307102644E-002  0.19733082789903572        0.0000000000000000     
   5.7530034025260017E-002  0.20550952918398599        0.0000000000000000     
   5.8042415479951211E-002  0.21376256095171922        0.0000000000000000     
   5.8487498671176218E-002  0.22208992320223542        0.0000000000000000     
   5.8865283598935031E-002  0.23049161593553461        0.0000000000000000     
   5.0240003899509778E-002  0.19718367940256981        0.0000000000000000     
   5.0741898378146022E-002  0.20538012499845476        0.0000000000000000     
   5.1183349886807360E-002  0.21364811086824717        0.0000000000000000     
   5.1564358425493811E-002  0.22198763701194701        0.0000000000000000     
   5.1884923994205363E-002  0.23039870342955426        0.0000000000000000     
   8.0940162702264659E-002  0.23086837260142057        0.0000000000000000     
   8.1476500601282031E-002  0.23930629643613299        0.0000000000000000     
   8.1918407896613102E-002  0.24786077595123537        0.0000000000000000     
   8.2265884588257829E-002  0.25653181114672774        0.0000000000000000     
   8.2518930676216240E-002  0.26531940202261006        0.0000000000000000     
   7.3392902952964675E-002  0.23072645052146776        0.0000000000000000     
   7.3843535542946398E-002  0.23918364895728067        0.0000000000000000     
   7.4213952603703698E-002  0.24774471887538169        0.0000000000000000     
   7.4504154135236575E-002  0.25640966027577083        0.0000000000000000     
   7.4714140137545015E-002  0.26517847315844800        0.0000000000000000     
   6.6034609918521461E-002  0.23060086496617246        0.0000000000000000     
   6.6411970048982638E-002  0.23907055158528792        0.0000000000000000     
   6.6722181334401484E-002  0.24762961139984785        0.0000000000000000     
   6.6965243774777986E-002  0.25627804440985219        0.0000000000000000     
   6.7141157370112156E-002  0.26501585061530092        0.0000000000000000     
   5.8865283598935031E-002  0.23049161593553461        0.0000000000000000     
   5.9181804119390752E-002  0.23896700432015475        0.0000000000000000     
   5.9443094088706412E-002  0.24751545352463383        0.0000000000000000     
   5.9649153506882067E-002  0.25613696354897192        0.0000000000000000     
   5.9799982373917683E-002  0.26483153439316887        0.0000000000000000     
   5.1884923994205363E-002  0.23039870342955426        0.0000000000000000     
   5.2153037754170718E-002  0.23887300716188115        0.0000000000000000     
   5.2376690866618537E-002  0.24740224524973964        0.0000000000000000     
   5.2555883331548828E-002  0.25598641769312985        0.0000000000000000     
   5.2690615148961589E-002  0.26462552449205168        0.0000000000000000     
   8.2518930676216240E-002  0.26531940202261006        0.0000000000000000     
   8.2716496043290441E-002  0.27424992138319115        0.0000000000000000     
   8.2897530572282579E-002  0.28334974203278007        0.0000000000000000     
   8.3062034263192627E-002  0.29261886397137654        0.0000000000000000     
   8.3210007116020626E-002  0.30205728719898084        0.0000000000000000     
   7.4714140137545015E-002  0.26517847315844800        0.0000000000000000     
   7.4884842002318680E-002  0.27404474542649743        0.0000000000000000     
   7.5057191121247271E-002  0.28300206498300318        0.0000000000000000     
   7.5231187494330762E-002  0.29205043182796525        0.0000000000000000     
   7.5406831121569179E-002  0.30118984596138376        0.0000000000000000     
   6.7141157370112156E-002  0.26501585061530092        0.0000000000000000     
   6.7290165677359626E-002  0.27381308498396989        0.0000000000000000     
   6.7452512253476052E-002  0.28263980248363485        0.0000000000000000     
   6.7628197098461448E-002  0.29149600311429574        0.0000000000000000     
   6.7817220212315787E-002  0.30038168687595268        0.0000000000000000     
   5.9799982373917683E-002  0.26483153439316887        0.0000000000000000     
   5.9932467068413306E-002  0.27355494005560860        0.0000000000000000     
   6.0083493968968962E-002  0.28226295453467504        0.0000000000000000     
   6.0253063075584673E-002  0.29095557783036796        0.0000000000000000     
   6.0441174388260438E-002  0.29963280994268765        0.0000000000000000     
   5.2690615148961589E-002  0.26462552449205168        0.0000000000000000     
   5.2811746175479693E-002  0.27327031064141349        0.0000000000000000     
   5.2950136267725975E-002  0.28187152113612363        0.0000000000000000     
   5.3105785425700464E-002  0.29042915597618191        0.0000000000000000     
   5.3278693649403144E-002  0.29894321516158862        0.0000000000000000     
   2.8986985377675391E-002   5.7218868518722668E-002   0.0000000000000000     
   3.0542133691373111E-002   6.2785460579545468E-002   0.0000000000000000     
   3.2041151683324887E-002   6.8527362137794631E-002   0.0000000000000000     
   3.3484039353530712E-002   7.4444573193470184E-002   0.0000000000000000     
   3.4870796701990593E-002   8.0537093746572114E-002   0.0000000000000000     
   2.5065595204636262E-002   5.6638439014949873E-002   0.0000000000000000     
   2.6437032257845064E-002   6.2250225928304717E-002   0.0000000000000000     
   2.7757941798391167E-002   6.8032253035531010E-002   0.0000000000000000     
   2.9028323826274554E-002   7.3984520336628792E-002   0.0000000000000000     
   3.0248178341495249E-002   8.0107027831598024E-002   0.0000000000000000     
   2.1259758258470783E-002   5.6195861378323553E-002   0.0000000000000000     
   2.2440071226781062E-002   6.1827197348211328E-002   0.0000000000000000     
   2.3576854080183021E-002   6.7629154856157905E-002   0.0000000000000000     
   2.4670106818676683E-002   7.3601733902163277E-002   0.0000000000000000     
   2.5719829442262025E-002   7.9744934486227437E-002   0.0000000000000000     
   1.7569474539178960E-002   5.5891135608843720E-002   0.0000000000000000     
   1.8551250598181093E-002   6.1516374839265323E-002   0.0000000000000000     
   1.9497888528700470E-002   6.7318067599675291E-002   0.0000000000000000     
   2.0409388330737081E-002   7.3296213890073611E-002   0.0000000000000000     
   2.1285750004290928E-002   7.9450813710460269E-002   0.0000000000000000     
   1.3994744046760783E-002   5.5724261706510368E-002   0.0000000000000000     
   1.4770570372045169E-002   6.1317758401466686E-002   0.0000000000000000     
   1.5521045143943493E-002   6.7098991266083166E-002   0.0000000000000000     
   1.6246168362455758E-002   7.3067960300359808E-002   0.0000000000000000     
   1.6945940027581957E-002   7.9224665504296604E-002   0.0000000000000000     
   3.4870796701990593E-002   8.0537093746572114E-002   0.0000000000000000     
   3.6207028993724702E-002   8.6798152499739586E-002   0.0000000000000000     
   3.7498341493753196E-002   9.3220978155611756E-002   0.0000000000000000     
   3.8744734202076088E-002   9.9805570714188635E-002   0.0000000000000000     
   3.9946207118693372E-002  0.10655193017547022        0.0000000000000000     
   3.0248178341495249E-002   8.0107027831598024E-002   0.0000000000000000     
   3.1422521923545499E-002   8.6394076778559425E-002   0.0000000000000000     
   3.2556371151917611E-002   9.2839968435633705E-002   0.0000000000000000     
   3.3649726026611572E-002   9.9444702802820847E-002   0.0000000000000000     
   3.4702586547627381E-002  0.10620827988012083        0.0000000000000000     
   2.5719829442262025E-002   7.9744934486227437E-002   0.0000000000000000     
   2.6730007497908697E-002   8.6051935836137558E-002   0.0000000000000000     
   2.7704626532586339E-002   9.2515917179680912E-002   0.0000000000000000     
   2.8643686546294966E-002   9.9136878516857443E-002   0.0000000000000000     
   2.9547187539034556E-002  0.10591481984766715        0.0000000000000000     
   2.1285750004290928E-002   7.9450813710460269E-002   0.0000000000000000     
   2.2129485716814275E-002   8.5771729672473984E-002   0.0000000000000000     
   2.2943107635759390E-002   9.2248824387753350E-002   0.0000000000000000     
   2.3726615761126259E-002   9.8882097856298409E-002   0.0000000000000000     
   2.4480010092914898E-002  0.10567155007810913        0.0000000000000000     
   1.6945940027581957E-002   7.9224665504296604E-002   0.0000000000000000     
   1.7620956580262245E-002   8.5553458287568662E-002   0.0000000000000000     
   1.8271814461436747E-002   9.2038690059851061E-002   0.0000000000000000     
   1.8898513671105472E-002   9.8680360821143773E-002   0.0000000000000000     
   1.9501054209268415E-002  0.10547847057144683        0.0000000000000000     
   3.9946207118693372E-002  0.10655193017547022        0.0000000000000000     
   4.1097963917382116E-002  0.11344573692777349        0.0000000000000000     
   4.2195208271919339E-002  0.12047267135941545        0.0000000000000000     
   4.3237940182305062E-002  0.12763273347039603        0.0000000000000000     
   4.4226159648539279E-002  0.13492592326071534        0.0000000000000000     
   3.4702586547627381E-002  0.10620827988012083        0.0000000000000000     
   3.5710975061955502E-002  0.11311809218543628        0.0000000000000000     
   3.6670913916586410E-002  0.12016153223666974        0.0000000000000000     
   3.7582403111520099E-002  0.12733860003382119        0.0000000000000000     
   3.8445442646756568E-002  0.13464929557689068        0.0000000000000000     
   2.9547187539034556E-002  0.10591481984766715        0.0000000000000000     
   3.0411854376045100E-002  0.11283833598153072        0.0000000000000000     
   3.1234411922566603E-002  0.11989602172786878        0.0000000000000000     
   3.2014860178599037E-002  0.12708787708668134        0.0000000000000000     
   3.2753199144142424E-002  0.13441390205796841        0.0000000000000000     
   2.4480010092914898E-002  0.10567155007810913        0.0000000000000000     
   2.5200601859650909E-002  0.11260646831605679        0.0000000000000000     
   2.5885702289859900E-002  0.11967613983301259        0.0000000000000000     
   2.6535311383541888E-002  0.12688056462897648        0.0000000000000000     
   2.7149429140696849E-002  0.13421974270394854        0.0000000000000000     
   1.9501054209268415E-002  0.10547847057144683        0.0000000000000000     
   2.0077217512772916E-002  0.11242248918901451        0.0000000000000000     
   2.0624785018466325E-002  0.11950188655210110        0.0000000000000000     
   2.1143756726348634E-002  0.12671666266070661        0.0000000000000000     
   2.1634132636419841E-002  0.13406681751483104        0.0000000000000000     
   4.4226159648539279E-002  0.13492592326071534        0.0000000000000000     
   4.5161617669534387E-002  0.14234123574833082        0.0000000000000000     
   4.6046065244202759E-002  0.14986766595120010        0.0000000000000000     
   4.6879502372544402E-002  0.15750521386932317        0.0000000000000000     
   4.7661929054559321E-002  0.16525387950269996        0.0000000000000000     
   3.8445442646756568E-002  0.13464929557689068        0.0000000000000000     
   3.9261532087516489E-002  0.14208274474093424        0.0000000000000000     
   4.0032170999020518E-002  0.14962807340100803        0.0000000000000000     
   4.0757359381268655E-002  0.15728528155711197        0.0000000000000000     
   4.1437097234260908E-002  0.16505436920924615        0.0000000000000000     
   3.2753199144142424E-002  0.13441390205796841        0.0000000000000000     
   3.3450687637962495E-002  0.14186317246791055        0.0000000000000000     
   3.4108584478824977E-002  0.14942476414268840        0.0000000000000000     
   3.4726889666729897E-002  0.15709867708230188        0.0000000000000000     
   3.5305603201677228E-002  0.16488491128675101        0.0000000000000000     
   2.7149429140696849E-002  0.13421974270394854        0.0000000000000000     
   2.7729084320872406E-002  0.14168251892925973        0.0000000000000000     
   2.8275305683616171E-002  0.14925773817624116        0.0000000000000000     
   2.8788093228928138E-002  0.15694540044489272        0.0000000000000000     
   2.9267446956808305E-002  0.16474550573521457        0.0000000000000000     
   2.1634132636419841E-002  0.13406681751483104        0.0000000000000000     
   2.2096722136246225E-002  0.14154078412498181        0.0000000000000000     
   2.2532334613394069E-002  0.14912699550166636        0.0000000000000000     
   2.2940970067863369E-002  0.15682545164488468        0.0000000000000000     
   2.3322628499654129E-002  0.16463615255463676        0.0000000000000000     
   4.7661929054559321E-002  0.16525387950269996        0.0000000000000000     
   4.8390749826507387E-002  0.17310266036469457        0.0000000000000000     
   4.9063369224648483E-002  0.18104055396867111        0.0000000000000000     
   4.9679787248982622E-002  0.18906756031462951        0.0000000000000000     
   5.0240003899509778E-002  0.19718367940256981        0.0000000000000000     
   4.1437097234260908E-002  0.16505436920924615        0.0000000000000000     
   4.2068807620593646E-002  0.17292352970515282        0.0000000000000000     
   4.2649913602863257E-002  0.18088095639257443        0.0000000000000000     
   4.3180415181069742E-002  0.18892664927151087        0.0000000000000000     
   4.3660312355213102E-002  0.19706060834196223        0.0000000000000000     
   3.5305603201677228E-002  0.16488491128675101        0.0000000000000000     
   3.5842295660136178E-002  0.17277113248262424        0.0000000000000000     
   3.6334537618575934E-002  0.18074500639650998        0.0000000000000000     
   3.6782329076996502E-002  0.18880653302840822        0.0000000000000000     
   3.7185670035397876E-002  0.19695571237831894        0.0000000000000000     
   2.9267446956808305E-002  0.16474550573521457        0.0000000000000000     
   2.9711213945134998E-002  0.17264546869710876        0.0000000000000000     
   3.0117241271786523E-002  0.18063270398047779        0.0000000000000000     
   3.0485528936762880E-002  0.18870721158532144        0.0000000000000000     
   3.0816076940064073E-002  0.19686899151163992        0.0000000000000000     
   2.3322628499654129E-002  0.16463615255463676        0.0000000000000000     
   2.3675562475590092E-002  0.17254653834860650        0.0000000000000000     
   2.3998024562495012E-002  0.18054404914447783        0.0000000000000000     
   2.4290014760368895E-002  0.18862868494225071        0.0000000000000000     
   2.4551533069211727E-002  0.19680044574192515        0.0000000000000000     
   5.0240003899509778E-002  0.19718367940256981        0.0000000000000000     
   5.0741898378146022E-002  0.20538012499845476        0.0000000000000000     
   5.1183349886807360E-002  0.21364811086824717        0.0000000000000000     
   5.1564358425493811E-002  0.22198763701194701        0.0000000000000000     
   5.1884923994205363E-002  0.23039870342955426        0.0000000000000000     
   4.3660312355213102E-002  0.19706060834196223        0.0000000000000000     
   4.4088689064702563E-002  0.20527275753437910        0.0000000000000000     
   4.4464629248947368E-002  0.21355302077921201        0.0000000000000000     
   4.4788132907947489E-002  0.22190139807646103        0.0000000000000000     
   4.5059200041702961E-002  0.23031788942612616        0.0000000000000000     
   3.7185670035397876E-002  0.19695571237831894        0.0000000000000000     
   3.7544513731904226E-002  0.20518104313030830        0.0000000000000000     
   3.7858813404639750E-002  0.21347102396844236        0.0000000000000000     
   3.8128569053604434E-002  0.22182565489272121        0.0000000000000000     
   3.8353780678798299E-002  0.23024493590314485        0.0000000000000000     
   3.0816076940064073E-002  0.19686899151163992        0.0000000000000000     
   3.1109372379750987E-002  0.20510498178624237        0.0000000000000000     
   3.1365902353884520E-002  0.21340212043593829        0.0000000000000000     
   3.1585666862464647E-002  0.22176040746072764        0.0000000000000000     
   3.1768665905491385E-002  0.23017984286061036        0.0000000000000000     
   2.4551533069211727E-002  0.19680044574192515        0.0000000000000000     
   2.4783265008242870E-002  0.20504457350218142        0.0000000000000000     
   2.4985896096681667E-002  0.21334631018169981        0.0000000000000000     
   2.5159426334528116E-002  0.22170565578048018        0.0000000000000000     
   2.5303855721782214E-002  0.23012261029852274        0.0000000000000000     
   5.1884923994205363E-002  0.23039870342955426        0.0000000000000000     
   5.2153037754170718E-002  0.23887300716188115        0.0000000000000000     
   5.2376690866618537E-002  0.24740224524973964        0.0000000000000000     
   5.2555883331548828E-002  0.25598641769312985        0.0000000000000000     
   5.2690615148961589E-002  0.26462552449205168        0.0000000000000000     
   4.5059200041702961E-002  0.23031788942612616        0.0000000000000000     
   4.5286513546328649E-002  0.23878712538694757        0.0000000000000000     
   4.5478756317939441E-002  0.24729373651766570        0.0000000000000000     
   4.5635928356535349E-002  0.25583772281828043        0.0000000000000000     
   4.5758029662116367E-002  0.26441908428879174        0.0000000000000000     
   3.8353780678798299E-002  0.23024493590314485        0.0000000000000000     
   3.8543074088870637E-002  0.23870792427183471        0.0000000000000000     
   3.8705075092470786E-002  0.24719367727091246        0.0000000000000000     
   3.8839783689598742E-002  0.25570219490037799        0.0000000000000000     
   3.8947199880254510E-002  0.26423347716023138        0.0000000000000000     
   3.1768665905491385E-002  0.23017984286061036        0.0000000000000000     
   3.1922719381796708E-002  0.23863540381654244        0.0000000000000000     
   3.2055647190212581E-002  0.24710206750947988        0.0000000000000000     
   3.2167449330739020E-002  0.25557983393942252        0.0000000000000000     
   3.2258125803376010E-002  0.26406870310637054        0.0000000000000000     
   2.5303855721782214E-002  0.23012261029852274        0.0000000000000000     
   2.5425449425106827E-002  0.23856956402107082        0.0000000000000000     
   2.5530472611164808E-002  0.24701890723336795        0.0000000000000000     
   2.5618925279956160E-002  0.25547063993541402        0.0000000000000000     
   2.5690807431480878E-002  0.26392476212720922        0.0000000000000000     
   5.2690615148961589E-002  0.26462552449205168        0.0000000000000000     
   5.2811746175479693E-002  0.27327031064141349        0.0000000000000000     
   5.2950136267725975E-002  0.28187152113612363        0.0000000000000000     
   5.3105785425700464E-002  0.29042915597618191        0.0000000000000000     
   5.3278693649403144E-002  0.29894321516158862        0.0000000000000000     
   4.5758029662116367E-002  0.26441908428879174        0.0000000000000000     
   4.5869232410294614E-002  0.27298789803673745        0.0000000000000000     
   4.5993708776682227E-002  0.28149424116965494        0.0000000000000000     
   4.6131458761279179E-002  0.28993811368754446        0.0000000000000000     
   4.6282482364085498E-002  0.29831951559040587        0.0000000000000000     
   3.8947199880254510E-002  0.26423347716023138        0.0000000000000000     
   3.9046155184593916E-002  0.27273640353693301        0.0000000000000000     
   3.9155481122772819E-002  0.28115985351694334        0.0000000000000000     
   3.9275177694791233E-002  0.28950382710026223        0.0000000000000000     
   3.9405244900649131E-002  0.29776832428688987        0.0000000000000000     
   3.2258125803376010E-002  0.26406870310637054        0.0000000000000000     
   3.2342514498377592E-002  0.27251582714200034        0.0000000000000000     
   3.2435453305997793E-002  0.28086835817798878        0.0000000000000000     
   3.2536942226236612E-002  0.28912629621433550        0.0000000000000000     
   3.2646981259094036E-002  0.29728964125104068        0.0000000000000000     
   2.5690807431480878E-002  0.26392476212720922        0.0000000000000000     
   2.5758310351645639E-002  0.27232616885193950        0.0000000000000000     
   2.5833625326357117E-002  0.28061975515279108        0.0000000000000000     
   2.5916752355615313E-002  0.28880552102976398        0.0000000000000000     
   2.6007691439420222E-002  0.29688346648285813        0.0000000000000000     
   1.3994744046760783E-002   5.5724261706510368E-002   0.0000000000000000     
   1.4770570372045169E-002   6.1317758401466686E-002   0.0000000000000000     
   1.5521045143943493E-002   6.7098991266083166E-002   0.0000000000000000     
   1.6246168362455758E-002   7.3067960300359808E-002   0.0000000000000000     
   1.6945940027581957E-002   7.9224665504296604E-002   0.0000000000000000     
   1.0483501271384674E-002   5.5628574665633986E-002   0.0000000000000000     
   1.1053250982833059E-002   6.1188570921589996E-002   0.0000000000000000     
   1.1607173560974912E-002   6.6946773584971184E-002   0.0000000000000000     
   1.2145269005810234E-002   7.2903182655777568E-002   0.0000000000000000     
   1.2667537317339026E-002   7.9057798134009150E-002   0.0000000000000000     
   6.9836807032190419E-003   5.5537409480525053E-002   0.0000000000000000     
   7.3545128650045373E-003   6.1086035286409816E-002   0.0000000000000000     
   7.7171234148575348E-003   6.6836262285929010E-002   0.0000000000000000     
   8.0715123527780354E-003   7.2788090479082593E-002   0.0000000000000000     
   8.4176796787660355E-003   7.8941519865870627E-002   0.0000000000000000     
   3.4952823422638858E-003   5.5450766151183578E-002   0.0000000000000000     
   3.6743560185596063E-003   6.1010151495926160E-002   0.0000000000000000     
   3.8508947055913637E-003   6.6767457368956590E-002   0.0000000000000000     
   4.0248984033591567E-003   7.2722683770274882E-002   0.0000000000000000     
   4.1963671118629871E-003   7.8875830699880994E-002   0.0000000000000000     
   1.8306188519206373E-005   5.5368644677609553E-002   0.0000000000000000     
   1.2780443498264368E-005   6.0960919550139020E-002   0.0000000000000000     
   8.4874331763960678E-006   6.6740358834053978E-002   0.0000000000000000     
   5.4271575536020422E-006   7.2706962529354408E-002   0.0000000000000000     
   3.5996166298810171E-006   7.8860730636040335E-002   0.0000000000000000     
   1.6945940027581957E-002   7.9224665504296604E-002   0.0000000000000000     
   1.7620956580262245E-002   8.5553458287568662E-002   0.0000000000000000     
   1.8271814461436747E-002   9.2038690059851061E-002   0.0000000000000000     
   1.8898513671105472E-002   9.8680360821143773E-002   0.0000000000000000     
   1.9501054209268415E-002  0.10547847057144683        0.0000000000000000     
   1.2667537317339026E-002   7.9057798134009150E-002   0.0000000000000000     
   1.3172903860259412E-002   8.5390199680159790E-002   0.0000000000000000     
   1.3660293999269517E-002   9.1879966954723391E-002   0.0000000000000000     
   1.4129707734369340E-002   9.8527099957699912E-002   0.0000000000000000     
   1.4581145065558883E-002  0.10533159868908942        0.0000000000000000     
   8.4176796787660355E-003   7.8941519865870627E-002   0.0000000000000000     
   8.7538113288126006E-003   8.5275031848985522E-002   0.0000000000000000     
   9.0780932389087979E-003   9.1767107831119701E-002   0.0000000000000000     
   9.3905254090546255E-003   9.8417747812273262E-002   0.0000000000000000     
   9.6911078392500835E-003  0.10522695179244615        0.0000000000000000     
   4.1963671118629871E-003   7.8875830699880994E-002   0.0000000000000000     
   4.3636789859218114E-003   8.5207954794045804E-002   0.0000000000000000     
   4.5252121803545939E-003   9.1700112689040048E-002   0.0000000000000000     
   4.6809666951613295E-003   9.8352304384863767E-002   0.0000000000000000     
   4.8309425303420207E-003  0.10516452988151698        0.0000000000000000     
   3.5996166298810171E-006   7.8860730636040335E-002   0.0000000000000000     
   2.5068315870435762E-006   8.5188968515340663E-002   0.0000000000000000     
   1.6508236068999240E-006   9.1678981528484388E-002   0.0000000000000000     
   1.0315926894490440E-006   9.8330769675471483E-002   0.0000000000000000     
   6.4913883469344333E-007  0.10514433295630193        0.0000000000000000     
   1.9501054209268415E-002  0.10547847057144683        0.0000000000000000     
   2.0077217512772916E-002  0.11242248918901451        0.0000000000000000     
   2.0624785018466325E-002  0.11950188655210110        0.0000000000000000     
   2.1143756726348634E-002  0.12671666266070661        0.0000000000000000     
   2.1634132636419841E-002  0.13406681751483104        0.0000000000000000     
   1.4581145065558883E-002  0.10533159868908942        0.0000000000000000     
   1.5012828627494977E-002  0.11228271301649320        0.0000000000000000     
   1.5422981054834460E-002  0.11936969280751258        0.0000000000000000     
   1.5811602347577329E-002  0.12659253806214757        0.0000000000000000     
   1.6178692505723586E-002  0.13395124878039819        0.0000000000000000     
   9.6911078392500835E-003  0.10522695179244615        0.0000000000000000     
   9.9785624959009243E-003  0.11218345421458217        0.0000000000000000     
   1.0251611345412904E-002  0.11927598952162519        0.0000000000000000     
   1.0510254387786017E-002  0.12650455771357519        0.0000000000000000     
   1.0754491623020269E-002  0.13386915879043215        0.0000000000000000     
   4.8309425303420207E-003  0.10516452988151698        0.0000000000000000     
   4.9744191179907655E-003  0.11212471278328143        0.0000000000000000     
   5.1106758902016592E-003  0.11922077669443892        0.0000000000000000     
   5.2397128469747018E-003  0.12645272161498944        0.0000000000000000     
   5.3615299883098943E-003  0.13382054754493300        0.0000000000000000     
   6.4913883469344333E-007  0.10514433295630193        0.0000000000000000     
   3.9849376449584833E-007  0.11210648872259096        0.0000000000000000     
   1.7468920072462313E-007  0.11920405432595377        0.0000000000000000     
  -2.2274856620665973E-008  0.12643702976639037        0.0000000000000000     
  -1.9239840754045265E-007  0.13380541504390070        0.0000000000000000     
   2.1634132636419841E-002  0.13406681751483104        0.0000000000000000     
   2.2096722136246225E-002  0.14154078412498181        0.0000000000000000     
   2.2532334613394069E-002  0.14912699550166636        0.0000000000000000     
   2.2940970067863369E-002  0.15682545164488468        0.0000000000000000     
   2.3322628499654129E-002  0.16463615255463676        0.0000000000000000     
   1.6178692505723586E-002  0.13395124878039819        0.0000000000000000     
   1.6524851486006388E-002  0.14143387477075631        0.0000000000000000     
   1.6850679245158887E-002  0.14902846584171389        0.0000000000000000     
   1.7156175783181089E-002  0.15673502199327091        0.0000000000000000     
   1.7441341100072991E-002  0.16455354322542737        0.0000000000000000     
   1.0754491623020269E-002  0.13386915879043215        0.0000000000000000     
   1.0984722772075319E-002  0.14135769758226277        0.0000000000000000     
   1.1201347555910821E-002  0.14895807891913360        0.0000000000000000     
   1.1404365974526782E-002  0.15667030280104471        0.0000000000000000     
   1.1593778027923194E-002  0.16449436922799607        0.0000000000000000     
   5.3615299883098943E-003  0.13382054754493300        0.0000000000000000     
   5.4763359944530222E-003  0.14131225255950119        0.0000000000000000     
   5.5843395456498723E-003  0.14891583473392561        0.0000000000000000     
   5.6855406419004436E-003  0.15663129406820614        0.0000000000000000     
   5.7799392832047361E-003  0.16445863056234292        0.0000000000000000     
  -1.9239840754045265E-007  0.13380541504390070        0.0000000000000000     
  -3.0884686049955680E-007  0.14129753970247161        0.0000000000000000     
  -3.4478562395900362E-007  0.14890173328608977        0.0000000000000000     
  -3.0021469792077178E-007  0.15661799579475519        0.0000000000000000     
  -1.7513408238347891E-007  0.16444632722846794        0.0000000000000000     
   2.3322628499654129E-002  0.16463615255463676        0.0000000000000000     
   2.3675562475590092E-002  0.17254653834860650        0.0000000000000000     
   2.3998024562495012E-002  0.18054404914447783        0.0000000000000000     
   2.4290014760368895E-002  0.18862868494225071        0.0000000000000000     
   2.4551533069211727E-002  0.19680044574192515        0.0000000000000000     
   1.7441341100072991E-002  0.16455354322542737        0.0000000000000000     
   1.7704888188853955E-002  0.17247159834950293        0.0000000000000000     
   1.7945530042543328E-002  0.18047675617681727        0.0000000000000000     
   1.8163266661141122E-002  0.18856901670737036        0.0000000000000000     
   1.8358098044647327E-002  0.19674837994116215        0.0000000000000000     
   1.1593778027923194E-002  0.16449436922799607        0.0000000000000000     
   1.1768738022279061E-002  0.17241790561218362        0.0000000000000000     
   1.1928400263773382E-002  0.18042853936580319        0.0000000000000000     
   1.2072764752406151E-002  0.18852627048885481        0.0000000000000000     
   1.2201831488177377E-002  0.19671109898133843        0.0000000000000000     
   5.7799392832047361E-003  0.16445863056234292        0.0000000000000000     
   5.8671119758654227E-003  0.17238546013664854        0.0000000000000000     
   5.9466352261851735E-003  0.18039939871143562        0.0000000000000000     
   6.0185090341639920E-003  0.18850044628670409        0.0000000000000000     
   6.0827333998018773E-003  0.19668860286245396        0.0000000000000000     
  -1.7513408238347891E-007  0.16444632722846794        0.0000000000000000     
   1.0049613033023472E-008  0.17237426192289776        0.0000000000000000     
   2.3492977870519759E-007  0.18038933421371448        0.0000000000000000     
   4.9950641463624183E-007  0.18849154410091815        0.0000000000000000     
   8.0377952082653567E-007  0.19668089158450872        0.0000000000000000     
   2.4551533069211727E-002  0.19680044574192515        0.0000000000000000     
   2.4783265008242870E-002  0.20504457350218142        0.0000000000000000     
   2.4985896096681667E-002  0.21334631018169981        0.0000000000000000     
   2.5159426334528116E-002  0.22170565578048018        0.0000000000000000     
   2.5303855721782214E-002  0.23012261029852274        0.0000000000000000     
   1.8358098044647327E-002  0.19674837994116215        0.0000000000000000     
   1.8530685798353569E-002  0.20499854022099970        0.0000000000000000     
   1.8681691527551468E-002  0.21330319188968994        0.0000000000000000     
   1.8811115232241014E-002  0.22166233494723278        0.0000000000000000     
   1.8918956912422218E-002  0.23007596939362840        0.0000000000000000     
   1.2201831488177377E-002  0.19671109898133843        0.0000000000000000     
   1.2316128931056804E-002  0.20496560388557167        0.0000000000000000     
   1.2416185541014186E-002  0.21327236424387194        0.0000000000000000     
   1.2502001318049526E-002  0.22163138005623936        0.0000000000000000     
   1.2573576262162822E-002  0.23004265132267379        0.0000000000000000     
   6.0827333998018773E-003  0.19668860286245396        0.0000000000000000     
   6.1395944063525739E-003  0.20494576449589719        0.0000000000000000     
   6.1893781370698318E-003  0.21325382724424580        0.0000000000000000     
   6.2320845919536481E-003  0.22161279110749968        0.0000000000000000     
   6.2677137710040248E-003  0.23002265608565892        0.0000000000000000     
   8.0377952082653567E-007  0.19668089158450872        0.0000000000000000     
   1.0822242408779423E-006  0.20493902205197645        0.0000000000000000     
   1.2693157183961195E-006  0.21324758089081153        0.0000000000000000     
   1.3650539533782214E-006  0.22160656810101398        0.0000000000000000     
   1.3694389458260639E-006  0.23001598368258377        0.0000000000000000     
   2.5303855721782214E-002  0.23012261029852274        0.0000000000000000     
   2.5425449425106827E-002  0.23856956402107082        0.0000000000000000     
   2.5530472611164808E-002  0.24701890723336795        0.0000000000000000     
   2.5618925279956160E-002  0.25547063993541402        0.0000000000000000     
   2.5690807431480878E-002  0.26392476212720922        0.0000000000000000     
   1.8918956912422218E-002  0.23007596939362840        0.0000000000000000     
   1.9009646629067806E-002  0.23851487715418312        0.0000000000000000     
   1.9087614443150512E-002  0.24694984015420327        0.0000000000000000     
   1.9152860354670339E-002  0.25538085839368901        0.0000000000000000     
   1.9205384363627280E-002  0.26380793187264023        0.0000000000000000     
   1.2573576262162822E-002  0.23004265132267379        0.0000000000000000     
   1.2633693403946437E-002  0.23847581548464247        0.0000000000000000     
   1.2685135773992738E-002  0.24690050998361246        0.0000000000000000     
   1.2727903372301718E-002  0.25531673481958383        0.0000000000000000     
   1.2761996198873384E-002  0.26372448999255654        0.0000000000000000     
   6.2677137710040248E-003  0.23002265608565892        0.0000000000000000     
   6.2975897497427160E-003  0.23845237901244903        0.0000000000000000     
   6.3230366036914750E-003  0.24687091672159550        0.0000000000000000     
   6.3440543328503029E-003  0.25527826921309849        0.0000000000000000     
   6.3606429372191986E-003  0.26367443648695793        0.0000000000000000     
   1.3694389458260639E-006  0.23001598368258377        0.0000000000000000     
   1.3356664566425720E-006  0.23844456773760267        0.0000000000000000     
   1.3169322467291526E-006  0.24686106036815245        0.0000000000000000     
   1.3132363160882452E-006  0.25526546157423308        0.0000000000000000     
   1.3245786647168682E-006  0.26365777135584456        0.0000000000000000     
   2.5690807431480878E-002  0.26392476212720922        0.0000000000000000     
   2.5758310351645639E-002  0.27232616885193950        0.0000000000000000     
   2.5833625326357117E-002  0.28061975515279108        0.0000000000000000     
   2.5916752355615313E-002  0.28880552102976398        0.0000000000000000     
   2.6007691439420222E-002  0.29688346648285813        0.0000000000000000     
   1.9205384363627280E-002  0.26380793187264023        0.0000000000000000     
   1.9255135027944341E-002  0.27217374935298777        0.0000000000000000     
   1.9312060905544506E-002  0.28042099959666228        0.0000000000000000     
   1.9376161996427804E-002  0.28854968260366376        0.0000000000000000     
   1.9447438300594207E-002  0.29655979837399216        0.0000000000000000     
   1.2761996198873384E-002  0.26372448999255654        0.0000000000000000     
   1.2794580810819963E-002  0.27206488933138251        0.0000000000000000     
   1.2832823765253677E-002  0.28027904666491388        0.0000000000000000     
   1.2876725062174528E-002  0.28836696199315054        0.0000000000000000     
   1.2926284701582514E-002  0.29632863531609255        0.0000000000000000     
   6.3606429372191986E-003  0.26367443648695793        0.0000000000000000     
   6.3766477002725180E-003  0.27199958878712377        0.0000000000000000     
   6.3959139054846148E-003  0.28019389635754588        0.0000000000000000     
   6.4184415528554892E-003  0.28825735919822443        0.0000000000000000     
   6.4442306423851412E-003  0.29618997730915930        0.0000000000000000     
   1.3245786647168682E-006  0.26365777135584456        0.0000000000000000     
   1.3356963020011783E-006  0.27197784772021155        0.0000000000000000     
   1.3313262373238627E-006  0.28016554867455840        0.0000000000000000     
   1.3114684706879570E-006  0.28822087421888537        0.0000000000000000     
   1.2761230020917266E-006  0.29614382435319231        0.0000000000000000     
   1.8306188519206373E-005   5.5368644677609553E-002   0.0000000000000000     
   1.2780443498264368E-005   6.0960919550139020E-002   0.0000000000000000     
   8.4874331763960678E-006   6.6740358834053978E-002   0.0000000000000000     
   5.4271575536020422E-006   7.2706962529354408E-002   0.0000000000000000     
   3.5996166298810171E-006   7.8860730636040335E-002   0.0000000000000000     
  -3.4628284762055492E-003   5.5333189255233658E-002   0.0000000000000000     
  -3.6519505942234128E-003   6.0959429296338005E-002   0.0000000000000000     
  -3.8362520781140769E-003   6.6761554202979675E-002   0.0000000000000000     
  -4.0157329278775432E-003   7.2739563975158655E-002   0.0000000000000000     
  -4.1903931435138099E-003   7.8893458612874917E-002   0.0000000000000000     
  -6.9637023701009321E-003   5.5386544079486552E-002   0.0000000000000000     
  -7.3415738286493493E-003   6.1026770581812738E-002   0.0000000000000000     
  -7.7094775040067670E-003   6.6837630997492223E-002   0.0000000000000000     
  -8.0674133961731904E-003   7.2819125326525028E-002   0.0000000000000000     
  -8.4153815051486117E-003   7.8971253568911118E-002   0.0000000000000000     
  -1.0484315493166942E-002   5.5528709150368262E-002   0.0000000000000000     
  -1.1056089259779543E-002   6.1162943406563183E-002   0.0000000000000000     
  -1.1611188844501677E-002   6.6968589217591620E-002   0.0000000000000000     
  -1.2149614247333332E-002   7.2945646583453538E-002   0.0000000000000000     
  -1.2671365468274525E-002   7.9094115504148937E-002   0.0000000000000000     
  -1.4024667845403578E-002   5.5759684467878753E-002   0.0000000000000000     
  -1.4795496887613998E-002   6.1367947770589376E-002   0.0000000000000000     
  -1.5541386099598802E-002   6.7154428863277854E-002   0.0000000000000000     
  -1.6262335481357984E-002   7.3119127745944160E-002   0.0000000000000000     
  -1.6958345032891550E-002   7.9262044418588362E-002   0.0000000000000000     
   3.5996166298810171E-006   7.8860730636040335E-002   0.0000000000000000     
   2.5068315870435762E-006   8.5188968515340663E-002   0.0000000000000000     
   1.6508236068999240E-006   9.1678981528484388E-002   0.0000000000000000     
   1.0315926894490440E-006   9.8330769675471483E-002   0.0000000000000000     
   6.4913883469344333E-007  0.10514433295630193        0.0000000000000000     
  -4.1903931435138099E-003   7.8893458612874917E-002   0.0000000000000000     
  -4.3595479356061152E-003   8.5216893713801270E-002   0.0000000000000000     
  -4.5225125147376954E-003   9.1703524875610468E-002   0.0000000000000000     
  -4.6792868809085513E-003   9.8353352098302496E-002   0.0000000000000000     
  -4.8298710341186848E-003  0.10516637538187734        0.0000000000000000     
  -8.4153815051486117E-003   7.8971253568911118E-002   0.0000000000000000     
  -8.7523281170720710E-003   8.5290551090358713E-002   0.0000000000000000     
  -9.0771995180826057E-003   9.1773553256576004E-002   0.0000000000000000     
  -9.3899957081802123E-003   9.8420260067562951E-002   0.0000000000000000     
  -9.6907166873648927E-003  0.10523067152331955        0.0000000000000000     
  -1.2671365468274525E-002   7.9094115504148937E-002   0.0000000000000000     
  -1.3175833712810826E-002   8.5409940645013019E-002   0.0000000000000000     
  -1.3662410186427830E-002   9.1889066671380998E-002   0.0000000000000000     
  -1.4131094889125534E-002   9.8531493583252819E-002   0.0000000000000000     
  -1.4581887820903937E-002  0.10533722138062858        0.0000000000000000     
  -1.6958345032891550E-002   7.9262044418588362E-002   0.0000000000000000     
  -1.7630064722822379E-002   8.5575062377764174E-002   0.0000000000000000     
  -1.8278144519773370E-002   9.2050065120025448E-002   0.0000000000000000     
  -1.8902584423744508E-002   9.8687052645372184E-002   0.0000000000000000     
  -1.9503384434735812E-002  0.10548602495380438        0.0000000000000000     
   6.4913883469344333E-007  0.10514433295630193        0.0000000000000000     
   3.9849376449584833E-007  0.11210648872259096        0.0000000000000000     
   1.7468920072462313E-007  0.11920405432595377        0.0000000000000000     
  -2.2274856620665973E-008  0.12643702976639037        0.0000000000000000     
  -1.9239840754045265E-007  0.13380541504390070        0.0000000000000000     
  -4.8298710341186848E-003  0.10516637538187734        0.0000000000000000     
  -4.9737316007318656E-003  0.11212841815146346        0.0000000000000000     
  -5.1103352071118673E-003  0.11922530383218914        0.0000000000000000     
  -5.2396818532586932E-003  0.12645703242405448        0.0000000000000000     
  -5.3617715391723374E-003  0.13382360392705941        0.0000000000000000     
  -9.6907166873648927E-003  0.10523067152331955        0.0000000000000000     
  -9.9782033894522983E-003  0.11219013718885150        0.0000000000000000     
  -1.0251296748258087E-002  0.11928400662916444        0.0000000000000000     
  -1.0509996763782250E-002  0.12651227984425834        0.0000000000000000     
  -1.0754303436024796E-002  0.13387495683413322        0.0000000000000000     
  -1.4581887820903937E-002  0.10533722138062858        0.0000000000000000     
  -1.5013016872396812E-002  0.11229164583475518        0.0000000000000000     
  -1.5422709934237932E-002  0.11938016271687964        0.0000000000000000     
  -1.5810967006427298E-002  0.12660277202700196        0.0000000000000000     
  -1.6177788088964910E-002  0.13395947376512216        0.0000000000000000     
  -1.9503384434735812E-002  0.10548602495380438        0.0000000000000000     
  -2.0078172049565399E-002  0.11243294408917441        0.0000000000000000     
  -2.0624574765051404E-002  0.11951377209533473        0.0000000000000000     
  -2.1142592581193841E-002  0.12672850897228535        0.0000000000000000     
  -2.1632225497992690E-002  0.13407715472002624        0.0000000000000000     
  -1.9239840754045265E-007  0.13380541504390070        0.0000000000000000     
  -3.0884686049955680E-007  0.14129753970247161        0.0000000000000000     
  -3.4478562395900362E-007  0.14890173328608977        0.0000000000000000     
  -3.0021469792077178E-007  0.15661799579475519        0.0000000000000000     
  -1.7513408238347891E-007  0.16444632722846794        0.0000000000000000     
  -5.3617715391723374E-003  0.13382360392705941        0.0000000000000000     
  -5.4767598845013744E-003  0.14131373922395471        0.0000000000000000     
  -5.5848025088943726E-003  0.14891615919749110        0.0000000000000000     
  -5.6858994123513348E-003  0.15663086384766861        0.0000000000000000     
  -5.7800505948722575E-003  0.16445785317448725        0.0000000000000000     
  -1.0754303436024796E-002  0.13387495683413322        0.0000000000000000     
  -1.0984565251105732E-002  0.14136103133673125        0.0000000000000000     
  -1.1201130695145075E-002  0.14895949708999454        0.0000000000000000     
  -1.1403999768142825E-002  0.15667035409392316        0.0000000000000000     
  -1.1593172470098981E-002  0.16449360234851701        0.0000000000000000     
  -1.6177788088964910E-002  0.13395947376512216        0.0000000000000000     
  -1.6523724946673569E-002  0.14143941604080124        0.0000000000000000     
  -1.6849329344376059E-002  0.14903174696360011        0.0000000000000000     
  -1.7154601282072388E-002  0.15673646653351886        0.0000000000000000     
  -1.7439540759762555E-002  0.16455357475055735        0.0000000000000000     
  -2.1632225497992690E-002  0.13407715472002624        0.0000000000000000     
  -2.2094238971204883E-002  0.14154889333616463        0.0000000000000000     
  -2.2529398456587330E-002  0.14913290881830774        0.0000000000000000     
  -2.2937703954140031E-002  0.15682920116645563        0.0000000000000000     
  -2.3319155463862977E-002  0.16463777038060823        0.0000000000000000     
  -1.7513408238347891E-007  0.16444632722846794        0.0000000000000000     
   1.0049613033023472E-008  0.17237426192289776        0.0000000000000000     
   2.3492977870519759E-007  0.18038933421371448        0.0000000000000000     
   4.9950641463624183E-007  0.18849154410091815        0.0000000000000000     
   8.0377952082653567E-007  0.19668089158450872        0.0000000000000000     
  -5.7800505948722575E-003  0.16445785317448725        0.0000000000000000     
  -5.8668702852659026E-003  0.17238458894706402        0.0000000000000000     
  -5.9459727123410324E-003  0.18039853293451613        0.0000000000000000     
  -6.0173578760976468E-003  0.18849968513684351        0.0000000000000000     
  -6.0810257765357483E-003  0.19668804555404618        0.0000000000000000     
  -1.1593172470098981E-002  0.16449360234851701        0.0000000000000000     
  -1.1767831557559179E-002  0.17241671918528023        0.0000000000000000     
  -1.1927159787069052E-002  0.18042718193571672        0.0000000000000000     
  -1.2071157158628597E-002  0.18852499059982658        0.0000000000000000     
  -1.2199823672237819E-002  0.19671014517760974        0.0000000000000000     
  -1.7439540759762555E-002  0.16455357475055735        0.0000000000000000     
  -1.7702873767266796E-002  0.17247065263754635        0.0000000000000000     
  -1.7943326294405353E-002  0.18047528121731632        0.0000000000000000     
  -1.8160898341178212E-002  0.18856746048986733        0.0000000000000000     
  -1.8355589907585394E-002  0.19674719045519939        0.0000000000000000     
  -2.3319155463862977E-002  0.16463777038060823        0.0000000000000000     
  -2.3671996914388756E-002  0.17254638930386237        0.0000000000000000     
  -2.3994472234349928E-002  0.18054283077931493        0.0000000000000000     
  -2.4286581423746498E-002  0.18862709480696582        0.0000000000000000     
  -2.4548324482578467E-002  0.19679918138681513        0.0000000000000000     
   8.0377952082653567E-007  0.19668089158450872        0.0000000000000000     
   1.0822242408779423E-006  0.20493902205197645        0.0000000000000000     
   1.2693157183961195E-006  0.21324758089081153        0.0000000000000000     
   1.3650539533782214E-006  0.22160656810101398        0.0000000000000000     
   1.3694389458260639E-006  0.23001598368258377        0.0000000000000000     
  -6.0810257765357483E-003  0.19668804555404618        0.0000000000000000     
  -6.1373797846687641E-003  0.20494543135062943        0.0000000000000000     
  -6.1868232715101270E-003  0.21325365969109866        0.0000000000000000     
  -6.2293562370598389E-003  0.22161273057545383        0.0000000000000000     
  -6.2649786813178962E-003  0.23002264400369485        0.0000000000000000     
  -1.2199823672237819E-002  0.19671014517760974        0.0000000000000000     
  -1.2313763789766830E-002  0.20496504718867639        0.0000000000000000     
  -1.2413581973085742E-002  0.21327209815263679        0.0000000000000000     
  -1.2499278222194554E-002  0.22163129806949089        0.0000000000000000     
  -1.2570852537093266E-002  0.23004264693923876        0.0000000000000000     
  -1.8355589907585394E-002  0.19674719045519939        0.0000000000000000     
  -1.8528069791053321E-002  0.20499786956611726        0.0000000000000000     
  -1.8679006789008443E-002  0.21330289627542592        0.0000000000000000     
  -1.8808400901450771E-002  0.22166227058312532        0.0000000000000000     
  -1.8916252128380284E-002  0.23007599248921540        0.0000000000000000     
  -2.4548324482578467E-002  0.19679918138681513        0.0000000000000000     
  -2.4780297788528242E-002  0.20504389848295207        0.0000000000000000     
  -2.4983097719278251E-002  0.21334605405946602        0.0000000000000000     
  -2.5156724274828481E-002  0.22170564811635696        0.0000000000000000     
  -2.5301177455178948E-002  0.23012268065362482        0.0000000000000000     
   1.3694389458260639E-006  0.23001598368258377        0.0000000000000000     
   1.3356664566425720E-006  0.23844456773760267        0.0000000000000000     
   1.3169322467291526E-006  0.24686106036815245        0.0000000000000000     
   1.3132363160882452E-006  0.25526546157423308        0.0000000000000000     
   1.3245786647168682E-006  0.26365777135584456        0.0000000000000000     
  -6.2649786813178962E-003  0.23002264400369485        0.0000000000000000     
  -6.2949178581986351E-003  0.23845238592830825        0.0000000000000000     
  -6.3204010216163830E-003  0.24687094230178044        0.0000000000000000     
  -6.3414281715711389E-003  0.25527831312411142        0.0000000000000000     
  -6.3579993080629046E-003  0.26367449839530116        0.0000000000000000     
  -1.2570852537093266E-002  0.23004264693923876        0.0000000000000000     
  -1.2631019836509966E-002  0.23847583785277063        0.0000000000000000     
  -1.2682495039172742E-002  0.24690056390097684        0.0000000000000000     
  -1.2725278145081590E-002  0.25531682508385745        0.0000000000000000     
  -1.2759369154236512E-002  0.26372462140141240        0.0000000000000000     
  -1.8916252128380284E-002  0.23007599248921540        0.0000000000000000     
  -1.9006970268477353E-002  0.23851492351098971        0.0000000000000000     
  -1.9084965120422345E-002  0.24694992516574160        0.0000000000000000     
  -1.9150236684215262E-002  0.25538099745347120        0.0000000000000000     
  -1.9202784959856105E-002  0.26380814037417843        0.0000000000000000     
  -2.5301177455178948E-002  0.23012268065362482        0.0000000000000000     
  -2.5422769154100796E-002  0.23856964290296545        0.0000000000000000     
  -2.5527811265365210E-002  0.24701902609607476        0.0000000000000000     
  -2.5616303788972169E-002  0.25547083023295264        0.0000000000000000     
  -2.5688246724921680E-002  0.26392505531359906        0.0000000000000000     
   1.3245786647168682E-006  0.26365777135584456        0.0000000000000000     
   1.3356963020011783E-006  0.27197784772021155        0.0000000000000000     
   1.3313262373238627E-006  0.28016554867455840        0.0000000000000000     
   1.3114684706879570E-006  0.28822087421888537        0.0000000000000000     
   1.2761230020917266E-006  0.29614382435319231        0.0000000000000000     
  -6.3579993080629046E-003  0.26367449839530116        0.0000000000000000     
  -6.3739873799355164E-003  0.27199967237145645        0.0000000000000000     
  -6.3932653360328044E-003  0.28019400930868410        0.0000000000000000     
  -6.4158331763547729E-003  0.28825750920698412        0.0000000000000000     
  -6.4416909009014228E-003  0.29619017206635645        0.0000000000000000     
  -1.2759369154236512E-002  0.26372462140141240        0.0000000000000000     
  -1.2791953707283959E-002  0.27206506898166932        0.0000000000000000     
  -1.2830217444870388E-002  0.28027928395265556        0.0000000000000000     
  -1.2874160366995797E-002  0.28836726631437115        0.0000000000000000     
  -1.2923782473660184E-002  0.29632901606681622        0.0000000000000000     
  -1.9202784959856105E-002  0.26380814037417843        0.0000000000000000     
  -1.9252563285743329E-002  0.27217403755085001        0.0000000000000000     
  -1.9309525000275423E-002  0.28042137260647271        0.0000000000000000     
  -1.9373670103452381E-002  0.28855014554104658        0.0000000000000000     
  -1.9444998595274200E-002  0.29656035635457167        0.0000000000000000     
  -2.5688246724921680E-002  0.26392505531359906        0.0000000000000000     
  -2.5755816115313634E-002  0.27232657807899868        0.0000000000000000     
  -2.5831188002247915E-002  0.28062027527013578        0.0000000000000000     
  -2.5914362385724529E-002  0.28880614688701056        0.0000000000000000     
  -2.6005339265743464E-002  0.29688419292962276        0.0000000000000000     
  -1.4024667845403578E-002   5.5759684467878753E-002   0.0000000000000000     
  -1.4795496887613998E-002   6.1367947770589376E-002   0.0000000000000000     
  -1.5541386099598802E-002   6.7154428863277854E-002   0.0000000000000000     
  -1.6262335481357984E-002   7.3119127745944160E-002   0.0000000000000000     
  -1.6958345032891550E-002   7.9262044418588362E-002   0.0000000000000000     
  -1.7620776966240478E-002   5.6055133808607327E-002   0.0000000000000000     
  -1.8591798026674163E-002   6.1633141967158279E-002   0.0000000000000000     
  -1.9529215749047844E-002   6.7396951531814311E-002   0.0000000000000000     
  -2.0433030133361511E-002   7.3346562502575458E-002   0.0000000000000000     
  -2.1303241179615164E-002   7.9481974879441669E-002   0.0000000000000000     
  -2.1308660395107260E-002   5.6390720949143221E-002   0.0000000000000000     
  -2.2476993991481495E-002   6.1949884289536863E-002   0.0000000000000000     
  -2.3603824272598505E-002   6.7697958820464407E-002   0.0000000000000000     
  -2.4689151238458280E-002   7.3634944541925845E-002   0.0000000000000000     
  -2.5732974889060831E-002   7.9760841453921177E-002   0.0000000000000000     
  -2.5088318132003937E-002   5.6766445889486455E-002   0.0000000000000000     
  -2.6451084782035988E-002   6.2318174737725142E-002   0.0000000000000000     
  -2.7765211670250780E-002   6.8057450729228100E-002   0.0000000000000000     
  -2.9030698796648300E-002   7.3984273863995351E-002   0.0000000000000000     
  -3.0247546161228565E-002   8.0098644142026901E-002   0.0000000000000000     
  -2.8959750176930497E-002   5.7182308629637024E-002   0.0000000000000000     
  -3.0514070398337645E-002   6.2738013311723101E-002   0.0000000000000000     
  -3.2013377942004664E-002   6.8475427258105417E-002   0.0000000000000000     
  -3.3457672807931570E-002   7.4394550468784001E-002   0.0000000000000000     
  -3.4846954996118361E-002   8.0495382943758825E-002   0.0000000000000000     
  -1.6958345032891550E-002   7.9262044418588362E-002   0.0000000000000000     
  -1.7630064722822379E-002   8.5575062377764174E-002   0.0000000000000000     
  -1.8278144519773370E-002   9.2050065120025448E-002   0.0000000000000000     
  -1.8902584423744508E-002   9.8687052645372184E-002   0.0000000000000000     
  -1.9503384434735812E-002  0.10548602495380438        0.0000000000000000     
  -2.1303241179615164E-002   7.9481974879441669E-002   0.0000000000000000     
  -2.2142013487421525E-002   8.5790529429003115E-002   0.0000000000000000     
  -2.2951511656393329E-002   9.2259566917849978E-002   0.0000000000000000     
  -2.3731735686530569E-002   9.8889087345982160E-002   0.0000000000000000     
  -2.4482685577833251E-002  0.10567909071339976        0.0000000000000000     
  -2.5732974889060831E-002   7.9760841453921177E-002   0.0000000000000000     
  -2.6738672346923040E-002   8.6060954939120818E-002   0.0000000000000000     
  -2.7709620734561805E-002   9.2520590380195070E-002   0.0000000000000000     
  -2.8645820051977123E-002   9.9139747777144002E-002   0.0000000000000000     
  -2.9547270299168989E-002  0.10591842712996756        0.0000000000000000     
  -3.0247546161228565E-002   8.0098644142026901E-002   0.0000000000000000     
  -3.1420041301326938E-002   8.6386338908117227E-002   0.0000000000000000     
  -3.2552471754278799E-002   9.2833135507060807E-002   0.0000000000000000     
  -3.3644837520084167E-002   9.9439033938857654E-002   0.0000000000000000     
  -3.4697138598743016E-002  0.10620403420350776        0.0000000000000000     
  -3.4846954996118361E-002   8.0495382943758825E-002   0.0000000000000000     
  -3.6186120350633212E-002   8.6766681335992371E-002   0.0000000000000000     
  -3.7480064715544333E-002   9.3197202298447149E-002   0.0000000000000000     
  -3.8728788090851708E-002   9.9786945831123144E-002   0.0000000000000000     
  -3.9932290476555346E-002  0.10653591193402037        0.0000000000000000     
  -1.9503384434735812E-002  0.10548602495380438        0.0000000000000000     
  -2.0078172049565399E-002  0.11243294408917441        0.0000000000000000     
  -2.0624574765051404E-002  0.11951377209533473        0.0000000000000000     
  -2.1142592581193841E-002  0.12672850897228535        0.0000000000000000     
  -2.1632225497992690E-002  0.13407715472002624        0.0000000000000000     
  -2.4482685577833251E-002  0.10567909071339976        0.0000000000000000     
  -2.5201393089613857E-002  0.11261621768166066        0.0000000000000000     
  -2.5884889981184874E-002  0.11968710891232279        0.0000000000000000     
  -2.6533176252546305E-002  0.12689176440538613        0.0000000000000000     
  -2.7146251903698147E-002  0.13423018416085070        0.0000000000000000     
  -2.9547270299168989E-002  0.10591842712996756        0.0000000000000000     
  -3.0410404161197984E-002  0.11284365234176533        0.0000000000000000     
  -3.1231654323124705E-002  0.11990244731563678        0.0000000000000000     
  -3.2011020784949148E-002  0.12709481205158193        0.0000000000000000     
  -3.2748503546671304E-002  0.13442074654960079        0.0000000000000000     
  -3.4697138598743016E-002  0.10620403420350776        0.0000000000000000     
  -3.5705205264317794E-002  0.11311524806948837        0.0000000000000000     
  -3.6664867790870900E-002  0.12015978730527670        0.0000000000000000     
  -3.7576126178402364E-002  0.12733765191087276        0.0000000000000000     
  -3.8438980426912156E-002  0.13464884188627657        0.0000000000000000     
  -3.9932290476555346E-002  0.10653591193402037        0.0000000000000000     
  -4.1085796398973265E-002  0.11343100486482983        0.0000000000000000     
  -4.2184530384423463E-002  0.12045912888124259        0.0000000000000000     
  -4.3228492432905934E-002  0.12762028398325864        0.0000000000000000     
  -4.4217682544420697E-002  0.13491447017087796        0.0000000000000000     
  -2.1632225497992690E-002  0.13407715472002624        0.0000000000000000     
  -2.2094238971204883E-002  0.14154889333616463        0.0000000000000000     
  -2.2529398456587330E-002  0.14913290881830774        0.0000000000000000     
  -2.2937703954140031E-002  0.15682920116645563        0.0000000000000000     
  -2.3319155463862977E-002  0.16463777038060823        0.0000000000000000     
  -2.7146251903698147E-002  0.13423018416085070        0.0000000000000000     
  -2.7725114509349454E-002  0.14169153952075020        0.0000000000000000     
  -2.8270761644209271E-002  0.14926500182711835        0.0000000000000000     
  -2.8783193308277596E-002  0.15695057107995514        0.0000000000000000     
  -2.9262409501554437E-002  0.16474824727926057        0.0000000000000000     
  -3.2748503546671304E-002  0.13442074654960079        0.0000000000000000     
  -3.3445358745757055E-002  0.14186943089248660        0.0000000000000000     
  -3.4102842519672279E-002  0.14943004516303265        0.0000000000000000     
  -3.4720954868416955E-002  0.15710258936123894        0.0000000000000000     
  -3.5299695791991111E-002  0.16488706348710547        0.0000000000000000     
  -3.8438980426912156E-002  0.13464884188627657        0.0000000000000000     
  -3.9254971680427686E-002  0.14208256745137390        0.0000000000000000     
  -4.0025641082976335E-002  0.14962803882605072        0.0000000000000000     
  -4.0750988634558102E-002  0.15728525601030707        0.0000000000000000     
  -4.1431014335173023E-002  0.16505421900414285        0.0000000000000000     
  -4.4217682544420697E-002  0.13491447017087796        0.0000000000000000     
  -4.5153953313361347E-002  0.14233094919741210        0.0000000000000000     
  -4.6039157334121464E-002  0.14985898281617266        0.0000000000000000     
  -4.6873294606701067E-002  0.15749857102715953        0.0000000000000000     
  -4.7656365131100137E-002  0.16524971383037276        0.0000000000000000     
  -2.3319155463862977E-002  0.16463777038060823        0.0000000000000000     
  -2.3671996914388756E-002  0.17254638930386237        0.0000000000000000     
  -2.3994472234349928E-002  0.18054283077931493        0.0000000000000000     
  -2.4286581423746498E-002  0.18862709480696582        0.0000000000000000     
  -2.4548324482578467E-002  0.19679918138681513        0.0000000000000000     
  -2.9262409501554437E-002  0.16474824727926057        0.0000000000000000     
  -2.9706231734231724E-002  0.17264601870939791        0.0000000000000000     
  -3.0112481516501408E-002  0.18063187365473030        0.0000000000000000     
  -3.0481158848363478E-002  0.18870581211525775        0.0000000000000000     
  -3.0812263729817945E-002  0.19686783409098033        0.0000000000000000     
  -3.5299695791991111E-002  0.16488706348710547        0.0000000000000000     
  -3.5836608962102383E-002  0.17277163037932247        0.0000000000000000     
  -3.6329238050458408E-002  0.18074445287658028        0.0000000000000000     
  -3.6777583057059200E-002  0.18880553097887892        0.0000000000000000     
  -3.7181643981904745E-002  0.19695486468621837        0.0000000000000000     
  -4.1431014335173023E-002  0.16505421900414285        0.0000000000000000     
  -4.2063128598000724E-002  0.17292322431363616        0.0000000000000000     
  -4.2644741836220933E-002  0.18088056844486494        0.0000000000000000     
  -4.3175854049833637E-002  0.18892625139782931        0.0000000000000000     
  -4.3656465238838857E-002  0.19706027317252922        0.0000000000000000     
  -4.7656365131100137E-002  0.16524971383037276        0.0000000000000000     
  -4.8385790641926760E-002  0.17310080051233884        0.0000000000000000     
  -4.9058992873788988E-002  0.18104022035958423        0.0000000000000000     
  -4.9675971826686816E-002  0.18906797337210890        0.0000000000000000     
  -5.0236727500620276E-002  0.19718405954991289        0.0000000000000000     
  -2.4548324482578467E-002  0.19679918138681513        0.0000000000000000     
  -2.4780297788528242E-002  0.20504389848295207        0.0000000000000000     
  -2.4983097719278251E-002  0.21334605405946602        0.0000000000000000     
  -2.5156724274828481E-002  0.22170564811635696        0.0000000000000000     
  -2.5301177455178948E-002  0.23012268065362482        0.0000000000000000     
  -3.0812263729817945E-002  0.19686783409098033        0.0000000000000000     
  -3.1106114008716212E-002  0.20510438957603988        0.0000000000000000     
  -3.1363027532909725E-002  0.21340192856457846        0.0000000000000000     
  -3.1583004302398458E-002  0.22176045105659595        0.0000000000000000     
  -3.1766044317182426E-002  0.23017995705209246        0.0000000000000000     
  -3.7181643981904745E-002  0.19695486468621837        0.0000000000000000     
  -3.7541184678141874E-002  0.20518059848223982        0.0000000000000000     
  -3.7855968998917446E-002  0.21347087685058452        0.0000000000000000     
  -3.8125996944231438E-002  0.22182569979125252        0.0000000000000000     
  -3.8351268514083874E-002  0.23024506730424374        0.0000000000000000     
  -4.3656465238838857E-002  0.19706027317252922        0.0000000000000000     
  -4.4085509796805214E-002  0.20527252520155181        0.0000000000000000     
  -4.4461922117301413E-002  0.21355289891748425        0.0000000000000000     
  -4.4785702200327439E-002  0.22190139432032652        0.0000000000000000     
  -4.5056850045883300E-002  0.23031801141007871        0.0000000000000000     
  -5.0236727500620276E-002  0.19718405954991289        0.0000000000000000     
  -5.0739089364706245E-002  0.20538016973397588        0.0000000000000000     
  -5.1180886888061626E-002  0.21364799476527765        0.0000000000000000     
  -5.1562120070686453E-002  0.22198753464381812        0.0000000000000000     
  -5.1882788912580698E-002  0.23039878936959729        0.0000000000000000     
  -2.5301177455178948E-002  0.23012268065362482        0.0000000000000000     
  -2.5422769154100796E-002  0.23856964290296545        0.0000000000000000     
  -2.5527811265365210E-002  0.24701902609607476        0.0000000000000000     
  -2.5616303788972169E-002  0.25547083023295264        0.0000000000000000     
  -2.5688246724921680E-002  0.26392505531359906        0.0000000000000000     
  -3.1766044317182426E-002  0.23017995705209246        0.0000000000000000     
  -3.1920072840786712E-002  0.23863552637165086        0.0000000000000000     
  -3.2053015136736404E-002  0.24710223883585428        0.0000000000000000     
  -3.2164871205031510E-002  0.25558009444470259        0.0000000000000000     
  -3.2255641045672023E-002  0.26406909319819583        0.0000000000000000     
  -3.8351268514083874E-002  0.23024506730424374        0.0000000000000000     
  -3.8540537675941490E-002  0.23870810425999880        0.0000000000000000     
  -3.8702558397271034E-002  0.24719393552895813        0.0000000000000000     
  -3.8837330678072504E-002  0.25570256111112194        0.0000000000000000     
  -3.8944854518345923E-002  0.26423398100648998        0.0000000000000000     
  -4.5056850045883300E-002  0.23031801141007871        0.0000000000000000     
  -4.5284163659565127E-002  0.23878737656800916        0.0000000000000000     
  -4.5476441046969095E-002  0.24729411617538649        0.0000000000000000     
  -4.5633682208095168E-002  0.25583823023221058        0.0000000000000000     
  -4.5755887142943381E-002  0.26441971873848158        0.0000000000000000     
  -5.1882788912580698E-002  0.23039878936959729        0.0000000000000000     
  -5.2150950791657644E-002  0.23887334329568208        0.0000000000000000     
  -5.2374663085830574E-002  0.24740278077513922        0.0000000000000000     
  -5.2553925795099481E-002  0.25598710180796869        0.0000000000000000     
  -5.2688738919464385E-002  0.26462630639417062        0.0000000000000000     
  -2.5688246724921680E-002  0.26392505531359906        0.0000000000000000     
  -2.5755816115313634E-002  0.27232657807899868        0.0000000000000000     
  -2.5831188002247915E-002  0.28062027527013578        0.0000000000000000     
  -2.5914362385724529E-002  0.28880614688701056        0.0000000000000000     
  -2.6005339265743464E-002  0.29688419292962276        0.0000000000000000     
  -3.2255641045672023E-002  0.26406909319819583        0.0000000000000000     
  -3.2340130194212217E-002  0.27251636084959807        0.0000000000000000     
  -3.2433144186206332E-002  0.28086902315217349        0.0000000000000000     
  -3.2534683021654388E-002  0.28912708010592197        0.0000000000000000     
  -3.2644746700556386E-002  0.29729053171084352        0.0000000000000000     
  -3.8944854518345923E-002  0.26423398100648998        0.0000000000000000     
  -3.9043923520656422E-002  0.27273705614613131        0.0000000000000000     
  -3.9153331287569176E-002  0.28116064746111474        0.0000000000000000     
  -3.9273077819084158E-002  0.28950475495144024        0.0000000000000000     
  -3.9403163115201395E-002  0.29776937861710789        0.0000000000000000     
  -4.5755887142943381E-002  0.26441971873848158        0.0000000000000000     
  -4.5867196094646262E-002  0.27298866396859822        0.0000000000000000     
  -4.5991749306336427E-002  0.28149514819695948        0.0000000000000000     
  -4.6129546778013820E-002  0.28993917142356523        0.0000000000000000     
  -4.6280588509678464E-002  0.29832073364841577        0.0000000000000000     
  -5.2688738919464385E-002  0.26462630639417062        0.0000000000000000     
  -5.2809947916181751E-002  0.27327118431699898        0.0000000000000000     
  -5.2948398242508084E-002  0.28187252535970786        0.0000000000000000     
  -5.3104089898443368E-002  0.29043032952229725        0.0000000000000000     
  -5.3277022883987626E-002  0.29894459680476726        0.0000000000000000     
  -2.8959750176930497E-002   5.7182308629637024E-002   0.0000000000000000     
  -3.0514070398337645E-002   6.2738013311723101E-002   0.0000000000000000     
  -3.2013377942004664E-002   6.8475427258105417E-002   0.0000000000000000     
  -3.3457672807931570E-002   7.4394550468784001E-002   0.0000000000000000     
  -3.4846954996118361E-002   8.0495382943758825E-002   0.0000000000000000     
  -3.2948305986534011E-002   5.7655533215672988E-002   0.0000000000000000     
  -3.4693097706142997E-002   6.3214063132514181E-002   0.0000000000000000     
  -3.6376765906500297E-002   6.8948194110366942E-002   0.0000000000000000     
  -3.7999310587605931E-002   7.4857926149231244E-002   0.0000000000000000     
  -3.9560731749459871E-002   8.0943259249107113E-002   0.0000000000000000     
  -3.7079335017461544E-002   5.8203343693672416E-002   0.0000000000000000     
  -3.9015313571208576E-002   6.3750987321081837E-002   0.0000000000000000     
  -4.0883818382377785E-002   6.9472056989283257E-002   0.0000000000000000     
  -4.2684849450969196E-002   7.5366552698276634E-002   0.0000000000000000     
  -4.4418406776982770E-002   8.1434474448062039E-002   0.0000000000000000     
  -4.1352837269713089E-002   5.8825740063635286E-002   0.0000000000000000     
  -4.3480717993534389E-002   6.4348785877426054E-002   0.0000000000000000     
  -4.5534535369637148E-002   7.0047015894854348E-002   0.0000000000000000     
  -4.7514289398021360E-002   7.5920430115920173E-002   0.0000000000000000     
  -4.9419980078687052E-002   8.1969028540623559E-002   0.0000000000000000     
  -4.5768812743288659E-002   5.9522722325561626E-002   0.0000000000000000     
  -4.8089310973120428E-002   6.5007458801546847E-002   0.0000000000000000     
  -5.0328916868278367E-002   7.0673070827080256E-002   0.0000000000000000     
  -5.2487630428762456E-002   7.6519558402161861E-002   0.0000000000000000     
  -5.4565451654572730E-002   8.2546921526791661E-002   0.0000000000000000     
  -3.4846954996118361E-002   8.0495382943758825E-002   0.0000000000000000     
  -3.6186120350633212E-002   8.6766681335992371E-002   0.0000000000000000     
  -3.7480064715544333E-002   9.3197202298447149E-002   0.0000000000000000     
  -3.8728788090851708E-002   9.9786945831123144E-002   0.0000000000000000     
  -3.9932290476555346E-002  0.10653591193402037        0.0000000000000000     
  -3.9560731749459871E-002   8.0943259249107113E-002   0.0000000000000000     
  -4.1066424860241431E-002   8.7196121777114402E-002   0.0000000000000000     
  -4.2521785388129882E-002   9.3608442100372863E-002   0.0000000000000000     
  -4.3926813333125231E-002  0.10018022021888255        0.0000000000000000     
  -4.5281508695227471E-002  0.10691145613264343        0.0000000000000000     
  -4.4418406776982770E-002   8.1434474448062039E-002   0.0000000000000000     
  -4.6090470195551153E-002   8.7668799785851376E-002   0.0000000000000000     
  -4.7707019541806985E-002   9.4062506258856649E-002   0.0000000000000000     
  -4.9268054815750223E-002  0.10061559386707787        0.0000000000000000     
  -5.0773576017380896E-002  0.10732806261051499        0.0000000000000000     
  -4.9419980078687052E-002   8.1969028540623559E-002   0.0000000000000000     
  -5.1258256356562414E-002   8.8184715362203375E-002   0.0000000000000000     
  -5.3035767176575620E-002   9.4559394773898561E-002   0.0000000000000000     
  -5.4752512538726684E-002  0.10109306677570912        0.0000000000000000     
  -5.6408492443015615E-002  0.10778573136763506        0.0000000000000000     
  -5.4565451654572730E-002   8.2546921526791661E-002   0.0000000000000000     
  -5.6569783343275164E-002   8.8743868506170318E-002   0.0000000000000000     
  -5.8508028292435788E-002   9.5099107645498532E-002   0.0000000000000000     
  -6.0380186502054622E-002  0.10161263894477630        0.0000000000000000     
  -6.2186257972131634E-002  0.10828446240400361        0.0000000000000000     
  -3.9932290476555346E-002  0.10653591193402037        0.0000000000000000     
  -4.1085796398973265E-002  0.11343100486482983        0.0000000000000000     
  -4.2184530384423463E-002  0.12045912888124259        0.0000000000000000     
  -4.3228492432905934E-002  0.12762028398325864        0.0000000000000000     
  -4.4217682544420697E-002  0.13491447017087796        0.0000000000000000     
  -4.5281508695227471E-002  0.10691145613264343        0.0000000000000000     
  -4.6580536367019323E-002  0.11378880757230146        0.0000000000000000     
  -4.7818561241083503E-002  0.12079893226850259        0.0000000000000000     
  -4.8995583317419981E-002  0.12794183022124681        0.0000000000000000     
  -5.0111602596028780E-002  0.13521750143053410        0.0000000000000000     
  -5.0773576017380896E-002  0.10732806261051499        0.0000000000000000     
  -5.2217783970310898E-002  0.11418654103641501        0.0000000000000000     
  -5.3594879498152115E-002  0.12117765769202485        0.0000000000000000     
  -5.4904862600904575E-002  0.12830141257734454        0.0000000000000000     
  -5.6147733278568243E-002  0.13555780569237405        0.0000000000000000     
  -5.6408492443015615E-002  0.10778573136763506        0.0000000000000000     
  -5.7997539208847974E-002  0.11462420525717044        0.0000000000000000     
  -5.9513485155629348E-002  0.12159530515180937        0.0000000000000000     
  -6.0956330283359700E-002  0.12869903105155181        0.0000000000000000     
  -6.2326074592039052E-002  0.13593538295639782        0.0000000000000000     
  -6.2186257972131634E-002  0.10828446240400361        0.0000000000000000     
  -6.3919802082630567E-002  0.11510180023456779        0.0000000000000000     
  -6.5574378213515139E-002  0.12205187464785613        0.0000000000000000     
  -6.7149986364785377E-002  0.12913468564386868        0.0000000000000000     
  -6.8646626536441255E-002  0.13635023322260537        0.0000000000000000     
  -4.4217682544420697E-002  0.13491447017087796        0.0000000000000000     
  -4.5153953313361347E-002  0.14233094919741210        0.0000000000000000     
  -4.6039157334121464E-002  0.14985898281617266        0.0000000000000000     
  -4.6873294606701067E-002  0.15749857102715953        0.0000000000000000     
  -4.7656365131100137E-002  0.16524971383037276        0.0000000000000000     
  -5.0111602596028780E-002  0.13521750143053410        0.0000000000000000     
  -5.1168873244458721E-002  0.14261520140184980        0.0000000000000000     
  -5.2169649430258633E-002  0.15012418564067917        0.0000000000000000     
  -5.3113931153428495E-002  0.15774445414702229        0.0000000000000000     
  -5.4001718413968329E-002  0.16547600692087910        0.0000000000000000     
  -5.6147733278568243E-002  0.13555780569237405        0.0000000000000000     
  -5.7326301073620509E-002  0.14293594933593565        0.0000000000000000     
  -5.8443375528538816E-002  0.15042495580685145        0.0000000000000000     
  -5.9498956643323116E-002  0.15802482510512147        0.0000000000000000     
  -6.0493044417973436E-002  0.16573555723074582        0.0000000000000000     
  -6.2326074592039052E-002  0.13593538295639782        0.0000000000000000     
  -6.3626236800846725E-002  0.14329319299966956        0.0000000000000000     
  -6.4860335628962026E-002  0.15076129331468932        0.0000000000000000     
  -6.6028371076384942E-002  0.15833968390145711        0.0000000000000000     
  -6.7130343143115473E-002  0.16602836475997293        0.0000000000000000     
  -6.8646626536441255E-002  0.13635023322260537        0.0000000000000000     
  -7.0068680426137342E-002  0.14368693239305169        0.0000000000000000     
  -7.1420529731528251E-002  0.15113319816419296        0.0000000000000000     
  -7.2702174452613927E-002  0.15868903053602920        0.0000000000000000     
  -7.3913614589394439E-002  0.16635442950856039        0.0000000000000000     
  -4.7656365131100137E-002  0.16524971383037276        0.0000000000000000     
  -4.8385790641926760E-002  0.17310080051233884        0.0000000000000000     
  -4.9058992873788988E-002  0.18104022035958423        0.0000000000000000     
  -4.9675971826686816E-002  0.18906797337210890        0.0000000000000000     
  -5.0236727500620276E-002  0.19718405954991289        0.0000000000000000     
  -5.4001718413968329E-002  0.16547600692087910        0.0000000000000000     
  -5.4830507795705120E-002  0.17330738947417593        0.0000000000000000     
  -5.5597795882465856E-002  0.18122714731883918        0.0000000000000000     
  -5.6303582674250549E-002  0.18923528045486870        0.0000000000000000     
  -5.6947868171059193E-002  0.19733178888226469        0.0000000000000000     
  -6.0493044417973436E-002  0.16573555723074582        0.0000000000000000     
  -6.1423192761160456E-002  0.17354602169789282        0.0000000000000000     
  -6.2286955581554851E-002  0.18144508802073084        0.0000000000000000     
  -6.3084332879156615E-002  0.18943275619925987        0.0000000000000000     
  -6.3815324653965777E-002  0.19750902623347991        0.0000000000000000     
  -6.7130343143115473E-002  0.16602836475997293        0.0000000000000000     
  -6.8163845538292772E-002  0.17381669718348938        0.0000000000000000     
  -6.9126471971055967E-002  0.18169404246525911        0.0000000000000000     
  -7.0018222441405056E-002  0.18966040060528214        0.0000000000000000     
  -7.0839096949340027E-002  0.19771577160355852        0.0000000000000000     
  -7.3913614589394439E-002  0.16635442950856039        0.0000000000000000     
  -7.5052466127102077E-002  0.17411941593096569        0.0000000000000000     
  -7.6116345050969217E-002  0.18197401065242413        0.0000000000000000     
  -7.7105251360995830E-002  0.18991821367293574        0.0000000000000000     
  -7.8019185057181945E-002  0.19795202499250053        0.0000000000000000     
  -5.0236727500620276E-002  0.19718405954991289        0.0000000000000000     
  -5.0739089364706245E-002  0.20538016973397588        0.0000000000000000     
  -5.1180886888061626E-002  0.21364799476527765        0.0000000000000000     
  -5.1562120070686453E-002  0.22198753464381812        0.0000000000000000     
  -5.1882788912580698E-002  0.23039878936959729        0.0000000000000000     
  -5.6947868171059193E-002  0.19733178888226469        0.0000000000000000     
  -5.7527741189290188E-002  0.20550980477173783        0.0000000000000000     
  -5.8040290545341933E-002  0.21376246029399903        0.0000000000000000     
  -5.8485516239214400E-002  0.22208975544904827        0.0000000000000000     
  -5.8863418270907644E-002  0.23049169023688557        0.0000000000000000     
  -6.3815324653965777E-002  0.19750902623347991        0.0000000000000000     
  -6.4477283078002282E-002  0.20566770300706341        0.0000000000000000     
  -6.5067560323286103E-002  0.21390259140368287        0.0000000000000000     
  -6.5586156389817254E-002  0.22221369142333824        0.0000000000000000     
  -6.6033071277595709E-002  0.23060100306602949        0.0000000000000000     
  -7.0839096949340027E-002  0.19771577160355852        0.0000000000000000     
  -7.1587715030842519E-002  0.20585386443995268        0.0000000000000000     
  -7.2262696221894185E-002  0.21406838809432918        0.0000000000000000     
  -7.2864040522494955E-002  0.22235934256668796        0.0000000000000000     
  -7.3391747932644885E-002  0.23072672785702913        0.0000000000000000     
  -7.8019185057181945E-002  0.19795202499250053        0.0000000000000000     
  -7.8859037047810929E-002  0.20606828907040556        0.0000000000000000     
  -7.9625698241166123E-002  0.21425985036593789        0.0000000000000000     
  -8.0319168637247543E-002  0.22252670887909748        0.0000000000000000     
  -8.0939448236055200E-002  0.23086886460988440        0.0000000000000000     
  -5.1882788912580698E-002  0.23039878936959729        0.0000000000000000     
  -5.2150950791657644E-002  0.23887334329568208        0.0000000000000000     
  -5.2374663085830574E-002  0.24740278077513922        0.0000000000000000     
  -5.2553925795099481E-002  0.25598710180796869        0.0000000000000000     
  -5.2688738919464385E-002  0.26462630639417062        0.0000000000000000     
  -5.8863418270907644E-002  0.23049169023688557        0.0000000000000000     
  -5.9180035369615303E-002  0.23896742856488837        0.0000000000000000     
  -5.9441406264531080E-002  0.24751613434043426        0.0000000000000000     
  -5.9647530955654948E-002  0.25613780756352317        0.0000000000000000     
  -5.9798409442986922E-002  0.26483244823415508        0.0000000000000000     
  -6.6033071277595709E-002  0.23060100306602949        0.0000000000000000     
  -6.6410553690834387E-002  0.23907105649749916        0.0000000000000000     
  -6.6720852333746139E-002  0.24763038188348963        0.0000000000000000     
  -6.6963967206331035E-002  0.25627897922400089        0.0000000000000000     
  -6.7139898308589005E-002  0.26501684851903301        0.0000000000000000     
  -7.3391747932644885E-002  0.23072672785702913        0.0000000000000000     
  -7.3842505755314883E-002  0.23918422709351431        0.0000000000000000     
  -7.4213001293475828E-002  0.24774552340430528        0.0000000000000000     
  -7.4503234547127720E-002  0.25641061678940191        0.0000000000000000     
  -7.4713205516270587E-002  0.26517950724880446        0.0000000000000000     
  -8.0939448236055200E-002  0.23086886460988440        0.0000000000000000     
  -8.1475891563056804E-002  0.23930694035293384        0.0000000000000000     
  -8.1917853143720076E-002  0.24786155890288117        0.0000000000000000     
  -8.2265332978045058E-002  0.25653272025972634        0.0000000000000000     
  -8.2518331066031694E-002  0.26532042442346937        0.0000000000000000     
  -5.2688738919464385E-002  0.26462630639417062        0.0000000000000000     
  -5.2809947916181751E-002  0.27327118431699898        0.0000000000000000     
  -5.2948398242508084E-002  0.28187252535970786        0.0000000000000000     
  -5.3104089898443368E-002  0.29043032952229725        0.0000000000000000     
  -5.3277022883987626E-002  0.29894459680476726        0.0000000000000000     
  -5.9798409442986922E-002  0.26483244823415508        0.0000000000000000     
  -5.9930934627506011E-002  0.27355590955393616        0.0000000000000000     
  -6.0081999410191135E-002  0.28226404472447242        0.0000000000000000     
  -6.0251603791042350E-002  0.29095685374576385        0.0000000000000000     
  -6.0439747770059629E-002  0.29963433661781069        0.0000000000000000     
  -6.7139898308589005E-002  0.26501684851903301        0.0000000000000000     
  -6.7288911870862167E-002  0.27381413204201255        0.0000000000000000     
  -6.7451274123492583E-002  0.28264097206636596        0.0000000000000000     
  -6.7626985066480322E-002  0.29149736859209324        0.0000000000000000     
  -6.7816044699825287E-002  0.30038332161919434        0.0000000000000000     
  -7.4713205516270587E-002  0.26517950724880446        0.0000000000000000     
  -7.4883879646250207E-002  0.27404585178122820        0.0000000000000000     
  -7.5056222382412441E-002  0.28300330738538831        0.0000000000000000     
  -7.5230233724757192E-002  0.29205187406128513        0.0000000000000000     
  -7.5405913673284572E-002  0.30119155180891843        0.0000000000000000     
  -8.2518331066031694E-002  0.26532042442346937        0.0000000000000000     
  -8.2715837953670171E-002  0.27425106877158290        0.0000000000000000     
  -8.2896844186950647E-002  0.28335105068153965        0.0000000000000000     
  -8.3061349765873094E-002  0.29262037015333964        0.0000000000000000     
  -8.3209354690437512E-002  0.30205902718698274        0.0000000000000000     
  -4.5768812743288659E-002   5.9522722325561626E-002   0.0000000000000000     
  -4.8089310973120428E-002   6.5007458801546847E-002   0.0000000000000000     
  -5.0328916868278367E-002   7.0673070827080256E-002   0.0000000000000000     
  -5.2487630428762456E-002   7.6519558402161861E-002   0.0000000000000000     
  -5.4565451654572730E-002   8.2546921526791661E-002   0.0000000000000000     
  -5.0356269877423948E-002   6.0273833543440396E-002   0.0000000000000000     
  -5.2867849869776704E-002   6.5721200775650940E-002   0.0000000000000000     
  -5.5292161396330211E-002   7.1354143436210243E-002   0.0000000000000000     
  -5.7629204457084450E-002   7.7172661525118258E-002   0.0000000000000000     
  -5.9878979052039434E-002   8.3176755042375025E-002   0.0000000000000000     
  -5.5144217111354685E-002   6.1058616781260573E-002   0.0000000000000000     
  -5.7843092043313248E-002   6.6484206481945113E-002   0.0000000000000000     
  -6.0449467471821450E-002   7.2094155372493571E-002   0.0000000000000000     
  -6.2963343396879326E-002   7.7888463452905982E-002   0.0000000000000000     
  -6.5384719818486856E-002   8.3867130723182290E-002   0.0000000000000000     
  -6.0132654445080862E-002   6.1877072039022166E-002   0.0000000000000000     
  -6.3015037493730025E-002   6.7296475920429338E-002   0.0000000000000000     
  -6.5800835094752097E-002   7.2893106635930266E-002   0.0000000000000000     
  -6.8490047248147071E-002   7.8666964185524990E-002   0.0000000000000000     
  -7.1082673953914974E-002   8.4618048569213469E-002   0.0000000000000000     
  -6.5321581878602486E-002   6.2729199316725159E-002   0.0000000000000000     
  -6.8383686221027057E-002   6.8158009091103616E-002   0.0000000000000000     
  -7.1346264265122139E-002   7.3750997226520329E-002   0.0000000000000000     
  -7.4209316010887733E-002   7.9508163722975297E-002   0.0000000000000000     
  -7.6972841458323810E-002   8.5429508580468522E-002   0.0000000000000000     
  -5.4565451654572730E-002   8.2546921526791661E-002   0.0000000000000000     
  -5.6569783343275164E-002   8.8743868506170318E-002   0.0000000000000000     
  -5.8508028292435788E-002   9.5099107645498532E-002   0.0000000000000000     
  -6.0380186502054622E-002  0.10161263894477630        0.0000000000000000     
  -6.2186257972131634E-002  0.10828446240400361        0.0000000000000000     
  -5.9878979052039434E-002   8.3176755042375025E-002   0.0000000000000000     
  -6.2049375279444756E-002   8.9352588259583393E-002   0.0000000000000000     
  -6.4148283237550008E-002   9.5686325448346266E-002   0.0000000000000000     
  -6.6175702926355176E-002  0.10217796660866364        0.0000000000000000     
  -6.8131634345860267E-002  0.10882751174053551        0.0000000000000000     
  -6.5384719818486856E-002   8.3867130723182290E-002   0.0000000000000000     
  -6.7721356288826501E-002   9.0017203664273696E-002   0.0000000000000000     
  -6.9981012360080710E-002   9.6325728757131399E-002   0.0000000000000000     
  -7.2163688032249498E-002  0.10279270600175537        0.0000000000000000     
  -7.4269383305332864E-002  0.10941813539814561        0.0000000000000000     
  -7.1082673953914974E-002   8.4618048569213469E-002   0.0000000000000000     
  -7.3585726371420399E-002   9.0737714720241253E-002   0.0000000000000000     
  -7.6006215660027937E-002   9.7017317571853917E-002   0.0000000000000000     
  -7.8344141819737617E-002  0.10345685712405149        0.0000000000000000     
  -8.0599504850549383E-002  0.11005633337683392        0.0000000000000000     
  -7.6972841458323810E-002   8.5429508580468522E-002   0.0000000000000000     
  -7.9642485527226456E-002   9.1514121427486050E-002   0.0000000000000000     
  -8.2223893137391688E-002   9.7761091892513849E-002   0.0000000000000000     
  -8.4717064288819505E-002  0.10417041997555199        0.0000000000000000     
  -8.7121998981509907E-002  0.11074210567660039        0.0000000000000000     
  -6.2186257972131634E-002  0.10828446240400361        0.0000000000000000     
  -6.3919802082630567E-002  0.11510180023456779        0.0000000000000000     
  -6.5574378213515139E-002  0.12205187464785613        0.0000000000000000     
  -6.7149986364785377E-002  0.12913468564386868        0.0000000000000000     
  -6.8646626536441255E-002  0.13635023322260537        0.0000000000000000     
  -6.8131634345860267E-002  0.10882751174053551        0.0000000000000000     
  -7.0009410547585998E-002  0.11562239690577064        0.0000000000000000     
  -7.1802364583053085E-002  0.12255005816617773        0.0000000000000000     
  -7.3510496452261528E-002  0.12961049552175682        0.0000000000000000     
  -7.5133806155211286E-002  0.13680370897250788        0.0000000000000000     
  -7.4269383305332864E-002  0.10941813539814561        0.0000000000000000     
  -7.6291202559641641E-002  0.11618906620794259        0.0000000000000000     
  -7.8222250175486716E-002  0.12309254769278669        0.0000000000000000     
  -8.0062526152868047E-002  0.13012857985267795        0.0000000000000000     
  -8.1812030491785703E-002  0.13729716268761635        0.0000000000000000     
  -8.0599504850549383E-002  0.11005633337683392        0.0000000000000000     
  -8.2765178118797494E-002  0.11680180814108362        0.0000000000000000     
  -8.4834034990816015E-002  0.12367934322768302        0.0000000000000000     
  -8.6806075466605015E-002  0.13068893863663211        0.0000000000000000     
  -8.8681299546164424E-002  0.13783059436793085        0.0000000000000000     
  -8.7121998981509907E-002  0.11074210567660039        0.0000000000000000     
  -8.9431337225053531E-002  0.11746062270519375        0.0000000000000000     
  -9.1637719029040998E-002  0.12431044477086670        0.0000000000000000     
  -9.3741144393472350E-002  0.13129157187361923        0.0000000000000000     
  -9.5741613318347518E-002  0.13840400401345132        0.0000000000000000     
  -6.8646626536441255E-002  0.13635023322260537        0.0000000000000000     
  -7.0068680426137342E-002  0.14368693239305169        0.0000000000000000     
  -7.1420529731528251E-002  0.15113319816419296        0.0000000000000000     
  -7.2702174452613927E-002  0.15868903053602920        0.0000000000000000     
  -7.3913614589394439E-002  0.16635442950856039        0.0000000000000000     
  -7.5133806155211286E-002  0.13680370897250788        0.0000000000000000     
  -7.6677524495841476E-002  0.14411782950537008        0.0000000000000000     
  -7.8146882278091107E-002  0.15154098810728259        0.0000000000000000     
  -7.9541879501960164E-002  0.15907318477824542        0.0000000000000000     
  -8.0862516167448675E-002  0.16671441951825855        0.0000000000000000     
  -8.1812030491785703E-002  0.13729716268761635        0.0000000000000000     
  -8.3476661556308202E-002  0.14458654632591292        0.0000000000000000     
  -8.5062317710504168E-002  0.15198498089587867        0.0000000000000000     
  -8.6568998954373630E-002  0.15949246639751358        0.0000000000000000     
  -8.7996705287916546E-002  0.16710900283081770        0.0000000000000000     
  -8.8681299546164424E-002  0.13783059436793085        0.0000000000000000     
  -9.0466091607537533E-002  0.14509308285468020        0.0000000000000000     
  -9.2166836028767504E-002  0.15246517652998118        0.0000000000000000     
  -9.3783532809854339E-002  0.15994687539383373        0.0000000000000000     
  -9.5316181950798037E-002  0.16753817944623783        0.0000000000000000     
  -9.5741613318347518E-002  0.13840400401345132        0.0000000000000000     
  -9.7645814649529442E-002  0.14563743909167196        0.0000000000000000     
  -9.9460437232881033E-002  0.15298157500959012        0.0000000000000000     
 -0.10118548106840228       0.16043641176720577        0.0000000000000000     
 -0.10282094615609319       0.16800194936451895        0.0000000000000000     
  -7.3913614589394439E-002  0.16635442950856039        0.0000000000000000     
  -7.5052466127102077E-002  0.17411941593096569        0.0000000000000000     
  -7.6116345050969217E-002  0.18197401065242413        0.0000000000000000     
  -7.7105251360995830E-002  0.18991821367293574        0.0000000000000000     
  -7.8019185057181945E-002  0.19795202499250053        0.0000000000000000     
  -8.0862516167448675E-002  0.16671441951825855        0.0000000000000000     
  -8.2106669250101669E-002  0.17445523192191792        0.0000000000000000     
  -8.3272215725464171E-002  0.18228616158381941        0.0000000000000000     
  -8.4359155593536225E-002  0.19020720850396314        0.0000000000000000     
  -8.5367488854317802E-002  0.19821837268234896        0.0000000000000000     
  -8.7996705287916546E-002  0.16710900283081770        0.0000000000000000     
  -8.9344069629804859E-002  0.17482519913794228        0.0000000000000000     
  -9.0609724898710498E-002  0.18263166426103861        0.0000000000000000     
  -9.1793671094633503E-002  0.19052839820010675        0.0000000000000000     
  -9.2895908217573833E-002  0.19851540095514666        0.0000000000000000     
  -9.5316181950798037E-002  0.16753817944623783        0.0000000000000000     
  -9.6764667266211662E-002  0.17522931757903878        0.0000000000000000     
  -9.8128872570708209E-002  0.18301051868408175        0.0000000000000000     
  -9.9408797864287662E-002  0.19088178276136666        0.0000000000000000     
 -0.10060444314695006       0.19884310981089373        0.0000000000000000     
 -0.10282094615609319       0.16800194936451895        0.0000000000000000     
 -0.10436846215932208       0.17566758724520740        0.0000000000000000     
 -0.10582965874145725       0.18342272485294869        0.0000000000000000     
 -0.10720453590249872       0.19126736218774296        0.0000000000000000     
 -0.10849309364244647       0.19920149924959010        0.0000000000000000     
  -7.8019185057181945E-002  0.19795202499250053        0.0000000000000000     
  -7.8859037047810929E-002  0.20606828907040556        0.0000000000000000     
  -7.9625698241166123E-002  0.21425985036593789        0.0000000000000000     
  -8.0319168637247543E-002  0.22252670887909748        0.0000000000000000     
  -8.0939448236055200E-002  0.23086886460988440        0.0000000000000000     
  -8.5367488854317802E-002  0.19821837268234896        0.0000000000000000     
  -8.6300476691715755E-002  0.20631176268769283        0.0000000000000000     
  -8.7161380289637061E-002  0.21447948708871070        0.0000000000000000     
  -8.7950199648081609E-002  0.22272154588540255        0.0000000000000000     
  -8.8666934767049496E-002  0.23103793907776837        0.0000000000000000     
  -9.2895908217573833E-002  0.19851540095514666        0.0000000000000000     
  -9.3921261525365382E-002  0.20658507108108523        0.0000000000000000     
  -9.4874556275842015E-002  0.21472980713284934        0.0000000000000000     
  -9.5755792469003800E-002  0.22294960911043896        0.0000000000000000     
  -9.6564970104850642E-002  0.23124447701385406        0.0000000000000000     
 -0.10060444314695006       0.19884310981089373        0.0000000000000000     
 -0.10172139154875974       0.20688821425058276        0.0000000000000000     
 -0.10276522619978107       0.21501081049835372        0.0000000000000000     
 -0.10373594710001405       0.22321089855420662        0.0000000000000000     
 -0.10463355424945871       0.23148847841814146        0.0000000000000000     
 -0.10849309364244647       0.19920149924959010        0.0000000000000000     
 -0.10970086676189886       0.20722119219618537        0.0000000000000000     
 -0.11083339006145415       0.21532249718522387        0.0000000000000000     
 -0.11189066354111239       0.22350541421670564        0.0000000000000000     
 -0.11287268720087358       0.23176994329063061        0.0000000000000000     
  -8.0939448236055200E-002  0.23086886460988440        0.0000000000000000     
  -8.1475891563056804E-002  0.23930694035293384        0.0000000000000000     
  -8.1917853143720076E-002  0.24786155890288117        0.0000000000000000     
  -8.2265332978045058E-002  0.25653272025972634        0.0000000000000000     
  -8.2518331066031694E-002  0.26532042442346937        0.0000000000000000     
  -8.8666934767049496E-002  0.23103793907776837        0.0000000000000000     
  -8.9297196920591793E-002  0.23945416697712174        0.0000000000000000     
  -8.9826597382759638E-002  0.24799572989477600        0.0000000000000000     
  -9.0255136153553059E-002  0.25666262783073135        0.0000000000000000     
  -9.0582813232972043E-002  0.26545486078498770        0.0000000000000000     
  -9.6564970104850642E-002  0.23124447701385406        0.0000000000000000     
  -9.7292907634451503E-002  0.23964087766744155        0.0000000000000000     
  -9.7930423508875236E-002  0.24816527789554832        0.0000000000000000     
  -9.8477517728121841E-002  0.25681767769817426        0.0000000000000000     
  -9.8934190292191318E-002  0.26559807707531946        0.0000000000000000     
 -0.10463355424945871       0.23148847841814146        0.0000000000000000     
 -0.10546302370463596       0.23986707242389355        0.0000000000000000     
 -0.10622933152206686       0.24837020290519812        0.0000000000000000     
 -0.10693247770175136       0.25699786986205519        0.0000000000000000     
 -0.10757246224368953       0.26575007329446465        0.0000000000000000     
 -0.11287268720087358       0.23176994329063061        0.0000000000000000     
 -0.11380754513114513       0.24013275124647762        0.0000000000000000     
 -0.11472332142233450       0.24861050492372538        0.0000000000000000     
 -0.11562001607444168       0.25720320432237387        0.0000000000000000     
 -0.11649762908746666       0.26591084944242321        0.0000000000000000     
  -8.2518331066031694E-002  0.26532042442346937        0.0000000000000000     
  -8.2715837953670171E-002  0.27425106877158290        0.0000000000000000     
  -8.2896844186950647E-002  0.28335105068153965        0.0000000000000000     
  -8.3061349765873094E-002  0.29262037015333964        0.0000000000000000     
  -8.3209354690437512E-002  0.30205902718698274        0.0000000000000000     
  -9.0582813232972043E-002  0.26545486078498770        0.0000000000000000     
  -9.0839972519249329E-002  0.27443547402249413        0.0000000000000000     
  -9.1056957910617714E-002  0.28366751280819980        0.0000000000000000     
  -9.1233769407077142E-002  0.29315097714210464        0.0000000000000000     
  -9.1370407008627683E-002  0.30288586702420861        0.0000000000000000     
  -9.8934190292191318E-002  0.26559807707531946        0.0000000000000000     
  -9.9311469069114935E-002  0.27460475854337918        0.0000000000000000     
  -9.9620381926924087E-002  0.28393600461874868        0.0000000000000000     
  -9.9860928865618634E-002  0.29359181530142803        0.0000000000000000     
 -0.10003310988519867       0.30357219059141716        0.0000000000000000     
 -0.10757246224368953       0.26575007329446465        0.0000000000000000     
 -0.10813032760326705       0.27475892233423793        0.0000000000000000     
 -0.10858711623586972       0.28415652611318626        0.0000000000000000     
 -0.10894282814149756       0.29394288463130985        0.0000000000000000     
 -0.10919746332015051       0.30411799788860838        0.0000000000000000     
 -0.11649762908746666       0.26591084944242321        0.0000000000000000     
 -0.11729654812170562       0.27489796539507044        0.0000000000000000     
 -0.11795716083745468       0.28432907729151269        0.0000000000000000     
 -0.11847946723471386       0.29420418513175001        0.0000000000000000     
 -0.11886346731348316       0.30452328891578229        0.0000000000000000     
 </DataArray>
 <DataArray  type="Float64" Name="stress" NumberOfComponents="3" format="ascii">
   5813648351.9930515       -529751262.95693898       -104906495.41948697     
   5666950929.3184299       -372546046.30654573       -84112688.952504739     
   5509204498.9298697       -252170855.36927986       -61010625.787216723     
   5340409060.8273706       -168625690.14516783       -35600305.923644699     
   5160564615.0109320       -121910550.63416553       -7881729.3617720138     
   5550297432.1967764       -284451773.98969197        141633371.77238977     
   5391420126.1368942       -191105517.17468596        145939857.58779913     
   5225361476.1809216       -121697073.34662867        153305628.67827243     
   5052121482.3288631       -76226442.505520105        163730685.04379302     
   4871700144.5807142       -54693624.651383162        177215026.68436477     
   5269150903.3506994       -44490967.737392426        362761334.49878842     
   5100239509.8391399       -14359931.977685690        355092774.11680102     
   4928014436.2493467        4725503.5212562084        351234527.58661848     
   4752475682.5813198        12765338.759400129        351186594.90824264     
   4573623248.8350611        9759573.7367887497        354948976.08168322     
   4970208765.4548082        190131155.79996943        558477392.75972593     
   4793409080.4251728        157690709.28445101        543346060.63449585     
   4617163379.1351519        127096875.23433089        532776070.93782890     
   4441471661.5847521        98349653.649624586        526767423.66972286     
   4266333927.7739730        71449044.530306578        525320118.83018589     
   4653471018.5091152        419414596.62238741        728781546.55519998     
   4470928837.8949890        325046406.61171937        710699717.14088094     
   4292808304.8383303        245417041.79263759        697930258.73188770     
   4119109419.3391485        180526502.16512513        690473171.32822061     
   3949832181.3974433        130374787.72920513        688328454.92987287     
   5160564615.0109320       -121910550.63416553       -7881729.3617720138     
   5006546588.3471470       -87694519.880680799       -6745077.5202819556     
   4850227876.3182106       -61147440.344387770       -3246455.0255047935     
   4691608478.9241037       -42269312.025323868        2614138.1225633151     
   4530688396.1648407       -31060134.923436642        10836701.923939023     
   4871700144.5807142       -54693624.651383162        177215026.68436477     
   4719612697.7126560       -37135178.718538046        173479069.84361348     
   4566481623.8492451       -23055489.436852455        172710261.76642954     
   4412306922.9905005       -12454556.806287289        174908602.45280784     
   4257088595.1364007       -5332380.8268957138        180074091.90274069     
   4573623248.8350611        9759573.7367887497        354948976.08168322     
   4425195462.0777607        11179158.943480253        347806978.65683109     
   4276981106.6949348        13310182.065098763        344237308.10579675     
   4128980182.6865864        16152643.101642609        344239964.42859024     
   3981192690.0527163        19706542.053108692        347814947.62521559     
   4266333927.7739730        71449044.530306578        525320118.83018589     
   4123294881.4424710        57248493.105375290        516238648.91934443     
   3981726324.8552675        47949574.161433458        511334683.99259228     
   3841628258.0123644        43552287.698487043        510608224.04993063     
   3703000680.9137430        44056633.716508389        514059269.09136021     
   3949832181.3974433        130374787.72920513        688328454.92987287     
   3813910955.8067932        101072823.76717067        678774080.63116682     
   3680717278.3302512        80862686.852164984        674002389.42680943     
   3550251148.9678330        69744376.984238625        674013381.31681406     
   3422512567.7195225        67717894.163336992        678807056.30117238     
   4530688396.1648407       -31060134.923436642        10836701.923939023     
   4328920937.1576576       -35408740.129258156        3502493.9105881685     
   4127275985.8672881       -39348986.279019833        1134948.8242525710     
   3925753542.2937431       -42880873.372709513        3734066.6649335115     
   3724353606.4370141       -46004401.410337687        11299847.432611775     
   4257088595.1364007       -5332380.8268957138        180074091.90274069     
   4068043666.5549231       -9855600.1307165623        171987329.63414043     
   3879055058.3324866       -14191084.904383183        168760761.86553398     
   3690122770.4691033       -18338835.147880316        170394388.59692898     
   3501246802.9647818       -22298850.861160040        176888209.82830754     
   3981192690.0527163        19706542.053108692        347814947.62521559     
   3804566096.3911638        14917449.999505997        338898412.51729989     
   3627929635.7309046        10095467.950207949        334735603.48235714     
   3451283308.0719328        5240595.9052107334        335326520.52039891     
   3274627113.4142547        352833.86451935768        340671163.63142705     
   3703000680.9137430        44056633.716508389        514059269.09136021     
   3538488226.6663847        38910410.261435032        504235742.56006747     
   3373899718.0625434        33510672.284764051        499059473.67473537     
   3209235155.1022358        27857419.786526680        498530462.43537581     
   3044494537.7854424        21950652.766698360        502648708.84198940     
   3422512567.7195225        67717894.163336992        678807056.30117238     
   3269810057.3805904        62123280.655054450        667999319.76244676     
   3116965305.3274145        56054528.099301815        661732372.44267297     
   2963978311.5600014        49511636.496092796        660006214.34184909     
   2810849076.0783520        42494605.845416784        662820845.45997584     
   3724353606.4370141       -46004401.410337687        11299847.432611775     
   3555357594.6010714       -39312471.519471645        6290345.1675554700     
   3386301238.1619043       -32821690.306007862        5139975.1575501673     
   3217184537.1195068       -26532057.769987345        7848737.4025715264     
   3048007491.4738793       -20443573.911396503        14416631.902649011     
   3501246802.9647818       -22298850.861160040        176888209.82830754     
   3341460943.0816531       -17527747.217301846        170487582.50321013     
   3181621457.6114240       -12935395.530450583        167755822.78994364     
   3021728346.5541081       -8521795.8005582094        168692930.68849400     
   2861781609.9096875       -4286948.0276714563        173298906.19885477     
   3274627113.4142547        352833.86451935768        340671163.63142705     
   3123507792.2175922        3040027.2814482450        332887250.09845656     
   2972341564.4499550        5570865.4618108273        328581939.53407925     
   2821128430.1113706        7945348.4056760073        327755231.93830341     
   2669868389.2018127        10163476.112962008        330407127.31112623     
   3044494537.7854424        21950652.766698360        502648708.84198940     
   2901498142.0088849        22390851.976791263        493489347.95328820     
   2758461558.6775069        22697092.670791626        487618325.38996804     
   2615384787.7912955        22869374.848692179        485035641.15201712     
   2472267829.3502502        22907698.510482550        485741295.23944873     
   2810849076.0783520        42494605.845416784        662820845.45997584     
   2675431992.4555535        40524726.868750453        652293876.06771576     
   2539981440.2940679        38443286.096457601        644864980.35759497     
   2404497419.5938849        36250283.528506637        640534158.32964206     
   2268979930.3550005        33945719.164883852        639301409.98383296     
   3048007491.4738793       -20443573.911396503        14416631.902649011     
   2884139132.1090355       -13374369.613040566        8772903.8019303586     
   2719927676.3950005       -7448819.8120000362        4448365.0972836604     
   2555373124.3317857       -2666924.5082181692        1443015.7886871416     
   2390475475.9194074        971316.29834938049       -243144.12383998383     
   2861781609.9096875       -4286948.0276714563        173298906.19885477     
   2700840415.5648222       -672676.59587144852        165577102.76840115     
   2539740381.5119271        2412129.1424872875        159585067.54185641     
   2378481507.7509875        4967469.1873733997        155322800.51921037     
   2217063794.2820015        6993343.5387597084        152790301.70045531     
   2669868389.2018127        10163476.112962008        330407127.31112623     
   2513027442.1850634        10674739.370674014        320822214.63226420     
   2356211912.1014204        11270725.738731146        313377648.96513778     
   2199421798.9508834        11951435.217146397        308073430.30977613     
   2042657102.7334440        12716867.805884361        304909558.66614687     
   2472267829.3502502        22907698.510482550        485741295.23944873     
   2320700211.9697437        20667878.286544442        474508239.39351052     
   2169342268.1634817        19126969.976758718        465826109.36715382     
   2018193997.9314661        18284973.581125736        459694905.16038322     
   1867255401.2736931        18141889.099634409        456114626.77321303     
   2268979930.3550005        33945719.164883852        639301409.98383296     
   2123858724.9188638        29306740.151740313        626635177.05214024     
   1979131449.6981115        25980861.856550097        616930448.74787998     
   1834798104.6927464        23968084.279322386        610187225.07105243     
   1690858689.9027629        23268407.420017242        606405506.02166259     
   2390475475.9194074        971316.29834938049       -243144.12383998383     
   2248139605.1272902        6403644.6448358297       -6375237.0323675824     
   2102866976.3462090        2046779.6947515011       -10728180.046303527     
   1954657589.5762126       -12099278.551715374       -13301973.165632445     
   1803511444.8172283       -36034530.094786525       -14096616.390349211     
   2217063794.2820015        6993343.5387597084        152790301.70045531     
   2078457948.3004925        12648454.482758284        143082994.01235911     
   1937891607.7498620        11768583.529684782        134414374.91530800     
   1795364772.6301093        4353730.6795421839        126784444.40931158     
   1650877442.9412103       -9596104.0677533150        120193202.49435127     
   2042657102.7334440        12716867.805884361        304909558.66614687     
   1905665677.8380897        17960080.230059266        292766010.18827915     
   1767690021.7934265        19922522.156538248        280920688.99790090     
   1628730134.5994787        18604193.585401595        269373595.09502858     
   1488786016.2562308        14005094.516598225        258124728.47964260     
   1867255401.2736931        18141889.099634409        456114626.77321303     
   1729762793.7400522        22338521.886633158        442673811.49538159     
   1592262218.4769337        26508595.575401068        428790762.20147973     
   1454753675.4843519        30652110.165932059        414465478.89151573     
   1317237164.7623045        34769065.658268929        399697961.56549114     
   1690858689.9027629        23268407.420017242        606405506.02166259     
   1550749296.0063894        25783779.452532947        592806397.93365049     
   1411608197.8003714        31526803.786239743        578024594.52603102     
   1273435395.2847118        40497480.421127796        562060095.79878676     
   1136230888.4594100        52695809.357229114        544912901.75192606     
   1803511444.8172283       -36034530.094786525       -14096616.390349211     
   1772439316.2615943       -16383865.357936263       -8560062.0782435909     
   1749291008.1689184        29679534.255419135       -41702397.453031041     
   1734066520.5391486        102155668.74514967       -113523622.51473974     
   1726765853.3723352        201044538.11137974       -224023737.26335177     
   1650877442.9412103       -9596104.0677533150        120193202.49435127     
   1528207723.7909379       -13787243.535407007        135621460.85510823     
   1409617232.4743838       -4380956.8906618357        124770878.64640148     
   1295105968.9915686        18622755.866533637        87641455.868226558     
   1184673933.3424716        55223894.736144602        24233192.520578966     
   1488786016.2562308        14005094.516598225        258124728.47964260     
   1309947418.2754288       -3399235.6263636351        278959332.82162493     
   1131343455.4991422       -20021448.420939684        285915145.71159154     
   952974127.92738783       -35861543.867075562        278992167.14953697     
   774839435.56014836       -50919521.964828461        258190397.13545188     
   1317237164.7623045        34769065.658268929        399697961.56549114     
   1117658399.7150877        14780158.369218588        421453553.82131076     
   914469677.24318528       -17241940.335426450        441730403.74254286     
   707670997.34660089       -61297230.455700099        460528511.32919234     
   497262360.02533370       -117385711.99156225        477847876.58125931     
   1136230888.4594100        52695809.357229114        544912901.75192606     
   951340668.10991287        40750938.451370597        563104123.85415828     
   758995897.70651984        3957567.3658809662        592216652.73924053     
   559196577.24923861       -57684303.899252325        632250488.40719843     
   351942706.73805737       -144174675.34404123        683205630.85801661     
   1726765853.3723352        201044538.11137974       -224023737.26335177     
   1456301380.6339002        184345044.44279552       -96497724.703056201     
   1153755359.0611186        60707054.659678876        60154509.489201553     
   819127788.65395021       -169869431.23800564        245932965.31342405     
   452418669.41243184       -507384413.25025690        460837642.76958823     
   1184673933.3424716        55223894.736144602        24233192.520578966     
   977576179.07592583        11735643.799369633        155642245.39627367     
   732713697.48915553       -157635031.53813231        312850727.14181125     
   450086488.58215398       -452888131.27642739        495858637.75718921     
   129694552.35494125       -874023655.41540372        704665977.24239981     
   774839435.56014836       -50919521.964828461        258190397.13545188     
   621603277.58796597       -124048066.82312521        386852115.42638248     
   424919213.80974066       -342002964.36823237        537986469.82503152     
   184787244.22541097       -704784214.60033977        711593460.33141136     
  -98792631.164963186       -1212391817.5193014        907673086.94550061     
   497262360.02533370       -117385711.99156225        477847876.58125931     
   388382676.17006189       -223006087.42454007        597131885.38726866     
   230371908.02289215       -492396743.83053589        735561737.53887367     
   23230055.583761573       -925557681.20968080        893137433.03608334     
  -233042881.14728445       -1522488899.5619373        1069858971.8788739     
   351942706.73805737       -144174675.34404123        683205630.85801661     
   277914374.82220793       -285138418.00492656        786481555.27892923     
   149071780.12859136       -608816369.92506337        905576530.28332043     
  -34585077.342835128       -1115208531.1045496        1040490555.8711962     
  -273056197.59203142       -1804314901.5432744        1191223632.0425494     
   4653471018.5091152        419414596.62238741        728781546.55519998     
   4470928837.8949890        325046406.61171937        710699717.14088094     
   4292808304.8383303        245417041.79263759        697930258.73188770     
   4119109419.3391485        180526502.16512513        690473171.32822061     
   3949832181.3974433        130374787.72920513        688328454.92987287     
   4204605838.4956169        217221109.92482686        799641589.94132233     
   4049083370.8925691        168708738.02926445        789306366.89276385     
   3895643703.4088902        127139033.19826341        783861055.59007168     
   3744286836.0445814        92511995.431833744        783305656.03324914     
   3595012768.7996464        64827624.729974270        787640168.22229409     
   3767636586.6268535        18596401.670687199        886385154.92727780     
   3637926805.5792990        15577739.953546524        881067882.90001714     
   3507960977.2130136        11705587.173961639        880218063.35917854     
   3377739101.5279980        6979943.3319392204        883835696.30474794     
   3247261178.5242443        1400808.4274684191        891920781.73673379     
   3342563262.9028254       -176459528.14003086        989012241.51306987     
   3237459141.9551854       -134346587.61542439        985984265.16265941     
   3129760126.2507095       -100883296.28026211        987001282.03920913     
   3019466215.7893944       -76069654.134568930        992063292.14272213     
   2906577410.5712509       -59905661.178313136        1001170295.4731907     
   2929385867.3235321       -367946679.50733113        1107522849.6986930     
   2847680380.0202188       -281064244.67764652        1104055513.6806765     
   2761041150.5219674       -210627617.16443098        1104210711.6301639     
   2669468178.8287768       -156636796.96767139        1107988443.5471611     
   2572961464.9406476       -119091784.08738422        1115388709.4316642     
   3949832181.3974433        130374787.72920513        688328454.92987287     
   3813910955.8067932        101072823.76717067        678774080.63116682     
   3680717278.3302512        80862686.852164984        674002389.42680943     
   3550251148.9678330        69744376.984238625        674013381.31681406     
   3422512567.7195225        67717894.163336992        678807056.30117238     
   3595012768.7996464        64827624.729974270        787640168.22229409     
   3475792917.2452478        51591834.873961210        782812120.07866848     
   3358072012.4761086        43352534.302126646        782341020.99795604     
   3241850054.4922218        40109723.014477730        786226870.98015344     
   3127127043.2935901        41863401.011009455        794469670.02526522     
   3247261178.5242443        1400808.4274684191        891920781.73673379     
   3143526318.0591230        3866277.7933809757        890385691.53118825     
   3040061803.0503969        7232898.6806074381        892781816.35711503     
   2936867633.4980683        11500671.089164495        899109156.21450746     
   2833943809.4021363        16669595.019037247        909367711.10337019     
   2906577410.5712509       -59905661.178313136        1001170295.4731907     
   2817111158.2484169       -42103847.474578500        1001494794.9887252     
   2726686650.0531273       -27496220.012370586        1005324775.5042883     
   2635303885.9853697       -16082778.791716576        1012660237.0198754     
   2542962866.0451531       -7863523.8125947714        1023501179.5354848     
   2572961464.9406476       -119091784.08738422        1115388709.4316642     
   2496547437.8131266       -86318540.929904580        1116139430.4512761     
   2417946553.4842887       -60834821.776826262        1119969898.4394765     
   2337158811.9541240       -42640626.628161550        1126880113.3962524     
   2254184213.2226439       -31735955.483891010        1136870075.3216105     
   3422512567.7195225        67717894.163336992        678807056.30117238     
   3269810057.3805904        62123280.655054450        667999319.76244676     
   3116965305.3274145        56054528.099301815        661732372.44267297     
   2963978311.5600014        49511636.496092796        660006214.34184909     
   2810849076.0783520        42494605.845416784        662820845.45997584     
   3127127043.2935901        41863401.011009455        794469670.02526522     
   2986739221.8528318        38144238.591043949        784310992.23808408     
   2846320543.2902031        34322219.098196030        778651566.44093001     
   2705871007.6057096        30397342.532451630        777491392.63381231     
   2565390614.7993503        26369608.893829584        780830470.81672013     
   2833943809.4021363        16669595.019037247        909367711.10337019     
   2705751999.0626302        14790280.348310113        899988040.75883675     
   2577640716.1936374        13179390.579281092        895066085.17540896     
   2449609960.7951493        11836925.711937189        894601844.35309756     
   2321659732.8671670        10762885.746289372        898595318.29189372     
   2542962866.0451531       -7863523.8125947714        1023501179.5354848     
   2426848389.0099959       -7938594.0731549263        1015030465.3247011     
   2310925824.0377183       -7373957.4574398994        1010975928.6461021     
   2195195171.1283202       -6169613.9654616117        1011337569.4997007     
   2079656430.2818065       -4325563.5972048044        1016115387.8854870     
   2254184213.2226439       -31735955.483891010        1136870075.3216105     
   2150028391.6949139       -30042384.673364282        1129438265.9356756     
   2046175866.8224454       -27337825.011966348        1126381096.8530159     
   1942626638.6052241       -23622276.499746203        1127698568.0736234     
   1839380707.0432668       -18895739.136646032        1133390679.5975039     
   2810849076.0783520        42494605.845416784        662820845.45997584     
   2675431992.4555535        40524726.868750453        652293876.06771576     
   2539981440.2940679        38443286.096457601        644864980.35759497     
   2404497419.5938849        36250283.528506637        640534158.32964206     
   2268979930.3550005        33945719.164883852        639301409.98383296     
   2565390614.7993503        26369608.893829584        780830470.81672013     
   2439012950.4755735        26709052.191895008        771071242.19048846     
   2312756049.9056993        27451041.336305022        764634418.81794906     
   2186619913.0897341        28595576.327077627        761520000.69910216     
   2060604540.0276699        30142657.164176106        761727987.83395064     
   2321659732.8671670        10762885.746289372        898595318.29189372     
   2204962435.1896720        13603935.523248076        889783768.10639274     
   2088540133.5586872        17361638.788566589        884518954.74612260     
   1972392827.9742017        22035995.542227507        882800878.21109438     
   1856520518.4362259        27627005.784240961        884629538.50130427     
   2079656430.2818065       -4325563.5972048044        1016115387.8854870     
   1973280446.5978587        1209376.8628350496        1008431453.8154142     
   1867333691.2530158        8175078.4532134533        1004518588.1421211     
   1761816164.2472825        16571541.173964739        1004376790.8656116     
   1656727865.5806515        26398765.025053442        1008006061.9858824     
   1839380707.0432668       -18895739.136646032        1133390679.5975039     
   1743966984.7001340       -10474623.789351225        1127014299.3175640     
   1649136722.9887002       -108639.66972291470        1124633319.0059512     
   1554889921.9089820        12202213.222286582        1126247738.6626546     
   1461226581.4609690        26457934.886646748        1131857558.2876813     
   2268979930.3550005        33945719.164883852        639301409.98383296     
   2123858724.9188638        29306740.151740313        626635177.05214024     
   1979131449.6981115        25980861.856550097        616930448.74787998     
   1834798104.6927464        23968084.279322386        610187225.07105243     
   1690858689.9027629        23268407.420017242        606405506.02166259     
   2060604540.0276699        30142657.164176106        761727987.83395064     
   1924571455.9992330        29084537.343634725        750997721.15882730     
   1788681418.7436566        28503240.099284887        743470460.35622060     
   1652934428.2609310        28398765.431111455        739146205.42610312     
   1517330484.5510707        28771113.339151978        738024956.36850655     
   1856520518.4362259        27627005.784240961        884629538.50130427     
   1730265559.3728359        30356746.223489285        875542540.73313594     
   1603902763.6397805        32727031.097179949        869900050.08254743     
   1477432131.2370563        34737860.405309498        867702066.54953504     
   1350853662.1646585        36389234.147863984        868948590.13410556     
   1656727865.5806515        26398765.025053442        1008006061.9858824     
   1540941035.0396631        33123366.791309416        1000269635.7750487     
   1424795484.3864875        38652234.850263238        996219217.92687058     
   1308291213.6211092        42985369.201885760        995854808.44134116     
   1191428222.7435281        46122769.846157253        999176407.31846559     
   1461226581.4609690        26457934.886646748        1131857558.2876813     
   1356597882.9997344        37384399.047119558        1125179006.2845802     
   1251359580.9837723        46278851.358505011        1122427963.8891959     
   1145511675.4130914        53141291.820820391        1123604431.1015351     
   1039054166.2876828        57971720.434042573        1128708407.9216013     
   1690858689.9027629        23268407.420017242        606405506.02166259     
   1550749296.0063894        25783779.452532947        592806397.93365049     
   1411608197.8003714        31526803.786239743        578024594.52603102     
   1273435395.2847118        40497480.421127796        562060095.79878676     
   1136230888.4594100        52695809.357229114        544912901.75192606     
   1517330484.5510707        28771113.339151978        738024956.36850655     
   1375403924.0288162        27747303.039093673        728459928.57426798     
   1233664400.3615894        27346948.922458708        719496510.00264287     
   1092111913.5493839        27570050.989239395        711134700.65362489     
   950746463.59221566        28416609.239457905        703374500.52722418     
   1350853662.1646585        36389234.147863984        868948590.13410556     
   1212207947.9943230        33355645.408578336        862506173.99241459     
   1072968011.8436805        28341316.734941363        858449671.61557579     
   933133853.71273851        21346248.126962900        856779083.00356817     
   792705473.60148573        12370439.584629387        857494408.15640700     
   1191428222.7435281        46122769.846157253        999176407.31846559     
   1061161367.9029057        42608806.560982525        994945134.18811810     
   929519032.24664545        34509907.223675251        994884079.36483204     
   796501215.77475452        21826071.834274679        998993242.84861338     
   662107918.48722792        4557300.3927441537        1007272624.6394639     
   1039054166.2876828        57971720.434042573        1128708407.9216013     
   922264183.75457323        55506786.496325463        1125776809.1613591     
   803317461.57049119        45852720.388700038        1128799733.2504108     
   682213999.73545134        29009522.111212254        1137777180.1887598     
   558953798.24943173        4977191.6637972891        1152709149.9764121     
   1136230888.4594100        52695809.357229114        544912901.75192606     
   951340668.10991287        40750938.451370597        563104123.85415828     
   758995897.70651984        3957567.3658809662        592216652.73924053     
   559196577.24923861       -57684303.899252325        632250488.40719843     
   351942706.73805737       -144174675.34404123        683205630.85801661     
   950746463.59221566        28416609.239457905        703374500.52722418     
   791552909.52318144        11150816.045716226        721380111.36537087     
   623756547.03181744       -34791005.222463667        749458986.93360567     
   447357376.11812711       -109408854.56506202        787611127.23193288     
   262355396.78210258       -212702731.98210737        835836532.26034701     
   792705473.60148573        12370439.584629387        857494408.15640700     
   656785608.51928592       -10943169.085097343        873974772.96729255     
   511114676.64631116       -66760333.724056184        899680360.45549250     
   355692677.98258346       -155081054.33220136        934611170.62101758     
   190519612.52808231       -275905330.90958989        978767203.46385586     
   662107918.48722792        4557300.3927441537        1007272624.6394639     
   547038765.09821773       -25531016.941057742        1020888108.6599240     
   421070286.55001312       -91950418.138862938        1042880773.3049214     
   284202482.84260219       -194700903.20067871        1073250618.5744637     
   136435353.97598866       -333782472.12650263        1111997644.4685490     
   558953798.24943173        4977191.6637972891        1152709149.9764121     
   462312379.25998664       -32612727.522173673        1162120118.4432542     
   353623376.74290007       -110361258.46695580        1179060225.4818714     
   232886790.69819668       -228268401.17046034        1203529471.0922618     
   100102621.12583509       -386334155.63282007        1235527855.2744234     
   351942706.73805737       -144174675.34404123        683205630.85801661     
   277914374.82220793       -285138418.00492656        786481555.27892923     
   149071780.12859136       -608816369.92506337        905576530.28332043     
  -34585077.342835128       -1115208531.1045496        1040490555.8711962     
  -273056197.59203142       -1804314901.5432744        1191223632.0425494     
   262355396.78210258       -212702731.98210737        835836532.26034701     
   223648419.09718540       -352268417.52329034        885142692.41516316     
   140691299.09647709       -639334577.45043504        945477445.90573120     
   13484036.779970348       -1073901211.7635734        1016840792.7320834     
  -157973367.85231435       -1655968320.4626603        1099232732.8941774     
   190519612.52808231       -275905330.90958989        978767203.46385586     
   173446968.36633444       -418179065.54339600        986428406.55822814     
   122688302.35078534       -672739539.68986595        1000327745.7406454     
   38243614.481446803       -1039586753.3489856        1020465221.0111227     
  -79887095.241702437       -1518720706.5207782        1046840832.3696324     
   136435353.97598866       -333782472.12650263        1111997644.4685490     
   127310022.62966254       -482870362.06523782        1090338697.7081375     
   95062789.891514570       -709031256.64336419        1070127429.7880626     
   39693655.761571705       -1012265155.8608214        1051363840.7083107     
  -38797379.760175049       -1392572059.7176211        1034047930.4688988     
   100102621.12583509       -386334155.63282007        1235527855.2744234     
   85237581.887155324       -546342307.08885026        1196873565.8648865     
   57814761.718656510       -748209728.31095529        1154876498.0479741     
   17834160.620365977       -991936419.29904091        1109536651.8236632     
  -34704221.407753706       -1277522380.0531960        1060854027.1919870     
   2929385867.3235321       -367946679.50733113        1107522849.6986930     
   2847680380.0202188       -281064244.67764652        1104055513.6806765     
   2761041150.5219674       -210627617.16443098        1104210711.6301639     
   2669468178.8287768       -156636796.96767139        1107988443.5471611     
   2572961464.9406476       -119091784.08738422        1115388709.4316642     
   2623120327.3430300       -195150756.58023834        1228100866.5724087     
   2537003208.1104140       -158831739.64763713        1215415959.1344366     
   2449402427.0120149       -127458262.26765645        1207383435.7595916     
   2360317984.0478315       -101030324.44029164        1204003296.4478712     
   2269749879.2178569       -79547926.165552735        1205275541.1992781     
   2299743328.0320225       -27488271.452295661        1327727902.6188774     
   2212157005.7147379       -40849943.763391614        1309850517.4782920     
   2126537101.8608184       -47656887.863259912        1297655366.4964557     
   2042883616.4702687       -47909103.751898646        1291142449.6733680     
   1961196549.5430853       -41606591.429317236        1290311767.0090284     
   1959254869.3905001        135040775.87649208        1406403957.8380969     
   1873141772.8331804        72881142.975094199        1387359188.7122459     
   1792445175.0683768        28776506.048765659        1375026503.8407688     
   1717165076.0960941        2726865.0975084305        1369405903.2236564     
   1647301475.9163349       -5267779.8786762953        1370497386.8609176     
   1601654951.4184775        292436385.40612954        1464129032.2300737     
   1519957509.4657438        182361520.56781095        1447941972.8363030     
   1447126646.6346893        101841919.46841568        1439496847.7925262     
   1383162362.9253116        50877582.107942402        1438793657.0987365     
   1328064658.3376031        29468508.486373603        1445832400.7549381     
   2572961464.9406476       -119091784.08738422        1115388709.4316642     
   2496547437.8131266       -86318540.929904580        1116139430.4512761     
   2417946553.4842887       -60834821.776826262        1119969898.4394765     
   2337158811.9541240       -42640626.628161550        1126880113.3962524     
   2254184213.2226439       -31735955.483891010        1136870075.3216105     
   2269749879.2178569       -79547926.165552735        1205275541.1992781     
   2198851317.4594393       -56712601.820115447        1202185516.8811090     
   2126437777.8849852       -38927203.528132439        1202551777.1426027     
   2052509260.4944916       -26191731.289616823        1206374321.9837592     
   1977065765.2879579       -18506185.104565740        1213653151.4045658     
   1961196549.5430853       -41606591.429317236        1290311767.0090284     
   1896889274.8997076       -28386439.372133970        1284164856.6359112     
   1831738901.8255732       -17976615.417471409        1281850768.4535277     
   1765745430.3206813       -10377119.565335393        1283369502.4618855     
   1698908860.3850324       -5587951.8157203197        1288721058.6609752     
   1647301475.9163349       -5267779.8786762953        1370497386.8609176     
   1590661310.1339314       -1340053.5859684348        1362077449.7156744     
   1533849925.3060541        2016942.5551609397        1357866872.3722458     
   1476867321.4326975        4803208.5446923971        1357865654.8306341     
   1419713498.5138705        7018744.3826531172        1362073797.0908353     
   1328064658.3376031        29468508.486373603        1445832400.7549381     
   1280167423.1621094        24426555.538386524        1435923296.1204019     
   1232770848.3264241        21053470.389752269        1430600088.8987596     
   1185874933.8305457        19349253.040481269        1429862779.0900073     
   1139479679.6744742        19313903.490563035        1433711366.6941497     
   2254184213.2226439       -31735955.483891010        1136870075.3216105     
   2150028391.6949139       -30042384.673364282        1129438265.9356756     
   2046175866.8224454       -27337825.011966348        1126381096.8530159     
   1942626638.6052241       -23622276.499746203        1127698568.0736234     
   1839380707.0432668       -18895739.136646032        1133390679.5975039     
   1977065765.2879579       -18506185.104565740        1213653151.4045658     
   1884244837.0140069       -17831457.288869739        1206329654.8474638     
   1791753663.4028299       -16057547.263935328        1203585784.2580359     
   1699592244.4544158       -13184455.029791832        1205421539.6362784     
   1607760580.1687694       -9212180.5864136219        1211836920.9821978     
   1698908860.3850324       -5587951.8157203197        1288721058.6609752     
   1618008498.6917264       -5756364.9967921376        1281536742.6081331     
   1537464349.6686976       -4737402.6102664471        1279137038.1873670     
   1457276413.3159487       -2531064.6561453342        1281521945.3986778     
   1377444689.6334822        862648.86558508873        1288691464.2420588     
   1419713498.5138705        7018744.3826531172        1362073797.0908353     
   1351319376.7280650        6182892.2028672099        1355059529.2176850     
   1283307925.6200521        6622608.9490586519        1353034858.6410155     
   1215679145.1898317        8337894.6212179661        1355999785.3608201     
   1148433035.4373977        11328749.219343007        1363954309.3771024     
   1139479679.6744742        19313903.490563035        1433711366.6941497     
   1084177471.1230323        17986314.310126662        1426898014.6761215     
   1029284391.2568891        18022487.414017618        1425279245.6189768     
   974800440.07605505        19422422.802270532        1428855059.5227058     
   920725617.58052516        22186120.474871218        1437625456.3873138     
   1839380707.0432668       -18895739.136646032        1133390679.5975039     
   1743966984.7001340       -10474623.789351225        1127014299.3175640     
   1649136722.9887002       -108639.66972291470        1124633319.0059512     
   1554889921.9089820        12202213.222286582        1126247738.6626546     
   1461226581.4609690        26457934.886646748        1131857558.2876813     
   1607760580.1687694       -9212180.5864136219        1211836920.9821978     
   1522612080.6729100       -2157125.0015889406        1206589954.1706321     
   1437844484.7809892        6167609.2630313039        1205559157.2184470     
   1353457792.4930110        15762022.207463384        1208744530.1256416     
   1269452003.8089767        26626113.831700504        1216146072.8922150     
   1377444689.6334822        862648.86558508873        1288691464.2420588     
   1303192184.1021957        6740876.0231297016        1284337594.3664780     
   1229118025.1470835        13213591.767920434        1284420664.2413363     
   1155222212.7681499        20280796.099973142        1288940673.8666270     
   1081504746.9653902        27942489.019279480        1297897623.2423544     
   1148433035.4373977        11328749.219343007        1363954309.3771024     
   1085707294.9879875        16219379.284801781        1360257219.9051168     
   1022957344.0869864        21029307.844955444        1361217840.0746193     
   960183182.73439896        25758534.899819314        1366836169.8856156     
   897384810.93021941        30407060.449384719        1377112209.3380971     
   920725617.58052516        22186120.474871218        1437625456.3873138     
   870157413.33028460        26278384.783412129        1434348830.7865338     
   819362441.60070014        29614757.494140327        1435950684.7182901     
   768340702.39175057        32195238.606984466        1442431018.1825981     
   717092195.70345604        34019828.122012258        1453789831.1794503     
   1461226581.4609690        26457934.886646748        1131857558.2876813     
   1356597882.9997344        37384399.047119558        1125179006.2845802     
   1251359580.9837723        46278851.358505011        1122427963.8891959     
   1145511675.4130914        53141291.820820391        1123604431.1015351     
   1039054166.2876828        57971720.434042573        1128708407.9216013     
   1269452003.8089767        26626113.831700504        1216146072.8922150     
   1174531520.6835151        34092689.417512894        1210387575.4918425     
   1079148964.0380709        40019019.936713815        1208967862.2592599     
   983304333.87264991        44405105.389324307        1211886933.1944733     
   886997630.18724537        47250945.775320619        1219144788.2974796     
   1081504746.9653902        27942489.019279480        1297897623.2423544     
   997467549.34733391        32301697.081922710        1293231298.8185790     
   913115808.24403656        35612426.860436708        1293315033.1226652     
   828449523.65550506        37874678.354830801        1298148826.1546164     
   743468695.58172786        39088451.565077931        1307732677.9144332     
   897384810.93021941        30407060.449384719        1377112209.3380971     
   825405968.99118721        32011422.040337116        1373710176.2647898     
   753260113.60166609        33059072.129651845        1375469476.4794166     
   680947244.76164269        33550010.717295259        1382390109.9819734     
   608467362.47112989        33484237.803309411        1394472076.7724726     
   717092195.70345604        34019828.122012258        1453789831.1794503     
   658346779.61508191        33221864.292770535        1451824207.8304808     
   599581880.11095917        32358955.744367689        1455431192.3295124     
   540797497.19108391        31431102.476787835        1464610784.6765413     
   481993630.85545242        30438304.490023687        1479362984.8715804     
   1039054166.2876828        57971720.434042573        1128708407.9216013     
   922264183.75457323        55506786.496325463        1125776809.1613591     
   803317461.57049119        45852720.388700038        1128799733.2504108     
   682213999.73545134        29009522.111212254        1137777180.1887598     
   558953798.24943173        4977191.6637972891        1152709149.9764121     
   886997630.18724537        47250945.775320619        1219144788.2974796     
   785503999.95461035        44532606.565737009        1216625645.9106402     
   681829738.86962414        34545497.848310858        1219976883.6606805     
   575974846.93224943        17289619.622925550        1229198501.5476038     
   467939324.14251500       -7235028.1103306711        1244290499.5714133     
   743468695.58172786        39088451.565077931        1307732677.9144332     
   657031009.89982367        36044584.758731395        1305598118.8326950     
   568388802.16415596        25652311.106501371        1309249797.1754231     
   477542072.37471271        7911630.6083517671        1318687712.9426229     
   384490820.53149921       -17177456.735691756        1333911866.1342926     
   608467362.47112989        33484237.803309411        1394472076.7724726     
   536845213.59020561        30042721.075281352        1392694227.9275253     
   462994651.45411074        19173160.163345411        1396618473.7946389     
   386915676.06283486        875555.06747558713        1406244814.3738115     
   308608287.41639048       -24850094.212289035        1421573249.6650348     
   481993630.85545242        30438304.490023687        1479362984.8715804     
   424946611.02574182        26527015.515340924        1477913973.1951313     
   365647286.73947233        15108045.018798172        1482082913.5183306     
   304095657.99661297       -3818606.9997137934        1491869805.8411648     
   240291724.79719216       -30252940.540099859        1507274650.1636541     
   558953798.24943173        4977191.6637972891        1152709149.9764121     
   462312379.25998664       -32612727.522173673        1162120118.4432542     
   353623376.74290007       -110361258.46695580        1179060225.4818714     
   232886790.69819668       -228268401.17046034        1203529471.0922618     
   100102621.12583509       -386334155.63282007        1235527855.2744234     
   467939324.14251500       -7235028.1103306711        1244290499.5714133     
   390362805.33369094       -41370732.844448209        1242787726.6115122     
   302605098.78703386       -109443730.03800650        1247623996.4991052     
   204666204.50255346       -211454019.69097710        1258799309.2342076     
   96546122.480240628       -347401601.80338907        1276313664.8168244     
   384490820.53149921       -17177456.735691756        1333911866.1342926     
   322578928.40539271       -48879029.067340195        1323672813.5024016     
   252352244.33126667       -108296574.55904660        1318582707.9937558     
   173810768.30911809       -195430093.21083134        1318641549.6083512     
   86954500.338944390       -310279585.02269530        1323849338.3461883     
   308608287.41639048       -24850094.212289035        1421573249.6650348     
   258960748.47510707       -55137616.190806657        1404775379.1159408     
   202864813.37560338       -106919792.03006266        1391936359.9658220     
   140320482.11788952       -180196621.73001027        1383056192.2146826     
   71327754.701954618       -274968105.29070288        1378134875.8625185     
   240291724.79719216       -30252940.540099859        1507274650.1636541     
   199508265.54281956       -60146494.214900419        1486095423.4521239     
   154142805.92005312       -105313382.45101649        1467684952.4153097     
   104195345.92886686       -165753605.24853203        1452043237.0532084     
   49665885.569274411       -241467162.60740429        1439170277.3658216     
   100102621.12583509       -386334155.63282007        1235527855.2744234     
   85237581.887155324       -546342307.08885026        1196873565.8648865     
   57814761.718656510       -748209728.31095529        1154876498.0479741     
   17834160.620365977       -991936419.29904091        1109536651.8236632     
  -34704221.407753706       -1277522380.0531960        1060854027.1919870     
   96546122.480240628       -347401601.80338907        1276313664.8168244     
   79655718.563561976       -488654104.73219883        1221993559.3762777     
   51403321.561829835       -667779917.94450903        1165130032.9306753     
   11788931.475030243       -884779041.44037879        1105723085.4800191     
  -39187451.696828544       -1139651475.2197874        1043772717.0242921     
   86954500.338944390       -310279585.02269530        1323849338.3461883     
   70322610.036628485       -432091275.93652600        1255258502.6935062     
   43524514.493997991       -587790317.65140247        1184923603.4380908     
   6560213.7110589445       -777376710.16730690        1112844640.5799408     
  -40570292.312201679       -1000850453.4842817        1039021614.1190451     
   71327754.701954618       -274968105.29070288        1378134875.8625185     
   57238256.306349754       -376653820.70186841        1296668395.8165786     
   34178340.515181959       -508240927.43157226        1214257209.5702214     
   2148007.3284457624       -669729425.47983456        1130901317.1234519     
  -38852743.253855944       -861119314.84665370        1046600718.4762794     
   49665885.569274411       -241467162.60740429        1439170277.3658216     
   40402657.372726887       -322341739.02821410        1346223238.7454860     
   23364799.625371486       -429131747.28505021        1253130851.3270581     
  -1447687.6728012264       -561837187.37794137        1159893115.1105611     
  -34034804.521795958       -720458059.30691123        1066510030.0959667     
   1601654951.4184775        292436385.40612954        1464129032.2300737     
   1519957509.4657438        182361520.56781095        1447941972.8363030     
   1447126646.6346893        101841919.46841568        1439496847.7925262     
   1383162362.9253116        50877582.107942402        1438793657.0987365     
   1328064658.3376031        29468508.486373603        1445832400.7549381     
   1159670387.7707667        168522979.38532752        1443959173.2720332     
   1112075978.9782972        111168603.23889571        1440790675.3095026     
   1068869621.7293279        68441065.570796907        1443947078.8067527     
   1030051316.0238613        40340366.381037414        1453428383.7637782     
   995621061.86189198        26866505.669606090        1469234590.1805811     
   734814995.51827919        49748324.783092678        1442743934.4052873     
   717274954.48546243        43899837.708361417        1447369049.0328007     
   699644437.41797161        37749763.851383835        1456902032.2298698     
   681923444.31580520        31298103.212150902        1471342883.9965045     
   664111975.17896497        24544855.790673822        1490691604.3327041     
   327088774.66101581       -63887578.400576681        1460483315.6298409     
   335554435.98724121       -19444776.023791730        1467677094.0061855     
   339451093.70061857        9768014.3101679534        1478361708.0618742     
   338778747.80114371        23750792.601284310        1492537157.7969155     
   333537398.28882098        22503558.849576488        1510203443.2113044     
  -63508274.801021807       -172384730.16567498        1497177316.9456902     
  -33085576.516364019       -78865237.957553402        1501714810.2296600     
  -11710409.422730045       -15504183.052846598        1508326106.3027654     
   617226.47987583559        17698434.548434969        1517011205.1650074     
   3897331.1914608297        20742614.846314281        1527770106.8163848     
   1328064658.3376031        29468508.486373603        1445832400.7549381     
   1280167423.1621094        24426555.538386524        1435923296.1204019     
   1232770848.3264241        21053470.389752269        1430600088.8987596     
   1185874933.8305457        19349253.040481269        1429862779.0900073     
   1139479679.6744742        19313903.490563035        1433711366.6941497     
   995621061.86189198        26866505.669606090        1469234590.1805811     
   959186374.00144815        20466531.160593927        1460316394.8053889     
   923424216.78121352        16308325.452276289        1455943035.6968088     
   888334590.20119202        14391888.544669628        1456114512.8548393     
   853917494.26137352        14717220.437743425        1460830826.2794895     
   664111975.17896497        24544855.790673822        1490691604.3327041     
   639022517.07277071        16751664.452393144        1482964833.5673249     
   614777459.90719032        11773142.916156918        1479741837.9222791     
   591376803.68222272        9609291.1819633543        1481022617.3975677     
   568820548.39786696        10260109.249810487        1486807171.9931884     
   333537398.28882098        22503558.849576488        1510203443.2113044     
   319675852.37607980        13281955.413793385        1503868612.4062114     
   306830577.70435452        7447922.7813935280        1501996495.5751708     
   295001574.27364492        5001460.9523795098        1504587092.7181838     
   284188842.08394873        5942569.9267448187        1511640403.8352525     
   3897331.1914608297        20742614.846314281        1527770106.8163848     
   1146379.9113732623        10057404.044783877        1523027731.3220446     
  -416429.82729497901        3332665.0479835211        1522707008.6554809     
  -791098.02454500343        568397.85591142089        1526807938.8166907     
   22375.319623497897        1764602.4685670456        1535330521.8056762     
   1139479679.6744742        19313903.490563035        1433711366.6941497     
   1084177471.1230323        17986314.310126662        1426898014.6761215     
   1029284391.2568891        18022487.414017618        1425279245.6189768     
   974800440.07605505        19422422.802270532        1428855059.5227058     
   920725617.58052516        22186120.474871218        1437625456.3873138     
   853917494.26137352        14717220.437743425        1460830826.2794895     
   812440084.69015312        14258449.951996744        1454562129.8035088     
   771169699.45273864        14489760.578937113        1453532814.4988124     
   730106338.54912996        15411152.318561643        1457742880.3654058     
   689250001.97932863        17022625.170882791        1467192327.4032845     
   568820548.39786696        10260109.249810487        1486807171.9931884     
   541295932.69375515        10708555.924828649        1480847342.6491709     
   513776236.97194856        11173402.540865093        1480171692.6868470     
   486261461.23245132        11654649.097930044        1484780222.1062214     
   458751605.47526151        12152295.596023232        1494672930.9072938     
   284188842.08394873        5942569.9267448187        1511640403.8352525     
   270745015.13383079        7336632.2285955995        1505753653.2131114     
   257104003.81452188        8073413.2998085618        1505195880.1830792     
   243265808.12601769        8152913.1403702497        1509967084.7451563     
   229230428.06832516        7575131.7503045648        1520067266.8993311     
   22375.319623497897        1764602.4685670456        1535330521.8056762     
   787332.01038135414        4142678.8633033508        1529281061.4953344     
   1152999.9804511208        5189792.8557446366        1528605376.9875069     
   1119379.2298290241        4905944.4458804037        1533303468.2821965     
   686469.75852071354        3291133.6337287934        1543375335.3794074     
   920725617.58052516        22186120.474871218        1437625456.3873138     
   870157413.33028460        26278384.783412129        1434348830.7865338     
   819362441.60070014        29614757.494140327        1435950684.7182901     
   768340702.39175057        32195238.606984466        1442431018.1825981     
   717092195.70345604        34019828.122012258        1453789831.1794503     
   689250001.97932863        17022625.170882791        1467192327.4032845     
   650965214.89539039        19526483.458336502        1464080380.4842300     
   612553131.33877659        21606020.170205295        1465905291.7038817     
   574013751.30949426        23261235.306512415        1472667061.0622396     
   535347074.80753481        24492128.867228359        1484365688.5593047     
   458751605.47526151        12152295.596023232        1494672930.9072938     
   432917031.57522827        13117786.667663887        1491841712.1777570     
   407054632.20920396        13990526.186002165        1494005730.1930916     
   381164407.37718081        14770514.151009962        1501164984.9532924     
   355246357.07916611        15457750.562713489        1513319476.4583623     
   229230428.06832516        7575131.7503045648        1520067266.8993311     
   216012863.36980638        7052294.4114250019        1517632825.8671091     
   202866944.21197128        6768275.5414910764        1520252000.1859167     
   189792670.59481797        6723075.1404992864        1527924789.8557558     
   176790042.51835063        6916693.2084563151        1540651194.8766239     
   686469.75852071354        3291133.6337287934        1543375335.3794074     
   252710.27911861558        1330006.6895996805        1541453721.5522866     
  -9932.6529202990660       -60731.763320209313        1544644101.6823611     
  -101459.03759621340       -881081.72502905712        1552946475.7696276     
  -21868.874906565354       -1131043.1955200576        1566360843.8140862     
   717092195.70345604        34019828.122012258        1453789831.1794503     
   658346779.61508191        33221864.292770535        1451824207.8304808     
   599581880.11095917        32358955.744367689        1455431192.3295124     
   540797497.19108391        31431102.476787835        1464610784.6765413     
   481993630.85545242        30438304.490023687        1479362984.8715804     
   535347074.80753481        24492128.867228359        1484365688.5593047     
   491181490.85904688        23867020.291741580        1482974214.6752722     
   447007161.68943256        23212760.979168564        1487185498.7615168     
   402824087.29869550        22529350.929518282        1496999540.8180320     
   358632267.68684113        21816790.142811954        1512416340.8448248     
   355246357.07916611        15457750.562713489        1513319476.4583623     
   325746748.47705340        15031340.202911749        1512514679.9330044     
   296249132.84844768        14611573.088131160        1517342791.5001926     
   266753510.19334921        14198449.218377814        1527803811.1599278     
   237259880.51175842        13791968.593648754        1543897738.9122107     
   176790042.51835063        6916693.2084563151        1540651194.8766239     
   162042552.46911097        6714824.0263005570        1540445603.6036692     
   147307793.58800679        6555392.0712640062        1545903070.5455372     
   132585765.87503815        6438397.3433463499        1557023595.7022219     
   117876469.33020324        6363839.8425421603        1573807179.0737283     
  -21868.874906565354       -1131043.1955200576        1566360843.8140862     
   68902.835219299188       -1082528.2380854068        1566766985.6872752     
   183143.90810684225       -955782.07144585531        1572866335.8975525     
   320854.34376411594       -750804.69557525602        1584658894.4449260     
   482034.14218251896       -467596.11049742246        1602144661.3293905     
   481993630.85545242        30438304.490023687        1479362984.8715804     
   424946611.02574182        26527015.515340924        1477913973.1951313     
   365647286.73947233        15108045.018798172        1482082913.5183306     
   304095657.99661297       -3818606.9997137934        1491869805.8411648     
   240291724.79719216       -30252940.540099859        1507274650.1636541     
   358632267.68684113        21816790.142811954        1512416340.8448248     
   316380762.64216238        19103396.847297728        1509295706.3415518     
   272434974.10718483        10742391.917457074        1511661847.5934637     
   226794902.08191878       -3266224.6466778070        1519514764.6005723     
   179460546.56637874       -22922452.845063411        1532854457.3628576     
   237259880.51175842        13791968.593648754        1543897738.9122107     
   209429100.98222485        12164034.196285486        1539756506.0427742     
   180462058.92869037        6748558.0522538796        1540970872.6840770     
   150358754.35115436       -2454459.8384495601        1547540838.8361070     
   119119187.24961740       -15445019.475821331        1559466404.4988801     
   117876469.33020324        6363839.8425421603        1573807179.0737283     
   104091626.04595478        5708927.5623942800        1569296372.2988033     
   89728541.203989670        3126543.4231954776        1570009988.7901614     
   74787214.804308355       -1383312.5750591159        1575948028.5477943     
   59267646.846914425       -7820640.4323567525        1587110491.5717094     
   482034.14218251896       -467596.11049742246        1602144661.3293905     
   368337.83335049916       -261923.05438385488        1597915305.1096377     
   234420.93307954966       -123651.96973407963        1598779195.9117153     
   80283.441389823944       -52782.856479184426        1604736333.7356155     
  -94074.641732837976       -49315.714668797606        1615786718.5813434     
   240291724.79719216       -30252940.540099859        1507274650.1636541     
   199508265.54281956       -60146494.214900419        1486095423.4521239     
   154142805.92005312       -105313382.45101649        1467684952.4153097     
   104195345.92886686       -165753605.24853203        1452043237.0532084     
   49665885.569274411       -241467162.60740429        1439170277.3658216     
   179460546.56637874       -22922452.845063411        1532854457.3628576     
   148254561.54703057       -45522226.507107586        1507242365.3222704     
   113611833.68006232       -79577809.661221579        1484545625.4771192     
   75532362.965476722       -125089202.30739124        1464764237.8274014     
   34016149.403270543       -182056404.44563088        1447898202.3731325     
   119119187.24961740       -15445019.475821331        1559466404.4988801     
   97909523.667366415       -30625358.964503966        1530757580.9034746     
   74408374.758285120       -53443982.875950120        1505110706.0242379     
   48615740.522372052       -83900891.210171670        1482525779.8611650     
   20531620.959631279       -121996083.96714804        1463002802.4142632     
   59267646.846914425       -7820640.4323567525        1587110491.5717094     
   48473151.903834395       -15455891.587060709        1556641070.1957455     
   36532429.154719196       -26911902.095214859        1529380194.0566800     
   23445478.599560075       -42188671.956847534        1505327863.1545064     
   9212300.2383637354       -61286201.171940386        1484484077.4892261     
  -94074.641732837976       -49315.714668797606        1615786718.5813434     
  -54553.743559190327       -13824.374755933131        1584892833.1990790     
  -16003.130639654246        18432.680975865595        1557354089.5744352     
   21577.197030711377        47455.452543068925        1533170487.7074142     
   58187.239453736591        73243.939954552538        1512342027.5980058     
   49665885.569274411       -241467162.60740429        1439170277.3658216     
   40402657.372726887       -322341739.02821410        1346223238.7454860     
   23364799.625371486       -429131747.28505021        1253130851.3270581     
  -1447687.6728012264       -561837187.37794137        1159893115.1105611     
  -34034804.521795958       -720458059.30691123        1066510030.0959667     
   34016149.403270543       -182056404.44563088        1447898202.3731325     
   29847228.923211336       -241874171.05776986        1347447944.5647955     
   19848181.577444315       -321125693.88893777        1246202469.9960063     
   4019007.3659742773       -419810972.93911636        1144161778.6667564     
  -17640293.711212456       -537930008.20834637        1041325870.5770299     
   20531620.959631279       -121996083.96714804        1463002802.4142632     
   19600242.589281395       -161314070.45265663        1357317911.8838933     
   14783240.038325310       -213584137.54018441        1250187936.6306899     
   6080613.3067777455       -278806285.22968668        1141612876.6546528     
  -6507637.6053726375       -356980513.52119130        1031592731.9557950     
   9212300.2383637354       -61286201.171940386        1484484077.4892261     
   9661698.3709353171       -80661437.212878197        1375833140.7027783     
   8169975.0080141425       -106507078.23879460        1265087251.2311294     
   4737130.1496138424       -138823124.24963871        1152246409.0742805     
  -636836.20427972078       -177609575.24546027        1037310614.2322142     
   58187.239453736591        73243.939954552538        1512342027.5980058     
   31596.268176928195        83728.661576548373        1402993631.0214567     
   8386.4865117942500        105484.01523954071        1290900413.7973199     
  -11442.105520070792        138510.00101204161        1176062375.9256189     
  -27889.507937882336        182806.61883208135        1058479517.4063188     
  -63508274.801021807       -172384730.16567498        1497177316.9456902     
  -33085576.516364019       -78865237.957553402        1501714810.2296600     
  -11710409.422730045       -15504183.052846598        1508326106.3027654     
   617226.47987583559        17698434.548434969        1517011205.1650074     
   3897331.1914608297        20742614.846314281        1527770106.8163848     
  -398447524.85256225       -102350831.65384322        1511847381.4343152     
  -373100616.16501129       -48713194.442744166        1504250095.6055660     
  -352985337.62390196       -12514324.386455014        1499878058.4507573     
  -338101689.22924006        6245778.5150102228        1498731269.9698908     
  -328449670.98102403        7567114.2616572082        1500809730.1629655     
  -745903892.83247840       -36072068.520525813        1509537996.6785197     
  -722342928.35687149       -21329332.690892160        1494257816.2890582     
  -700197692.98313081       -11305693.867480516        1483354330.4583449     
  -679468186.71125710       -6001152.0502915382        1476827539.1863792     
  -660154409.54124880       -5415707.2393217981        1474677442.4731569     
  -1105877378.7407675        26451559.234279692        1490249162.6782978     
  -1080812513.0919483        3286347.2979924083        1471737972.2801352     
  -1053347475.5004172       -11878291.495923281        1458754922.3255281     
  -1023482265.9661725       -19042357.147459447        1451300012.8144703     
  -991216884.48921704       -18205849.656627238        1449373243.7469645     
  -1478367982.5774291        85220051.610575140        1453980879.4336593     
  -1448509370.3702402        25133845.523912370        1436690563.5788057     
  -1412434685.1757603       -14232117.271781445        1426079834.0523069     
  -1370143926.9939871       -32877836.776496768        1422148690.8541646     
  -1321637095.8249242       -30803312.990247667        1424897133.9843862     
   3897331.1914608297        20742614.846314281        1527770106.8163848     
   1146379.9113732623        10057404.044783877        1523027731.3220446     
  -416429.82729497901        3332665.0479835211        1522707008.6554809     
  -791098.02454500343        568397.85591142089        1526807938.8166907     
   22375.319623497897        1764602.4685670456        1535330521.8056762     
  -328449670.98102403        7567114.2616572082        1500809730.1629655     
  -318218477.76893711        2053728.6866442561        1497316177.5051415     
  -307376626.15380186       -1424128.8782071322        1498193738.8843238     
  -295924116.13561291       -2866458.4328799844        1503442414.3005161     
  -283860947.71437520       -2273259.9773886502        1513062203.7537184     
  -660154409.54124880       -5415707.2393217981        1474677442.4731569     
  -637085468.38203168       -5800586.5513264239        1471758982.3237493     
  -613983351.95813417       -6074881.6477291584        1473161097.4205842     
  -590848060.26955497       -6238592.5285270810        1478883787.7636635     
  -567679593.31629455       -6291719.1937205493        1488927053.3529835     
  -991216884.48921704       -18205849.656627238        1449373243.7469645     
  -955454591.92791283       -13505541.669131815        1446356145.7778771     
  -920236607.24029839       -10619593.260603964        1447609084.2642674     
  -885562930.42637122       -9548004.4310330153        1453132059.2061327     
  -851433561.48613393       -10290775.180428445        1462925070.6034775     
  -1321637095.8249242       -30803312.990247667        1424897133.9843862     
  -1273325848.4065828       -21061136.666782320        1421107667.8675191     
  -1226136392.0002973       -15058263.716839075        1421537699.4153645     
  -1180068726.6060665       -12794694.140411019        1426187228.6279228     
  -1135122852.2238951       -14270427.937512875        1435056255.5051947     
   22375.319623497897        1764602.4685670456        1535330521.8056762     
   787332.01038135414        4142678.8633033508        1529281061.4953344     
   1152999.9804511208        5189792.8557446366        1528605376.9875069     
   1119379.2298290241        4905944.4458804037        1533303468.2821965     
   686469.75852071354        3291133.6337287934        1543375335.3794074     
  -283860947.71437520       -2273259.9773886502        1513062203.7537184     
  -269400931.63782430       -517751.88122628629        1506582117.0812333     
  -255259317.69349775        176415.77418595552        1505406585.2795889     
  -241436105.88139576       -190757.01114889979        1509535608.3487856     
  -227931296.20152244       -1619270.2372464389        1518969186.2888203     
  -567679593.31629455       -6291719.1937205493        1488927053.3529835     
  -539722291.94444919       -5218111.6232791245        1482110708.0048957     
  -512002506.11636627       -4936222.5320448577        1480529696.5959749     
  -484520235.83204561       -5446051.9200189412        1484184019.1262207     
  -457275481.09148562       -6747599.7871960104        1493073675.5956314     
  -851433561.48613393       -10290775.180428445        1462925070.6034775     
  -810176748.90949559       -9958400.3628597558        1455866834.2663257     
  -769076565.28815222       -10148122.062942833        1453974710.9366689     
  -728133010.62211275       -10859940.280707508        1457248700.6145003     
  -687346084.91137218       -12093855.016130090        1465688803.2998273     
  -1135122852.2238951       -14270427.937512875        1435056255.5051947     
  -1080764302.5329623       -14738618.099968135        1427850495.8655248     
  -1026481495.2088645       -15459282.818536937        1425741628.3016703     
  -972274430.25160444       -16432422.093234777        1428729652.8136330     
  -918143107.66117287       -17658035.924025118        1436814569.4014122     
   686469.75852071354        3291133.6337287934        1543375335.3794074     
   252710.27911861558        1330006.6895996805        1541453721.5522866     
  -9932.6529202990660       -60731.763320209313        1544644101.6823611     
  -101459.03759621340       -881081.72502905712        1552946475.7696276     
  -21868.874906565354       -1131043.1955200576        1566360843.8140862     
  -227931296.20152244       -1619270.2372464389        1518969186.2888203     
  -215191362.93008637       -3605439.9897713289        1516910350.5919259     
  -202349418.91360608       -5251573.9254812226        1519878909.8558009     
  -189405464.15208945       -6557672.0444051102        1527874864.0804489     
  -176359498.64552873       -7523734.3465140387        1540898213.2658710     
  -457275481.09148562       -6747599.7871960104        1493073675.5956314     
  -431603566.48755020       -8831325.7736066729        1490796994.5929091     
  -405898746.94090116       -10805368.617638737        1493463109.5545430     
  -380161022.45152956       -12669728.319261998        1501072020.4805298     
  -354390393.01944077       -14424404.878494963        1513623727.3708694     
  -687346084.91137218       -12093855.016130090        1465688803.2998273     
  -648983900.39328241       -14347650.661939174        1463113653.5552411     
  -610657916.73479819       -16722115.839766681        1465396700.7785895     
  -572368133.93591785       -19217250.549608260        1472537944.9698727     
  -534114551.99664140       -21833054.791459143        1484537386.1290884     
  -918143107.66117287       -17658035.924025118        1436814569.4014122     
  -867332364.64727104       -20154414.654731989        1433860327.4789209     
  -816626928.29530168       -23001815.591881543        1435679683.5279403     
  -766026798.60525477       -26200238.735438764        1442272637.5484746     
  -715531975.57713449       -29749684.085417718        1453639189.5405231     
  -21868.874906565354       -1131043.1955200576        1566360843.8140862     
   68902.835219299188       -1082528.2380854068        1566766985.6872752     
   183143.90810684225       -955782.07144585531        1572866335.8975525     
   320854.34376411594       -750804.69557525602        1584658894.4449260     
   482034.14218251896       -467596.11049742246        1602144661.3293905     
  -176359498.64552873       -7523734.3465140387        1540898213.2658710     
  -161601693.63062537       -7721536.2020005882        1540740241.0547781     
  -146777959.62837818       -7699574.7663432434        1546228236.1594069     
  -131888296.63879132       -7457850.0395524055        1557362198.5797489     
  -116932704.66185519       -6996362.0215977244        1574142128.3158081     
  -354390393.01944077       -14424404.878494963        1513623727.3708694     
  -325100529.04654998       -14909015.850941435        1512951177.3041780     
  -295702276.46173823       -15032331.450317293        1517877353.5318274     
  -266195635.26500341       -14794351.676616773        1528402256.0538187     
  -236580605.45634490       -14195076.529836960        1544525884.8701468     
  -534114551.99664140       -21833054.791459143        1484537386.1290884     
  -490427603.41255391       -22644967.184901893        1483399794.4354701     
  -446589806.59196764       -22954052.123351738        1487813688.0148165     
  -402601161.53487849       -22760309.606791586        1497779066.8671296     
  -358461668.24128306       -22063739.635209054        1513295930.9924040     
  -715531975.57713449       -29749684.085417718        1453639189.5405231     
  -657582916.72864103       -30929390.203897297        1452086092.4486542     
  -599440550.01906013       -31464736.785423487        1456037239.6083765     
  -541104875.44841206       -31355723.830058545        1465492631.0196857     
  -482575893.01667213       -30602351.337716430        1480452266.6825800     
   482034.14218251896       -467596.11049742246        1602144661.3293905     
   368337.83335049916       -261923.05438385488        1597915305.1096377     
   234420.93307954966       -123651.96973407963        1598779195.9117153     
   80283.441389823944       -52782.856479184426        1604736333.7356155     
  -94074.641732837976       -49315.714668797606        1615786718.5813434     
  -116932704.66185519       -6996362.0215977244        1574142128.3158081     
  -103374017.36903368       -6028073.9787657857        1569514383.8934538     
  -89270794.384346396       -3244666.9630499631        1570134622.5305336     
  -74623035.707801700        1353859.0255255885        1576002844.2270491     
  -59430741.339401335        7767503.9869520180        1587119048.9829922     
  -236580605.45634490       -14195076.529836960        1544525884.8701468     
  -208907431.59726554       -12331542.610872045        1540158634.5756934     
  -180124965.76304185       -6770368.7747592032        1541194103.3782814     
  -150233207.95366561        2488444.9785288498        1547632291.2779105     
  -119232158.16914737        15444898.648959562        1559473198.2745807     
  -358461668.24128306       -22063739.635209054        1513295930.9924040     
  -316231904.85135514       -19172328.950737283        1509848057.1563530     
  -272328093.20299864       -10700757.404837221        1511957638.4549522     
  -226750233.29620120        3350975.0025338233        1519624674.8881989     
  -179498325.13096967        22982868.271349214        1532849166.4561009     
  -482575893.01667213       -30602351.337716430        1480452266.6825800     
  -425347437.13130665       -26550432.998371094        1478582651.6354370     
  -365880176.70422232       -15035832.853300348        1482425227.7605467     
  -304174111.73541123        3941449.0975302458        1491979995.0579140     
  -240229242.22487712        30381412.854100019        1507246953.5275385     
  -94074.641732837976       -49315.714668797606        1615786718.5813434     
  -54553.743559190327       -13824.374755933131        1584892833.1990790     
  -16003.130639654246        18432.680975865595        1557354089.5744352     
   21577.197030711377        47455.452543068925        1533170487.7074142     
   58187.239453736591        73243.939954552538        1512342027.5980058     
  -59430741.339401335        7767503.9869520180        1587119048.9829922     
  -48571047.822176434        15447996.214563832        1556655801.2747009     
  -36563608.114473760        26954309.077099178        1529396390.5416639     
  -23408422.216305859        42286442.574522242        1505340816.7838860     
  -9105490.1276687980        61444396.706840441        1484489080.0013635     
  -119232158.16914737        15444898.648959562        1559473198.2745807     
  -97984591.411044404        30640701.950838350        1530780757.4619303     
  -74440561.986750439        53491380.806689709        1505140848.8421743     
  -48600069.896263972        83996935.216514945        1482553472.4153130     
  -20463115.139593996        122157365.18028218        1463018628.1813414     
  -179498325.13096967        22982868.271349214        1532849166.4561009     
  -148295184.51017433        45564292.834029287        1507267701.7607579     
  -113646864.74746822        79629647.869747937        1484587464.4759548     
  -75553365.842854708        125178933.37849122        1464808454.6016786     
  -34014687.796325624        182212149.36028370        1447930672.1379375     
  -240229242.22487712        30381412.854100019        1507246953.5275385     
  -199502827.11957228        60218768.864123181        1486116634.1711948     
  -154182516.39662790        105369110.26627523        1467736237.4430163     
  -104268310.05605879        165832437.06051055        1452105763.3430078     
  -49760208.097864985        241608749.24682951        1439225211.8711662     
   58187.239453736591        73243.939954552538        1512342027.5980058     
   31596.268176928195        83728.661576548373        1402993631.0214567     
   8386.4865117942500        105484.01523954071        1290900413.7973199     
  -11442.105520070792        138510.00101204161        1176062375.9256189     
  -27889.507937882336        182806.61883208135        1058479517.4063188     
  -9105490.1276687980        61444396.706840441        1484489080.0013635     
  -9599630.2761099823        80852521.916646704        1375835634.3865800     
  -8149675.2423381135        106740964.40050066        1265090977.6319745     
  -4755625.0263365358        139109724.15845433        1152255109.7375376     
   582520.37188871950        177958801.19048136        1037328030.7032918     
  -20463115.139593996        122157365.18028218        1463018628.1813414     
  -19557348.728759244        161523367.59920818        1357324299.8530316     
  -14766773.143106312        213838733.93419212        1250192369.8926535     
  -6091388.3826248944        279103464.18526822        1141622838.3002102     
   6468805.5526764840        357317558.35241902        1031615705.0757015     
  -34014687.796325624        182212149.36028370        1447930672.1379375     
  -29841559.089778796        242096265.70923191        1347459627.4208045     
  -19842907.215795979        321398792.61630422        1246204590.5793607     
  -4018732.1743969619        420119730.08142370        1144165561.6136122     
   17630966.034430146        538259078.10464644        1041342540.5235255     
  -49760208.097864985        241608749.24682951        1439225211.8711662     
  -40452261.359149769        322571216.24678344        1346241617.0899067     
  -23378077.460404903        429421140.44684058        1253127639.6920924     
   1462343.5983545780        562158521.84694970        1159883279.6777251     
   34069001.817148745        720783360.44716334        1066508537.0467850     
  -1478367982.5774291        85220051.610575140        1453980879.4336593     
  -1448509370.3702402        25133845.523912370        1436690563.5788057     
  -1412434685.1757603       -14232117.271781445        1426079834.0523069     
  -1370143926.9939871       -32877836.776496768        1422148690.8541646     
  -1321637095.8249242       -30803312.990247667        1424897133.9843862     
  -1884484762.6001458        40449593.233844876        1361066718.0159302     
  -1829124740.7013156        9921635.9791914225        1351502997.9099703     
  -1770380433.7913399       -9325371.2383075953        1348055026.1233747     
  -1708251841.8702233       -17291428.418666840        1350722802.6561444     
  -1642738964.9379551       -13976535.561857224        1359506327.5082757     
  -2283720668.5629416       -2256602.9249141216        1278230519.8116677     
  -2204470202.7124586       -3709601.0695513487        1273089642.8157654     
  -2124667239.8269720       -3320942.4308604002        1273500676.1302338     
  -2044311779.9064858       -1090627.0088315010        1279463619.7550735     
  -1963403822.9510031        2981345.1965247393        1290978473.6902802     
  -2676075700.4658251       -42898536.865696073        1205472284.8208613     
  -2574545756.4036651       -15759865.622319221        1201450498.2961860     
  -2475295103.2826486        3781169.1505771875        1202416784.0728827     
  -2378323741.1027799        15724567.452984452        1208371142.1509569     
  -2283631669.8640547        20070329.284908891        1219313572.5304065     
  -3061549858.3087869       -81476208.588503361        1142792013.0435250     
  -2939351401.7749310       -26229157.679091215        1136585564.3512313     
  -2822264024.1583719        11980963.506001592        1134803349.9513216     
  -2710287725.4591036        33154154.966795087        1137445369.8437948     
  -2603422505.6771231        37290416.703288078        1144511624.0286474     
  -1321637095.8249242       -30803312.990247667        1424897133.9843862     
  -1273325848.4065828       -21061136.666782320        1421107667.8675191     
  -1226136392.0002973       -15058263.716839075        1421537699.4153645     
  -1180068726.6060665       -12794694.140411019        1426187228.6279228     
  -1135122852.2238951       -14270427.937512875        1435056255.5051947     
  -1642738964.9379551       -13976535.561857224        1359506327.5082757     
  -1585057802.2377286       -9060481.7689592838        1354701937.5905075     
  -1528156083.7536619       -6742575.3632637262        1353999397.7319179     
  -1472033809.4857664       -7022816.3447985649        1357398707.9325049     
  -1416690979.4340305       -9901204.7135367393        1364899868.1922677     
  -1963403822.9510031        2981345.1965247393        1290978473.6902802     
  -1896688880.9846990        2970435.6541237831        1285558564.5668201     
  -1830411036.4386706        1502534.7108150721        1284122857.8969994     
  -1764570289.3129163       -1422357.6334111691        1286671353.6808243     
  -1699166639.6074336       -5804241.3785474300        1293204051.9182847     
  -2283631669.8640547        20070329.284908891        1219313572.5304065     
  -2208219084.6474962        15031615.602456689        1213677548.7964561     
  -2132901250.0553160        9677066.5054094791        1211908079.9106128     
  -2057678166.0875235        4006681.9937373400        1214005165.8728774     
  -1982549832.7441118       -1979537.9325407743        1219968806.6832449     
  -2603422505.6771231        37290416.703288078        1144511624.0286474     
  -2519648413.2261224        27123058.076034427        1139058890.2794168     
  -2435626724.6036062        17781020.020499587        1137355063.7727561     
  -2351357439.8095880        9264302.5366401672        1139400144.5086663     
  -2266840558.8440561        1572905.6244894266        1145194132.4871492     
  -1135122852.2238951       -14270427.937512875        1435056255.5051947     
  -1080764302.5329623       -14738618.099968135        1427850495.8655248     
  -1026481495.2088645       -15459282.818536937        1425741628.3016703     
  -972274430.25160444       -16432422.093234777        1428729652.8136330     
  -918143107.66117287       -17658035.924025118        1436814569.4014122     
  -1416690979.4340305       -9901204.7135367393        1364899868.1922677     
  -1349266209.3092098       -10499940.305498421        1357213324.5380037     
  -1281948761.5034819       -11456416.961100936        1354510953.4715652     
  -1214738636.0168414       -12770634.680327475        1356792754.9929600     
  -1147635832.8492968       -14442593.463205755        1364058729.1021807     
  -1699166639.6074336       -5804241.3785474300        1293204051.9182847     
  -1618997704.7286925       -6630139.1040018201        1284999880.9717913     
  -1538967672.1212974       -7919044.4006184340        1281667163.1251400     
  -1459076541.7852530       -9670957.2683960795        1283205898.3783276     
  -1379324313.7205563       -11885877.707340181        1289616086.7313571     
  -1982549832.7441118       -1979537.9325407743        1219968806.6832449     
  -1889958788.7914095       -3129214.4954742193        1211210165.1668913     
  -1797538227.0623140       -4847165.1370975971        1207210257.2623897     
  -1705288147.5568225       -7133389.8574004173        1207969082.9697397     
  -1613208550.2749403       -9987888.6564021707        1213486642.2889457     
  -2266840558.8440561        1572905.6244894266        1145194132.4871492     
  -2162149461.4973602        2833.5200849771500        1135844177.1233015     
  -2057660426.3265300       -2240779.1705381870        1131140235.8833146     
  -1953373453.3315585       -5157932.4473557472        1131082308.7671986     
  -1849288542.5124564       -8748626.3104070425        1135670395.7749438     
  -918143107.66117287       -17658035.924025118        1436814569.4014122     
  -867332364.64727104       -20154414.654731989        1433860327.4789209     
  -816626928.29530168       -23001815.591881543        1435679683.5279403     
  -766026798.60525477       -26200238.735438764        1442272637.5484746     
  -715531975.57713449       -29749684.085417718        1453639189.5405231     
  -1147635832.8492968       -14442593.463205755        1364058729.1021807     
  -1084851136.9999340       -17739287.030860364        1360134606.1718686     
  -1022176241.4178447       -21401981.489423096        1360832306.2596922     
  -959611146.10302961       -25430676.838902175        1366151829.3656523     
  -897155851.05548692       -29825373.079289734        1376093175.4897492     
  -1379324313.7205563       -11885877.707340181        1289616086.7313571     
  -1304999307.7596645       -16112978.929110646        1284716840.2536559     
  -1230788595.6713922       -20721059.726273656        1284287641.8407145     
  -1156692177.4557457       -25710120.098861516        1288328491.4925318     
  -1082710053.1127160       -31080160.046837986        1296839389.2091060     
  -1613208550.2749403       -9987888.6564021707        1213486642.2889457     
  -1527776876.9264562       -15275490.349465251        1207607029.7242820     
  -1442463991.0559409       -20959050.302424014        1206045690.2710025     
  -1357269892.6633987       -27038568.515295148        1208802623.9291005     
  -1272194581.7488215       -33514044.988045990        1215877830.6985812     
  -1849288542.5124564       -8748626.3104070425        1135670395.7749438     
  -1753183844.5003181       -15226821.291957498        1128805174.5837486     
  -1657202427.5714905       -22115953.217870533        1126106451.5505564     
  -1561344291.7259903       -29416022.088214278        1127574226.6753681     
  -1465609436.9637990       -37127027.902915537        1133208499.9581809     
  -715531975.57713449       -29749684.085417718        1453639189.5405231     
  -657582916.72864103       -30929390.203897297        1452086092.4486542     
  -599440550.01906013       -31464736.785423487        1456037239.6083765     
  -541104875.44841206       -31355723.830058545        1465492631.0196857     
  -482575893.01667213       -30602351.337716430        1480452266.6825800     
  -897155851.05548692       -29825373.079289734        1376093175.4897492     
  -825494180.89734244       -31416821.827505797        1373174521.0176291     
  -753695456.65280330       -32551423.621064484        1375394802.3697443     
  -681759678.32187057       -33229178.459987044        1382754019.5460937     
  -609686845.90454292       -33450086.344250560        1395252172.5466788     
  -1082710053.1127160       -31080160.046837986        1296839389.2091060     
  -998379510.00878191       -33396472.933934033        1292489547.9529309     
  -913968166.59313905       -35443451.448670805        1292913334.0936322     
  -829476022.86579430       -37221095.591065347        1298110747.6312194     
  -744903078.82673967       -38729405.361095846        1308081788.5656919     
  -1272194581.7488215       -33514044.988045990        1215877830.6985812     
  -1176238904.0629632       -36868343.523195624        1210031173.2545447     
  -1080258679.8400774       -40140820.268257499        1208592834.7800386     
  -984253909.08018017       -43331475.223277152        1211562815.2750645     
  -888224591.78326011       -46440308.388224900        1218941114.7396224     
  -1465609436.9637990       -37127027.902915537        1133208499.9581809     
  -1359072363.0598724       -41832433.595255613        1125799396.9224820     
  -1252566996.3936162       -46643530.079831004        1122433304.4289627     
  -1146093336.9650249       -51560317.356628358        1123110222.4776258     
  -1039651384.7741091       -56582795.425665796        1127830151.0684659     
  -482575893.01667213       -30602351.337716430        1480452266.6825800     
  -425347437.13130665       -26550432.998371094        1478582651.6354370     
  -365880176.70422232       -15035832.853300348        1482425227.7605467     
  -304174111.73541123        3941449.0975302458        1491979995.0579140     
  -240229242.22487712        30381412.854100019        1507246953.5275385     
  -609686845.90454292       -33450086.344250560        1395252172.5466788     
  -537762254.03653157       -30096676.894739181        1393184338.7019694     
  -463588701.20090091       -19246730.886501268        1396870228.0308433     
  -387166187.39765459       -900248.31953926384        1406309840.5333097     
  -308494712.62678897        24942770.806148380        1421503176.2093554     
  -744903078.82673967       -38729405.361095846        1308081788.5656919     
  -658163688.11513364       -36038905.943115354        1305827585.0869577     
  -569165180.01001561       -25818015.213433862        1309368636.7831388     
  -477907554.51139271       -8066733.1720640957        1318704943.6542408     
  -384390811.61925572        17214940.181013599        1333836505.7002547     
  -888224591.78326011       -46440308.388224900        1218941114.7396224     
  -786551739.36711681       -44377120.143508375        1216512390.7904041     
  -682609613.13156724       -34749685.834107101        1219920454.0174317     
  -576398213.07661927       -17558005.460038632        1229165304.4207118     
  -467917539.20226300        7197920.9787150323        1244246942.0002389     
  -1039651384.7741091       -56582795.425665796        1127830151.0684659     
  -922926407.79248452       -55111319.495923430        1125238755.8123045     
  -803922000.56554961       -46041742.748491257        1128525679.7337294     
  -682638163.09333909       -29374065.183464944        1137690922.8327284     
  -559074895.37581527       -5108286.8007337749        1152734485.1093063     
  -240229242.22487712        30381412.854100019        1507246953.5275385     
  -199502827.11957228        60218768.864123181        1486116634.1711948     
  -154182516.39662790        105369110.26627523        1467736237.4430163     
  -104268310.05605879        165832437.06051055        1452105763.3430078     
  -49760208.097864985        241608749.24682951        1439225211.8711662     
  -308494712.62678897        24942770.806148380        1421503176.2093554     
  -258917709.83101788        55247589.802680880        1404743358.2478004     
  -202892871.43360609        107045194.13800727        1391933885.9615448     
  -140420197.43454343        180335583.81216928        1383074759.3506024     
  -71499687.833849147        275118758.82510829        1378165978.4149623     
  -384390811.61925572        17214940.181013599        1333836505.7002547     
  -322533440.99833471        49016156.204455614        1323610119.1148336     
  -252374294.79176080        108489957.51341219        1318534501.2518511     
  -173913372.99954045        195636344.10785410        1318609652.1113145     
  -87150675.621659279        310455315.98783261        1323835571.6932168     
  -467917539.20226300        7197920.9787150323        1244246942.0002389     
  -390350020.62151670        41524468.069471613        1242716916.7722919     
  -302626786.47110450        109703400.39244412        1247538083.3139305     
  -204747836.75102633        211734717.94763571        1258710441.6251500     
  -96713171.461300746        347618420.73499084        1276233991.7059472     
  -559074895.37581527       -5108286.8007337749        1152734485.1093063     
  -462367448.70056063        32772525.397745669        1162063751.2201829     
  -353650346.47163141        110685522.77512614        1178944632.1477847     
  -232923588.68903083        228630705.33142135        1203377127.8921003     
  -100187175.35275373        386608073.06663227        1235361238.4531500     
  -49760208.097864985        241608749.24682951        1439225211.8711662     
  -40452261.359149769        322571216.24678344        1346241617.0899067     
  -23378077.460404903        429421140.44684058        1253127639.6920924     
   1462343.5983545780        562158521.84694970        1159883279.6777251     
   34069001.817148745        720783360.44716334        1066508537.0467850     
  -71499687.833849147        275118758.82510829        1378165978.4149623     
  -57346518.218389541        376854988.98182946        1296672941.0344064     
  -34223652.024796486        508490207.73233515        1214243435.4471188     
  -2131089.2530647814        670024415.07662857        1130877461.6530755     
   38931170.096805245        861457611.01471782        1046575019.6523207     
  -87150675.621659279        310455315.98783261        1323835571.6932168     
  -70455384.815685272        432274378.79544210        1255237127.7011659     
  -43586938.013457179        588003961.59056234        1184896129.9121954     
  -6545335.2149877250        777644064.37315309        1112812578.3263021     
   40669423.579733610        1001194687.1432539        1038986472.9435065     
  -96713171.461300746        347618420.73499084        1276233991.7059472     
  -79778861.151020885        488829385.68766427        1221934177.0901885     
  -51467935.426389635        667962402.02151465        1165085723.0873284     
  -11780394.287405908        885017469.73654389        1105688629.6973732     
   39283762.265939891        1139994588.8327665        1043742896.9203297     
  -100187175.35275373        386608073.06663227        1235361238.4531500     
  -85316947.224416077        546520009.65844202        1196764089.2014725     
  -57866644.263606340        748365529.02516174        1154812214.9725218     
  -17836266.470333040        992144631.16676390        1109505615.7662930     
   34774186.155415773        1277857316.0832736        1060844291.5827965     
  -3061549858.3087869       -81476208.588503361        1142792013.0435250     
  -2939351401.7749310       -26229157.679091215        1136585564.3512313     
  -2822264024.1583719        11980963.506001592        1134803349.9513216     
  -2710287725.4591036        33154154.966795087        1137445369.8437948     
  -2603422505.6771231        37290416.703288078        1144511624.0286474     
  -3422659979.8776560       -46604332.489324093        1041922682.6362281     
  -3296247262.0574913       -16419129.632856011        1030677312.6731122     
  -3172456047.9397755        5027727.5487873554        1024032951.2654569     
  -3051286337.5245104        17736239.055603743        1021989598.4132584     
  -2932738130.8116946        21706404.887583017        1024547254.1165137     
  -3785531916.3251219       -12261000.853727579        929475666.77456701     
  -3654399867.8955760       -6986125.2532715797        916095879.95795000     
  -3523399747.9536414       -2151011.2781677246        907493875.95986450     
  -3392531556.4993081        2244341.0715816021        903669654.78031182     
  -3261795293.5325756        6199931.7959899902        904623216.41929066     
  -4150165667.6511974        21553786.318288803        805450965.45854688     
  -4013809219.2891960        2069855.4596509933        792841266.20573914     
  -3875095124.1999612       -9555252.9748597145        785186124.03454614     
  -3734023382.3834887       -13321538.985243320        782485538.94495535     
  -3590593993.8397703       -9229002.5714960098        784739510.93697155     
  -4516561233.8558683        54840029.026724815        669848578.68816388     
  -4374475316.2383499        10748812.505909681        660913471.41648805     
  -4227542176.6787386       -17184997.541283369        657109695.48949885     
  -4075761815.1770539       -28961401.114893913        658437250.90719140     
  -3919134231.7332850       -24580398.214881420        664896137.66956234     
  -2603422505.6771231        37290416.703288078        1144511624.0286474     
  -2519648413.2261224        27123058.076034427        1139058890.2794168     
  -2435626724.6036062        17781020.020499587        1137355063.7727561     
  -2351357439.8095880        9264302.5366401672        1139400144.5086663     
  -2266840558.8440561        1572905.6244894266        1145194132.4871492     
  -2932738130.8116946        21706404.887583017        1024547254.1165137     
  -2838243274.2459517        14560729.590856433        1019384494.6514891     
  -2743698234.4730906        7582331.6511900425        1018022258.0328016     
  -2649103011.4931154        771211.06857812405        1020460544.2604502     
  -2554457605.3060226       -5872632.1569756269        1026699353.3344429     
  -3261795293.5325756        6199931.7959899902        904623216.41929066     
  -3156432199.6984758        2120181.7758698463        899520116.11334538     
  -3051216335.6216474       -2450334.1018275023        898269154.25750482     
  -2946147701.3020997       -7511615.8371208906        900870330.85176826     
  -2841226296.7398252       -13063663.429996729        907323645.89613807     
  -3590593993.8397703       -9229002.5714960098        784739510.93697155     
  -3474215189.5836940       -10198585.368926525        779465754.66498244     
  -3358181028.0492826       -12316977.238582134        778095752.44686711     
  -3242491509.2365403       -15584178.180456877        780629504.28262174     
  -3127146633.1454649       -20000188.194568038        787067010.17225289     
  -3919134231.7332850       -24580398.214881420        664896137.66956234     
  -3791592243.9016066       -22395571.843531370        659221410.30640531     
  -3664592311.7559896       -22017597.759046316        657502052.60088861     
  -3538134435.2964320       -23446475.961428642        659738064.55300891     
  -3412218614.5229349       -26682206.450685263        665929446.16277099     
  -2266840558.8440561        1572905.6244894266        1145194132.4871492     
  -2162149461.4973602        2833.5200849771500        1135844177.1233015     
  -2057660426.3265300       -2240779.1705381870        1131140235.8833146     
  -1953373453.3315585       -5157932.4473557472        1131082308.7671986     
  -1849288542.5124564       -8748626.3104070425        1135670395.7749438     
  -2554457605.3060226       -5872632.1569756269        1026699353.3344429     
  -2437336292.9728093       -5886163.1701021194        1017411162.2848722     
  -2320339313.0542221       -6314135.5653166771        1012679459.1569254     
  -2203466665.5502601       -7156549.3426084518        1012504243.9506019     
  -2086718350.4609320       -8413404.5020254850        1016885516.6658975     
  -2841226296.7398252       -13063663.429996729        907323645.89613807     
  -2711930558.5693512       -11597390.096594572        898187903.88229156     
  -2582681423.0522761       -10286458.941184640        893519123.58782399     
  -2453478890.1885943       -9130869.9637542963        893317305.01273274     
  -2324322959.9783144       -8130623.1643306017        897582448.15702486     
  -3127146633.1454649       -20000188.194568038        787067010.17225289     
  -2985932258.2870002       -17130847.259430408        778174401.91556013     
  -2844686756.3207021       -14157749.298172116        773659229.17601073     
  -2703410127.2465668       -11080894.310789943        773521491.95359290     
  -2562102371.0645971       -7900282.2972921133        777761190.24830902     
  -3412218614.5229349       -26682206.450685263        665929446.16277099     
  -3259341392.1257520       -22486534.658596992        657370656.38468230     
  -3106355312.8594961       -17928006.636270642        653099775.92148316     
  -2953260376.7241707       -13006622.383705974        653116804.77317822     
  -2800056583.7197857       -7722381.9009418488        657421742.93976223     
  -1849288542.5124564       -8748626.3104070425        1135670395.7749438     
  -1753183844.5003181       -15226821.291957498        1128805174.5837486     
  -1657202427.5714905       -22115953.217870533        1126106451.5505564     
  -1561344291.7259903       -29416022.088214278        1127574226.6753681     
  -1465609436.9637990       -37127027.902915537        1133208499.9581809     
  -2086718350.4609320       -8413404.5020254850        1016885516.6658975     
  -1979653759.3031662       -13095994.808378577        1009601150.7271072     
  -1872808100.3247075       -18508359.045748591        1006166603.3557487     
  -1766181373.5255568       -24650497.214149952        1006581874.5518219     
  -1659773578.9057121       -31522409.313568652        1010846964.3153296     
  -2324322959.9783144       -8130623.1643306017        897582448.15702486     
  -2207203274.5051179       -11289048.444539189        889767344.52531171     
  -2090398172.3072221       -15496084.642409563        885485379.87046134     
  -1973907653.3846264       -20751731.757939935        884736554.19247413     
  -1857731717.7373259       -27055989.791128516        887520867.49135303     
  -2562102371.0645971       -7900282.2972921133        777761190.24830902     
  -2435832390.1061697       -9805982.2004221678        769303755.97835302     
  -2309972643.5190406       -13079130.007858157        764062781.09468889     
  -2184523131.3031960       -17719725.719591737        762038265.59732401     
  -2059483853.4586380       -23727769.335603118        763230209.48625076     
  -2800056583.7197857       -7722381.9009418488        657421742.93976223     
  -2665541106.1063285       -8646796.0760406256        648210385.08624053     
  -2531531513.9601593       -11257495.142105818        641898807.02844489     
  -2398027807.2812634       -15554479.099071622        638487008.76636767     
  -2265029986.0696507       -21537747.946981072        637974990.30002069     
  -1465609436.9637990       -37127027.902915537        1133208499.9581809     
  -1359072363.0598724       -41832433.595255613        1125799396.9224820     
  -1252566996.3936162       -46643530.079831004        1122433304.4289627     
  -1146093336.9650249       -51560317.356628358        1123110222.4776258     
  -1039651384.7741091       -56582795.425665796        1127830151.0684659     
  -1659773578.9057121       -31522409.313568652        1010846964.3153296     
  -1542868866.2836134       -35448321.753285587        1001995672.1451156     
  -1425879117.5751705       -39090780.571847737        996896593.08070946     
  -1308804332.7803714       -42449785.769227922        995549727.12211430     
  -1191644511.8992279       -45525337.345457315        997955074.26932311     
  -1857731717.7373259       -27055989.791128516        887520867.49135303     
  -1731290216.2152605       -30451663.923694015        877363586.73131394     
  -1604646935.2828298       -33174740.021695971        870667721.64071023     
  -1477801874.9400239       -35225218.085119247        867433272.21954453     
  -1350755035.1868517       -36603098.113980412        867660238.46781754     
  -2059483853.4586380       -23727769.335603118        763230209.48625076     
  -1924336412.8548126       -26842460.106464028        751903140.68107545     
  -1788870449.5165963       -28895408.429366469        743746690.10896206     
  -1653085963.4439936       -29886614.304309011        738760857.76992369     
  -1516982954.6369956       -29816077.731266201        736945643.66393685     
  -2265029986.0696507       -21537747.946981072        637974990.30002069     
  -2122007456.2022669       -24620710.301621079        625614333.99439752     
  -1978549660.2764747       -26252785.794892073        616133498.48546898     
  -1834656598.2922676       -26433974.426783800        609532483.77323794     
  -1690328270.2496531       -25164276.197312713        605811289.85769653     
  -1039651384.7741091       -56582795.425665796        1127830151.0684659     
  -922926407.79248452       -55111319.495923430        1125238755.8123045     
  -803922000.56554961       -46041742.748491257        1128525679.7337294     
  -682638163.09333909       -29374065.183464944        1137690922.8327284     
  -559074895.37581527       -5108286.8007337749        1152734485.1093063     
  -1191644511.8992279       -45525337.345457315        997955074.26932311     
  -1061446040.2881466       -42401869.922410607        994145611.73106933     
  -929824413.25993800       -34534551.108941555        994440827.84712875     
  -796779630.81460369       -21923380.905051917        998840722.61750579     
  -662311692.95214069       -4568359.3107337356        1007345296.0421959     
  -1350755035.1868517       -36603098.113980412        867660238.46781754     
  -1212150613.2985001       -33347902.503301799        861633721.34793210     
  -1072979310.8211980       -28203104.929432511        857938242.35909820     
  -933241127.75493371       -21168705.392371595        856573801.50131917     
  -792936064.09971035       -12244703.892103612        857540398.77459192     
  -1516982954.6369956       -29816077.731266201        736945643.66393685     
  -1375040126.8235598       -27949417.238616645        727703084.66289937     
  -1233386693.2493286       -27047404.209988415        719017923.26964033     
  -1092022653.9143100       -27110038.645388782        710890159.48417890     
  -950948008.81850553       -28137320.544846177        703319793.30650377     
  -1690328270.2496531       -25164276.197312713        605811289.85769653     
  -1550114580.8633022       -26206414.128313005        592353701.67596281     
  -1411046560.5443397       -31067448.950603545        577679870.57875371     
  -1273124209.2927527       -39747380.664151132        561789796.56607437     
  -1136347527.1085446       -52246209.268955290        544683479.63792217     
  -559074895.37581527       -5108286.8007337749        1152734485.1093063     
  -462367448.70056063        32772525.397745669        1162063751.2201829     
  -353650346.47163141        110685522.77512614        1178944632.1477847     
  -232923588.68903083        228630705.33142135        1203377127.8921003     
  -100187175.35275373        386608073.06663227        1235361238.4531500     
  -662311692.95214069       -4568359.3107337356        1007345296.0421959     
  -547172606.32436192        25652891.847087353        1020864444.6911830     
  -421150157.57488316        92152016.743909746        1042777754.1117014     
  -284244346.70368659        194929015.37978673        1073085224.3037405     
  -136455173.71077889        333983887.75470918        1111786855.2673092     
  -792936064.09971035       -12244703.892103612        857540398.77459192     
  -656958063.36282182        11039168.472019762        873935420.95772934     
  -511222993.93619227        66846603.135290295        899567149.86720550     
  -355730855.81981438        155177600.09771740        934435585.50301099     
  -190481649.01369366        276032159.35928595        978540727.86515105     
  -950948008.81850553       -28137320.544846177        703319793.30650377     
  -791723819.81592202       -11068644.727434009        721276680.01983523     
  -623868855.55555868        34769281.949249923        749312819.41431010     
  -447383116.03742135        109376459.48517427        787428211.48991489     
  -262266601.26149517        212752887.88039997        835622856.24666929     
  -1136347527.1085446       -52246209.268955290        544683479.63792217     
  -951469875.68367612       -40670547.751284063        562888221.87748718     
  -759087742.43298519       -4079946.8142101765        592014762.75300527     
  -559201127.35648847        57525593.542224258        632063102.26445735     
  -351810030.45416397        144146073.31807381        683033240.41185749     
  -100187175.35275373        386608073.06663227        1235361238.4531500     
  -85316947.224416077        546520009.65844202        1196764089.2014725     
  -57866644.263606340        748365529.02516174        1154812214.9725218     
  -17836266.470333040        992144631.16676390        1109505615.7662930     
   34774186.155415773        1277857316.0832736        1060844291.5827965     
  -136455173.71077889        333983887.75470918        1111786855.2673092     
  -127337828.25509161        483028467.53650492        1090202782.3890231     
  -95087632.392718136        709182548.67393804        1070055991.6959771     
  -39704586.123660445        1012446131.1669908        1051346483.1881596     
   38811310.552097321        1392819215.0156827        1034074256.8656050     
  -190481649.01369366        276032159.35928595        978540727.86515105     
  -173425737.19490135        418316817.04182094        986281302.86350918     
  -122684199.39520544        672886894.66070175        1000251167.2096190     
  -38257035.614607692        1039742392.2159288        1020450320.9034828     
   79855754.146906614        1518883309.7075305        1046878763.9450848     
  -262266601.26149517        212752887.88039997        835622856.24666929     
  -223580674.04384571        352385058.17439979        884999650.62492561     
  -140656345.27108589        639478566.98544085        945397741.51345074     
  -13493614.943200767        1074033414.3135746        1016817128.9122349     
   157907516.93982553        1656049600.1588109        1099257812.8212888     
  -351810030.45416397        144146073.31807381        683033240.41185749     
  -277802638.80191529        285233190.93424118        786357825.67327833     
  -149004070.02033815        608957565.64816999        905495714.60746396     
   34585675.890587687        1115319197.4599252        1040446907.2144264     
   272966598.93086255        1804318086.3695266        1191211403.4941702     
  -4516561233.8558683        54840029.026724815        669848578.68816388     
  -4374475316.2383499        10748812.505909681        660913471.41648805     
  -4227542176.6787386       -17184997.541283369        657109695.48949885     
  -4075761815.1770539       -28961401.114893913        658437250.90719140     
  -3919134231.7332850       -24580398.214881420        664896137.66956234     
  -4905135944.2233906        2917894.2039718628        492463262.03311038     
  -4739728050.7640762       -4240642.0468842983        489795257.56690574     
  -4573217642.5674686       -7724129.1734559536        491412976.95663446     
  -4405604719.6335831       -7532567.1757383347        497316420.20230639     
  -4236889281.9623976       -3665956.0537207127        507505587.30392253     
  -5284512863.6760578       -46244903.344319820        328776237.72857952     
  -5098199015.7713480       -17195565.744161844        328006510.99557555     
  -4914527360.3341503        3046463.6309826374        330676900.62977141     
  -4733497897.3644533        14481184.781113625        336787406.63116640     
  -4555110626.8622704        17108597.706210613        346338028.99976003     
  -5654691992.2138367       -92648363.618149042        178787505.77456212     
  -5449888211.2601538       -28115958.585886240        175547231.70250848     
  -5251471329.9787588        15126780.872055054        174901466.50890943     
  -5059441348.3696747        37079854.755649328        176850210.19376171     
  -4873798266.4328833        37743263.064924955        181393462.75707766     
  -6015673329.8367538       -136292486.61752009        42497066.171065524     
  -5794795637.2304859       -37001820.572061777        32417419.687696531     
  -5584049551.5013161        28516822.549731016        24086674.594043318     
  -5383435072.6492414        60263442.747895479        17504830.890103806     
  -5192952200.6742592        58238040.022401094        12671888.575879112     
  -3919134231.7332850       -24580398.214881420        664896137.66956234     
  -3791592243.9016066       -22395571.843531370        659221410.30640531     
  -3664592311.7559896       -22017597.759046316        657502052.60088861     
  -3538134435.2964320       -23446475.961428642        659738064.55300891     
  -3412218614.5229349       -26682206.450685263        665929446.16277099     
  -4236889281.9623976       -3665956.0537207127        507505587.30392253     
  -4100891750.0619445       -7865773.2393364906        501414446.92427295     
  -3964843583.3887196       -11896807.849068165        499345580.83765990     
  -3828744781.9427319       -15759059.882915497        501298989.04406834     
  -3692595345.7239766       -19452529.340866089        507274671.54351145     
  -4555110626.8622704        17108597.706210613        346338028.99976003     
  -4410466394.7919178        6581483.7939679623        340521947.80558890     
  -4265178837.4899774       -1801212.6796452999        338795045.53983665     
  -4119247954.9564385       -8039491.7145974636        341157322.20250201     
  -3972673747.1913176       -12133353.310943842        347608777.79358661     
  -4873798266.4328833        37743263.064924955        181393462.75707766     
  -4720316178.0915289        20946199.256372690        176543912.95034623     
  -4565598074.0597534        8269187.7492291927        175850446.70741826     
  -4409643954.3375654       -287771.45653557777        179313064.02830169     
  -4252453818.9249544       -4724678.3608968258        186931764.91299462     
  -5192952200.6742592        58238040.022401094        12671888.575879112     
  -5030441099.9607763        35228373.147909880        9480342.3585463855     
  -4866101293.0980644        18314393.437529564        10511784.340409836     
  -4699932780.0860987        7496100.8913254738        15766214.521472745     
  -4531935560.9248943        2773495.5092458725        25243632.901737437     
  -3412218614.5229349       -26682206.450685263        665929446.16277099     
  -3259341392.1257520       -22486534.658596992        657370656.38468230     
  -3106355312.8594961       -17928006.636270642        653099775.92148316     
  -2953260376.7241707       -13006622.383705974        653116804.77317822     
  -2800056583.7197857       -7722381.9009418488        657421742.93976223     
  -3692595345.7239766       -19452529.340866089        507274671.54351145     
  -3528316953.1573257       -14719751.507403374        498884657.95610762     
  -3364097397.3060417       -10183096.058489799        494852918.40539372     
  -3199936678.1701269       -5842562.9941400290        495179452.89136916     
  -3035834795.7495761       -1698152.3143451214        499864261.41403133     
  -3972673747.1913176       -12133353.310943842        347608777.79358661     
  -3796793142.3929224       -6803156.8174133301        339191897.88168848     
  -3621139067.8943257       -2228061.3232302666        335203656.72828287     
  -3445711523.6955395        1591933.1715993881        335644054.33336157     
  -3270510509.7965531        4656826.6670839787        340513090.69692463     
  -4252453818.9249544       -4724678.3608968258        186931764.91299462     
  -4064769959.8325338        1263249.4113636017        178292376.16143286     
  -3877480324.6243558        5937097.5695118904        174151990.89015713     
  -3690584913.3004265        9296866.1134979725        174510609.09915680     
  -3504083725.8607321        11342555.043344975        179368230.78845039     
  -4531935560.9248943        2773495.5092458725        25243632.901737437     
  -4332247405.4761772        9479467.1789450645        16186092.795329625     
  -4133121167.4961348        14312380.619718313        11697920.891004948     
  -3934556846.9847732        17272235.831553936        11779117.188751714     
  -3736554443.9420919        18359032.814464808        16429681.688588340     
  -2800056583.7197857       -7722381.9009418488        657421742.93976223     
  -2665541106.1063285       -8646796.0760406256        648210385.08624053     
  -2531531513.9601593       -11257495.142105818        641898807.02844489     
  -2398027807.2812634       -15554479.099071622        638487008.76636767     
  -2265029986.0696507       -21537747.946981072        637974990.30002069     
  -3035834795.7495761       -1698152.3143451214        499864261.41403133     
  -2893916775.0555730       -4545656.9698879719        490817724.77681696     
  -2752161955.1081882       -7937164.1141673326        485009462.36285901     
  -2610570335.9074273       -11872673.747194052        482439474.17216349     
  -2469141917.4533005       -16352185.868990064        483107760.20472497     
  -3270510509.7965531        4656826.6670839787        340513090.69692463     
  -3120222819.0861740        176369.61188924313        332031174.11677849     
  -2969755644.4017735       -3705807.5298960209        327126026.18742388     
  -2819108985.7433405       -6989704.7582446337        325797646.90886879     
  -2668282843.1108751       -9675322.0731499195        328046036.28110373     
  -3504083725.8607321        11342555.043344975        179368230.78845039     
  -3344459238.1981621        5519283.6692347527        171850733.10613355     
  -3184312581.8409243        1436574.6107089520        168248498.50214666     
  -3023643756.7889996       -905572.13220071793        168561526.97649011     
  -2862452763.0423837       -1507156.5594799519        172789818.52916422     
  -3736554443.9420919        18359032.814464808        16429681.688588340     
  -3566626032.3915305        11483085.202165604        10276401.744869085     
  -3395832767.4256372        7489982.3076288700        8376879.3070200412     
  -3224174649.0444069        6379724.1308931112        10731114.375028400     
  -3051651677.2478313        8152310.6719616652        17339106.948904410     
  -2265029986.0696507       -21537747.946981072        637974990.30002069     
  -2122007456.2022669       -24620710.301621079        625614333.99439752     
  -1978549660.2764747       -26252785.794892073        616133498.48546898     
  -1834656598.2922676       -26433974.426783800        609532483.77323794     
  -1690328270.2496531       -25164276.197312713        605811289.85769653     
  -2469141917.4533005       -16352185.868990064        483107760.20472497     
  -2318731881.4127736       -18067685.726285577        472666546.28606790     
  -2168112802.6551714       -19086376.526639462        464712640.35835910     
  -2017284681.1804526       -19408258.269945264        459246042.42160088     
  -1866247516.9886467       -19033330.956305146        456266752.47579664     
  -2668282843.1108751       -9675322.0731499195        328046036.28110373     
  -2511606766.0564928       -10359798.980932117        319260337.51788038     
  -2354947869.6263332       -11101544.636112452        312569433.93986422     
  -2198306153.8203778       -11900559.038655043        307973325.54705483     
  -2041681618.6386538       -12756842.188608050        305472012.33945042     
  -2862452763.0423837       -1507156.5594799519        172789818.52916422     
  -2700632110.1334081       -1497050.0655314922        165395707.68984088     
  -2539054861.1899719       -2298290.1233522892        159703879.22998717     
  -2377721016.2120419       -3910876.7328799963        155714333.14958239     
  -2216630575.1996531       -6334809.8941987753        153427069.44864571     
  -3051651677.2478313        8152310.6719616652        17339106.948904410     
  -2885807913.6435156        8520561.0199379921        11072656.801953427     
  -2720433777.3460636        7323387.0117121935        6115976.2287157271     
  -2555529268.3554416        4560788.6473828554        2469065.2292045988     
  -2391094386.6716671        232765.92689275742        131923.80340963328     
  -1690328270.2496531       -25164276.197312713        605811289.85769653     
  -1550114580.8633022       -26206414.128313005        592353701.67596281     
  -1411046560.5443397       -31067448.950603545        577679870.57875371     
  -1273124209.2927527       -39747380.664151132        561789796.56607437     
  -1136347527.1085446       -52246209.268955290        544683479.63792217     
  -1866247516.9886467       -19033330.956305146        456266752.47579664     
  -1728903910.8030164       -22560442.988435745        442667050.63654792     
  -1591633504.6601357       -26331555.163070560        428649290.96632874     
  -1454436298.5600061       -30346667.480207562        414213473.46513915     
  -1317312292.5026474       -34605779.939900041        399359598.13297391     
  -2041681618.6386538       -12756842.188608050        305472012.33945042     
  -1904927566.8408549       -18084769.677944064        292981410.70474678     
  -1767174246.0612042       -20081800.561098576        280870936.32357663     
  -1628421656.2996745       -18747934.837988317        269140589.19593376     
  -1488669797.5562937       -14083172.508707762        257790369.32182530     
  -2216630575.1996531       -6334809.8941987753        153427069.44864571     
  -2078185548.9768395       -12779394.196922064        143296781.88055924     
  -1937668784.7475553       -12318185.144714952        134344806.65048838     
  -1795080282.5117762       -4951182.7375457287        126571143.75845902     
  -1650420042.2695034        9321613.0246154070        119975793.20446263     
  -2391094386.6716671        232765.92689275742        131923.80340963328     
  -2248677857.2109728       -6644316.5453516245       -6386835.8360197330     
  -2103117120.7191768       -3040708.9138892889       -10929098.052924661     
  -1954412177.1962726        11043588.821260810       -13494862.847280649     
  -1802563026.6422586        35608576.660088181       -14084130.219108678     
  -1136347527.1085446       -52246209.268955290        544683479.63792217     
  -951469875.68367612       -40670547.751284063        562888221.87748718     
  -759087742.43298519       -4079946.8142101765        592014762.75300527     
  -559201127.35648847        57525593.542224258        632063102.26445735     
  -351810030.45416397        144146073.31807381        683033240.41185749     
  -1317312292.5026474       -34605779.939900041        399359598.13297391     
  -1117694686.2676101       -14728583.952867150        421209136.84169328     
  -914451201.92823434        17234872.381968319        441559564.96781433     
  -707581839.48450458        61284589.064644396        460410882.51134670     
  -497086598.93641740        117420566.09518218        477763089.47228712     
  -1488669797.5562937       -14083172.508707762        257790369.32182530     
  -1309800548.5640714        3449064.3317714930        278759666.82464272     
  -1131184025.1889529        20138882.448546767        285808944.52632862     
  -952820227.43098056        35986281.841520131        278938202.42688698     
  -774709155.29010916        50991262.510822356        258147440.52630839     
  -1650420042.2695034        9321613.0246154070        119975793.20446263     
  -1527787462.5730586        13862397.102622390        135539811.82633460     
  -1409286212.2151740        4632083.3854341507        124762901.42853852     
  -1294916291.1958914       -18369328.127104759        87645062.011081442     
  -1184677699.5151978       -55141837.434924781        24186293.573946800     
  -1802563026.6422586        35608576.660088181       -14084130.219108678     
  -1771655428.2945337        16511414.359840155       -8450428.1532205865     
  -1748757763.0068669       -29285524.807290196       -41578564.325541019     
  -1733870030.7792792       -101782240.84132850       -113468538.73607397     
  -1726992231.6117125       -200978733.74212652       -224120351.38480616     
  -351810030.45416397        144146073.31807381        683033240.41185749     
  -277802638.80191529        285233190.93424118        786357825.67327833     
  -149004070.02033815        608957565.64816999        905495714.60746396     
   34585675.890587687        1115319197.4599252        1040446907.2144264     
   272966598.93086255        1804318086.3695266        1191211403.4941702     
  -497086598.93641740        117420566.09518218        477763089.47228712     
  -388259600.28848553        223064300.83784693        597053873.63716042     
  -230305800.43793136        492464039.58926946        735494909.40445018     
  -23225199.384740293        925619782.34946358        893086196.77413929     
   232982202.87105671        1522531529.1183414        1069827735.7462358     
  -774709155.29010916        50991262.510822356        258147440.52630839     
  -621528412.70465660        124051855.46263906        386795985.01347059     
  -424885244.84331596        341987199.33407056        537931729.03267837     
  -184779651.70607093        704797294.12517798        711554672.58391237     
   98788366.707046032        1212482139.8358815        907664815.66719484     
  -1184677699.5151978       -55141837.434924781        24186293.573946800     
  -977609076.05045080       -11804145.191515744        155584159.80221900     
  -732742403.23652649        157527044.88247770        312806173.49216545     
  -450077681.07343423        452851732.78702092        495852334.64376670     
  -129614909.56116503        874169918.52218127        704722643.25704908     
  -1726992231.6117125       -200978733.74212652       -224120351.38480616     
  -1456501590.3258533       -184503701.12452644       -96581601.996615663     
  -1153877275.6175323       -60916423.765387118        60118242.782885917     
  -819119287.48677135        169783098.33520824        245979182.95367151     
  -452227625.93360186        507594865.17718685        461001218.51577234     
 </DataArray>
 <DataArray  type="Float64" Name="VM" NumberOfComponents="1" format="ascii">
   6098520085.7614174     
   5863919200.3796320     
   5640509910.6023264     
   5427037485.5190659     
   5222604998.1624327     
   5703129525.4740324     
   5495285047.4582491     
   5293924043.7127113     
   5098555717.2717266     
   4908881759.3679380     
   5328709756.4755917     
   5144332900.6287766     
   4963079522.3128538     
   4784926036.9096823     
   4609929997.8510637     
   4972909056.6928406     
   4809515123.0800219     
   4647480529.5642128     
   4486867251.3615618     
   4327790238.4699965     
   4633825102.6166687     
   4489641717.4235783     
   4346978754.2033806     
   4205508698.3545651     
   4065046309.6822262     
   5222604998.1624327     
   5050978346.5824900     
   4881092101.1398134     
   4712887477.7679873     
   4546336785.8453789     
   4908881759.3679380     
   4747807037.1427526     
   4587815923.6118593     
   4428920848.6391220     
   4271160520.8014121     
   4609929997.8510637     
   4460484163.2909012     
   4311764734.2623777     
   4163838105.9981699     
   4016808902.0185432     
   4327790238.4699965     
   4191454721.0503230     
   4055848996.5930605     
   3921078302.0492673     
   3787318851.3230977     
   4065046309.6822262     
   3943710499.2934604     
   3823535462.2801623     
   3704648371.8334689     
   3587303960.4426141     
   4546336785.8453789     
   4346737707.5151634     
   4147090955.9234533     
   3947373964.3507576     
   3747618698.4123778     
   4271160520.8014121     
   4083859490.9971457     
   3897147433.2367120     
   3711080391.2295117     
   3525786225.8845258     
   4016808902.0185432     
   3842232123.3406882     
   3668990799.3398771     
   3497231588.1769018     
   3327190704.2203331     
   3787318851.3230977     
   3625946769.3147111     
   3466762423.3165078     
   3310009542.5240030     
   3156036652.6412201     
   3587303960.4426141     
   3439630075.9053302     
   3295081790.1319323     
   3153996199.3813362     
   3016823961.7131143     
   3747618698.4123778     
   3575192539.6278672     
   3402842448.2316327     
   3230560884.7384963     
   3058382463.3383980     
   3525786225.8845258     
   3363247654.6000643     
   3201322227.4886880     
   3040071921.5010691     
   2879614245.4221296     
   3327190704.2203331     
   3174784462.7221656     
   3023604664.6842957     
   2873792681.3982830     
   2725559021.1260052     
   3156036652.6412201     
   3014103683.1128898     
   2874079185.5583029     
   2736188425.7108040     
   2600736979.0738196     
   3016823961.7131143     
   2885761485.5109968     
   2757334020.1669636     
   2631845404.7772064     
   2509685031.8553457     
   3058382463.3383980     
   2890889455.0668693     
   2723670623.3969173     
   2556708851.4612193     
   2389990002.9067273     
   2879614245.4221296     
   2716358504.6643662     
   2553539313.0726948     
   2391183690.5483522     
   2229338627.2368641     
   2725559021.1260052     
   2568535700.0563197     
   2412451458.2383690     
   2257441152.0009212     
   2103697476.9733222     
   2600736979.0738196     
   2452261587.4465189     
   2305623704.2269306     
   2161133255.2859702     
   2019212217.5701804     
   2509685031.8553457     
   2372215489.3726668     
   2237861992.0256877     
   2107146721.8395193     
   1980753354.7409136     
   2389990002.9067273     
   2244971789.2670870     
   2101926470.0811813     
   1960870587.0477955     
   1821959618.1478357     
   2229338627.2368641     
   2086929892.2166770     
   1946010744.1224420     
   1806587936.7229702     
   1668732940.3917520     
   2103697476.9733222     
   1963362967.4288511     
   1823912656.0592799     
   1685376265.9573069     
   1547809575.6125579     
   2019212217.5701804     
   1881971917.5089648     
   1745101027.4699998     
   1608726651.0647280     
   1473023731.0130064     
   1980753354.7409136     
   1849259927.8646522     
   1717982958.1256144     
   1587274859.8665261     
   1457639559.4988954     
   1821959618.1478357     
   1780749502.8709197     
   1736144876.8678827     
   1696744115.0226142     
   1680934942.1770258     
   1668732940.3917520     
   1553015856.0467441     
   1428257233.0201616     
   1294824663.8182101     
   1158810355.9938576     
   1547809575.6125579     
   1397813128.2424800     
   1244279879.6814556     
   1084956566.0950382     
   917829094.00029552     
   1473023731.0130064     
   1328807313.8986220     
   1199039847.3316135     
   1088206502.6452875     
   1002215812.9442801     
   1457639559.4988954     
   1348777388.4806669     
   1274852285.1782441     
   1243988422.9760718     
   1263210605.3341358     
   1680934942.1770258     
   1383571572.6085007     
   1129447378.3390453     
   1010158304.2611130     
   1152729706.1088533     
   1158810355.9938576     
   1008461179.7504503     
   985315302.27022374     
   1161529896.8589895     
   1543941887.6116881     
   917829094.00029552     
   963250185.64024353     
   1145047737.7758951     
   1476549357.7686803     
   1957419174.2700822     
   1002215812.9442801     
   1164853632.3727720     
   1425522134.4879715     
   1808806467.2540278     
   2334795685.5372243     
   1263210605.3341358     
   1446873903.5295002     
   1715763289.1968307     
   2110492457.3883197     
   2663545345.8333344     
   4633825102.6166687     
   4489641717.4235783     
   4346978754.2033806     
   4205508698.3545651     
   4065046309.6822262     
   4327914756.2961121     
   4196359929.6890578     
   4066968193.5008984     
   3939867280.1916723     
   3815284313.6360297     
   4059852549.0904984     
   3937883349.4430571     
   3819583224.9854293     
   3705278713.4396300     
   3595375693.2581396     
   3837724574.4473562     
   3721643078.4190202     
   3611624426.4431839     
   3507879886.5028095     
   3410707735.2133436     
   3670744435.3055758     
   3556048020.3940101     
   3450667708.3503413     
   3354347561.3276515     
   3266957000.5951123     
   4065046309.6822262     
   3943710499.2934604     
   3823535462.2801623     
   3704648371.8334689     
   3587303960.4426141     
   3815284313.6360297     
   3707136365.5497580     
   3601266245.4342709     
   3497946388.3691950     
   3397544714.2880559     
   3595375693.2581396     
   3499711267.1602378     
   3407523695.7413568     
   3319147426.3438587     
   3234984327.1072426     
   3410707735.2133436     
   3326480828.6828065     
   3246934464.7614636     
   3172366703.8402033     
   3103124653.5829992     
   3266957000.5951123     
   3192647806.5358496     
   3124141398.6767421     
   3061594979.9915009     
   3005214307.2235765     
   3587303960.4426141     
   3439630075.9053302     
   3295081790.1319323     
   3153996199.3813362     
   3016823961.7131143     
   3397544714.2880559     
   3263980769.9250665     
   3134313544.9938474     
   3008968131.6402049     
   2888488304.9909039     
   3234984327.1072426     
   3116284522.1083159     
   3002309696.6897354     
   2893556738.9404793     
   2790636600.2487950     
   3103124653.5829992     
   2999963737.3417616     
   2902359418.3133645     
   2810849417.6513567     
   2726069828.3711371     
   3005214307.2235765     
   2918048834.3501711     
   2837203580.7247391     
   2763215104.5230756     
   2696693937.0661349     
   3016823961.7131143     
   2885761485.5109968     
   2757334020.1669636     
   2631845404.7772064     
   2509685031.8553457     
   2888488304.9909039     
   2769116538.4405799     
   2653319416.7763324     
   2541522148.0595541     
   2434250631.3671241     
   2790636600.2487950     
   2684621705.7188182     
   2583246442.0778775     
   2487039924.3055353     
   2396633022.5733366     
   2726069828.3711371     
   2634815503.0162263     
   2549295810.3643303     
   2470099799.1096678     
   2397902668.7405825     
   2696693937.0661349     
   2621122212.3609896     
   2552299240.1433702     
   2490815202.1829228     
   2437319573.5681648     
   2509685031.8553457     
   2372215489.3726668     
   2237861992.0256877     
   2107146721.8395193     
   1980753354.7409136     
   2434250631.3671241     
   2311025456.5309863     
   2192591027.2511535     
   2079679964.7769206     
   1973197100.5540729     
   2396633022.5733366     
   2289528210.6600590     
   2188895257.7851057     
   2095569187.3825064     
   2010519390.5112376     
   2397902668.7405825     
   2307850365.2858319     
   2225718497.1175985     
   2152304964.2766128     
   2088477203.3632007     
   2437319573.5681648     
   2364132653.0881472     
   2299927096.9576173     
   2245352484.1213288     
   2201069406.7986054     
   1980753354.7409136     
   1849259927.8646522     
   1717982958.1256144     
   1587274859.8665261     
   1457639559.4988954     
   1973197100.5540729     
   1856422290.3730459     
   1744122826.7265735     
   1637222234.6727080     
   1536852762.9372444     
   2010519390.5112376     
   1913603258.3353245     
   1825503156.5282483     
   1747422884.0478680     
   1680660245.4220784     
   2088477203.3632007     
   2013060257.3706012     
   1950000498.3488295     
   1900386426.2729189     
   1865257264.0463357     
   2201069406.7986054     
   2145828646.2295535     
   2105505554.1225593     
   2080883833.1279128     
   2072652227.0142806     
   1457639559.4988954     
   1348777388.4806669     
   1274852285.1782441     
   1243988422.9760718     
   1263210605.3341358     
   1536852762.9372444     
   1476150969.1115944     
   1448119498.0323327     
   1456721538.5053928     
   1505239064.7475755     
   1680660245.4220784     
   1652322642.7741196     
   1651693553.3549666     
   1681137332.5376363     
   1743256311.2895589     
   1865257264.0463357     
   1854860450.4207523     
   1867424316.1404316     
   1905154755.8856726     
   1971086339.6005254     
   2072652227.0142806     
   2069164832.1823201     
   2084899150.2636826     
   2122487450.8424964     
   2185757287.4523640     
   1263210605.3341358     
   1446873903.5295002     
   1715763289.1968307     
   2110492457.3883197     
   2663545345.8333344     
   1505239064.7475755     
   1613483401.1646593     
   1788931065.7410066     
   2066354700.5789363     
   2475989816.9993157     
   1743256311.2895589     
   1787907289.7222619     
   1884710846.9312563     
   2060584516.2677085     
   2340768149.9078012     
   1971086339.6005254     
   1969101646.0062008     
   2003667361.1781087     
   2093450408.6222379     
   2257099775.9645443     
   2185757287.4523640     
   2156349521.0699096     
   2146540726.0520995     
   2166832022.9920917     
   2228265288.5188394     
   3670744435.3055758     
   3556048020.3940101     
   3450667708.3503413     
   3354347561.3276515     
   3266957000.5951123     
   3457664414.2287350     
   3360993498.0112481     
   3271290069.3539357     
   3188831073.8511624     
   3113954667.8159347     
   3262112061.0648799     
   3183205767.7021060     
   3110868643.2157521     
   3045437234.9213042     
   2987362563.5642858     
   3086462803.0393324     
   3025186209.8536038     
   2972238406.0329928     
   2927421807.6997533     
   2890864366.5533223     
   2934869146.5394149     
   2890666473.7122006     
   2858954822.4775891     
   2838262894.2732916     
   2827858206.8911228     
   3266957000.5951123     
   3192647806.5358496     
   3124141398.6767421     
   3061594979.9915009     
   3005214307.2235765     
   3113954667.8159347     
   3049363222.9898639     
   2990722581.0307264     
   2938240299.3031797     
   2892158602.1378226     
   2987362563.5642858     
   2932589091.6771054     
   2884084465.9442730     
   2842076670.3783746     
   2806817034.1260562     
   2890864366.5533223     
   2845716378.6584883     
   2807314250.9325585     
   2775871730.4472685     
   2751618825.4656329     
   2827858206.8911228     
   2791734647.9034357     
   2762980809.1294680     
   2741760503.6167493     
   2728252923.6968508     
   3005214307.2235765     
   2918048834.3501711     
   2837203580.7247391     
   2763215104.5230756     
   2696693937.0661349     
   2892158602.1378226     
   2819572504.2121506     
   2754136239.2737780     
   2696352923.7541051     
   2646778437.5324745     
   2806817034.1260562     
   2748510096.9483457     
   2698087719.9411516     
   2655982850.3841105     
   2622659611.1761532     
   2751618825.4656329     
   2706715021.4253669     
   2670306018.1277094     
   2642728770.3482094     
   2624334304.5035739     
   2728252923.6968508     
   2695250966.5130610     
   2671228872.0975184     
   2656418733.0983591     
   2651056660.2570605     
   2696693937.0661349     
   2621122212.3609896     
   2552299240.1433702     
   2490815202.1829228     
   2437319573.5681648     
   2646778437.5324745     
   2586351603.8046269     
   2533512459.7119613     
   2488765401.3482184     
   2452641551.1012974     
   2622659611.1761532     
   2576458775.1556363     
   2538478674.9390779     
   2509108412.8947759     
   2488740261.0837765     
   2624334304.5035739     
   2590813195.3417296     
   2565952824.8042893     
   2550020721.5680032     
   2543275715.5576525     
   2651056660.2570605     
   2628130105.4717469     
   2614159469.3874865     
   2609304271.7823672     
   2613713418.1698480     
   2437319573.5681648     
   2364132653.0881472     
   2299927096.9576173     
   2245352484.1213288     
   2201069406.7986054     
   2452641551.1012974     
   2394944240.4615955     
   2346867572.0120611     
   2308940300.3032575     
   2281672197.1848536     
   2488740261.0837765     
   2445630101.5769434     
   2412575756.1119390     
   2389970077.1774688     
   2378173004.4120250     
   2543275715.5576525     
   2513391388.3594918     
   2493860553.9895372     
   2484949942.0583615     
   2486892996.9356751     
   2613713418.1698480     
   2595386918.8339705     
   2587659861.0071883     
   2590696091.2832184     
   2604633909.9174137     
   2201069406.7986054     
   2145828646.2295535     
   2105505554.1225593     
   2080883833.1279128     
   2072652227.0142806     
   2281672197.1848536     
   2241551479.0583973     
   2215301746.1399813     
   2203377960.7344098     
   2206168999.1580071     
   2378173004.4120250     
   2350120399.8589897     
   2334855130.2639318     
   2332625718.1785035     
   2343650023.0131321     
   2486892996.9356751     
   2468150865.5144577     
   2461195658.7748280     
   2466158789.4656501     
   2483170767.3357968     
   2604633909.9174137     
   2592816976.9435716     
   2591931955.7588925     
   2602052367.9437513     
   2623271906.9432731     
   2072652227.0142806     
   2069164832.1823201     
   2084899150.2636826     
   2122487450.8424964     
   2185757287.4523640     
   2206168999.1580071     
   2191759168.5458002     
   2192341879.4789996     
   2209888153.7606082     
   2247327082.8460932     
   2343650023.0131321     
   2319168562.4309130     
   2306234975.1020718     
   2306256180.0946655     
   2321324174.7354021     
   2483170767.3357968     
   2450420556.0758142     
   2426259822.9939666     
   2411634140.8870473     
   2407919262.2031198     
   2623271906.9432731     
   2584735904.1769791     
   2552132749.6921277     
   2526042432.1099257     
   2507269238.2417760     
   2185757287.4523640     
   2156349521.0699096     
   2146540726.0520995     
   2166832022.9920917     
   2228265288.5188394     
   2247327082.8460932     
   2182626110.6484303     
   2134357609.9246602     
   2112172851.7945502     
   2126985086.5997045     
   2321324174.7354021     
   2224647309.6366897     
   2141286287.9682517     
   2079597779.7328191     
   2049741575.7160635     
   2407919262.2031198     
   2282706751.3570428     
   2167973603.0999470     
   2070457453.8535473     
   1998924299.2556870     
   2507269238.2417760     
   2357013164.9815946     
   2214889915.8469901     
   2085882516.2488682     
   1976873406.8751984     
   2934869146.5394149     
   2890666473.7122006     
   2858954822.4775891     
   2838262894.2732916     
   2827858206.8911228     
   2726326938.6173406     
   2711655733.7288446     
   2707205454.1590514     
   2712644947.5582199     
   2727853568.6498837     
   2598153640.4136047     
   2601836619.4446378     
   2613848994.4399724     
   2634237250.4561319     
   2663049194.1656461     
   2555582153.7602034     
   2565487832.0678539     
   2582376176.2315159     
   2605818562.0928478     
   2635600718.5097446     
   2597579968.8320894     
   2601950651.5412445     
   2612534953.2423587     
   2627598082.1655545     
   2646244339.1090117     
   2827858206.8911228     
   2791734647.9034357     
   2762980809.1294680     
   2741760503.6167493     
   2728252923.6968508     
   2727853568.6498837     
   2701554752.3542256     
   2682765198.9209547     
   2671585499.6295195     
   2668127527.0514326     
   2663049194.1656461     
   2644896935.1557932     
   2634342382.8158245     
   2631429294.1736069     
   2636211794.4547849     
   2635600718.5097446     
   2623544463.2511210     
   2619140248.7607865     
   2622388694.1686268     
   2633302096.5239596     
   2646244339.1090117     
   2637978647.9585056     
   2637408305.6130733     
   2644509187.8591843     
   2659271048.3144159     
   2728252923.6968508     
   2695250966.5130610     
   2671228872.0975184     
   2656418733.0983591     
   2651056660.2570605     
   2668127527.0514326     
   2644982235.6105504     
   2630971592.9061980     
   2626229979.4536967     
   2630890052.3086648     
   2636211794.4547849     
   2620314106.9053149     
   2613632521.4888406     
   2616225478.9483275     
   2628149033.0383658     
   2633302096.5239596     
   2621688868.8939438     
   2619338820.2094588     
   2626264112.6576672     
   2642476302.4057627     
   2659271048.3144159     
   2648795238.4359708     
   2647626385.1218009     
   2655763243.8203316     
   2673206187.5414901     
   2651056660.2570605     
   2628130105.4717469     
   2614159469.3874865     
   2609304271.7823672     
   2613713418.1698480     
   2630890052.3086648     
   2615725523.5624371     
   2609422981.4742255     
   2612073012.1945448     
   2623758574.5363407     
   2628149033.0383658     
   2618909200.7685852     
   2618463989.7245588     
   2626854281.3441162     
   2644117077.6232791     
   2642476302.4057627     
   2637198530.2848759     
   2640705621.5032496     
   2653008284.4824662     
   2674116315.7417960     
   2673206187.5414901     
   2669876443.5336890     
   2675402064.3204455     
   2689782327.0705676     
   2713016795.7652316     
   2613713418.1698480     
   2595386918.8339705     
   2587659861.0071883     
   2590696091.2832184     
   2604633909.9174137     
   2623758574.5363407     
   2612995104.6999846     
   2612496906.7260671     
   2622350534.7996316     
   2642627184.2617383     
   2644117077.6232791     
   2639041956.1223035     
   2643981055.4687128     
   2658970665.7232566     
   2684040028.2283983     
   2674116315.7417960     
   2672851055.2279983     
   2681459641.5835190     
   2699950783.0978460     
   2728331417.5919490     
   2713016795.7652316     
   2713720253.3649306     
   2724284613.2344728     
   2744709883.1724262     
   2774996076.3718438     
   2604633909.9174137     
   2592816976.9435716     
   2591931955.7588925     
   2602052367.9437513     
   2623271906.9432731     
   2642627184.2617383     
   2632173696.2101626     
   2631876561.5518641     
   2641772647.0024080     
   2661911637.3212123     
   2684040028.2283983     
   2674698357.3897190     
   2674914565.0748987     
   2684703106.9568434     
   2704084711.6624560     
   2728331417.5919490     
   2719990205.7258239     
   2720767270.6247120     
   2730665680.9645514     
   2749690248.8654580     
   2774996076.3718438     
   2767670548.9749851     
   2769166815.3200750     
   2779484865.2048321     
   2798624691.9646649     
   2623271906.9432731     
   2584735904.1769791     
   2552132749.6921277     
   2526042432.1099257     
   2507269238.2417760     
   2661911637.3212123     
   2616512795.5589938     
   2576801971.3955965     
   2543109031.6136775     
   2515893897.5996957     
   2704084711.6624560     
   2653898833.0803428     
   2609299572.2248073     
   2570433780.0433483     
   2537506841.1598587     
   2749690248.8654580     
   2696800324.6590986     
   2649538329.5830207     
   2607940688.5283437     
   2572058393.7330332     
   2798624691.9646649     
   2745114912.0921082     
   2697416408.6832232     
   2655529181.6932855     
   2619453231.0782547     
   2507269238.2417760     
   2357013164.9815946     
   2214889915.8469901     
   2085882516.2488682     
   1976873406.8751984     
   2515893897.5996957     
   2348076049.7456484     
   2183792849.9153748     
   2026144900.0746419     
   1879699267.5828245     
   2537506841.1598587     
   2357223777.1395521     
   2176672649.7705522     
   1997324488.4547126     
   1821456842.8702731     
   2572058393.7330332     
   2384560637.8352780     
   2193995881.0482278     
   2000741683.7536910     
   1805400894.4741116     
   2619453231.0782547     
   2430056252.7282395     
   2235905106.5147743     
   2036999793.1036282     
   1833340313.6353631     
   2597579968.8320894     
   2601950651.5412445     
   2612534953.2423587     
   2627598082.1655545     
   2646244339.1090117     
   2643010064.5876627     
   2629012585.1014171     
   2620923588.0772376     
   2618214989.0778804     
   2620631870.7958217     
   2714200140.9967194     
   2684259007.3551431     
   2661486166.8394437     
   2645882495.5342808     
   2637475810.1875262     
   2813439948.4218941     
   2769432503.4148173     
   2735154072.4095140     
   2710572675.0737028     
   2695708593.0328045     
   2942958059.1910019     
   2885733363.1895366     
   2841862670.1942163     
   2810844830.4970932     
   2792482441.0084033     
   2646244339.1090117     
   2637978647.9585056     
   2637408305.6130733     
   2644509187.8591843     
   2659271048.3144159     
   2620631870.7958217     
   2613003627.6414423     
   2613005570.6438003     
   2620638915.2780466     
   2635907550.1429906     
   2637475810.1875262     
   2626868778.1424990     
   2623717485.0452590     
   2628068884.7892365     
   2639969571.1171007     
   2695708593.0328045     
   2678807616.5294089     
   2669061976.2618923     
   2666577554.4371953     
   2671466336.1002736     
   2792482441.0084033     
   2766518680.3994260     
   2747268099.4994831     
   2734896217.1523814     
   2729591217.6158018     
   2659271048.3144159     
   2648795238.4359708     
   2647626385.1218009     
   2655763243.8203316     
   2673206187.5414901     
   2635907550.1429906     
   2623319781.0640798     
   2619913995.3768487     
   2625707263.3102655     
   2640717399.1445756     
   2639969571.1171007     
   2622683263.8147640     
   2614488118.4971714     
   2615445928.3152084     
   2625617619.9213357     
   2671466336.1002736     
   2647085602.5317702     
   2631711314.8912520     
   2625473188.7369757     
   2628499427.8543715     
   2729591217.6158018     
   2696036136.2215123     
   2671376453.0118093     
   2655826807.3945394     
   2649602666.2374172     
   2673206187.5414901     
   2669876443.5336890     
   2675402064.3204455     
   2689782327.0705676     
   2713016795.7652316     
   2640717399.1445756     
   2636018872.7569127     
   2640076876.7792616     
   2652900332.6289010     
   2674497019.6770811     
   2625617619.9213357     
   2617245696.6209230     
   2617590655.9234958     
   2626693362.4128151     
   2644590536.8859773     
   2628499427.8543715     
   2614226320.2371035     
   2608665118.4016047     
   2611911032.1287365     
   2624051721.4991021     
   2649602666.2374172     
   2627367003.5280581     
   2613838782.8269343     
   2609188476.6634064     
   2613577028.0697966     
   2713016795.7652316     
   2713720253.3649306     
   2724284613.2344728     
   2744709883.1724262     
   2774996076.3718438     
   2674497019.6770811     
   2673306639.2381063     
   2681965361.4280581     
   2700480992.6890130     
   2728859546.2908974     
   2644590536.8859773     
   2639721481.2395606     
   2644820540.9360867     
   2659921270.6702404     
   2685050135.5426455     
   2624051721.4991021     
   2613685360.2022419     
   2613520041.8009448     
   2623636560.0658469     
   2644100280.9201918     
   2613577028.0697966     
   2595899716.9723678     
   2588743149.2758050     
   2592260960.4999828     
   2606581052.1025038     
   2774996076.3718438     
   2767670548.9749851     
   2769166815.3200750     
   2779484865.2048321     
   2798624691.9646649     
   2728859546.2908974     
   2720335564.3493814     
   2720966436.2508612     
   2730755638.0053778     
   2749708094.0690179     
   2685050135.5426455     
   2675347470.8903618     
   2675277391.5249763     
   2684855151.2550445     
   2704101763.8847871     
   2644100280.9201918     
   2633102876.9942174     
   2632377381.9769001     
   2641962185.4379625     
   2661907764.8625813     
   2606581052.1025038     
   2594022394.3304400     
   2592556023.4055061     
   2602258486.2016006     
   2623225449.6342378     
   2798624691.9646649     
   2745114912.0921082     
   2697416408.6832232     
   2655529181.6932855     
   2619453231.0782547     
   2749708094.0690179     
   2696827759.3430076     
   2649567688.7401600     
   2607964509.0347385     
   2572069456.8993721     
   2704101763.8847871     
   2653942601.4287481     
   2609354628.6578660     
   2570485188.5498953     
   2537540423.4011092     
   2661907764.8625813     
   2616561160.3890977     
   2576879114.2670164     
   2543192323.0890341     
   2515962211.4982219     
   2623225449.6342378     
   2584776478.5116773     
   2552228430.3020720     
   2526162462.9920559     
   2507385291.3184600     
   2619453231.0782547     
   2430056252.7282395     
   2235905106.5147743     
   2036999793.1036282     
   1833340313.6353631     
   2572069456.8993721     
   2384570509.7695851     
   2194013559.6527424     
   2000777648.5055108     
   1805467900.4270320     
   2537540423.4011092     
   2357248188.4418612     
   2176705229.2412677     
   1997384312.3239498     
   1821565028.7659740     
   2515962211.4982219     
   2348120097.6791797     
   2183837460.9907126     
   2026215581.7277026     
   1879820874.1030500     
   2507385291.3184600     
   2357082260.9533787     
   2214943506.0817547     
   2085950608.3908436     
   1976981122.5063577     
   2942958059.1910019     
   2885733363.1895366     
   2841862670.1942163     
   2810844830.4970932     
   2792482441.0084033     
   3030949267.9422121     
   2973823250.6023021     
   2927384745.5521255     
   2891754053.0188289     
   2867158735.4931278     
   3179913759.6595259     
   3116696431.5922313     
   3061466630.1262994     
   3014641558.1492147     
   2976691670.8905616     
   3377560065.4038310     
   3304301685.6197591     
   3236337130.6028719     
   3174043421.7502971     
   3117913793.8329697     
   3612229669.8638997     
   3526876543.8716755     
   3444193249.0795441     
   3364217882.3847866     
   3287248484.8191123     
   2792482441.0084033     
   2766518680.3994260     
   2747268099.4994831     
   2734896217.1523814     
   2729591217.6158018     
   2867158735.4931278     
   2829095431.5079384     
   2797310472.2660847     
   2772036938.7891893     
   2753532162.1937056     
   2976691670.8905616     
   2925927886.2967782     
   2880984487.7341886     
   2842141797.3343530     
   2809709726.0656214     
   3117913793.8329697     
   3054290450.0183339     
   2996024899.3971696     
   2943420727.4953032     
   2896818063.5185714     
   3287248484.8191123     
   3210929744.3838854     
   3139527234.6481547     
   3073344984.1602025     
   3012730144.3651314     
   2729591217.6158018     
   2696036136.2215123     
   2671376453.0118093     
   2655826807.3945394     
   2649602666.2374172     
   2753532162.1937056     
   2707867493.5429525     
   2670755905.4130521     
   2642517700.9045186     
   2623484401.4949970     
   2809709726.0656214     
   2750297698.2433114     
   2698945943.3030057     
   2656075930.4308996     
   2622138690.0518460     
   2896818063.5185714     
   2822610515.3716021     
   2755816398.7921896     
   2696935665.2514296     
   2646521968.5960255     
   3012730144.3651314     
   2923238342.0566320     
   2840386485.7164593     
   2764717101.5764446     
   2696851434.7383800     
   2649602666.2374172     
   2627367003.5280581     
   2613838782.8269343     
   2609188476.6634064     
   2613577028.0697966     
   2623484401.4949970     
   2589955719.0748119     
   2564959924.3678741     
   2548766205.9787779     
   2541636765.7245598     
   2622138690.0518460     
   2575606234.2463670     
   2537311751.9343114     
   2507634346.3187127     
   2486956661.8535104     
   2646521968.5960255     
   2585718894.2449751     
   2532695716.6225896     
   2487935964.1246758     
   2451946687.0527802     
   2696851434.7383800     
   2621029072.3516521     
   2552352955.7344184     
   2491385893.7297873     
   2438741525.5802999     
   2613577028.0697966     
   2595899716.9723678     
   2588743149.2758050     
   2592260960.4999828     
   2606581052.1025038     
   2541636765.7245598     
   2512631698.3004503     
   2493935677.5236168     
   2485814184.3230205     
   2488499297.9094224     
   2486956661.8535104     
   2444610871.0444522     
   2412275798.8856254     
   2390359055.7645774     
   2379236181.4503050     
   2451946687.0527802     
   2394589228.8549938     
   2346763207.5170898     
   2309033903.2767882     
   2281951473.4847741     
   2438741525.5802999     
   2365216096.3615713     
   2300488018.1503892     
   2245267285.3556957     
   2200284704.7506328     
   2606581052.1025038     
   2594022394.3304400     
   2592556023.4055061     
   2602258486.2016006     
   2623225449.6342378     
   2488499297.9094224     
   2469169293.4738121     
   2461727372.2802329     
   2466307366.1131439     
   2483042424.6005120     
   2379236181.4503050     
   2350811729.9702764     
   2335221517.9170785     
   2332713813.4315524     
   2343507923.3633709     
   2281951473.4847741     
   2241748259.1264443     
   2215414339.8903565     
   2203398469.9541483     
   2206086586.0301332     
   2200284704.7506328     
   2145332956.0588756     
   2105257011.5271366     
   2080823814.5516746     
   2072709651.1102321     
   2623225449.6342378     
   2584776478.5116773     
   2552228430.3020720     
   2526162462.9920559     
   2507385291.3184600     
   2483042424.6005120     
   2450368740.3516359     
   2426269302.1061091     
   2411690046.9956727     
   2408007025.3993130     
   2343507923.3633709     
   2319066837.3132267     
   2306174890.3859696     
   2306238812.6237979     
   2321347883.5939283     
   2206086586.0301332     
   2191652915.6577191     
   2192229642.0377579     
   2209787641.4877510     
   2247249627.5788159     
   2072709651.1102321     
   2069102977.3054338     
   2084753022.0629375     
   2122293197.8781679     
   2185540805.2681322     
   2507385291.3184600     
   2357082260.9533787     
   2214943506.0817547     
   2085950608.3908436     
   1976981122.5063577     
   2408007025.3993130     
   2282761874.4398322     
   2168016905.6592479     
   2070511202.5765891     
   1999011034.0054295     
   2321347883.5939283     
   2224666693.6408529     
   2141311347.8146503     
   2079643858.1619780     
   2049830594.3759696     
   2247249627.5788159     
   2182587108.4813261     
   2134356013.2020326     
   2112217458.4306757     
   2127097859.7019265     
   2185540805.2681322     
   2156228971.3452430     
   2146503825.0485163     
   2166881028.5348058     
   2228421851.6816325     
   3612229669.8638997     
   3526876543.8716755     
   3444193249.0795441     
   3364217882.3847866     
   3287248484.8191123     
   3848905188.1981187     
   3741427703.1527610     
   3636809502.1125083     
   3535275017.5118890     
   3437175372.4504271     
   4108012032.2338748     
   3980810481.4279203     
   3857124180.3768692     
   3737210983.0369034     
   3621408479.5107369     
   4388626800.2549191     
   4243202629.8864484     
   4102313707.9425716     
   3966133633.8430738     
   3834939517.3797908     
   4690001333.9263134     
   4526984658.0736561     
   4369798317.2619200     
   4218441916.6534038     
   4073100055.7204795     
   3287248484.8191123     
   3210929744.3838854     
   3139527234.6481547     
   3073344984.1602025     
   3012730144.3651314     
   3437175372.4504271     
   3348820394.5995035     
   3264636132.4226007     
   3184934778.7685819     
   3110083831.9327936     
   3621408479.5107369     
   3520961552.5262966     
   3423903189.6264029     
   3330527650.6216631     
   3241192573.6873198     
   3834939517.3797908     
   3722572189.0331359     
   3612819935.4133992     
   3505939211.8976698     
   3402253075.1033769     
   4073100055.7204795     
   3949110916.7219448     
   3827004430.8890204     
   3706986805.6064591     
   3589329794.5034652     
   3012730144.3651314     
   2923238342.0566320     
   2840386485.7164593     
   2764717101.5764446     
   2696851434.7383800     
   3110083831.9327936     
   3005274149.2689176     
   2906186938.2453375     
   2813368421.7547498     
   2727467014.6449232     
   3241192573.6873198     
   3121453999.2442808     
   3006478300.3460960     
   2896771834.8167949     
   2792956836.2103777     
   3402253075.1033769     
   3268271648.2803149     
   3138122787.6218333     
   3012241589.9063644     
   2891180909.1509018     
   3589329794.5034652     
   3441936838.6293550     
   3297528155.5151100     
   3156451926.5253172     
   3019166018.1581397     
   2696851434.7383800     
   2621029072.3516521     
   2552352955.7344184     
   2491385893.7297873     
   2438741525.5802999     
   2727467014.6449232     
   2636504964.3604798     
   2551510109.0093966     
   2473072633.9318323     
   2401865252.0898933     
   2792956836.2103777     
   2687380563.8686419     
   2586477282.7734661     
   2490794324.5672636     
   2400982353.5334258     
   2891180909.1509018     
   2772178686.1246629     
   2656559437.5604277     
   2544769754.5882683     
   2437361452.4494510     
   3019166018.1581397     
   2888367337.2770786     
   2759779351.5140696     
   2633719084.1084685     
   2510593024.0072608     
   2438741525.5802999     
   2365216096.3615713     
   2300488018.1503892     
   2245267285.3556957     
   2200284704.7506328     
   2401865252.0898933     
   2310626493.1961384     
   2227179622.5817370     
   2152340604.9682078     
   2087003155.5940595     
   2400982353.5334258     
   2292350985.0688105     
   2190193016.5865612     
   2095329269.9465051     
   2008716008.0627043     
   2437361452.4494510     
   2312620207.2558780     
   2192870197.8594427     
   2078817953.6861024     
   1971335193.8733721     
   2510593024.0072608     
   2371804455.9816680     
   2236574834.5168738     
   2105411092.7285626     
   1978971695.4272411     
   2200284704.7506328     
   2145332956.0588756     
   2105257011.5271366     
   2080823814.5516746     
   2072709651.1102321     
   2087003155.5940595     
   2012072267.6034212     
   1949459588.2603636     
   1900241742.2119777     
   1865445149.8540061     
   2008716008.0627043     
   1912390263.7122374     
   1824826773.0374982     
   1747222837.0711806     
   1680867298.0948057     
   1971335193.8733721     
   1855192790.0782156     
   1743437613.0703487     
   1636990565.3553641     
   1536981746.9013169     
   1978971695.4272411     
   1848125474.3554840     
   1717359037.6031828     
   1587023969.7480016     
   1457630198.9930544     
   2072709651.1102321     
   2069102977.3054338     
   2084753022.0629375     
   2122293197.8781679     
   2185540805.2681322     
   1865445149.8540061     
   1854881434.2074678     
   1867304372.4038649     
   1904923971.2275097     
   1970773735.3049631     
   1680867298.0948057     
   1652349052.4136200     
   1651561112.9563813     
   1680873457.5226879     
   1742894701.5754201     
   1536981746.9013169     
   1476111770.6656005     
   1447937093.9559162     
   1456426314.1062446     
   1504872822.4993606     
   1457630198.9930544     
   1348622136.7604034     
   1274589442.5320094     
   1243661837.9778023     
   1262879109.3955216     
   2185540805.2681322     
   2156228971.3452430     
   2146503825.0485163     
   2166881028.5348058     
   2228421851.6816325     
   1970773735.3049631     
   1968924970.4301009     
   2003615609.5316129     
   2093516338.7041140     
   2257282270.9141254     
   1742894701.5754201     
   1787698177.3365774     
   1884645316.3009095     
   2060645985.3575053     
   2340930865.4930830     
   1504872822.4993606     
   1613264758.3948548     
   1788852825.7479248     
   2066391460.2473438     
   2476092809.0336032     
   1262879109.3955216     
   1446667447.0810759     
   1715673673.1999681     
   2110485326.4398112     
   2663552096.9093122     
   4690001333.9263134     
   4526984658.0736561     
   4369798317.2619200     
   4218441916.6534038     
   4073100055.7204795     
   4980184736.1836987     
   4812965683.5663204     
   4647958184.6673784     
   4485331095.5975237     
   4325320536.1410580     
   5292269310.4494801     
   5121232985.2592297     
   4949303185.6121597     
   4776508764.6287384     
   4602945488.8457727     
   5617483618.3925285     
   5444381845.7919855     
   5267768918.0633001     
   5087312946.3500147     
   4902856097.3048487     
   5949153568.2242146     
   5776656497.5657129     
   5598517880.3535538     
   5413903254.8211327     
   5222360894.8607531     
   4073100055.7204795     
   3949110916.7219448     
   3827004430.8890204     
   3706986805.6064591     
   3589329794.5034652     
   4325320536.1410580     
   4188002826.4416013     
   4052282717.1631069     
   3918303148.5806289     
   3786263494.0033193     
   4602945488.8457727     
   4452993390.9035673     
   4304464834.8643122     
   4157441117.2634463     
   4012054044.1174698     
   4902856097.3048487     
   4740696099.4388523     
   4579877517.9919033     
   4420424237.7817497     
   4262408331.2531796     
   5222360894.8607531     
   5048174183.3350945     
   4875318286.8522911     
   4703764579.5383301     
   4533533792.3727484     
   3589329794.5034652     
   3441936838.6293550     
   3297528155.5151100     
   3156451926.5253172     
   3019166018.1581397     
   3786263494.0033193     
   3625459826.0171013     
   3466646261.1034808     
   3310066633.7581072     
   3156062946.2096863     
   4012054044.1174698     
   3838620546.5869341     
   3666288241.2375422     
   3495194783.5395098     
   3325558355.5380940     
   4262408331.2531796     
   4077113654.8552351     
   3892158352.8655052     
   3707583602.0087495     
   3523491955.5155144     
   4533533792.3727484     
   4337085520.0750055     
   4140345487.6132922     
   3943274115.3569832     
   3745875798.2079186     
   3019166018.1581397     
   2888367337.2770786     
   2759779351.5140696     
   2633719084.1084685     
   2510593024.0072608     
   3156062946.2096863     
   3014021620.3358264     
   2873728692.8931141     
   2735409937.8206429     
   2599371589.2204838     
   3325558355.5380940     
   3172865406.2370844     
   3021504805.3352809     
   2871611378.6816387     
   2723389992.7419405     
   3523491955.5155144     
   3360430791.0035000     
   3198334856.9168520     
   3037255870.9526052     
   2877306534.2215233     
   3745875798.2079186     
   3572425758.5135889     
   3399614908.7543859     
   3227422761.8455138     
   3055883565.4919329     
   2510593024.0072608     
   2371804455.9816680     
   2236574834.5168738     
   2105411092.7285626     
   1978971695.4272411     
   2599371589.2204838     
   2450549091.9719682     
   2303816292.9862676     
   2159486736.6477962     
   2017983945.4170053     
   2723389992.7419405     
   2566717284.9490604     
   2410986957.0698638     
   2256340666.8335648     
   2102978984.6000276     
   2877306534.2215233     
   2715039645.0755081     
   2552936617.4433541     
   2391027898.7787490     
   2229365133.9216690     
   3055883565.4919329     
   2890141247.0697026     
   2724123450.5450783     
   2557816287.3707080     
   2391210789.0492640     
   1978971695.4272411     
   1848125474.3554840     
   1717359037.6031828     
   1587023969.7480016     
   1457630198.9930544     
   2017983945.4170053     
   1881083523.2448943     
   1744505953.6913228     
   1608380233.9225349     
   1472883865.9378915     
   2102978984.6000276     
   1962686994.5461683     
   1823317170.0237725     
   1684900294.6535420     
   1547494275.2339885     
   2229365133.9216690     
   2086639029.5495434     
   1945504838.1981843     
   1805965317.4030645     
   1668094828.9055619     
   2391210789.0492640     
   2245390322.4111047     
   2101683667.4318156     
   1960096675.5925965     
   1820791923.2137358     
   1457630198.9930544     
   1348622136.7604034     
   1274589442.5320094     
   1243661837.9778023     
   1262879109.3955216     
   1472883865.9378915     
   1328626243.0618005     
   1198834033.3601153     
   1087991849.6441698     
   1002009767.9244672     
   1547494275.2339885     
   1397579269.6522985     
   1244115715.6204059     
   1084836124.8826776     
   917713509.32660306     
   1668094828.9055619     
   1552616699.3540957     
   1428052646.1247175     
   1294760156.1119466     
   1158849213.3299346     
   1820791923.2137358     
   1780028749.6265333     
   1735795033.3560874     
   1696706532.9554143     
   1681218517.4112635     
   1262879109.3955216     
   1446667447.0810759     
   1715673673.1999681     
   2110485326.4398112     
   2663552096.9093122     
   1002009767.9244672     
   1164701695.6636579     
   1425425270.6150620     
   1808761443.6315656     
   2334792146.4094419     
   917713509.32660306     
   963131136.20590520     
   1144945267.6947153     
   1476497578.8163750     
   1957462439.8343589     
   1158849213.3299346     
   1008433585.4630005     
   985239083.33795488     
   1161495450.6869745     
   1544079187.7094827     
   1681218517.4112635     
   1383724171.1317353     
   1129467179.7454059     
   1010134938.2574779     
   1152942827.7438717     
 </DataArray>
 <DataArray  type="Float64" Name="strain" NumberOfComponents="3" format="ascii">
   9.9542895514668883E-002  -3.7897429475914235E-002  -4.5459481348444353E-003
   9.6311912386839893E-002  -3.4543855418367908E-002  -3.6448831879418719E-003
   9.3080929259010903E-002  -3.1748870084137348E-002  -2.6437937841127246E-003
   8.9849946131182024E-002  -2.9512473473222986E-002  -1.5426799233579369E-003
   8.6618963003353033E-002  -2.7834665585624085E-002  -3.4154160567678726E-004
   9.3927216073228070E-002  -3.2492350060812081E-002   6.1374461101368905E-003
   9.0812529688155008E-002  -3.0142192583595906E-002   6.3240604954712953E-003
   8.7697843303081835E-002  -2.8155091936681753E-002   6.6432439093918050E-003
   8.4583156918008662E-002  -2.6531048120069650E-002   7.0949963518976977E-003
   8.1468470532935489E-002  -2.5270061133759958E-002   7.6793178229891401E-003
   8.8041636561198622E-002  -2.7087270645710038E-002   1.5719657828280831E-002
   8.5075791490540759E-002  -2.5740529748823793E-002   1.5387353545061377E-002
   8.2109946419882840E-002  -2.4561313789225797E-002   1.5220162862086800E-002
   7.9144101349225005E-002  -2.3549622766916599E-002   1.5218085779357182E-002
   7.6178256278567086E-002  -2.2705456681895497E-002   1.5381122296872940E-002
   8.1886156978580288E-002  -2.1682191230607883E-002   2.4200687019588121E-002
   7.9101697793997283E-002  -2.1338866914051680E-002   2.3544995960828152E-002
   7.6317238609414209E-002  -2.0967535641770244E-002   2.3086963073972587E-002
   7.3532779424831080E-002  -2.0568197413763350E-002   2.2826588359021325E-002
   7.0748320240248019E-002  -2.0140852230031425E-002   2.2763871815974723E-002
   7.5460777325373318E-002  -1.6277111815505785E-002   3.1580533684058665E-002
   7.2890248598524554E-002  -1.6937204079279622E-002   3.0796987742771509E-002
   7.0319719871675651E-002  -1.7373757494314357E-002   3.0243644545048465E-002
   6.7749191144826845E-002  -1.7586772060610323E-002   2.9920504090889560E-002
   6.5178662417978039E-002  -1.7576247778167131E-002   2.9827566380294490E-002
   8.6618963003353033E-002  -2.7834665585624085E-002  -3.4154160567678726E-004
   8.3880915738522521E-002  -2.6494308273080414E-002  -2.9228669254555140E-004
   8.1142868473692120E-002  -2.5270263387330849E-002  -1.4067971777187438E-004
   7.8404821208861691E-002  -2.4162530928375919E-002   1.1327931864441032E-004
   7.5666773944031207E-002  -2.3171110896214819E-002   4.6959041670402435E-004
   8.1468470532935489E-002  -2.5270061133759958E-002   7.6793178229891401E-003
   7.8845887522136948E-002  -2.4216983133872244E-002   7.5174263598899171E-003
   7.6223304511338352E-002  -2.3216666276527104E-002   7.4841113432119466E-003
   7.3600721500539784E-002  -2.2269110561723961E-002   7.5793727729550064E-003
   7.0978138489741160E-002  -2.1374315989463599E-002   7.8032106491187636E-003
   7.6178256278567086E-002  -2.2705456681895497E-002   1.5381122296872940E-002
   7.3697361906578607E-002  -2.1939657994664130E-002   1.5071635741796013E-002
   7.1216467534590086E-002  -2.1163069165723025E-002   1.4916950017917860E-002
   6.8735573162601565E-002  -2.0375690195072224E-002   1.4917065125238910E-002
   6.6254678790613059E-002  -1.9577521082711768E-002   1.5071981063759343E-002
   7.0748320240248019E-002  -2.0140852230031425E-002   2.2763871815974723E-002
   6.8435338891847636E-002  -1.9662332855456099E-002   2.2370341453171592E-002
   6.6122357543447294E-002  -1.9109472054919113E-002   2.2157836306345664E-002
   6.3809376195046980E-002  -1.8482269828420377E-002   2.2126356375496994E-002
   6.1496394846646513E-002  -1.7780726175960243E-002   2.2275901660625611E-002
   6.5178662417978039E-002  -1.7576247778167131E-002   2.9827566380294490E-002
   6.3059818477944035E-002  -1.7385007716247791E-002   2.9413543494017230E-002
   6.0940974537910031E-002  -1.7055874944115174E-002   2.9206770208495075E-002
   5.8822130597876027E-002  -1.6588849461768522E-002   2.9207246523728608E-002
   5.6703286657842022E-002  -1.5983931269208662E-002   2.9414972439717468E-002
   7.5666773944031207E-002  -2.3171110896214819E-002   4.6959041670402435E-004
   7.2325725986607248E-002  -2.2234750354609256E-002   1.5177473612548731E-004
   6.8984678029183233E-002  -2.1292196367320104E-002   4.9181115717611412E-005
   6.5643630071759274E-002  -2.0343448934347211E-002   1.6180955548045217E-004
   6.2302582114335259E-002  -1.9388508055690701E-002   4.8966005541317692E-004
   7.0978138489741160E-002  -2.1374315989463599E-002   7.8032106491187636E-003
   6.7850005776568967E-002  -2.0504478334953224E-002   7.4527842841460856E-003
   6.4721873063396690E-002  -1.9631793373402151E-002   7.3129663475064721E-003
   6.1593740350224455E-002  -1.8756261104810185E-002   7.3837568392002562E-003
   5.8465607637052164E-002  -1.7877881529176576E-002   7.6651557592266606E-003
   6.6254678790613059E-002  -1.9577521082711768E-002   1.5071981063759343E-002
   6.3334847689855200E-002  -1.8774206315297387E-002   1.4685597875749662E-002
   6.0415016589097370E-002  -1.7971390379484392E-002   1.4505209484235476E-002
   5.7495185488339498E-002  -1.7169073275272818E-002   1.4530815889217286E-002
   5.4575354387581654E-002  -1.6367255002662617E-002   1.4762417090695173E-002
   6.1496394846646513E-002  -1.7780726175960243E-002   2.2275901660625611E-002
   5.8780251726465907E-002  -1.7043934295641341E-002   2.1850215510936258E-002
   5.6064108606285232E-002  -1.6310987385566647E-002   2.1625910525905200E-002
   5.3347965486104626E-002  -1.5581885445735733E-002   2.1602986705532953E-002
   5.0631822365923888E-002  -1.4856628476148909E-002   2.1781444049819541E-002
   5.6703286657842022E-002  -1.5983931269208662E-002   2.9414972439717468E-002
   5.4186217886401239E-002  -1.5313662275985379E-002   2.8946637189706026E-002
   5.1669149114960400E-002  -1.4650584391648708E-002   2.8675069472515829E-002
   4.9152080343519561E-002  -1.3994697616198461E-002   2.8600269288146796E-002
   4.6635011572078777E-002  -1.3346001949634811E-002   2.8722236636598952E-002
   6.2302582114335259E-002  -1.9388508055690701E-002   4.8966005541317692E-004
   5.9452522267615215E-002  -1.8431995831663217E-002   2.7258162392740370E-004
   5.6602462420895117E-002  -1.7478534362576320E-002   2.2273225682717390E-004
   5.3752402574175046E-002  -1.6528123648430655E-002   3.4011195411143280E-004
   5.0902342727454974E-002  -1.5580763689226007E-002   6.2472071578145716E-004
   5.8465607637052164E-002  -1.7877881529176576E-002   7.6651557592266606E-003
   5.5778654454114063E-002  -1.6999433835696631E-002   7.3877952418057724E-003
   5.3091701271175989E-002  -1.6123697213564631E-002   7.2694189875642246E-003
   5.0404748088237930E-002  -1.5250671662779845E-002   7.3100269965014064E-003
   4.7717794905299815E-002  -1.4380357183342962E-002   7.5096192686170404E-003
   5.4575354387581654E-002  -1.6367255002662617E-002   1.4762417090695173E-002
   5.2043263067219292E-002  -1.5566871839730489E-002   1.4425114170933118E-002
   4.9511171746856861E-002  -1.4768860064552927E-002   1.4238550713143436E-002
   4.6979080426494464E-002  -1.3973219677128921E-002   1.4202726717326482E-002
   4.4446989106132068E-002  -1.3179950677459695E-002   1.4317642183482138E-002
   5.0631822365923888E-002  -1.4856628476148909E-002   2.1781444049819541E-002
   4.8246348106930792E-002  -1.4134309843764570E-002   2.1384538411309155E-002
   4.5860873847937828E-002  -1.3414022915541009E-002   2.1130127433565283E-002
   4.3475399588944801E-002  -1.2695767691478276E-002   2.1018211116587408E-002
   4.1089925329951753E-002  -1.1979544171576539E-002   2.1048789460376111E-002
   4.6635011572078777E-002  -1.3346001949634811E-002   2.8722236636598952E-002
   4.4387909573248813E-002  -1.2701747847798595E-002   2.8266067962934349E-002
   4.2140807574418848E-002  -1.2059185766529382E-002   2.7944149148829117E-002
   3.9893705575588884E-002  -1.1418315705827648E-002   2.7756480194284491E-002
   3.7646603576758919E-002  -1.0779137665693606E-002   2.7703061099299431E-002
   5.0902342727454974E-002  -1.5580763689226007E-002   6.2472071578145716E-004
   4.8135857383215797E-002  -1.4643601820762520E-002   3.8015916475031553E-004
   4.5369372038976674E-002  -1.3723785378841669E-002   1.9276248754895864E-004
   4.2602886694737524E-002  -1.2821314363462566E-002   6.2530684176442808E-005
   3.9836401350498374E-002  -1.1936188774624545E-002  -1.0536245366399299E-005
   4.7717794905299815E-002  -1.4380357183342962E-002   7.5096192686170404E-003
   4.5017370309059723E-002  -1.3515413354421968E-002   7.1750077866307160E-003
   4.2316945712819687E-002  -1.2658499755184849E-002   6.9153529268137781E-003
   3.9616521116579595E-002  -1.1809616385632049E-002   6.7306546891657826E-003
   3.6916096520339559E-002  -1.0968763245764013E-002   6.6209130736863964E-003
   4.4446989106132068E-002  -1.3179950677459695E-002   1.4317642183482138E-002
   4.1830417006231024E-002  -1.2387224888080750E-002   1.3902295967398115E-002
   3.9213844906330023E-002  -1.1593214131528251E-002   1.3579698121822636E-002
   3.6597272806428986E-002  -1.0797918407801976E-002   1.3349848646756965E-002
   3.3980700706527978E-002  -1.0001337716902481E-002   1.3212747542199699E-002
   4.1089925329951753E-002  -1.1979544171576539E-002   2.1048789460376111E-002
   3.8574997474729672E-002  -1.1259036421739643E-002   2.0562023707052124E-002
   3.6060069619507570E-002  -1.0527928507871431E-002   2.0185798072576665E-002
   3.3545141764285476E-002  -9.7862204299719036E-003   1.9920112556949941E-002
   3.1030213909063381E-002  -9.0339121880412265E-003   1.9764967160172564E-002
   3.7646603576758919E-002  -1.0779137665693606E-002   2.7703061099299431E-002
   3.5251111714555694E-002  -1.0130847955398647E-002   2.7154191005592743E-002
   3.2855619852352441E-002  -9.4626428842147225E-003   2.6733652779074801E-002
   3.0460127990149161E-002  -8.7745224521416920E-003   2.6441446419745607E-002
   2.8064636127945963E-002  -8.0664866591801943E-003   2.6277571927605381E-002
   3.9836401350498374E-002  -1.1936188774624545E-002  -1.0536245366399299E-005
   3.7436975195563993E-002  -1.1133970614889188E-002  -2.7626027140259524E-004
   3.5037549040629723E-002  -1.0480221886818519E-002  -4.6488780200648616E-004
   3.2638122885695453E-002  -9.9749425904096523E-003  -5.7641883717740594E-004
   3.0238696730761072E-002  -9.6181327256659177E-003  -6.1085337691513253E-004
   3.6916096520339559E-002  -1.0968763245764013E-002   6.6209130736863964E-003
   3.4577723532594418E-002  -1.0181482166789824E-002   6.2002630738688946E-003
   3.2239350544849277E-002  -9.4933149799212302E-003   5.8246229129966798E-003
   2.9900977557104108E-002  -8.9042616851581768E-003   5.4939925910701681E-003
   2.7562604569358939E-002  -8.4143222825019404E-003   5.2083721080885548E-003
   3.3980700706527978E-002  -1.0001337716902481E-002   1.3212747542199699E-002
   3.1671294229484531E-002  -9.2289937186894599E-003   1.2686527108158763E-002
   2.9361887752441085E-002  -8.5064080730248293E-003   1.2173229856575707E-002
   2.7052481275397638E-002  -7.8335807799073676E-003   1.1672855787451239E-002
   2.4743074798354192E-002  -7.2105118393378520E-003   1.1185404900784512E-002
   3.1030213909063381E-002  -9.0339121880412265E-003   1.9764967160172564E-002
   2.8717687286234368E-002  -8.2765052705897069E-003   1.9182531831466537E-002
   2.6405160663405224E-002  -7.5195011661279842E-003   1.8580933028730789E-002
   2.4092634040576204E-002  -6.7628998746562252E-003   1.7960170751965682E-002
   2.1780107417747066E-002  -6.0067013961737081E-003   1.7320245001171283E-002
   2.8064636127945963E-002  -8.0664866591801943E-003   2.6277571927605381E-002
   2.5716902702843825E-002  -7.3240168224897317E-003   2.5688277243791524E-002
   2.3369169277741658E-002  -6.5325942592311947E-003   2.5047732429461345E-002
   2.1021435852639561E-002  -5.6922189694047637E-003   2.4355937484614093E-002
   1.8673702427537353E-002  -4.8028909530098973E-003   2.3612892409250130E-002
   3.0238696730761072E-002  -9.6181327256659177E-003  -6.1085337691513253E-004
   2.9622574597816254E-002  -9.1352610039402427E-003  -3.7093602339055565E-004
   2.9006452464871546E-002  -8.2517961365876080E-003  -1.8071038896313452E-003
   2.8390330331926728E-002  -6.9677381236099151E-003  -4.9193569756387223E-003
   2.7774208198982020E-002  -5.2830869650053458E-003  -9.7076952814119100E-003
   2.7562604569358939E-002  -8.4143222825019404E-003   5.2083721080885548E-003
   2.5539064947526002E-002  -7.8708260112114736E-003   5.8769299703880229E-003
   2.3515525325693037E-002  -7.1211021105496153E-003   5.4067380746773974E-003
   2.1491985703860142E-002  -6.1651505805156159E-003   3.7977964209564841E-003
   1.9468446082027135E-002  -5.0029714211099474E-003   1.0501050092250885E-003
   2.4743074798354192E-002  -7.2105118393378520E-003   1.1185404900784512E-002
   2.1849453149388964E-002  -6.6063910184832042E-003   1.2088237755603748E-002
   1.8955831500423737E-002  -5.9904080845113727E-003   1.2389656314168968E-002
   1.6062209851458509E-002  -5.3625630374215319E-003   1.2089660576479935E-002
   1.3168588202493281E-002  -4.7228558772145490E-003   1.1188250542536249E-002
   2.1780107417747066E-002  -6.0067013961737081E-003   1.7320245001171283E-002
   1.8553739203405369E-002  -5.3419560257551291E-003   1.8262987332256800E-002
   1.5327370989063553E-002  -4.8597140584730331E-003   1.9141650828843525E-002
   1.2101002774721849E-002  -4.5599754943280064E-003   1.9956235490931670E-002
   8.8746345603800403E-003  -4.4427403333193727E-003   2.0706741318521238E-002
   1.8673702427537353E-002  -4.8028909530098973E-003   2.3612892409250130E-002
   1.5651923109575028E-002  -4.0775210330267209E-003   2.4401178700346859E-002
   1.2630143791612591E-002  -3.7290200324345824E-003   2.5662721618700424E-002
   9.6083644736502383E-003  -3.7573879512337316E-003   2.7397521164311933E-002
   6.5865851556878297E-003  -4.1626247894243074E-003   2.9605577337180722E-002
   2.7774208198982020E-002  -5.2830869650053458E-003  -9.7076952814119100E-003
   2.3349964455017691E-002  -4.2090894957895753E-003  -4.1815680704657687E-003
   1.8925720711053584E-002  -4.7569925509776123E-003   2.6066954111987339E-003
   1.4501476967089200E-002  -6.9267961305698456E-003   1.0657095163581709E-002
   1.0077233223125148E-002  -1.0718500234566442E-002   1.9969631186682157E-002
   1.9468446082027135E-002  -5.0029714211099474E-003   1.0501050092250885E-003
   1.6234258098935250E-002  -4.6922868320568023E-003   6.7444973005051922E-003
   1.3000070115843254E-002  -6.2908190130813169E-003   1.3556864842811822E-002
   9.7658821327513690E-003  -9.7985679641845597E-003   2.1487207636144867E-002
   6.5316941496593728E-003  -1.5215533685364768E-002   3.0535525680503994E-002
   1.3168588202493281E-002  -4.7228558772145490E-003   1.1188250542536249E-002
   1.0980294960581727E-002  -5.1754841683252506E-003   1.6763591668476574E-002
   8.7920017186701727E-003  -7.8246454751859096E-003   2.3312747025751368E-002
   6.6037084767585491E-003  -1.2670339797799385E-002   3.0835716614361158E-002
   4.4154152348471198E-003  -1.9712567136163539E-002   3.9332500434305029E-002
   8.8746345603800403E-003  -4.4427403333193727E-003   2.0706741318521238E-002
   7.5880750399570651E-003  -5.6586815045926442E-003   2.5875715033448307E-002
   6.3015155195342148E-003  -9.3584719372900582E-003   3.1874341960017857E-002
   5.0149559991110974E-003  -1.5542111631413488E-002   3.8702622098230277E-002
   3.7283964786882784E-003  -2.4209600586962532E-002   4.6360555448084539E-002
   6.5865851556878297E-003  -4.1626247894243074E-003   2.9605577337180722E-002
   6.0575983370614317E-003  -6.1418788408598157E-003   3.4080867395420267E-002
   5.5286115184351725E-003  -1.0892298399394013E-002   3.9241649645610555E-002
   4.9996246998088301E-003  -1.8413883465028320E-002   4.5087924087751835E-002
   4.4706378811825154E-003  -2.8706634037761081E-002   5.1619690721843803E-002
   7.5460777325373318E-002  -1.6277111815505785E-002   3.1580533684058665E-002
   7.2890248598524554E-002  -1.6937204079279622E-002   3.0796987742771509E-002
   7.0319719871675651E-002  -1.7373757494314357E-002   3.0243644545048465E-002
   6.7749191144826845E-002  -1.7586772060610323E-002   2.9920504090889560E-002
   6.5178662417978039E-002  -1.7576247778167131E-002   2.9827566380294490E-002
   6.8990658425302803E-002  -1.7402677360397634E-002   3.4651135564123969E-002
   6.6641179158063168E-002  -1.7433604553975107E-002   3.4203275898686436E-002
   6.4291699890823520E-002  -1.7359234630406728E-002   3.3967312408903105E-002
   6.1942220623583850E-002  -1.7179567589692343E-002   3.3943245094774130E-002
   5.9592741356344237E-002  -1.6894603431831995E-002   3.4131073956299413E-002
   6.2700961102094124E-002  -1.8528242905289483E-002   3.8410023380182040E-002
   6.0554224726553918E-002  -1.7930005028670717E-002   3.8179608259000741E-002
   5.8407488351013760E-002  -1.7344711766499044E-002   3.8142782745564402E-002
   5.6260751975473602E-002  -1.6772363118774336E-002   3.8299546839872411E-002
   5.4114015599933396E-002  -1.6212959085496748E-002   3.8649900541925131E-002
   5.6591685355747240E-002  -1.9653808450181304E-002   4.2857197132233030E-002
   5.4629385303996879E-002  -1.8426405503366335E-002   4.2725984823715243E-002
   5.2667085252246469E-002  -1.7330188902591248E-002   4.2770055555032396E-002
   5.0704785200496087E-002  -1.6365158647856454E-002   4.2989409326184627E-002
   4.8742485148745747E-002  -1.5531314739161473E-002   4.3384046137171596E-002
   5.0662831186262192E-002  -2.0779373995073180E-002   4.7992656820276702E-002
   4.8866660890391878E-002  -1.8922805978061868E-002   4.7842405592829318E-002
   4.7070490594521619E-002  -1.7315666038683689E-002   4.7849130837307102E-002
   4.5274320298651305E-002  -1.5957954176938408E-002   4.8012832553710319E-002
   4.3478150002781046E-002  -1.4849670392826309E-002   4.8333510742038788E-002
   6.5178662417978039E-002  -1.7576247778167131E-002   2.9827566380294490E-002
   6.3059818477944035E-002  -1.7385007716247791E-002   2.9413543494017230E-002
   6.0940974537910031E-002  -1.7055874944115174E-002   2.9206770208495075E-002
   5.8822130597876027E-002  -1.6588849461768522E-002   2.9207246523728608E-002
   5.6703286657842022E-002  -1.5983931269208662E-002   2.9414972439717468E-002
   5.9592741356344237E-002  -1.6894603431831995E-002   3.4131073956299413E-002
   5.7671922779717666E-002  -1.6519100671660222E-002   3.3921858536742303E-002
   5.5751104203091179E-002  -1.6067817824011767E-002   3.3901444243244760E-002
   5.3830285626464636E-002  -1.5540754888886477E-002   3.4069831075806647E-002
   5.1909467049838121E-002  -1.4937911866284459E-002   3.4427019034428158E-002
   5.4114015599933396E-002  -1.6212959085496748E-002   3.8649900541925131E-002
   5.2372773912018479E-002  -1.5653193627072598E-002   3.8583379966351493E-002
   5.0631532224103576E-002  -1.5079760703908526E-002   3.8687212042141650E-002
   4.8890290536188645E-002  -1.4492660316004265E-002   3.8961396769295324E-002
   4.7149048848273756E-002  -1.3891892463360062E-002   3.9405934147812710E-002
   4.8742485148745747E-002  -1.5531314739161473E-002   4.3384046137171596E-002
   4.7162371874846502E-002  -1.4787286582485057E-002   4.3398107782844760E-002
   4.5582258600947306E-002  -1.4091703583805147E-002   4.3564073605185827E-002
   4.4002145327048076E-002  -1.3444565743122123E-002   4.3881943604194604E-002
   4.2422032053148859E-002  -1.2845873060435678E-002   4.4351717779871007E-002
   4.3478150002781046E-002  -1.4849670392826309E-002   4.8333510742038788E-002
   4.2040716668201639E-002  -1.3921379537897377E-002   4.8366041986221964E-002
   4.0603283333622273E-002  -1.3103646463701879E-002   4.8532028932377319E-002
   3.9165849999042879E-002  -1.2396471170239981E-002   4.8831471580504271E-002
   3.7728416664463527E-002  -1.1799853657511405E-002   4.9264369930603125E-002
   5.6703286657842022E-002  -1.5983931269208662E-002   2.9414972439717468E-002
   5.4186217886401239E-002  -1.5313662275985379E-002   2.8946637189706026E-002
   5.1669149114960400E-002  -1.4650584391648708E-002   2.8675069472515829E-002
   4.9152080343519561E-002  -1.3994697616198461E-002   2.8600269288146796E-002
   4.6635011572078777E-002  -1.3346001949634811E-002   2.8722236636598952E-002
   5.1909467049838121E-002  -1.4937911866284459E-002   3.4427019034428158E-002
   4.9588265837925305E-002  -1.4297958799413424E-002   3.3986809663650308E-002
   4.7267064626012406E-002  -1.3659565731481083E-002   3.3741567879106968E-002
   4.4945863414099563E-002  -1.3022732662487685E-002   3.3691293680798533E-002
   4.2624662202186692E-002  -1.2387459592432926E-002   3.3835987068724538E-002
   4.7149048848273756E-002  -1.3891892463360062E-002   3.9405934147812710E-002
   4.5021915249302290E-002  -1.3282255322841316E-002   3.8999481766216260E-002
   4.2894781650330879E-002  -1.2668547071313499E-002   3.8786197024267721E-002
   4.0767648051359469E-002  -1.2050767708776795E-002   3.8766079921967560E-002
   3.8640514452388003E-002  -1.1428917235231012E-002   3.8939130459315394E-002
   4.2422032053148859E-002  -1.2845873060435678E-002   4.4351717779871007E-002
   4.0487166120532374E-002  -1.2266551846269229E-002   4.3984653497403714E-002
   3.8552300187915833E-002  -1.1677528411145922E-002   4.3808956907997756E-002
   3.6617434255299314E-002  -1.1078802755065962E-002   4.3824628011653696E-002
   3.4682568322682801E-002  -1.0470374878029112E-002   4.4031666808371103E-002
   3.7728416664463527E-002  -1.1799853657511405E-002   4.9264369930603125E-002
   3.5984018451615390E-002  -1.1250848369697308E-002   4.8942324857212616E-002
   3.4239620238767254E-002  -1.0686509750978332E-002   4.8809847530297351E-002
   3.2495222025919132E-002  -1.0106837801355222E-002   4.8866937949857012E-002
   3.0750823813071010E-002  -9.5118325208271015E-003   4.9113596115891833E-002
   4.6635011572078777E-002  -1.3346001949634811E-002   2.8722236636598952E-002
   4.4387909573248813E-002  -1.2701747847798595E-002   2.8266067962934349E-002
   4.2140807574418848E-002  -1.2059185766529382E-002   2.7944149148829117E-002
   3.9893705575588884E-002  -1.1418315705827648E-002   2.7756480194284491E-002
   3.7646603576758919E-002  -1.0779137665693606E-002   2.7703061099299431E-002
   4.2624662202186692E-002  -1.2387459592432926E-002   3.3835987068724538E-002
   4.0516670580300090E-002  -1.1749913882512952E-002   3.3413087161587834E-002
   3.8408678958413461E-002  -1.1106262893923413E-002   3.3134158148777793E-002
   3.6300687336526846E-002  -1.0456506626664044E-002   3.2999200030294426E-002
   3.4192695714640287E-002  -9.8006450807354151E-003   3.3008212806137860E-002
   3.8640514452388003E-002  -1.1428917235231012E-002   3.8939130459315394E-002
   3.6681354242211632E-002  -1.0798079917227560E-002   3.8557296617943687E-002
   3.4722194032035289E-002  -1.0153340021317327E-002   3.8329154705665315E-002
   3.2763033821858890E-002  -9.4946975475005500E-003   3.8254704722480756E-002
   3.0803873611682561E-002  -8.8221524957771136E-003   3.8333946668389851E-002
   3.4682568322682801E-002  -1.0470374878029112E-002   4.4031666808371103E-002
   3.2881960558983472E-002  -9.8462459519420426E-003   4.3698696332001283E-002
   3.1081352795284196E-002  -9.2004171487115212E-003   4.3529138819491914E-002
   2.9280745031584884E-002  -8.5328884683370000E-003   4.3522994270843170E-002
   2.7480137267885590E-002  -7.8436599108190341E-003   4.3680262686054905E-002
   3.0750823813071010E-002  -9.5118325208271015E-003   4.9113596115891833E-002
   2.9118489530615660E-002  -8.8944119866565252E-003   4.8837286303761107E-002
   2.7486155248160282E-002  -8.2474942761055492E-003   4.8734110490257887E-002
   2.5853820965704932E-002  -7.5710793891734657E-003   4.8804068675381701E-002
   2.4221486683249582E-002  -6.8651673258607326E-003   4.9047160859132855E-002
   3.7646603576758919E-002  -1.0779137665693606E-002   2.7703061099299431E-002
   3.5251111714555694E-002  -1.0130847955398647E-002   2.7154191005592743E-002
   3.2855619852352441E-002  -9.4626428842147225E-003   2.6733652779074801E-002
   3.0460127990149161E-002  -8.7745224521416920E-003   2.6441446419745607E-002
   2.8064636127945963E-002  -8.0664866591801943E-003   2.6277571927605381E-002
   3.4192695714640287E-002  -9.8006450807354151E-003   3.3008212806137860E-002
   3.1930768246602376E-002  -9.1381149909355863E-003   3.2543234583549185E-002
   2.9668840778564520E-002  -8.4683530920635353E-003   3.2217053282102892E-002
   2.7406913310526623E-002  -7.7913593841194631E-003   3.2029668901797800E-002
   2.5144985842488754E-002  -7.1071338671028217E-003   3.1981081442635284E-002
   3.0803873611682561E-002  -8.8221524957771136E-003   3.8333946668389851E-002
   2.8685975591763155E-002  -8.1453820264726917E-003   3.7940176765102557E-002
   2.6568077571843776E-002  -7.4740632999125700E-003   3.7695668836910390E-002
   2.4450179551924391E-002  -6.8081963160967901E-003   3.7600422883813184E-002
   2.2332281532004991E-002  -6.1477810750255601E-003   3.7654438905811244E-002
   2.7480137267885590E-002  -7.8436599108190341E-003   4.3680262686054905E-002
   2.5516733750037837E-002  -7.1526490620098249E-003   4.3345017550252114E-002
   2.3553330232190139E-002  -6.4797735077613827E-003   4.3169499443497725E-002
   2.1589926714342393E-002  -5.8250332480741171E-003   4.3153708365791452E-002
   1.9626523196494685E-002  -5.1884282829483541E-003   4.3297644317133510E-002
   2.4221486683249582E-002  -6.8651673258607326E-003   4.9047160859132855E-002
   2.2423042721426645E-002  -6.1599160975466805E-003   4.8757756938998476E-002
   2.0624598759603679E-002  -5.4854837156104452E-003   4.8638545101865160E-002
   1.8826154797780756E-002  -4.8418701800517841E-003   4.8689525347733187E-002
   1.7027710835957832E-002  -4.2290754908710371E-003   4.8910697676602721E-002
   2.8064636127945963E-002  -8.0664866591801943E-003   2.6277571927605381E-002
   2.5716902702843825E-002  -7.3240168224897317E-003   2.5688277243791524E-002
   2.3369169277741658E-002  -6.5325942592311947E-003   2.5047732429461345E-002
   2.1021435852639561E-002  -5.6922189694047637E-003   2.4355937484614093E-002
   1.8673702427537353E-002  -4.8028909530098973E-003   2.3612892409250130E-002
   2.5144985842488754E-002  -7.1071338671028217E-003   3.1981081442635284E-002
   2.2784662218618135E-002  -6.4145645694925202E-003   3.1566596904884947E-002
   2.0424338594747529E-002  -5.7125395197669682E-003   3.1178182100114527E-002
   1.8064014970876868E-002  -5.0010587179262628E-003   3.0815837028323745E-002
   1.5703691347006304E-002  -4.2801221639701126E-003   3.0479561689513046E-002
   2.2332281532004991E-002  -6.1477810750255601E-003   3.7654438905811244E-002
   2.0036687572862491E-002  -5.5051123164953086E-003   3.7375267539671297E-002
   1.7741093613719970E-002  -4.8924847803027138E-003   3.7199485770008284E-002
   1.5445499654577494E-002  -4.3098984664476439E-003   3.7127093596821287E-002
   1.3149905695434949E-002  -3.7573533749302723E-003   3.7158091020110973E-002
   1.9626523196494685E-002  -5.1884282829483541E-003   4.3297644317133510E-002
   1.7472978765576849E-002  -4.5956600634981526E-003   4.3114289148151783E-002
   1.5319434334659049E-002  -4.0724300408386399E-003   4.3111643439142720E-002
   1.3165889903741203E-002  -3.6187382149691950E-003   4.3289707190106580E-002
   1.1012345472823412E-002  -3.2345845858904043E-003   4.3648480401043438E-002
   1.7027710835957832E-002  -4.2290754908710371E-003   4.8910697676602721E-002
   1.5093535796761259E-002  -3.6862078105007745E-003   4.8783661730325556E-002
   1.3159360757564686E-002  -3.2523753013741219E-003   4.8914655107517802E-002
   1.1225185718368128E-002  -2.9275779634903853E-003   4.9303677808179597E-002
   9.2910106791715408E-003  -2.7118157968505363E-003   4.9950729832311191E-002
   1.8673702427537353E-002  -4.8028909530098973E-003   2.3612892409250130E-002
   1.5651923109575028E-002  -4.0775210330267209E-003   2.4401178700346859E-002
   1.2630143791612591E-002  -3.7290200324345824E-003   2.5662721618700424E-002
   9.6083644736502383E-003  -3.7573879512337316E-003   2.7397521164311933E-002
   6.5865851556878297E-003  -4.1626247894243074E-003   2.9605577337180722E-002
   1.5703691347006304E-002  -4.2801221639701126E-003   3.0479561689513046E-002
   1.3136794411824443E-002  -3.7719176135206367E-003   3.1259804825832738E-002
   1.0569897476642609E-002  -3.6986328222001486E-003   3.2476556100456244E-002
   8.0030005414607613E-003  -4.0602677900083359E-003   3.4129815513383760E-002
   5.4361036062789136E-003  -4.8568225169456358E-003   3.6219583064615035E-002
   1.3149905695434949E-002  -3.7573533749302723E-003   3.7158091020110973E-002
   1.1001142654080254E-002  -3.4663141940147191E-003   3.7872240161916010E-002
   8.8523796127254681E-003  -3.6682456119658258E-003   3.8986148953071342E-002
   6.7036165713707310E-003  -4.3631476287829402E-003   4.0499817393577428E-002
   4.5548535300159870E-003  -5.5510202444669088E-003   4.2413245483433754E-002
   1.1012345472823412E-002  -3.2345845858904043E-003   4.3648480401043438E-002
   9.2449678363422522E-003  -3.1607107745087182E-003   4.4238484708596711E-002
   7.4775901998611997E-003  -3.6378584017311144E-003   4.5191500176546592E-002
   5.7102125633800970E-003  -4.6660274675576555E-003   4.6507526804893430E-002
   3.9428349268989908E-003  -6.2452179719883205E-003   4.8186564593637120E-002
   9.2910106791715408E-003  -2.7118157968505363E-003   4.9950729832311191E-002
   7.8682699586106464E-003  -2.8551073550028283E-003   5.0358538465874347E-002
   6.4455292380497797E-003  -3.6074711914970969E-003   5.1092609770881092E-002
   5.0227885174889131E-003  -4.9689073063319891E-003   5.2152943747331343E-002
   3.6000477969280187E-003  -6.9394156995095102E-003   5.3539540395225016E-002
   6.5865851556878297E-003  -4.1626247894243074E-003   2.9605577337180722E-002
   6.0575983370614317E-003  -6.1418788408598157E-003   3.4080867395420267E-002
   5.5286115184351725E-003  -1.0892298399394013E-002   3.9241649645610555E-002
   4.9996246998088301E-003  -1.8413883465028320E-002   4.5087924087751835E-002
   4.4706378811825154E-003  -2.8706634037761081E-002   5.1619690721843803E-002
   5.4361036062789136E-003  -4.8568225169456358E-003   3.6219583064615035E-002
   5.4888157392362080E-003  -6.9893823875407657E-003   3.8356183337990402E-002
   5.5415278721934608E-003  -1.1359032786322970E-002   4.0970689322581688E-002
   5.5942400051507066E-003  -1.7965773713292742E-002   4.4063101018390283E-002
   5.6469521381080634E-003  -2.6809605168449435E-002   4.7633418425414353E-002
   4.5548535300159870E-003  -5.5510202444669088E-003   4.2413245483433754E-002
   4.9816781338225535E-003  -7.8368859342216046E-003   4.2745230950856555E-002
   5.4085027376290853E-003  -1.1825767173251692E-002   4.3347535648761301E-002
   5.8353273414357074E-003  -1.7517663961556993E-002   4.4220159577148650E-002
   6.2621519452421837E-003  -2.4912576299137790E-002   4.5363102736017402E-002
   3.9428349268989908E-003  -6.2452179719883205E-003   4.8186564593637120E-002
   4.5361855208205654E-003  -8.6843894809022770E-003   4.7248010234019290E-002
   5.1295361147420636E-003  -1.2292501560180309E-002   4.6372188624149380E-002
   5.7228867086636364E-003  -1.7069554209821550E-002   4.5559099764026799E-002
   6.3162373025851884E-003  -2.3015547429826144E-002   4.4808743653652283E-002
   3.6000477969280187E-003  -6.9394156995095102E-003   5.3539540395225016E-002
   4.1523379002301741E-003  -9.5318930275832825E-003   5.1864521187478418E-002
   4.7046280035323851E-003  -1.2759235947109204E-002   5.0044648248745549E-002
   5.2569181068346377E-003  -1.6621444458085846E-002   4.8079921579025409E-002
   5.8092082101367515E-003  -2.1118518560514499E-002   4.5970341178319440E-002
   5.0662831186262192E-002  -2.0779373995073180E-002   4.7992656820276702E-002
   4.8866660890391878E-002  -1.8922805978061868E-002   4.7842405592829318E-002
   4.7070490594521619E-002  -1.7315666038683689E-002   4.7849130837307102E-002
   4.5274320298651305E-002  -1.5957954176938408E-002   4.8012832553710319E-002
   4.3478150002781046E-002  -1.4849670392826309E-002   4.8333510742038788E-002
   4.4694425905285023E-002  -1.6368114246385790E-002   5.3217704218137707E-002
   4.3077545500078418E-002  -1.5332211701346021E-002   5.2668024895825588E-002
   4.1460665094871868E-002  -1.4371316506187684E-002   5.2319948882915635E-002
   3.9843784689665311E-002  -1.3485428660910685E-002   5.2173476179407749E-002
   3.8226904284458713E-002  -1.2674548165515165E-002   5.2228606785302056E-002
   3.8466496824461849E-002  -1.1956854497698371E-002   5.7534875780151359E-002
   3.7073533147395921E-002  -1.1741617424630216E-002   5.6760189090725985E-002
   3.5680569470329937E-002  -1.1426966973691756E-002   5.6231732548179751E-002
   3.4287605793263974E-002  -1.1012903144882987E-002   5.5949506152512610E-002
   3.2894642116198011E-002  -1.0499425938204049E-002   5.5913509903724568E-002
   3.1979043943792543E-002  -7.5455947490109671E-003   6.0944171506317535E-002
   3.0854623832344205E-002  -8.1510231479143339E-003   6.0118898177530661E-002
   2.9730203720895784E-002  -8.4826174411957896E-003   5.9584481833099986E-002
   2.8605783609447363E-002  -8.5403776288553307E-003   5.9340922473025109E-002
   2.7481363497998963E-002  -8.3243037108929469E-003   5.9388220097306432E-002
   2.5232067263277314E-002  -3.1343350003235626E-003   6.3445591396636525E-002
   2.4420817554923341E-002  -4.5604288711985352E-003   6.2744152156239796E-002
   2.3609567846569410E-002  -5.5382679086998510E-003   6.2378196737676139E-002
   2.2798318138215479E-002  -6.0678521128275167E-003   6.2347725140945248E-002
   2.1987068429861520E-002  -6.1491814835817893E-003   6.2652737366047317E-002
   4.3478150002781046E-002  -1.4849670392826309E-002   4.8333510742038788E-002
   4.2040716668201639E-002  -1.3921379537897377E-002   4.8366041986221964E-002
   4.0603283333622273E-002  -1.3103646463701879E-002   4.8532028932377319E-002
   3.9165849999042879E-002  -1.2396471170239981E-002   4.8831471580504271E-002
   3.7728416664463527E-002  -1.1799853657511405E-002   4.9264369930603125E-002
   3.8226904284458713E-002  -1.2674548165515165E-002   5.2228606785302056E-002
   3.6931084966757899E-002  -1.1939466617632455E-002   5.2094705731514729E-002
   3.5635265649057085E-002  -1.1280975614893801E-002   5.2110577009512785E-002
   3.4339446331356278E-002  -1.0699075157299405E-002   5.2276220619296231E-002
   3.3043627013655458E-002  -1.0193765244849218E-002   5.2591636560864519E-002
   3.2894642116198011E-002  -1.0499425938204049E-002   5.5913509903724568E-002
   3.1756753445189127E-002  -9.9575536973674356E-003   5.5647143787556155E-002
   3.0618864774180243E-002  -9.4583047660857233E-003   5.5546866632986205E-002
   2.9480976103171366E-002  -9.0016791443589955E-003   5.5612678440015037E-002
   2.8343087432162475E-002  -8.5876768321871688E-003   5.5844579208642262E-002
   2.7481363497998963E-002  -8.3243037108929469E-003   5.9388220097306432E-002
   2.6517722103495366E-002  -7.9756407771024648E-003   5.9023356154345889E-002
   2.5554080708991768E-002  -7.6356339172775900E-003   5.8840897802797318E-002
   2.4590439314488163E-002  -7.3042831314186138E-003   5.8840845042660815E-002
   2.3626797919984576E-002  -6.9815884195251338E-003   5.9023197873936201E-002
   2.1987068429861520E-002  -6.1491814835817893E-003   6.2652737366047317E-002
   2.1213990941676558E-002  -5.9937278568374386E-003   6.2223342831884076E-002
   2.0440913453491638E-002  -5.8129630684695816E-003   6.1992670518946247E-002
   1.9667835965306690E-002  -5.6068871184780412E-003   6.1960720427233648E-002
   1.8894758477121756E-002  -5.3755000068629877E-003   6.2127492556746489E-002
   3.7728416664463527E-002  -1.1799853657511405E-002   4.9264369930603125E-002
   3.5984018451615390E-002  -1.1250848369697308E-002   4.8942324857212616E-002
   3.4239620238767254E-002  -1.0686509750978332E-002   4.8809847530297351E-002
   3.2495222025919132E-002  -1.0106837801355222E-002   4.8866937949857012E-002
   3.0750823813071010E-002  -9.5118325208271015E-003   4.9113596115891833E-002
   3.3043627013655458E-002  -1.0193765244849218E-002   5.2591636560864519E-002
   3.1493237903344462E-002  -9.7184151398845287E-003   5.2274285043390101E-002
   2.9942848793033508E-002  -9.2263941047464049E-003   5.2155383984514886E-002
   2.8392459682722554E-002  -8.7177021394352766E-003   5.2234933384238735E-002
   2.6842070572411558E-002  -8.1923392439507414E-003   5.2512933242561899E-002
   2.8343087432162475E-002  -8.5876768321871688E-003   5.5844579208642262E-002
   2.6995590136512732E-002  -8.1859819100718323E-003   5.5533258846352435E-002
   2.5648092840862960E-002  -7.7662784585145958E-003   5.5429271654785901E-002
   2.4300595545213206E-002  -7.3285664775154993E-003   5.5532617633942710E-002
   2.2953098249563444E-002  -6.8728459670743258E-003   5.5843296783822549E-002
   2.3626797919984576E-002  -6.9815884195251338E-003   5.9023197873936201E-002
   2.2491075151120084E-002  -6.6535486802592053E-003   5.8719246266099687E-002
   2.1355352382255575E-002  -6.3061628122826167E-003   5.8631510541110675E-002
   2.0219629613391108E-002  -5.9394308155955268E-003   5.8759990698968874E-002
   1.9083906844526578E-002  -5.5533526901979380E-003   5.9104686739674436E-002
   1.8894758477121756E-002  -5.3755000068629877E-003   6.2127492556746489E-002
   1.7979692947166573E-002  -5.1211154504463841E-003   6.1832247302631926E-002
   1.7064627417211396E-002  -4.8460471660508181E-003   6.1762100643488999E-002
   1.6149561887256230E-002  -4.5502951536757659E-003   6.1917052579317247E-002
   1.5234496357301064E-002  -4.2338594133214391E-003   6.2297103110116936E-002
   3.0750823813071010E-002  -9.5118325208271015E-003   4.9113596115891833E-002
   2.9118489530615660E-002  -8.8944119866565252E-003   4.8837286303761107E-002
   2.7486155248160282E-002  -8.2474942761055492E-003   4.8734110490257887E-002
   2.5853820965704932E-002  -7.5710793891734657E-003   4.8804068675381701E-002
   2.4221486683249582E-002  -6.8651673258607326E-003   4.9047160859132855E-002
   2.6842070572411558E-002  -8.1923392439507414E-003   5.2512933242561899E-002
   2.5387653636223112E-002  -7.6490124867243658E-003   5.2285564680727398E-002
   2.3933236700034666E-002  -7.0864289361877580E-003   5.2240896812799364E-002
   2.2478819763846199E-002  -6.5045885923406647E-003   5.2378929638777799E-002
   2.1024402827657773E-002  -5.9034914551832074E-003   5.2699663158662646E-002
   2.2953098249563444E-002  -6.8728459670743258E-003   5.5843296783822549E-002
   2.1686165354920947E-002  -6.4036129867921510E-003   5.5654629089214050E-002
   2.0419232460278457E-002  -5.9253635962700779E-003   5.5658228783791244E-002
   1.9152299565635966E-002  -5.4380977955078638E-003   5.5854095867553841E-002
   1.7885366670993441E-002  -4.9418155845056266E-003   5.6242230340502020E-002
   1.9083906844526578E-002  -5.5533526901979380E-003   5.9104686739674436E-002
   1.8014024686709117E-002  -5.1582134868599083E-003   5.8944479529221730E-002
   1.6944142528891665E-002  -4.7642982563523423E-003   5.8986106403233506E-002
   1.5874260371074221E-002  -4.3716069986750074E-003   5.9229567361710006E-002
   1.4804378213256732E-002  -3.9801397138280181E-003   5.9674862404650870E-002
   1.5234496357301064E-002  -4.2338594133214391E-003   6.2297103110116936E-002
   1.4371231631587683E-002  -3.9128139869278877E-003   6.2155116000749799E-002
   1.3507966905874302E-002  -3.6032329164344956E-003   6.2224529671125905E-002
   1.2644702180160922E-002  -3.3051162018423452E-003   6.2505344121245920E-002
   1.1781437454447541E-002  -3.0184638431504096E-003   6.2997559351109511E-002
   2.4221486683249582E-002  -6.8651673258607326E-003   4.9047160859132855E-002
   2.2423042721426645E-002  -6.1599160975466805E-003   4.8757756938998476E-002
   2.0624598759603679E-002  -5.4854837156104452E-003   4.8638545101865160E-002
   1.8826154797780756E-002  -4.8418701800517841E-003   4.8689525347733187E-002
   1.7027710835957832E-002  -4.2290754908710371E-003   4.8910697676602721E-002
   2.1024402827657773E-002  -5.9034914551832074E-003   5.2699663158662646E-002
   1.9405061897637688E-002  -5.3044461131256937E-003   5.2450128271313179E-002
   1.7785720967617616E-002  -4.7287611545784591E-003   5.2388607364567935E-002
   1.6166380037597544E-002  -4.1764365795411776E-003   5.2515100438427179E-002
   1.4547039107577486E-002  -3.6474723880142168E-003   5.2829607492890784E-002
   1.7885366670993441E-002  -4.9418155845056266E-003   5.6242230340502020E-002
   1.6462950670379284E-002  -4.4489761287046237E-003   5.6040022948805085E-002
   1.5040534669765092E-002  -3.9720385935462371E-003   5.6043651435315492E-002
   1.3618118669150931E-002  -3.5110029790303456E-003   5.6253115800033372E-002
   1.2195702668536743E-002  -3.0658692851573410E-003   5.6668416042958775E-002
   1.4804378213256732E-002  -3.9801397138280181E-003   5.9674862404650870E-002
   1.3596709039651433E-002  -3.5935061442836508E-003   5.9527440971474228E-002
   1.2389039866046175E-002  -3.2153160325141331E-003   5.9603677314108053E-002
   1.1181370692440903E-002  -2.8455693785199593E-003   5.9903571432552177E-002
   9.9737015188356183E-003  -2.4842661823004930E-003   6.0427123326807150E-002
   1.1781437454447541E-002  -3.0184638431504096E-003   6.2997559351109511E-002
   1.0806337005454178E-002  -2.7380361598625669E-003   6.2912382339320838E-002
   9.8312365564608151E-003  -2.4585934714820012E-003   6.3068685000945535E-002
   8.8561361074674591E-003  -2.1801357780089556E-003   6.3466467335983462E-002
   7.8810356584740893E-003  -1.9026630794435340E-003   6.4105729344435147E-002
   1.7027710835957832E-002  -4.2290754908710371E-003   4.8910697676602721E-002
   1.5093535796761259E-002  -3.6862078105007745E-003   4.8783661730325556E-002
   1.3159360757564686E-002  -3.2523753013741219E-003   4.8914655107517802E-002
   1.1225185718368128E-002  -2.9275779634903853E-003   4.9303677808179597E-002
   9.2910106791715408E-003  -2.7118157968505363E-003   4.9950729832311191E-002
   1.4547039107577486E-002  -3.6474723880142168E-003   5.2829607492890784E-002
   1.2869070299748153E-002  -3.1853098903441013E-003   5.2720444656127741E-002
   1.1191101491918848E-002  -2.8333903968762730E-003   5.2865664958629488E-002
   9.5131326840895286E-003  -2.5917139076124876E-003   5.3265268400396165E-002
   7.8351638762602371E-003  -2.4602804225514197E-003   5.3919254981427911E-002
   1.2195702668536743E-002  -3.0658692851573410E-003   5.6668416042958775E-002
   1.0770293907870071E-002  -2.6844119701869285E-003   5.6575918482750120E-002
   9.3448851472034272E-003  -2.4144054923790903E-003   5.6734157877601665E-002
   7.9194763865367869E-003  -2.2558498517343678E-003   5.7143134227513659E-002
   6.4940676258701119E-003  -2.2087450482523585E-003   5.7802847532486018E-002
   9.9737015188356183E-003  -2.4842661823004930E-003   6.0427123326807150E-002
   8.7972066211270197E-003  -2.1835140500296724E-003   6.0350083210192758E-002
   7.6207117234184524E-003  -1.9954205878814635E-003   6.0520133864434347E-002
   6.4442168257098703E-003  -1.9199857958562480E-003   6.0937275289531835E-002
   5.2677219280012864E-003  -1.9572096739534361E-003   6.1601507485484840E-002
   7.8810356584740893E-003  -1.9026630794435340E-003   6.4105729344435147E-002
   6.9498084395189924E-003  -1.6826161298730269E-003   6.4042938838455687E-002
   6.0185812205638817E-003  -1.5764356833840587E-003   6.4223592919127659E-002
   5.0873540016087848E-003  -1.5841217399782948E-003   6.4647691586450479E-002
   4.1561267826537018E-003  -1.7056742996542917E-003   6.5315234840425007E-002
   9.2910106791715408E-003  -2.7118157968505363E-003   4.9950729832311191E-002
   7.8682699586106464E-003  -2.8551073550028283E-003   5.0358538465874347E-002
   6.4455292380497797E-003  -3.6074711914970969E-003   5.1092609770881092E-002
   5.0227885174889131E-003  -4.9689073063319891E-003   5.2152943747331343E-002
   3.6000477969280187E-003  -6.9394156995095102E-003   5.3539540395225016E-002
   7.8351638762602371E-003  -2.4602804225514197E-003   5.3919254981427911E-002
   6.7129004197837572E-003  -2.6413262407425919E-003   5.3854134819832200E-002
   5.5906369633072633E-003  -3.3370876612352773E-003   5.4063706514961229E-002
   4.4683735068307764E-003  -4.5475646840290526E-003   5.4547970066815665E-002
   3.3461100503542895E-003  -6.2727573091243549E-003   5.5306925475395730E-002
   6.4940676258701119E-003  -2.2087450482523585E-003   5.7802847532486018E-002
   5.6207106187599123E-003  -2.4275451264826331E-003   5.7359155251770738E-002
   4.7473536116496781E-003  -3.0667041309737769E-003   5.7138584013062751E-002
   3.8739966045394578E-003  -4.1262220617261126E-003   5.7141133816361885E-002
   3.0006395974292166E-003  -5.6060989187396437E-003   5.7366804661668158E-002
   5.2677219280012864E-003  -1.9572096739534361E-003   6.1601507485484840E-002
   4.5917005555391518E-003  -2.2137640122223134E-003   6.0873599761690773E-002
   3.9156791830770362E-003  -2.7963206007123945E-003   6.0317242265185617E-002
   3.2396578106148773E-003  -3.7048794394229524E-003   5.9932434995969577E-002
   2.5636364381527582E-003  -4.9394405283548215E-003   5.9719177954042468E-002
   4.1561267826537018E-003  -1.7056742996542917E-003   6.5315234840425007E-002
   3.6258702301214946E-003  -1.9999828979624379E-003   6.4397468349592035E-002
   3.0956136775893012E-003  -2.5259370704505402E-003   6.3599681271330089E-002
   2.5653571250571078E-003  -3.2835368171198684E-003   6.2921873605639028E-002
   2.0351005725249283E-003  -4.2727821379697772E-003   6.2364045352518938E-002
   3.6000477969280187E-003  -6.9394156995095102E-003   5.3539540395225016E-002
   4.1523379002301741E-003  -9.5318930275832825E-003   5.1864521187478418E-002
   4.7046280035323851E-003  -1.2759235947109204E-002   5.0044648248745549E-002
   5.2569181068346377E-003  -1.6621444458085846E-002   4.8079921579025409E-002
   5.8092082101367515E-003  -2.1118518560514499E-002   4.5970341178319440E-002
   3.3461100503542895E-003  -6.2727573091243549E-003   5.5306925475395730E-002
   3.7708658330536937E-003  -8.5425136716877903E-003   5.2953054239638697E-002
   4.1956216157530424E-003  -1.1386681906884299E-002   5.0488968093662601E-002
   4.6203773984523980E-003  -1.4805262014714798E-002   4.7914667037467495E-002
   5.0451331811517952E-003  -1.8798253995178982E-002   4.5230151071052660E-002
   3.0006395974292166E-003  -5.6060989187396437E-003   5.7366804661668158E-002
   3.3324998802931050E-003  -7.5531343157919095E-003   5.4394535116718601E-002
   3.6643601631569794E-003  -1.0014127866660033E-002   5.1346689482317270E-002
   3.9962204460208504E-003  -1.2989079571343744E-002   4.8223267758464097E-002
   4.3280807288847145E-003  -1.6477989429843687E-002   4.5024269945158624E-002
   2.5636364381527582E-003  -4.9394405283548215E-003   5.9719177954042468E-002
   2.8372400419485050E-003  -6.5637549598962230E-003   5.6188963818718407E-002
   3.1108436457442275E-003  -8.6415738264354475E-003   5.2617812414709593E-002
   3.3844472495399352E-003  -1.1172897127972804E-002   4.9005723742016255E-002
   3.6580508533356690E-003  -1.4157724864508281E-002   4.5352697800638775E-002
   2.0351005725249283E-003  -4.2727821379697772E-003   6.2364045352518938E-002
   2.2850863180198522E-003  -5.5743756040005366E-003   5.8336340345637727E-002
   2.5350720635147761E-003  -7.2690197862110284E-003   5.4302336890839187E-002
   2.7850578090096861E-003  -9.3567146846016830E-003   5.0262034988124316E-002
   3.0350435545046239E-003  -1.1837460299172875E-002   4.6215434637491892E-002
   2.5232067263277314E-002  -3.1343350003235626E-003   6.3445591396636525E-002
   2.4420817554923341E-002  -4.5604288711985352E-003   6.2744152156239796E-002
   2.3609567846569410E-002  -5.5382679086998510E-003   6.2378196737676139E-002
   2.2798318138215479E-002  -6.0678521128275167E-003   6.2347725140945248E-002
   2.1987068429861520E-002  -6.1491814835817893E-003   6.2652737366047317E-002
   1.8485224899252806E-002  -2.9896356157650406E-003   6.2571564175121441E-002
   1.7978756633443810E-002  -3.7075698409098912E-003   6.2434262596745116E-002
   1.7472288367634814E-002  -4.2036636824666906E-003   6.2571040081625950E-002
   1.6965820101825832E-002  -4.4779171404353488E-003   6.2981896629763723E-002
   1.6459351836016836E-002  -4.5303302148160252E-003   6.3666832241158516E-002
   1.1998174968055858E-002  -2.8449362312065185E-003   6.2518903824229116E-002
   1.1735083386215900E-002  -2.8547108106212887E-003   6.2719325458088032E-002
   1.1471991804375942E-002  -2.8690594562334609E-003   6.3132421396627697E-002
   1.1208900222535997E-002  -2.8879821680431773E-003   6.3758191639848527E-002
   1.0945808640696046E-002  -2.9114789460502610E-003   6.4596636187750509E-002
   5.7709174696864811E-003  -2.7002368466480242E-003   6.3287610343959771E-002
   5.6897978132396457E-003  -2.0018517803327349E-003   6.3599340740268046E-002
   5.6086781567928033E-003  -1.5344552300002937E-003   6.4062340682681213E-002
   5.5275585003459731E-003  -1.2980471956509799E-003   6.4676610171199675E-002
   5.4464388438991342E-003  -1.2926276772844969E-003   6.5442149205823197E-002
  -1.9654759585532172E-004  -2.5555374620894744E-003   6.4877683734313241E-002
  -1.5710008548496662E-004  -1.1489927500440700E-003   6.5074308443285267E-002
  -1.1765257511460112E-004  -1.9985100376712639E-004   6.5360797939786497E-002
  -7.8205064744244282E-005   2.9188777674120370E-004   6.5737152223816986E-002
  -3.8757554373890918E-005   3.2622359148126723E-004   6.6203371295376678E-002
   2.1987068429861520E-002  -6.1491814835817893E-003   6.2652737366047317E-002
   2.1213990941676558E-002  -5.9937278568374386E-003   6.2223342831884076E-002
   2.0440913453491638E-002  -5.8129630684695816E-003   6.1992670518946247E-002
   1.9667835965306690E-002  -5.6068871184780412E-003   6.1960720427233648E-002
   1.8894758477121756E-002  -5.3755000068629877E-003   6.2127492556746489E-002
   1.6459351836016836E-002  -4.5303302148160252E-003   6.3666832241158516E-002
   1.5884106910887832E-002  -4.4548230173306752E-003   6.3280377108233518E-002
   1.5308861985758843E-002  -4.3453156597014625E-003   6.3090864880195052E-002
   1.4733617060629853E-002  -4.2018081419281338E-003   6.3098295557043035E-002
   1.4158372135500842E-002  -4.0243004640111435E-003   6.3302669138777884E-002
   1.0945808640696046E-002  -2.9114789460502610E-003   6.4596636187750509E-002
   1.0566616962284212E-002  -2.9159181778239673E-003   6.4261809454584082E-002
   1.0187425283872387E-002  -2.8776682509333365E-003   6.4122146309965433E-002
   9.8082336054605614E-003  -2.7967291653783911E-003   6.4177646753894604E-002
   9.4290419270487320E-003  -2.6731009211591605E-003   6.4428310786371498E-002
   5.4464388438991342E-003  -1.2926276772844969E-003   6.5442149205823197E-002
   5.2615210958656972E-003  -1.3770133383171762E-003   6.5167639870935823E-002
   5.0766033478322750E-003  -1.4100208421652140E-003   6.5086514808257404E-002
   4.8916855997988510E-003  -1.3916501888285660E-003   6.5198774017787967E-002
   4.7067678517654218E-003  -1.3219013783073302E-003   6.5504417499527609E-002
  -3.8757554373890918E-005   3.2622359148126723E-004   6.6203371295376678E-002
  -3.1180688367698356E-005   1.6189150118953166E-004   6.5997868357288603E-002
  -2.3603822361500590E-005   5.7626566602866913E-005   6.5983970375070838E-002
  -1.6026956355307161E-005   1.3428787721248697E-005   6.6161677348723261E-002
  -8.4500903491102619E-006   2.9298164544666605E-005   6.6530989278245967E-002
   1.8894758477121756E-002  -5.3755000068629877E-003   6.2127492556746489E-002
   1.7979692947166573E-002  -5.1211154504463841E-003   6.1832247302631926E-002
   1.7064627417211396E-002  -4.8460471660508181E-003   6.1762100643488999E-002
   1.6149561887256230E-002  -4.5502951536757659E-003   6.1917052579317247E-002
   1.5234496357301064E-002  -4.2338594133214391E-003   6.2297103110116936E-002
   1.4158372135500842E-002  -4.0243004640111435E-003   6.3302669138777884E-002
   1.3469375828409236E-002  -3.8245595909174868E-003   6.3031025624818715E-002
   1.2780379521317626E-002  -3.6143524876147415E-003   6.2986421961615205E-002
   1.2091383214226025E-002  -3.3936791541029562E-003   6.3168858149167589E-002
   1.1402386907134396E-002  -3.1625395903819298E-003   6.3578334187475660E-002
   9.4290419270487320E-003  -2.6731009211591605E-003   6.4428310786371498E-002
   8.9680560986051087E-003  -2.5280037313882980E-003   6.4170051514797405E-002
   8.5070702701614837E-003  -2.3826578091786579E-003   6.4140773349763369E-002
   8.0460844417178726E-003  -2.2370631545300893E-003   6.4340476291269599E-002
   7.5850986132742423E-003  -2.0912197674425870E-003   6.4769160339316068E-002
   4.7067678517654218E-003  -1.3219013783073302E-003   6.5504417499527609E-002
   4.4757337577542014E-003  -1.2314478718592273E-003   6.5249324972568162E-002
   4.2446996637429887E-003  -1.1509631307424668E-003   6.5225154807933436E-002
   4.0136655697317770E-003  -1.0804471549572510E-003   6.5431907005623444E-002
   3.7826314757205635E-003  -1.0198999445032164E-003   6.5869581565637686E-002
  -8.4500903491102619E-006   2.9298164544666605E-005   6.6530989278245967E-002
  -7.5911941434941843E-006   6.5107987669815737E-005   6.6268845998131154E-002
  -6.7322979378711678E-006   8.0731547693488337E-005   6.6239566336125294E-002
  -5.8734017322516208E-006   7.6168844615528281E-005   6.6443150292228512E-002
  -5.0145055266320737E-006   5.1419878436209654E-005   6.6879597866440987E-002
   1.5234496357301064E-002  -4.2338594133214391E-003   6.2297103110116936E-002
   1.4371231631587683E-002  -3.9128139869278877E-003   6.2155116000749799E-002
   1.3507966905874302E-002  -3.6032329164344956E-003   6.2224529671125905E-002
   1.2644702180160922E-002  -3.3051162018423452E-003   6.2505344121245920E-002
   1.1781437454447541E-002  -3.0184638431504096E-003   6.2997559351109511E-002
   1.1402386907134396E-002  -3.1625395903819298E-003   6.3578334187475660E-002
   1.0751787830964823E-002  -2.9293846835046766E-003   6.3443483154316638E-002
   1.0101188754795251E-002  -2.7026653205237949E-003   6.3522562640501545E-002
   9.4505896786256753E-003  -2.4823815014389308E-003   6.3815572646030383E-002
   8.7999906024561064E-003  -2.2685332262505353E-003   6.4322513170903206E-002
   7.5850986132742423E-003  -2.0912197674425870E-003   6.4769160339316068E-002
   7.1496949262488188E-003  -1.9459553800817431E-003   6.4646474194369474E-002
   6.7142912392233883E-003  -1.8020977246126502E-003   6.4740248308367304E-002
   6.2788875521979648E-003  -1.6596468010357385E-003   6.5050482681309335E-002
   5.8434838651725343E-003  -1.5186026093506055E-003   6.5577177313195706E-002
   3.7826314757205635E-003  -1.0198999445032164E-003   6.5869581565637686E-002
   3.5649529174396483E-003  -9.6252607665861523E-004   6.5764089120908059E-002
   3.3472743591587330E-003  -9.0153012870167193E-004   6.5877586674723057E-002
   3.1295958008778031E-003  -8.3691210063243510E-004   6.6210074227082749E-002
   2.9119172425968957E-003  -7.6867199245081452E-004   6.6761551777987038E-002
  -5.0145055266320737E-006   5.1419878436209654E-005   6.6879597866440987E-002
  -2.4381954626881419E-006   2.0903226764401595E-005   6.6796327933932420E-002
   1.3811460126272879E-007  -9.6253279073532649E-007   6.6934577739568984E-002
   2.7144246652083953E-006  -1.4177400229169884E-005   6.7294347283350528E-002
   5.2907347291575313E-006  -1.8741375550801465E-005   6.7875636565277064E-002
   1.1781437454447541E-002  -3.0184638431504096E-003   6.2997559351109511E-002
   1.0806337005454178E-002  -2.7380361598625669E-003   6.2912382339320838E-002
   9.8312365564608151E-003  -2.4585934714820012E-003   6.3068685000945535E-002
   8.8561361074674591E-003  -2.1801357780089556E-003   6.3466467335983462E-002
   7.8810356584740893E-003  -1.9026630794435340E-003   6.4105729344435147E-002
   8.7999906024561064E-003  -2.2685332262505353E-003   6.4322513170903206E-002
   8.0670230795254066E-003  -2.0581237827662080E-003   6.4262215969261793E-002
   7.3340555565946999E-003  -1.8481564587943533E-003   6.4444704946332393E-002
   6.6010880336640002E-003  -1.6386312543348394E-003   6.4869980102114727E-002
   5.8681205107332934E-003  -1.4295481693873402E-003   6.5538041436609074E-002
   5.8434838651725343E-003  -1.5186026093506055E-003   6.5577177313195706E-002
   5.3539557736029982E-003  -1.3782114056700712E-003   6.5542302797096857E-002
   4.8644276820334724E-003  -1.2377194461067192E-003   6.5751520965008345E-002
   4.3748995904639310E-003  -1.0971267306604492E-003   6.6204831816930210E-002
   3.8853714988943966E-003  -9.5643325933131296E-004   6.6902235352862466E-002
   2.9119172425968957E-003  -7.6867199245081452E-004   6.6761551777987038E-002
   2.6671350876870132E-003  -6.9829902857387882E-004   6.6752642822825670E-002
   2.4223529327771264E-003  -6.2728243341896722E-004   6.6989133056973280E-002
   2.1775707778672374E-003  -5.5562220698608493E-004   6.7471022480429618E-002
   1.9327886229573432E-003  -4.8331834927531347E-004   6.8198311093194894E-002
   5.2907347291575313E-006  -1.8741375550801465E-005   6.7875636565277064E-002
   6.5610217774153545E-006  -1.8386651477519944E-005   6.7893236046448591E-002
   7.8313088256766472E-006  -1.6845420731298466E-005   6.8157541222227280E-002
   9.1015958739448788E-006  -1.4117683311741513E-005   6.8668552092613466E-002
   1.0371882922195763E-005  -1.0203439219202970E-005   6.9426268657606927E-002
   7.8810356584740893E-003  -1.9026630794435340E-003   6.4105729344435147E-002
   6.9498084395189924E-003  -1.6826161298730269E-003   6.4042938838455687E-002
   6.0185812205638817E-003  -1.5764356833840587E-003   6.4223592919127659E-002
   5.0873540016087848E-003  -1.5841217399782948E-003   6.4647691586450479E-002
   4.1561267826537018E-003  -1.7056742996542917E-003   6.5315234840425007E-002
   5.8681205107332934E-003  -1.4295481693873402E-003   6.5538041436609074E-002
   5.1774957264662178E-003  -1.2635138657558498E-003   6.5402813941467242E-002
   4.4868709421991282E-003  -1.1831350052449729E-003   6.5505346729050090E-002
   3.7962461579320352E-003  -1.1884115878542240E-003   6.5845639799358133E-002
   3.1056213736649629E-003  -1.2793436135829506E-003   6.6423693152390495E-002
   3.8853714988943966E-003  -9.5643325933131296E-004   6.6902235352862466E-002
   3.4296648453889869E-003  -8.4441160163969964E-004   6.6722781928520214E-002
   2.9739581918835703E-003  -7.8983432710588719E-004   6.6775404482976669E-002
   2.5182515383781537E-003  -7.9270143572993113E-004   6.7060103016231304E-002
   2.0625448848727301E-003  -8.5301292751177593E-004   6.7576877528284812E-002
   1.9327886229573432E-003  -4.8331834927531347E-004   6.8198311093194894E-002
   1.7063157962872747E-003  -4.2530933752320255E-004   6.8002842799614813E-002
   1.4798429696171837E-003  -3.9653364896669041E-004   6.8033766180906993E-002
   1.2533701429471014E-003  -3.9699128360586033E-004   6.8291081237071088E-002
   1.0268973162770242E-003  -4.2668224144051803E-004   6.8774787968107404E-002
   1.0371882922195763E-005  -1.0203439219202970E-005   6.9426268657606927E-002
   7.4485791610942598E-006  -6.2070734064834099E-006   6.9242996554750968E-002
   4.5252753999962259E-006  -3.2329708276324087E-006   6.9280431822840993E-002
   1.6019716388929878E-006  -1.2811314816021935E-006   6.9538574461876668E-002
  -1.3213321222033114E-006  -3.5155536914910357E-007   7.0017424471858214E-002
   4.1561267826537018E-003  -1.7056742996542917E-003   6.5315234840425007E-002
   3.6258702301214946E-003  -1.9999828979624379E-003   6.4397468349592035E-002
   3.0956136775893012E-003  -2.5259370704505402E-003   6.3599681271330089E-002
   2.5653571250571078E-003  -3.2835368171198684E-003   6.2921873605639028E-002
   2.0351005725249283E-003  -4.2727821379697772E-003   6.2364045352518938E-002
   3.1056213736649629E-003  -1.2793436135829506E-003   6.6423693152390495E-002
   2.6985204916527145E-003  -1.4999765828536127E-003   6.5313835830631717E-002
   2.2914196096404799E-003  -1.8943559960873380E-003   6.4330310437341831E-002
   1.8843187276282349E-003  -2.4624818532839043E-003   6.3473116972520727E-002
   1.4772178456159968E-003  -3.2043541544435339E-003   6.2742255436169070E-002
   2.0625448848727301E-003  -8.5301292751177593E-004   6.7576877528284812E-002
   1.7849521892786269E-003  -9.9997026774523157E-004   6.6332828505817232E-002
   1.5073594936845028E-003  -1.2627749217239276E-003   6.5221463927716980E-002
   1.2297667980903926E-003  -1.6414268894480548E-003   6.4242783793983821E-002
   9.5217410249626155E-004  -2.1359261709172905E-003   6.3396788104618074E-002
   1.0268973162770242E-003  -4.2668224144051803E-004   6.8774787968107404E-002
   8.8516532299921010E-004  -4.9996395263685045E-004   6.7454446375148969E-002
   7.4343332972139423E-004  -6.3119384736051026E-004   6.6273141742456132E-002
   6.0170133644357228E-004  -8.2037192561192594E-004   6.5230874070028616E-002
   4.5996934316576421E-004  -1.0674981873908251E-003   6.4327643357866462E-002
  -1.3213321222033114E-006  -3.5155536914910357E-007   7.0017424471858214E-002
  -8.4010718554017316E-007   4.2362471863732765E-008   6.8678689438626761E-002
  -3.5888224887356546E-007   3.8722700279603117E-007   6.7485343881558857E-002
   1.2234268779651170E-007   6.8303822389759183E-007   6.6437387800654613E-002
   6.0356762445618051E-007   9.2979613530719263E-007   6.5534821195913584E-002
   2.0351005725249283E-003  -4.2727821379697772E-003   6.2364045352518938E-002
   2.2850863180198522E-003  -5.5743756040005366E-003   5.8336340345637727E-002
   2.5350720635147761E-003  -7.2690197862110284E-003   5.4302336890839187E-002
   2.7850578090096861E-003  -9.3567146846016830E-003   5.0262034988124316E-002
   3.0350435545046239E-003  -1.1837460299172875E-002   4.6215434637491892E-002
   1.4772178456159968E-003  -3.2043541544435339E-003   6.2742255436169070E-002
   1.7068246706757051E-003  -4.1804723289122214E-003   5.8389410931141139E-002
   1.9364314957354273E-003  -5.4513358060361838E-003   5.4002107033160274E-002
   2.1660383207951529E-003  -7.0169445858151436E-003   4.9580343742226113E-002
   2.3956451458548578E-003  -8.8772986682497113E-003   4.5124121058337963E-002
   9.5217410249626155E-004  -2.1359261709172905E-003   6.3396788104618074E-002
   1.1332410620846396E-003  -2.7865690538240173E-003   5.8817109514968713E-002
   1.3143080216730108E-003  -3.6336518258613670E-003   5.4174810587329897E-002
   1.4953749812613958E-003  -4.6771744870286666E-003   4.9469891321701626E-002
   1.6764419408497461E-003  -5.9171370373263255E-003   4.4702351718084454E-002
   4.5996934316576421E-004  -1.0674981873908251E-003   6.4327643357866462E-002
   5.6433549224664623E-004  -1.3926657787359797E-003   5.9619436097120393E-002
   6.6870164132754213E-004  -1.8159678456866474E-003   5.4820447553348937E-002
   7.7306779040842415E-004  -2.3374043882420474E-003   4.9930677726552158E-002
   8.7743393948930617E-004  -2.9569754064029397E-003   4.4950126616729286E-002
   6.0356762445618051E-007   9.2979613530719263E-007   6.5534821195913584E-002
   1.0796116173272807E-007   1.2374963520578319E-006   6.0796390677596457E-002
  -3.8764530100113270E-007   1.7161344881000407E-006   5.5939017931217194E-002
  -8.8325176372805458E-007   2.3657105444677140E-006   5.0962702956776823E-002
  -1.3788582264584459E-006   3.1862245202241013E-006   4.5867445754273817E-002
  -1.9654759585532172E-004  -2.5555374620894744E-003   6.4877683734313241E-002
  -1.5710008548496662E-004  -1.1489927500440700E-003   6.5074308443285267E-002
  -1.1765257511460112E-004  -1.9985100376712639E-004   6.5360797939786497E-002
  -7.8205064744244282E-005   2.9188777674120370E-004   6.5737152223816986E-002
  -3.8757554373890918E-005   3.2622359148126723E-004   6.6203371295376678E-002
  -6.1290379226068212E-003   2.8639043003209075E-004   6.5513386528820328E-002
  -5.9747776305364673E-003   1.0536165067793202E-003   6.5184170809574532E-002
  -5.8205173384660910E-003   1.5563546150119262E-003   6.4994715866199482E-002
  -5.6662570463957189E-003   1.7946047547297041E-003   6.4945021698695274E-002
  -5.5119967543253538E-003   1.7683669259327406E-003   6.5035088307061839E-002
  -1.2251371204605344E-002   3.1283183221536282E-003   6.5413313189402522E-002
  -1.1932402142493397E-002   3.2562257636028213E-003   6.4751172039192520E-002
  -1.1613433080381444E-002   3.3125602337909787E-003   6.4278687653194944E-002
  -1.1294464018269494E-002   3.2973217327180934E-003   6.3995860031409765E-002
  -1.0975494956157537E-002   3.2105102603842139E-003   6.3902689173836805E-002
  -1.8563547441850858E-002   5.9702462142751656E-003   6.4577463716059574E-002
  -1.8029973621355767E-002   5.4588350204262809E-003   6.3775312132139189E-002
  -1.7496399800860672E-002   5.0687658525700313E-003   6.3212713300772883E-002
  -1.6962825980365578E-002   4.8000387107065383E-003   6.2889667221960377E-002
  -1.6429252159870483E-002   4.6526535948356318E-003   6.2806173895701797E-002
  -2.5065566634343360E-002   8.8121741063967307E-003   6.3005838108791901E-002
  -2.4267492067123565E-002   7.6614442772497404E-003   6.2256591088414914E-002
  -2.3469417499903767E-002   6.8249714713491116E-003   6.1796792808933299E-002
  -2.2671342932683969E-002   6.3027556886949901E-003   6.1626443270347137E-002
  -2.1873268365464167E-002   6.0947969292871607E-003   6.1745542472656734E-002
  -3.8757554373890918E-005   3.2622359148126723E-004   6.6203371295376678E-002
  -3.1180688367698356E-005   1.6189150118953166E-004   6.5997868357288603E-002
  -2.3603822361500590E-005   5.7626566602866913E-005   6.5983970375070838E-002
  -1.6026956355307161E-005   1.3428787721248697E-005   6.6161677348723261E-002
  -8.4500903491102619E-006   2.9298164544666605E-005   6.6530989278245967E-002
  -5.5119967543253538E-003   1.7683669259327406E-003   6.5035088307061839E-002
  -5.3139099395821737E-003   1.6253212002887568E-003   6.4883701025222798E-002
  -5.1158231248389953E-003   1.5131476494655571E-003   6.4921728684987370E-002
  -4.9177363100958152E-003   1.4318462734633983E-003   6.5149171286355695E-002
  -4.7196494953526437E-003   1.3814170722820651E-003   6.5566028829327799E-002
  -1.0975494956157537E-002   3.2105102603842139E-003   6.3902689173836805E-002
  -1.0589088206943896E-002   3.0887508993880514E-003   6.3776222567362470E-002
  -1.0202681457730256E-002   2.9686687323285180E-003   6.3836980888225314E-002
  -9.8162747085166150E-003   2.8502637592056571E-003   6.4084964136425421E-002
  -9.4298679593029736E-003   2.7335359800194636E-003   6.4520172311962623E-002
  -1.6429252159870483E-002   4.6526535948356318E-003   6.2806173895701797E-002
  -1.5856715490452887E-002   4.5521805984873667E-003   6.2675432983708007E-002
  -1.5284178821035287E-002   4.4241898151914268E-003   6.2729726984784920E-002
  -1.4711642151617688E-002   4.2686812449479724E-003   6.2969055898932411E-002
  -1.4139105482200090E-002   4.0856548877568621E-003   6.3393419726150688E-002
  -2.1873268365464167E-002   6.0947969292871607E-003   6.1745542472656734E-002
  -2.1116791790109137E-002   6.0156102975865433E-003   6.1581332274259160E-002
  -2.0360315214754093E-002   5.8797108980541690E-003   6.1599966974665799E-002
  -1.9603838639399053E-002   5.6870987306901488E-003   6.1801446573876651E-002
  -1.8847362064044020E-002   5.4377737954942607E-003   6.2185771071891771E-002
  -8.4500903491102619E-006   2.9298164544666605E-005   6.6530989278245967E-002
  -7.5911941434941843E-006   6.5107987669815737E-005   6.6268845998131154E-002
  -6.7322979378711678E-006   8.0731547693488337E-005   6.6239566336125294E-002
  -5.8734017322516208E-006   7.6168844615528281E-005   6.6443150292228512E-002
  -5.0145055266320737E-006   5.1419878436209654E-005   6.6879597866440987E-002
  -4.7196494953526437E-003   1.3814170722820651E-003   6.5566028829327799E-002
  -4.4874267678909410E-003   1.3383754601686837E-003   6.5285225073520109E-002
  -4.2552040404292262E-003   1.2792368513705882E-003   6.5234285362115521E-002
  -4.0229813129675183E-003   1.2040012458878306E-003   6.5413209695114050E-002
  -3.7907585855058087E-003   1.1126686437201716E-003   6.5821998072515542E-002
  -9.4298679593029736E-003   2.7335359800194636E-003   6.4520172311962623E-002
  -8.9692809742910901E-003   2.6116429326675933E-003   6.4224797346878817E-002
  -8.5086939892792136E-003   2.4777421550477505E-003   6.4156286852492250E-002
  -8.0481070042673318E-003   2.3318336471599126E-003   6.4314640828802894E-002
  -7.5875200192554466E-003   2.1739174090041613E-003   6.4699859275810692E-002
  -1.4139105482200090E-002   4.0856548877568621E-003   6.3393419726150688E-002
  -1.3453153813343961E-002   3.8849104051664821E-003   6.3087562818207446E-002
  -1.2767202144487825E-002   3.6762474587250481E-003   6.3005570807255648E-002
  -1.2081250475631675E-002   3.4596660484321048E-003   6.3147443693295016E-002
  -1.1395298806775552E-002   3.2351661742880261E-003   6.3513181476325856E-002
  -1.8847362064044020E-002   5.4377737954942607E-003   6.2185771071891771E-002
  -1.7939045285049533E-002   5.1581778776653431E-003   6.1873521487506078E-002
  -1.7030728506055057E-002   4.8747527624020404E-003   6.1782137226405714E-002
  -1.6122411727060568E-002   4.5874984497041096E-003   6.1911618288590764E-002
  -1.5214094948066088E-002   4.2964149395721130E-003   6.2261964674061199E-002
  -5.0145055266320737E-006   5.1419878436209654E-005   6.6879597866440987E-002
  -2.4381954626881419E-006   2.0903226764401595E-005   6.6796327933932420E-002
   1.3811460126272879E-007  -9.6253279073532649E-007   6.6934577739568984E-002
   2.7144246652083953E-006  -1.4177400229169884E-005   6.7294347283350528E-002
   5.2907347291575313E-006  -1.8741375550801465E-005   6.7875636565277064E-002
  -3.7907585855058087E-003   1.1126686437201716E-003   6.5821998072515542E-002
  -3.5684955155525829E-003   1.0158661481542430E-003   6.5732781858983458E-002
  -3.3462324455993623E-003   9.2422086247667679E-004   6.5861419427084705E-002
  -3.1239693756461321E-003   8.3773278668702877E-004   6.6207910776819451E-002
  -2.9017063056929089E-003   7.5640192078574309E-004   6.6772255908187750E-002
  -7.5875200192554466E-003   2.1739174090041613E-003   6.4699859275810692E-002
  -7.1492361459244702E-003   2.0108290695443065E-003   6.4601203099026061E-002
  -6.7109522725934921E-003   1.8494042577438599E-003   6.4716734747363530E-002
  -6.2726683992625158E-003   1.6896429736032812E-003   6.5046454220822961E-002
  -5.8343845259315377E-003   1.5315452171222876E-003   6.5590361519404339E-002
  -1.1395298806775552E-002   3.2351661742880261E-003   6.3513181476325856E-002
  -1.0744660086578345E-002   3.0057919909340924E-003   6.3401591654060452E-002
  -1.0094021366381137E-002   2.7745876530112130E-003   6.3500523700405542E-002
  -9.4433826461839225E-003   2.5415531605194512E-003   6.3809977615361155E-002
  -8.7927439259867270E-003   2.3066885134588877E-003   6.4329953398927164E-002
  -1.5214094948066088E-002   4.2964149395721130E-003   6.2261964674061199E-002
  -1.4354767337514191E-002   4.0007549123241559E-003   6.2133947524086575E-002
  -1.3495439726962287E-002   3.6997710482784829E-003   6.2212786286210742E-002
  -1.2636112116410386E-002   3.3934633474356282E-003   6.2498480960433894E-002
  -1.1776784505858486E-002   3.0818318097953767E-003   6.2991031546756004E-002
   5.2907347291575313E-006  -1.8741375550801465E-005   6.7875636565277064E-002
   6.5610217774153545E-006  -1.8386651477519944E-005   6.7893236046448591E-002
   7.8313088256766472E-006  -1.6845420731298466E-005   6.8157541222227280E-002
   9.1015958739448788E-006  -1.4117683311741513E-005   6.8668552092613466E-002
   1.0371882922195763E-005  -1.0203439219202970E-005   6.9426268657606927E-002
  -2.9017063056929089E-003   7.5640192078574309E-004   6.6772255908187750E-002
  -2.6547538795004197E-003   6.7931619811978372E-004   6.6765410445707052E-002
  -2.4078014533079201E-003   6.0556355203617018E-004   6.7003223566907633E-002
  -2.1608490271154265E-003   5.3514398253474982E-004   6.7485695271789117E-002
  -1.9138966009229312E-003   4.6805748961598059E-004   6.8212825560351686E-002
  -5.8343845259315377E-003   1.5315452171222876E-003   6.5590361519404339E-002
  -5.3437970715211267E-003   1.3770190477170596E-003   6.5561217683181044E-002
  -4.8532096171107174E-003   1.2279725248034029E-003   6.5774685319712520E-002
  -4.3626221627003064E-003   1.0844056483814042E-003   6.6230764428998806E-002
  -3.8720347082898971E-003   9.4631841845110864E-004   6.6929455011039696E-002
  -8.7927439259867270E-003   2.3066885134588877E-003   6.4329953398927164E-002
  -8.0605685542847229E-003   2.0747218973144049E-003   6.4280657758870374E-002
  -7.3283931825827014E-003   1.8503814975706426E-003   6.4471926480642053E-002
  -6.5962178108806835E-003   1.6336673142278661E-003   6.4903759564242283E-002
  -5.8640424391786725E-003   1.4245793472862645E-003   6.5576157009670843E-002
  -1.1776784505858486E-002   3.0818318097953767E-003   6.2991031546756004E-002
  -1.0805068327791198E-002   2.7724247469115837E-003   6.2923730672775013E-002
  -9.8333521497238861E-003   2.4727904703382431E-003   6.3094947049696315E-002
  -8.8616359716565760E-003   2.1829289800744181E-003   6.3504680677519715E-002
  -7.8899197935892867E-003   1.9028402761214203E-003   6.4152931556245130E-002
   1.0371882922195763E-005  -1.0203439219202970E-005   6.9426268657606927E-002
   7.4485791610942598E-006  -6.2070734064834099E-006   6.9242996554750968E-002
   4.5252753999962259E-006  -3.2329708276324087E-006   6.9280431822840993E-002
   1.6019716388929878E-006  -1.2811314816021935E-006   6.9538574461876668E-002
  -1.3213321222033114E-006  -3.5155536914910357E-007   7.0017424471858214E-002
  -1.9138966009229312E-003   4.6805748961598059E-004   6.8212825560351686E-002
  -1.6927599195900658E-003   4.1640218719907196E-004   6.8012289968716333E-002
  -1.4716232382571900E-003   3.9227618920423257E-004   6.8039166976323118E-002
  -1.2504865569243229E-003   3.9567949563110161E-004   6.8293456583172124E-002
  -1.0293498755914489E-003   4.2661210647954029E-004   6.8775158789262991E-002
  -3.8720347082898971E-003   9.4631841845110864E-004   6.6929455011039696E-002
  -3.4201328135667324E-003   8.3901144780512693E-004   6.6740207498280052E-002
  -2.9682309188435686E-003   7.8778534923588939E-004   6.6785077813058855E-002
  -2.5163290241204043E-003   7.9264012274380888E-004   6.7064065955376118E-002
  -2.0644271293972540E-003   8.5357576832839621E-004   6.7577171925231827E-002
  -5.8640424391786725E-003   1.4245793472862645E-003   6.5576157009670843E-002
  -5.1746701027688986E-003   1.2616207084111541E-003   6.5426749143441959E-002
  -4.4852977663591238E-003   1.1832945092677058E-003   6.5518164333047926E-002
  -3.7959254299493560E-003   1.1896007498565699E-003   6.5850402578488620E-002
  -3.1065530935395743E-003   1.2805394301773354E-003   6.6423463879764374E-002
  -7.8899197935892867E-003   1.9028402761214203E-003   6.4152931556245130E-002
  -6.9563717871965886E-003   1.6842299690170148E-003   6.4071914904202276E-002
  -6.0228237808038695E-003   1.5788036692994389E-003   6.4238426536290361E-002
  -5.0892757744111713E-003   1.5865613769692269E-003   6.4652466452509605E-002
  -4.1557277680184523E-003   1.7075030920260525E-003   6.5314034652860009E-002
  -1.3213321222033114E-006  -3.5155536914910357E-007   7.0017424471858214E-002
  -8.4010718554017316E-007   4.2362471863732765E-008   6.8678689438626761E-002
  -3.5888224887356546E-007   3.8722700279603117E-007   6.7485343881558857E-002
   1.2234268779651170E-007   6.8303822389759183E-007   6.6437387800654613E-002
   6.0356762445618051E-007   9.2979613530719263E-007   6.5534821195913584E-002
  -1.0293498755914489E-003   4.2661210647954029E-004   6.8775158789262991E-002
  -8.8675744477575980E-004   5.0032184268694602E-004   6.7455084721903702E-002
  -7.4416501396005856E-004   6.3205652519068845E-004   6.6273843590138770E-002
  -6.0157258314437554E-004   8.2181615399023328E-004   6.5231435393968390E-002
  -4.5898015232868211E-004   1.0696007290856846E-003   6.4327860133392423E-002
  -2.0644271293972540E-003   8.5357576832839621E-004   6.7577171925231827E-002
  -1.7862800332715985E-003   1.0006013229025279E-003   6.6333832823350314E-002
  -1.5081329371459560E-003   1.2637258233785809E-003   6.5222770116494216E-002
  -1.2299858410203075E-003   1.6429492697565690E-003   6.4243983804663563E-002
  -9.5183874489464422E-004   2.1382716620360065E-003   6.3397473887858130E-002
  -3.1065530935395743E-003   1.2805394301773354E-003   6.6423463879764374E-002
  -2.6994078726730519E-003   1.5008808031180265E-003   6.5314933742966180E-002
  -2.2922626518065434E-003   1.8953951215664733E-003   6.4332123460624710E-002
  -1.8851174309400347E-003   2.4640823855224606E-003   6.3475033032739409E-002
  -1.4779722100735121E-003   3.2069425949863561E-003   6.2743662459310623E-002
  -4.1557277680184523E-003   1.7075030920260525E-003   6.5314034652860009E-002
  -3.6261409629801539E-003   2.0011602833332476E-003   6.4398387480751773E-002
  -3.0965541579418415E-003   2.5270644197543934E-003   6.3601903622530709E-002
  -2.5669673529035326E-003   3.2852155012888032E-003   6.2924583078197011E-002
  -2.0373805478652307E-003   4.2756135279364837E-003   6.2366425847750540E-002
   6.0356762445618051E-007   9.2979613530719263E-007   6.5534821195913584E-002
   1.0796116173272807E-007   1.2374963520578319E-006   6.0796390677596457E-002
  -3.8764530100113270E-007   1.7161344881000407E-006   5.5939017931217194E-002
  -8.8325176372805458E-007   2.3657105444677140E-006   5.0962702956776823E-002
  -1.3788582264584459E-006   3.1862245202241013E-006   4.5867445754273817E-002
  -4.5898015232868211E-004   1.0696007290856846E-003   6.4327860133392423E-002
  -5.6425644751839990E-004   1.3955401833246617E-003   5.9619544156751803E-002
  -6.6953274270813851E-004   1.8197644495533682E-003   5.4820609030718892E-002
  -7.7480903789788058E-004   2.3422735277725884E-003   4.9931054755293303E-002
  -8.8008533308759490E-004   2.9630674179819128E-003   4.4950881330475978E-002
  -9.5183874489464422E-004   2.1382716620360065E-003   6.3397473887858130E-002
  -1.1335726501420281E-003   2.7898428702972655E-003   5.8817386326964705E-002
  -1.3153065553893990E-003   3.6378127646187336E-003   5.4175002695348320E-002
  -1.4970404606367560E-003   4.6821813450009277E-003   4.9470322993009110E-002
  -1.6787743658841538E-003   5.9229486114436014E-003   4.4703347219947065E-002
  -1.4779722100735121E-003   3.2069425949863561E-003   6.2743662459310623E-002
  -1.7078406467091393E-003   4.1841455572694253E-003   5.8389917188234865E-002
  -1.9377090833447876E-003   5.4558610796840504E-003   5.4002198925105632E-002
  -2.1675775199804011E-003   7.0220891622290466E-003   4.9580507669923196E-002
  -2.3974459566160631E-003   8.8828298049052901E-003   4.5124843422686106E-002
  -2.0373805478652307E-003   4.2756135279364837E-003   6.2366425847750540E-002
  -2.2870604372197470E-003   5.5784482442421401E-003   5.8337136740562623E-002
  -2.5367403265742841E-003   7.2739093947493672E-003   5.4302197719990675E-002
  -2.7864202159288386E-003   9.3619969794573876E-003   5.0261608786034750E-002
  -3.0361001052833375E-003   1.1842710998366979E-002   4.6215369938694018E-002
  -2.5065566634343360E-002   8.8121741063967307E-003   6.3005838108791901E-002
  -2.4267492067123565E-002   7.6614442772497404E-003   6.2256591088414914E-002
  -2.3469417499903767E-002   6.8249714713491116E-003   6.1796792808933299E-002
  -2.2671342932683969E-002   6.3027556886949901E-003   6.1626443270347137E-002
  -2.1873268365464167E-002   6.0947969292871607E-003   6.1745542472656734E-002
  -3.1610327342838321E-002   1.0096583700231476E-002   5.8979557780690306E-002
  -3.0535020524917886E-002   9.3109843031597694E-003   5.8565129909432051E-002
  -2.9459713706997459E-002   8.6964793149849062E-003   5.8415717798679573E-002
  -2.8384406889077056E-002   8.2530687357066715E-003   5.8531321448432927E-002
  -2.7309100071156632E-002   7.9807525653254885E-003   5.8911940858691947E-002
  -3.8050728128091120E-002   1.1380993294066138E-002   5.5389989191838934E-002
  -3.6722622039859890E-002   1.0960524329069771E-002   5.5167217855349837E-002
  -3.5394515951628569E-002   1.0567987158620520E-002   5.5185029298976798E-002
  -3.4066409863397276E-002   1.0203381782718571E-002   5.5443423522719852E-002
  -3.2738303775166011E-002   9.8667082013637608E-003   5.5942400526578812E-002
  -4.4386768990101938E-002   1.2665402887900856E-002   5.2237132342237320E-002
  -4.2830296611949495E-002   1.2610064354979675E-002   5.2062854926168058E-002
  -4.1273824233797031E-002   1.2439495002256197E-002   5.2104727309824919E-002
  -3.9717351855644588E-002   1.2153694829730307E-002   5.2362749493208127E-002
  -3.8160879477492124E-002   1.1752663837402089E-002   5.2836921476317619E-002
  -5.0618449928870601E-002   1.3949812481735546E-002   4.9520987231886082E-002
  -4.8858044241186727E-002   1.4259604380889801E-002   4.9252041121886692E-002
  -4.7097638553502880E-002   1.4311002845891888E-002   4.9174811831223936E-002
  -4.5337232865819033E-002   1.4104007876742101E-002   4.9289299359897773E-002
  -4.3576827178135158E-002   1.3638619473440416E-002   4.9595503707908051E-002
  -2.1873268365464167E-002   6.0947969292871607E-003   6.1745542472656734E-002
  -2.1116791790109137E-002   6.0156102975865433E-003   6.1581332274259160E-002
  -2.0360315214754093E-002   5.8797108980541690E-003   6.1599966974665799E-002
  -1.9603838639399053E-002   5.6870987306901488E-003   6.1801446573876651E-002
  -1.8847362064044020E-002   5.4377737954942607E-003   6.2185771071891771E-002
  -2.7309100071156632E-002   7.9807525653254885E-003   5.8911940858691947E-002
  -2.6372327628450681E-002   7.7742809817059888E-003   5.8703750628921997E-002
  -2.5435555185744713E-002   7.5284041627139142E-003   5.8673307235049779E-002
  -2.4498782743038780E-002   7.2431221083488553E-003   5.8820610677075218E-002
  -2.3562010300332826E-002   6.9184348186112077E-003   5.9145660954998264E-002
  -3.2738303775166011E-002   9.8667082013637608E-003   5.5942400526578812E-002
  -3.1626333528015603E-002   9.5329516658255592E-003   5.5707537797895543E-002
  -3.0514363280865250E-002   9.1770974273736039E-003   5.5645323842203304E-002
  -2.9402393033714884E-002   8.7991454860077284E-003   5.5755758659502386E-002
  -2.8290422786564490E-002   8.3990958417280437E-003   5.6038842249792331E-002
  -3.8160879477492124E-002   1.1752663837402089E-002   5.2836921476317619E-002
  -3.6878809488803892E-002   1.1291622349945095E-002   5.2592693781179763E-002
  -3.5596739500115646E-002   1.0825790692033405E-002   5.2516016796126552E-002
  -3.4314669511427413E-002   1.0355168863666574E-002   5.2606890521158016E-002
  -3.3032599522739160E-002   9.8797568648448797E-003   5.2865314956273952E-002
  -4.3576827178135158E-002   1.3638619473440416E-002   4.9595503707908051E-002
  -4.2129755510815547E-002   1.3050293034064520E-002   4.9359218578774733E-002
  -4.0682683843495937E-002   1.2474483956693025E-002   4.9285386096819428E-002
  -3.9235612176176334E-002   1.1911192241325277E-002   4.9374006262042205E-002
  -3.7788540508856716E-002   1.1360417887961771E-002   4.9625079074443135E-002
  -1.8847362064044020E-002   5.4377737954942607E-003   6.2185771071891771E-002
  -1.7939045285049533E-002   5.1581778776653431E-003   6.1873521487506078E-002
  -1.7030728506055057E-002   4.8747527624020404E-003   6.1782137226405714E-002
  -1.6122411727060568E-002   4.5874984497041096E-003   6.1911618288590764E-002
  -1.5214094948066088E-002   4.2964149395721130E-003   6.2261964674061199E-002
  -2.3562010300332826E-002   6.9184348186112077E-003   5.9145660954998264E-002
  -2.2435270453626005E-002   6.5713320414544085E-003   5.8812577396646831E-002
  -2.1308530606919195E-002   6.2188035248323947E-003   5.8695474650434495E-002
  -2.0181790760212388E-002   5.8608492687454161E-003   5.8794352716361596E-002
  -1.9055050913505588E-002   5.4974692731930563E-003   5.9109211594427835E-002
  -2.8290422786564490E-002   8.3990958417280437E-003   5.6038842249792331E-002
  -2.6950144383291533E-002   7.9844862052434323E-003   5.5683328175444288E-002
  -2.5609865980018531E-002   7.5628542872628463E-003   5.5538910402089400E-002
  -2.4269587576745570E-002   7.1342000877863306E-003   5.5605588929727535E-002
  -2.2929309173472568E-002   6.6985236068137777E-003   5.5883363758358812E-002
  -3.3032599522739160E-002   9.8797568648448797E-003   5.2865314956273952E-002
  -3.1483667074046123E-002   9.3976403690324770E-003   5.2485773823898629E-002
  -2.9934734625353079E-002   8.9069050496932770E-003   5.2312444481370221E-002
  -2.8385802176660042E-002   8.4075509068274410E-003   5.2345326928688721E-002
  -2.6836869727966995E-002   7.8995779404346655E-003   5.2584421165854316E-002
  -3.7788540508856716E-002   1.1360417887961771E-002   4.9625079074443135E-002
  -3.6035838525889763E-002   1.0810794532821549E-002   4.9219914342009730E-002
  -3.4283136542922810E-002   1.0250955812123680E-002   4.9016076888276972E-002
  -3.2530434559955863E-002   9.6809017258685306E-003   4.9013566713245277E-002
  -3.0777732576988903E-002   9.1006322740554979E-003   4.9212383816914229E-002
  -1.5214094948066088E-002   4.2964149395721130E-003   6.2261964674061199E-002
  -1.4354767337514191E-002   4.0007549123241559E-003   6.2133947524086575E-002
  -1.3495439726962287E-002   3.6997710482784829E-003   6.2212786286210742E-002
  -1.2636112116410386E-002   3.3934633474356282E-003   6.2498480960433894E-002
  -1.1776784505858486E-002   3.0818318097953767E-003   6.2991031546756004E-002
  -1.9055050913505588E-002   5.4974692731930563E-003   5.9109211594427835E-002
  -1.7992155848177933E-002   5.1286009011519973E-003   5.8939166267447635E-002
  -1.6929260782850293E-002   4.7541815155988376E-003   5.8969399937919997E-002
  -1.5866365717522649E-002   4.3742111165334455E-003   5.9199912605844937E-002
  -1.4803470652194999E-002   3.9886897039559388E-003   5.9630704271222468E-002
  -2.2929309173472568E-002   6.6985236068137777E-003   5.5883363758358812E-002
  -2.1669423568015520E-002   6.2564468899798109E-003   5.5671063077658428E-002
  -2.0409537962558504E-002   5.8085919829190674E-003   5.5652464479764296E-002
  -1.9149652357101456E-002   5.3549588856310372E-003   5.5827567964676382E-002
  -1.7889766751644408E-002   4.8955475981162788E-003   5.6196373532394595E-002
  -2.6836869727966995E-002   7.8995779404346655E-003   5.2584421165854316E-002
  -2.5386570497026945E-002   7.3842928788078604E-003   5.2329637954718893E-002
  -2.3936271266086894E-002   6.8630024502393042E-003   5.2261979911743445E-002
  -2.2485972035146837E-002   6.3357066547287417E-003   5.2381447036927695E-002
  -2.1035672804206797E-002   5.8024054922766743E-003   5.2688039330271851E-002
  -3.0777732576988903E-002   9.1006322740554979E-003   4.9212383816914229E-002
  -2.9143596635212182E-002   8.5121388676356324E-003   4.8914890898629104E-002
  -2.7509460693435489E-002   7.9174129175596103E-003   4.8797946233857442E-002
  -2.5875324751658768E-002   7.3164544238263803E-003   4.8861549822599284E-002
  -2.4241188809882075E-002   6.7092633864370699E-003   4.9105701664854506E-002
  -1.1776784505858486E-002   3.0818318097953767E-003   6.2991031546756004E-002
  -1.0805068327791198E-002   2.7724247469115837E-003   6.2923730672775013E-002
  -9.8333521497238861E-003   2.4727904703382431E-003   6.3094947049696315E-002
  -8.8616359716565760E-003   2.1829289800744181E-003   6.3504680677519715E-002
  -7.8899197935892867E-003   1.9028402761214203E-003   6.4152931556245130E-002
  -1.4803470652194999E-002   3.9886897039559388E-003   5.9630704271222468E-002
  -1.3601152239151513E-002   3.6038572073616160E-003   5.9504229244097262E-002
  -1.2398833826108065E-002   3.2259535562462749E-003   5.9600441436022250E-002
  -1.1196515413064574E-002   2.8549787506095686E-003   5.9919340846997390E-002
  -9.9941970000211287E-003   2.4909327904518719E-003   6.0460927477022752E-002
  -1.7889766751644408E-002   4.8955475981162788E-003   5.6196373532394595E-002
  -1.6472676135476694E-002   4.4352896678116760E-003   5.6007880411293676E-002
  -1.5055585519308964E-002   3.9791166421545149E-003   5.6026244477390727E-002
  -1.3638494903141245E-002   3.5270285211445492E-003   5.6251465730686172E-002
  -1.2221404286973516E-002   3.0790253047821015E-003   5.6683544171179989E-002
  -2.1035672804206797E-002   5.8024054922766743E-003   5.2688039330271851E-002
  -1.9419640016766743E-002   5.2667221282615556E-003   5.2434684174363602E-002
  -1.7803607229326668E-002   4.7322797280627618E-003   5.2372356173801676E-002
  -1.6187574441886617E-002   4.1990782916796147E-003   5.2501055328586128E-002
  -1.4571541654446546E-002   3.6671178191125531E-003   5.2820781638716972E-002
  -2.4241188809882075E-002   6.7092633864370699E-003   4.9105701664854506E-002
  -2.2442043883021595E-002   6.0981545887117683E-003   4.8784640533307555E-002
  -2.0642898956161115E-002   5.4854428139708977E-003   4.8638776525255056E-002
  -1.8843754029300608E-002   4.8711280622146524E-003   4.8668109640697121E-002
  -1.7044609102440156E-002   4.2552103334427827E-003   4.8872639879633528E-002
  -7.8899197935892867E-003   1.9028402761214203E-003   6.4152931556245130E-002
  -6.9563717871965886E-003   1.6842299690170148E-003   6.4071914904202276E-002
  -6.0228237808038695E-003   1.5788036692994389E-003   6.4238426536290361E-002
  -5.0892757744111713E-003   1.5865613769692269E-003   6.4652466452509605E-002
  -4.1557277680184523E-003   1.7075030920260525E-003   6.5314034652860009E-002
  -9.9941970000211287E-003   2.4909327904518719E-003   6.0460927477022752E-002
  -8.8122208494684981E-003   2.1871999886036719E-003   6.0371321343752005E-002
  -7.6302446989158414E-003   1.9971646578961499E-003   6.0531043214669872E-002
  -6.4482685483632134E-003   1.9208267983292851E-003   6.0940093089776756E-002
  -5.2662923978105576E-003   1.9581864099030843E-003   6.1598470969072061E-002
  -1.2221404286973516E-002   3.0790253047821015E-003   5.6683544171179989E-002
  -1.0789200272203318E-002   2.6901700081904123E-003   5.6585862020434835E-002
  -9.3569962574330898E-003   2.4155256464928471E-003   5.6739307593936014E-002
  -7.9247922426628915E-003   2.2550922196892288E-003   5.7143880891683770E-002
  -6.4925882278926636E-003   2.2088697277798386E-003   5.7799581913677706E-002
  -1.4571541654446546E-002   3.6671178191125531E-003   5.2820781638716972E-002
  -1.2887310055401072E-002   3.1931400277771110E-003   5.2715536934250844E-002
  -1.1203078456355585E-002   2.8338866350893846E-003   5.2863219674088704E-002
  -9.5188468573101266E-003   2.5893576410491188E-003   5.3263829858230846E-002
  -7.8346152582646246E-003   2.4595530456565651E-003   5.3917367486677019E-002
  -1.7044609102440156E-002   4.2552103334427827E-003   4.8872639879633528E-002
  -1.5106550199061791E-002   3.6961100473636987E-003   4.8760346085199857E-002
  -1.3168491295683371E-002   3.2522476236862274E-003   4.8902779455128276E-002
  -1.1230432392304993E-002   2.9236230624089463E-003   4.9299939989418229E-002
  -9.2923734889265863E-003   2.7102363635335136E-003   4.9951827688069939E-002
  -4.1557277680184523E-003   1.7075030920260525E-003   6.5314034652860009E-002
  -3.6261409629801539E-003   2.0011602833332476E-003   6.4398387480751773E-002
  -3.0965541579418415E-003   2.5270644197543934E-003   6.3601903622530709E-002
  -2.5669673529035326E-003   3.2852155012888032E-003   6.2924583078197011E-002
  -2.0373805478652307E-003   4.2756135279364837E-003   6.2366425847750540E-002
  -5.2662923978105576E-003   1.9581864099030843E-003   6.1598470969072061E-002
  -4.5915331128637028E-003   2.2153817125331043E-003   6.0872212190738018E-002
  -3.9167738279168047E-003   2.7985509261348185E-003   6.0317135058333610E-002
  -3.2420145429699039E-003   3.7076940507088721E-003   5.9933239571859434E-002
  -2.5672552580230275E-003   4.9428110862543839E-003   5.9720525731315033E-002
  -6.4925882278926636E-003   2.2088697277798386E-003   5.7799581913677706E-002
  -5.6206381309945232E-003   2.4296031417326003E-003   5.7356438494976125E-002
  -4.7486880340964072E-003   3.0700374325156737E-003   5.7136495054246880E-002
  -3.8767379371982781E-003   4.1301726001286045E-003   5.7139751591490297E-002
  -3.0047878403001507E-003   5.6100086445721731E-003   5.7366208106706063E-002
  -7.8346152582646246E-003   2.4595530456565651E-003   5.3917367486677019E-002
  -6.7134560173726359E-003   2.6438245709321101E-003   5.3851066393465978E-002
  -5.5922967764806299E-003   3.3415239388962584E-003   5.4059983610270326E-002
  -4.4711375355886178E-003   4.5526511495490602E-003   5.4544119137089828E-002
  -3.3499782946966334E-003   6.2772062028896847E-003   5.5303472973924378E-002
  -9.2923734889265863E-003   2.7102363635335136E-003   4.9951827688069939E-002
  -7.8699867719980721E-003   2.8580460001318975E-003   5.0356095886207930E-002
  -6.4476000550694884E-003   3.6130104452769263E-003   5.1087600726404003E-002
  -5.0252133381409533E-003   4.9751296989688429E-003   5.2146342208657687E-002
  -3.6028266212123905E-003   6.9444037612076404E-003   5.3532320332969840E-002
  -2.0373805478652307E-003   4.2756135279364837E-003   6.2366425847750540E-002
  -2.2870604372197470E-003   5.5784482442421401E-003   5.8337136740562623E-002
  -2.5367403265742841E-003   7.2739093947493672E-003   5.4302197719990675E-002
  -2.7864202159288386E-003   9.3619969794573876E-003   5.0261608786034750E-002
  -3.0361001052833375E-003   1.1842710998366979E-002   4.6215369938694018E-002
  -2.5672552580230275E-003   4.9428110862543839E-003   5.9720525731315033E-002
  -2.8400502485489733E-003   6.5676490741224391E-003   5.6189160778157610E-002
  -3.1128452390749503E-003   8.6459550556629017E-003   5.2617215536041817E-002
  -3.3856402296008892E-003   1.1177729030875799E-002   4.9004690004966600E-002
  -3.6584352201268350E-003   1.4162970999761271E-002   4.5351584184933902E-002
  -3.0047878403001507E-003   5.6100086445721731E-003   5.7366208106706063E-002
  -3.3356283075719646E-003   7.5568499040024606E-003   5.4393608867050525E-002
  -3.6664687748437647E-003   1.0018000716576658E-002   5.1345498962861807E-002
  -3.9973092421155603E-003   1.2993461082294155E-002   4.8221878394139758E-002
  -4.3281497093873751E-003   1.6483231001155563E-002   4.5022747160885279E-002
  -3.3499782946966334E-003   6.2772062028896847E-003   5.5303472973924378E-002
  -3.7737946142886699E-003   8.5460507338828429E-003   5.2950481007241507E-002
  -4.1976109338807341E-003   1.1390046377490526E-002   5.0487048000450896E-002
  -4.6214272534728183E-003   1.4809193133712761E-002   4.7913173953552837E-002
  -5.0452435730648348E-003   1.8803491002549744E-002   4.5228858866547622E-002
  -3.6028266212123905E-003   6.9444037612076404E-003   5.3532320332969840E-002
  -4.1545491686991454E-003   9.5352515637627810E-003   5.1859777198730472E-002
  -4.7062717161859141E-003   1.2762092038404060E-002   5.0041862648809277E-002
  -5.2579942636727037E-003   1.6624925185131062E-002   4.8078576683206031E-002
  -5.8097168111594377E-003   2.1123751003944147E-002   4.5969919301921180E-002
  -5.0618449928870601E-002   1.3949812481735546E-002   4.9520987231886082E-002
  -4.8858044241186727E-002   1.4259604380889801E-002   4.9252041121886692E-002
  -4.7097638553502880E-002   1.4311002845891888E-002   4.9174811831223936E-002
  -4.5337232865819033E-002   1.4104007876742101E-002   4.9289299359897773E-002
  -4.3576827178135158E-002   1.3638619473440416E-002   4.9595503707908051E-002
  -5.6811311335514314E-002   1.6336561024566210E-002   4.5149982914236553E-002
  -5.4855358719460581E-002   1.6207584149739857E-002   4.4662683549168192E-002
  -5.2899406103406862E-002   1.5946075698845333E-002   4.4374761221503134E-002
  -5.0943453487353192E-002   1.5552035671882614E-002   4.4286215931241199E-002
  -4.8987500871299494E-002   1.5025464068851524E-002   4.4397047678382262E-002
  -6.3030893601150065E-002   1.8723309567396818E-002   4.0277278893564569E-002
  -6.0871733838659910E-002   1.8155563918590023E-002   3.9697488131511166E-002
  -5.8712574076169852E-002   1.7581148551798743E-002   3.9324734624927464E-002
  -5.6553414313679710E-002   1.7000063467022902E-002   3.9159018373813512E-002
  -5.4394254551189548E-002   1.6412308664262715E-002   3.9200339378169261E-002
  -6.9277196725778062E-002   2.1110058110227467E-002   3.4902875169870368E-002
  -6.6907169598784857E-002   2.0103543687440162E-002   3.4356454868915365E-002
  -6.4537142471791722E-002   1.9216221404752144E-002   3.4024732041497002E-002
  -6.2167115344798594E-002   1.8448091262163388E-002   3.3907706687614732E-002
  -5.9797088217805355E-002   1.7799153259673919E-002   3.4005378807268768E-002
  -7.5550220709398097E-002   2.3496806653058089E-002   2.9026771743153768E-002
  -7.2961665999835390E-002   2.2051523456290245E-002   2.8639583761381149E-002
  -7.0373111290272572E-002   2.0851294257705641E-002   2.8474753471211617E-002
  -6.7784556580709754E-002   1.9896119057303704E-002   2.8532280872644963E-002
  -6.5196001871147019E-002   1.9185997855085068E-002   2.8812165965681036E-002
  -4.3576827178135158E-002   1.3638619473440416E-002   4.9595503707908051E-002
  -4.2129755510815547E-002   1.3050293034064520E-002   4.9359218578774733E-002
  -4.0682683843495937E-002   1.2474483956693025E-002   4.9285386096819428E-002
  -3.9235612176176334E-002   1.1911192241325277E-002   4.9374006262042205E-002
  -3.7788540508856716E-002   1.1360417887961771E-002   4.9625079074443135E-002
  -4.8987500871299494E-002   1.5025464068851524E-002   4.4397047678382262E-002
  -4.7376858218720140E-002   1.4433895197744032E-002   4.4173328101564532E-002
  -4.5766215566140793E-002   1.3844863366551954E-002   4.4114297848088069E-002
  -4.4155572913561481E-002   1.3258368575275212E-002   4.4219956917952843E-002
  -4.2544930260982161E-002   1.2674410823913851E-002   4.4490305311159190E-002
  -5.4394254551189548E-002   1.6412308664262715E-002   3.9200339378169261E-002
  -5.2617804237187281E-002   1.5817497361423544E-002   3.8979205031578298E-002
  -5.0841353923184993E-002   1.5215242776411113E-002   3.8924996684491876E-002
  -4.9064903609182725E-002   1.4605544909225150E-002   3.9037714336909959E-002
  -4.7288453295180437E-002   1.3988403759865847E-002   3.9317357988832652E-002
  -5.9797088217805355E-002   1.7799153259673919E-002   3.4005378807268768E-002
  -5.7852593566216935E-002   1.7201099525103028E-002   3.3776849368815906E-002
  -5.5908098914628467E-002   1.6585622186270046E-002   3.3717482606030906E-002
  -5.3963604263040053E-002   1.5952721243175087E-002   3.3827278518913609E-002
  -5.2019109611451578E-002   1.5302396695817858E-002   3.4106237107464292E-002
  -6.5196001871147019E-002   1.9185997855085068E-002   2.8812165965681036E-002
  -6.3081226205809124E-002   1.8584701688782512E-002   2.8566261113277563E-002
  -6.0966450540471256E-002   1.7956001596129173E-002   2.8491755612705172E-002
  -5.8851674875133389E-002   1.7299897577125016E-002   2.8588649463963722E-002
  -5.6736899209795494E-002   1.6616389631769923E-002   2.8856942667053409E-002
  -3.7788540508856716E-002   1.1360417887961771E-002   4.9625079074443135E-002
  -3.6035838525889763E-002   1.0810794532821549E-002   4.9219914342009730E-002
  -3.4283136542922810E-002   1.0250955812123680E-002   4.9016076888276972E-002
  -3.2530434559955863E-002   9.6809017258685306E-003   4.9013566713245277E-002
  -3.0777732576988903E-002   9.1006322740554979E-003   4.9212383816914229E-002
  -4.2544930260982161E-002   1.2674410823913851E-002   4.4490305311159190E-002
  -4.0592840733696310E-002   1.2088578745362344E-002   4.4087817032344462E-002
  -3.8640751206410452E-002   1.1496460972515832E-002   4.3882776563466772E-002
  -3.6688661679124629E-002   1.0898057505374495E-002   4.3875183904526084E-002
  -3.4736572151838743E-002   1.0293368343937570E-002   4.4065039055522226E-002
  -4.7288453295180437E-002   1.3988403759865847E-002   3.9317357988832652E-002
  -4.5140855692339547E-002   1.3366362957903513E-002   3.8921475834899300E-002
  -4.2993258089498679E-002   1.2741966132908303E-002   3.8719162022139042E-002
  -4.0845660486657803E-002   1.2115213284880400E-002   3.8710416550551754E-002
  -3.8698062883816914E-002   1.1486104413819392E-002   3.8895239420137742E-002
  -5.2019109611451578E-002   1.5302396695817858E-002   3.4106237107464292E-002
  -4.9679883401819516E-002   1.4644147170444495E-002   3.3720890749674270E-002
  -4.7340657192187510E-002   1.3987471293300642E-002   3.3525233264293797E-002
  -4.5001430982555497E-002   1.3332369064386335E-002   3.3519264651322357E-002
  -4.2662204772923491E-002   1.2678840483701451E-002   3.3702984910760056E-002
  -5.6736899209795494E-002   1.6616389631769923E-002   2.8856942667053409E-002
  -5.4209923862136217E-002   1.5921931382985477E-002   2.8486061776669569E-002
  -5.1682948514476912E-002   1.5232976453692967E-002   2.8300990289930938E-002
  -4.9155973166817649E-002   1.4549524843892419E-002   2.8301728206837726E-002
  -4.6628997819158385E-002   1.3871576553583231E-002   2.8488275527389695E-002
  -3.0777732576988903E-002   9.1006322740554979E-003   4.9212383816914229E-002
  -2.9143596635212182E-002   8.5121388676356324E-003   4.8914890898629104E-002
  -2.7509460693435489E-002   7.9174129175596103E-003   4.8797946233857442E-002
  -2.5875324751658768E-002   7.3164544238263803E-003   4.8861549822599284E-002
  -2.4241188809882075E-002   6.7092633864370699E-003   4.9105701664854506E-002
  -3.4736572151838743E-002   1.0293368343937570E-002   4.4065039055522226E-002
  -3.2928749347677547E-002   9.6800022163761879E-003   4.3749383198174646E-002
  -3.1120926543516385E-002   9.0555678508610626E-003   4.3600552812082444E-002
  -2.9313103739355199E-002   8.4200652473919516E-003   4.3618547897245619E-002
  -2.7505280935194026E-002   7.7734944059690836E-003   4.3803368453664282E-002
  -3.8698062883816914E-002   1.1486104413819392E-002   3.8895239420137742E-002
  -3.6730275999529272E-002   1.0847865565116604E-002   3.8556584929430177E-002
  -3.4762489115241657E-002   1.0193722784162619E-002   3.8371033127719993E-002
  -3.2794702230954070E-002   9.5236760709574656E-003   3.8338584015007213E-002
  -3.0826915346666456E-002   8.8377254255011528E-003   3.8459237591291967E-002
  -4.2662204772923491E-002   1.2678840483701451E-002   3.3702984910760056E-002
  -4.0548176590767385E-002   1.2015728913857146E-002   3.3336496092395300E-002
  -3.8434148408611389E-002   1.1331877717464234E-002   3.3109387180769854E-002
  -3.6320120226455310E-002   1.0627286894522785E-002   3.3021658175884039E-002
  -3.4206092044299287E-002   9.9019564450331388E-003   3.3073309077737534E-002
  -4.6628997819158385E-002   1.3871576553583231E-002   2.8488275527389695E-002
  -4.4382451121391941E-002   1.3183592262597632E-002   2.8089116687070426E-002
  -4.2135904423625456E-002   1.2470032650765697E-002   2.7815614971232611E-002
  -3.9889357725859033E-002   1.1730897718088457E-002   2.7667770379875931E-002
  -3.7642811028092610E-002   1.0966187464565236E-002   2.7645582913000899E-002
  -2.4241188809882075E-002   6.7092633864370699E-003   4.9105701664854506E-002
  -2.2442043883021595E-002   6.0981545887117683E-003   4.8784640533307555E-002
  -2.0642898956161115E-002   5.4854428139708977E-003   4.8638776525255056E-002
  -1.8843754029300608E-002   4.8711280622146524E-003   4.8668109640697121E-002
  -1.7044609102440156E-002   4.2552103334427827E-003   4.8872639879633528E-002
  -2.7505280935194026E-002   7.7734944059690836E-003   4.3803368453664282E-002
  -2.5537239495960463E-002   7.1235389688633077E-003   4.3419812459621676E-002
  -2.3569198056726935E-002   6.4778825783450567E-003   4.3198852366830742E-002
  -2.1601156617493386E-002   5.8365252344147259E-003   4.3140488175291619E-002
  -1.9633115178259844E-002   5.1994669370718505E-003   4.3244719885004002E-002
  -3.0826915346666456E-002   8.8377254255011528E-003   3.8459237591291967E-002
  -2.8702578617302542E-002   8.1489233490147361E-003   3.8019088758356939E-002
  -2.6578241887938683E-002   7.4703223427192156E-003   3.7728934604430775E-002
  -2.4453905158574804E-002   6.8019224066147993E-003   3.7588775129513599E-002
  -2.2329568429210959E-002   6.1437235407012514E-003   3.7598610333605426E-002
  -3.4206092044299287E-002   9.9019564450331388E-003   3.3073309077737534E-002
  -3.1938061247047893E-002   9.1743077291663311E-003   3.2582469429513268E-002
  -2.9670030449796440E-002   8.4627621070935410E-003   3.2229023238055023E-002
  -2.7401999652545014E-002   7.7673195788148172E-003   3.2012970503363360E-002
  -2.5133968855293592E-002   7.0879801443305412E-003   3.1934311225437266E-002
  -3.7642811028092610E-002   1.0966187464565236E-002   2.7645582913000899E-002
  -3.5243687385196343E-002   1.0199692109317648E-002   2.7109954473090558E-002
  -3.2844563742300117E-002   9.4552018714675057E-003   2.6699118267703659E-002
  -3.0445440099403871E-002   8.7327167510149392E-003   2.6413074296840311E-002
  -2.8046316456507653E-002   8.0322367479597201E-003   2.6251822560500182E-002
  -1.7044609102440156E-002   4.2552103334427827E-003   4.8872639879633528E-002
  -1.5106550199061791E-002   3.6961100473636987E-003   4.8760346085199857E-002
  -1.3168491295683371E-002   3.2522476236862274E-003   4.8902779455128276E-002
  -1.1230432392304993E-002   2.9236230624089463E-003   4.9299939989418229E-002
  -9.2923734889265863E-003   2.7102363635335136E-003   4.9951827688069939E-002
  -1.9633115178259844E-002   5.1994669370718505E-003   4.3244719885004002E-002
  -1.7478757988523726E-002   4.6005323694005562E-003   4.3079643175013005E-002
  -1.5324400798787594E-002   4.0735462144839973E-003   4.3092435873375579E-002
  -1.3170043609051468E-002   3.6185084723221531E-003   4.3283097980091917E-002
  -1.1015686419315343E-002   3.2354191429151413E-003   4.3651629495161826E-002
  -2.2329568429210959E-002   6.1437235407012514E-003   3.7598610333605426E-002
  -2.0035770709125156E-002   5.5049546914374692E-003   3.7337461258410393E-002
  -1.7741972989039470E-002   4.8948448052821142E-003   3.7177323835560924E-002
  -1.5448175268953705E-002   4.3133938822351413E-003   3.7118198065057166E-002
  -1.3154377548867988E-002   3.7606019222968246E-003   3.7160083946898986E-002
  -2.5133968855293592E-002   7.0879801443305412E-003   3.1934311225437266E-002
  -2.2777588360866245E-002   6.4093770134741879E-003   3.1533800335392305E-002
  -2.0421207866438865E-002   5.7161433960801686E-003   3.1157443341684413E-002
  -1.8064827372011559E-002   5.0082792921484053E-003   3.0805240244314420E-002
  -1.5708446877584194E-002   4.2857847016784245E-003   3.0477191043281830E-002
  -2.8046316456507653E-002   8.0322367479597201E-003   2.6251822560500182E-002
  -2.5704210943746808E-002   7.3137993355112951E-003   2.5668660405958388E-002
  -2.3362105430985977E-002   6.5374419868783062E-003   2.5032794391745994E-002
  -2.1019999918225125E-002   5.7031647020612461E-003   2.4344224517863222E-002
  -1.8677894405464301E-002   4.8109674810601355E-003   2.3602950784309962E-002
  -9.2923734889265863E-003   2.7102363635335136E-003   4.9951827688069939E-002
  -7.8699867719980721E-003   2.8580460001318975E-003   5.0356095886207930E-002
  -6.4476000550694884E-003   3.6130104452769263E-003   5.1087600726404003E-002
  -5.0252133381409533E-003   4.9751296989688429E-003   5.2146342208657687E-002
  -3.6028266212123905E-003   6.9444037612076404E-003   5.3532320332969840E-002
  -1.1015686419315343E-002   3.2354191429151413E-003   4.3651629495161826E-002
  -9.2478078979748024E-003   3.1634112290732652E-003   4.4237459269951263E-002
  -7.4799293766342687E-003   3.6416177336062450E-003   4.5187036011507059E-002
  -5.7120508552937106E-003   4.6700386565148785E-003   4.6500359719828757E-002
  -3.9441723339531942E-003   6.2486739977990480E-003   4.8177430394916732E-002
  -1.3154377548867988E-002   3.7606019222968246E-003   3.7160083946898986E-002
  -1.1004496898407129E-002   3.4687764580144387E-003   3.7870534908168274E-002
  -8.8546162479463224E-003   3.6702250219357996E-003   3.8981243160912241E-002
  -6.7047355974854932E-003   4.3649476140610287E-003   4.0492208705130477E-002
  -4.5548549470246572E-003   5.5529442343899005E-003   4.2403431540823211E-002
  -1.5708446877584194E-002   4.2857847016784245E-003   3.0477191043281830E-002
  -1.3140053773294863E-002   3.7741416869557093E-003   3.1255322800859527E-002
  -1.0571660669005559E-002   3.6988323102652917E-003   3.2470222174620103E-002
  -8.0032675647162266E-003   4.0598565716066775E-003   3.4121889164562977E-002
  -5.4348744604269198E-003   4.8572144709808085E-003   3.6210323770689001E-002
  -1.8677894405464301E-002   4.8109674810601355E-003   2.3602950784309962E-002
  -1.5654478522638182E-002   4.0795069158969799E-003   2.4391822948024444E-002
  -1.2631062639812035E-002   3.7274395985947562E-003   2.5653973052630230E-002
  -9.6076467569859297E-003   3.7547655291528467E-003   2.7389401098126487E-002
  -6.5842308741597688E-003   4.1614847075720496E-003   2.9598107084513825E-002
  -3.6028266212123905E-003   6.9444037612076404E-003   5.3532320332969840E-002
  -4.1545491686991454E-003   9.5352515637627810E-003   5.1859777198730472E-002
  -4.7062717161859141E-003   1.2762092038404060E-002   5.0041862648809277E-002
  -5.2579942636727037E-003   1.6624925185131062E-002   4.8078576683206031E-002
  -5.8097168111594377E-003   2.1123751003944147E-002   4.5969919301921180E-002
  -3.9441723339531942E-003   6.2486739977990480E-003   4.8177430394916732E-002
  -4.5374394752673852E-003   8.6871636002172070E-003   4.7242120570191004E-002
  -5.1307066165816595E-003   1.2295147306529225E-002   4.6369092973492343E-002
  -5.7239737578959615E-003   1.7072625116734817E-002   4.5558347604820248E-002
  -6.3172408992101248E-003   2.3019597030834227E-002   4.4809884464176220E-002
  -4.5548549470246572E-003   5.5529442343899005E-003   4.2403431540823211E-002
  -4.9820130384574599E-003   7.8390756366715220E-003   4.2738856457418734E-002
  -5.4091711298902660E-003   1.1828202574654390E-002   4.3344217245750161E-002
  -5.8363292213231052E-003   1.7520325048338517E-002   4.4219513905817590E-002
  -6.2634873127558749E-003   2.4915443057724307E-002   4.5364746437620340E-002
  -5.4348744604269198E-003   4.8572144709808085E-003   3.6210323770689001E-002
  -5.4882698582694282E-003   6.9909876731258924E-003   3.8349984860413446E-002
  -5.5416652561119687E-003   1.1361257842779443E-002   4.0967235465582869E-002
  -5.5950606539545509E-003   1.7968024979942245E-002   4.4062075586196847E-002
  -5.6484560517969622E-003   2.6811289084614387E-002   4.7634505222255846E-002
  -6.5842308741597688E-003   4.1614847075720496E-003   2.9598107084513825E-002
  -6.0562099347031273E-003   6.1428997095802629E-003   3.4075505779175397E-002
  -5.5281889952464858E-003   1.0894313110904524E-002   3.9238147632990106E-002
  -5.0001680557898304E-003   1.8415724911545812E-002   4.5086032645958479E-002
  -4.4721471163332582E-003   2.8707135111504467E-002   5.1619160818080712E-002
  -7.5550220709398097E-002   2.3496806653058089E-002   2.9026771743153768E-002
  -7.2961665999835390E-002   2.2051523456290245E-002   2.8639583761381149E-002
  -7.0373111290272572E-002   2.0851294257705641E-002   2.8474753471211617E-002
  -6.7784556580709754E-002   1.9896119057303704E-002   2.8532280872644963E-002
  -6.5196001871147019E-002   1.9185997855085068E-002   2.8812165965681036E-002
  -8.1766855208076361E-002   2.4574311291183148E-002   2.1340074688101451E-002
  -7.8974264302500180E-002   2.3627962886372311E-002   2.1224461161232583E-002
  -7.6181673396923860E-002   2.2737352726613078E-002   2.1294562334787492E-002
  -7.3389082491347693E-002   2.1902480811905611E-002   2.1550378208766610E-002
  -7.0596491585771359E-002   2.1123347142249976E-002   2.1991908783169978E-002
  -8.7843989877879364E-002   2.5651815929308291E-002   1.4246970301571779E-002
  -8.4884005767468337E-002   2.5204402316454044E-002   1.4213615476474942E-002
  -8.1924021657057422E-002   2.4623411195520466E-002   1.4329332360623427E-002
  -7.8964037546646451E-002   2.3908842566507493E-002   1.4594120954017211E-002
  -7.6004053436235550E-002   2.3060696429414856E-002   1.5007981256656269E-002
  -9.3781624718806536E-002   2.6729320567433365E-002   7.7474585835643588E-003
  -9.0690890394739807E-002   2.6780841746535999E-002   7.6070467071087007E-003
  -8.7600156070672924E-002   2.6509469664428045E-002   7.5790635487194089E-003
  -8.4509421746606153E-002   2.5915204321109192E-002   7.6635091083963403E-003
  -8.1418687422539354E-002   2.4998045716579834E-002   7.8603833861400317E-003
  -9.9579759730858308E-002   2.7806825205558439E-002   1.8415395340795060E-003
  -9.6394918184314449E-002   2.8357281176618065E-002   1.4047548531335163E-003
  -9.3210076637770589E-002   2.8395528133335429E-002   1.0437558990752105E-003
  -9.0025235091226841E-002   2.7921566075711134E-002   7.5854267190449826E-004
  -8.6840393544682981E-002   2.6935395003744644E-002   5.4911517162142820E-004
  -6.5196001871147019E-002   1.9185997855085068E-002   2.8812165965681036E-002
  -6.3081226205809124E-002   1.8584701688782512E-002   2.8566261113277563E-002
  -6.0966450540471256E-002   1.7956001596129173E-002   2.8491755612705172E-002
  -5.8851674875133389E-002   1.7299897577125016E-002   2.8588649463963722E-002
  -5.6736899209795494E-002   1.6616389631769923E-002   2.8856942667053409E-002
  -7.0596491585771359E-002   2.1123347142249976E-002   2.1991908783169978E-002
  -6.8308866968169069E-002   2.0373362529654118E-002   2.1727959366718494E-002
  -6.6021242350566653E-002   1.9625937786125792E-002   2.1638308502965262E-002
  -6.3733617732964293E-002   1.8881072911665069E-002   2.1722956191909629E-002
  -6.1445993115361947E-002   1.8138767906272113E-002   2.1981902433552164E-002
  -7.6004053436235550E-002   2.3060696429414856E-002   1.5007981256656269E-002
  -7.3540680665501804E-002   2.2162023370525724E-002   1.4755951071575520E-002
  -7.1077307894768071E-002   2.1295873976122467E-002   1.4681118640059589E-002
  -6.8613935124034325E-002   2.0462248246205569E-002   1.4783483962108421E-002
  -6.6150562353300579E-002   1.9661146180774192E-002   1.5063047037722085E-002
  -8.1418687422539354E-002   2.4998045716579834E-002   7.8603833861400317E-003
  -7.8776667297807357E-002   2.3950684211397191E-002   7.6502362278483369E-003
  -7.6134647173075373E-002   2.2965810166119253E-002   7.6201860239881250E-003
  -7.3492627048343417E-002   2.2043423580745569E-002   7.7702327745597394E-003
  -7.0850606923611420E-002   2.1183524455276492E-002   8.1003764795631004E-003
  -8.6840393544682981E-002   2.6935395003744644E-002   5.4911517162142820E-004
  -8.4016826865085825E-002   2.5739345052269047E-002   4.1081483553701004E-004
  -8.1193260185488725E-002   2.4635746356115817E-002   4.5551065475109287E-004
  -7.8369693505891597E-002   2.3624598915285913E-002   6.8320262926381894E-004
  -7.5546126826294469E-002   2.2705902729778571E-002   1.0938907590752889E-003
  -5.6736899209795494E-002   1.6616389631769923E-002   2.8856942667053409E-002
  -5.4209923862136217E-002   1.5921931382985477E-002   2.8486061776669569E-002
  -5.1682948514476912E-002   1.5232976453692967E-002   2.8300990289930938E-002
  -4.9155973166817649E-002   1.4549524843892419E-002   2.8301728206837726E-002
  -4.6628997819158385E-002   1.3871576553583231E-002   2.8488275527389695E-002
  -6.1445993115361947E-002   1.8138767906272113E-002   2.1981902433552164E-002
  -5.8731683795085074E-002   1.7396255573996572E-002   2.1618335178097997E-002
  -5.6017374474808243E-002   1.6650768718888709E-002   2.1443626464233728E-002
  -5.3303065154531419E-002   1.5902307340948302E-002   2.1457776291959330E-002
  -5.0588755834254540E-002   1.5150871440175462E-002   2.1660784661274690E-002
  -6.6150562353300579E-002   1.9661146180774192E-002   1.5063047037722085E-002
  -6.3245869922461645E-002   1.8870579765007722E-002   1.4698315574873166E-002
  -6.0341177491622613E-002   1.8068560984084457E-002   1.4525491791558924E-002
  -5.7436485060783658E-002   1.7255089838004355E-002   1.4544575687779001E-002
  -5.4531792629944641E-002   1.6430166326767498E-002   1.4755567263533401E-002
  -7.0850606923611420E-002   2.1183524455276492E-002   8.1003764795631004E-003
  -6.7752482244265722E-002   2.0344903956018734E-002   7.7260029669954239E-003
  -6.4654357564920162E-002   1.9486353249280313E-002   7.5465862719068088E-003
  -6.1556232885574595E-002   1.8607872335060432E-002   7.5621263942967946E-003
  -5.8458108206228925E-002   1.7709461213359409E-002   7.7726233341661836E-003
  -7.5546126826294469E-002   2.2705902729778571E-002   1.0938907590752889E-003
  -7.2251520760497678E-002   2.1819228147029968E-002   7.0139735446428375E-004
  -6.8956914694700833E-002   2.0904145514475975E-002   5.0690990527688107E-004
  -6.5662308628903987E-002   1.9960654832116433E-002   5.1042841151257429E-004
  -6.2367702563107197E-002   1.8988756099951543E-002   7.1195287317216138E-004
  -4.6628997819158385E-002   1.3871576553583231E-002   2.8488275527389695E-002
  -4.4382451121391941E-002   1.3183592262597632E-002   2.8089116687070426E-002
  -4.2135904423625456E-002   1.2470032650765697E-002   2.7815614971232611E-002
  -3.9889357725859033E-002   1.1730897718088457E-002   2.7667770379875931E-002
  -3.7642811028092610E-002   1.0966187464565236E-002   2.7645582913000899E-002
  -5.0588755834254540E-002   1.5150871440175462E-002   2.1660784661274690E-002
  -4.8209217966076773E-002   1.4393822925779731E-002   2.1268768073662070E-002
  -4.5829680097898964E-002   1.3628523706971485E-002   2.1017076702390558E-002
  -4.3450142229721156E-002   1.2854973783750570E-002   2.0905710547460418E-002
  -4.1070604361543389E-002   1.2073173156116668E-002   2.0934669608871415E-002
  -5.4531792629944641E-002   1.6430166326767498E-002   1.4755567263533401E-002
  -5.2004595499495682E-002   1.5604053588962358E-002   1.4388017545060403E-002
  -4.9477398369046743E-002   1.4787014763177266E-002   1.4175461134788368E-002
  -4.6950201238597784E-002   1.3979049849412626E-002   1.4117898032717648E-002
  -4.4423004108148832E-002   1.3180158847668544E-002   1.4215328238847830E-002
  -5.8458108206228925E-002   1.7709461213359409E-002   7.7726233341661836E-003
  -5.5768583721648876E-002   1.6814284252144721E-002   7.4468651012657879E-003
  -5.3079059237068953E-002   1.5945505819383105E-002   7.2907682684263554E-003
  -5.0389534752488994E-002   1.5103125915074987E-002   7.3043328356479044E-003
  -4.7700010267908995E-002   1.4287144539220586E-002   7.4875588029304496E-003
  -6.2367702563107197E-002   1.8988756099951543E-002   7.1195287317216138E-004
  -5.9501182632536342E-002   1.8024514915327083E-002   4.4531074227766032E-004
  -5.6634662701965433E-002   1.7103996875588667E-002   3.6299810330420179E-004
  -5.3768142771394578E-002   1.6227201980736919E-002   4.6501495625123068E-004
  -5.0901622840823668E-002   1.5394130230771852E-002   7.5136130111919108E-004
  -3.7642811028092610E-002   1.0966187464565236E-002   2.7645582913000899E-002
  -3.5243687385196343E-002   1.0199692109317648E-002   2.7109954473090558E-002
  -3.2844563742300117E-002   9.4552018714675057E-003   2.6699118267703659E-002
  -3.0445440099403871E-002   8.7327167510149392E-003   2.6413074296840311E-002
  -2.8046316456507653E-002   8.0322367479597201E-003   2.6251822560500182E-002
  -4.1070604361543389E-002   1.2073173156116668E-002   2.0934669608871415E-002
  -3.8555192928248133E-002   1.1292531311625775E-002   2.0482217005729608E-002
  -3.6039781494952988E-002   1.0522457737831864E-002   2.0137547748862228E-002
  -3.3524370061657816E-002   9.7629524347365090E-003   1.9900661838269371E-002
  -3.1008958628362587E-002   9.0140154023381491E-003   1.9771559273951189E-002
  -4.4423004108148832E-002   1.3180158847668544E-002   1.4215328238847830E-002
  -4.1808313772703561E-002   1.2385370513933597E-002   1.3834614625774816E-002
  -3.9193623437258324E-002   1.1589713604196458E-002   1.3544675470727449E-002
  -3.6578933101813024E-002   1.0793188118457638E-002   1.3345510773705709E-002
  -3.3964242766367857E-002   9.9957940567164671E-003   1.3237120534709518E-002
  -4.7700010267908995E-002   1.4287144539220586E-002   7.4875588029304496E-003
  -4.5003049918562479E-002   1.3478209716241515E-002   7.1671473332264382E-003
  -4.2306089569216110E-002   1.2656969470560657E-002   6.9205014332994440E-003
  -3.9609129219869636E-002   1.1823423802178877E-002   6.7476211031485701E-003
  -3.6912168870523225E-002   1.0977572711094952E-002   6.6485063427746474E-003
  -5.0901622840823668E-002   1.5394130230771852E-002   7.5136130111919108E-004
  -4.8139401365824952E-002   1.4571048918549878E-002   4.7981512808464855E-004
  -4.5377179890826291E-002   1.3724225336925522E-002   2.6502563657768152E-004
  -4.2614958415827603E-002   1.2853659485900254E-002   1.0699282659886594E-004
  -3.9852736940828914E-002   1.1959351365473214E-002   5.7166981477507761E-006
  -2.8046316456507653E-002   8.0322367479597201E-003   2.6251822560500182E-002
  -2.5704210943746808E-002   7.3137993355112951E-003   2.5668660405958388E-002
  -2.3362105430985977E-002   6.5374419868783062E-003   2.5032794391745994E-002
  -2.1019999918225125E-002   5.7031647020612461E-003   2.4344224517863222E-002
  -1.8677894405464301E-002   4.8109674810601355E-003   2.3602950784309962E-002
  -3.1008958628362587E-002   9.0140154023381491E-003   1.9771559273951189E-002
  -2.8702262965108097E-002   8.2685121708744869E-003   1.9182238860917078E-002
  -2.6395567301853579E-002   7.5193082705828362E-003   1.8574802608540913E-002
  -2.4088871638599067E-002   6.7664037014632389E-003   1.7949250516822696E-002
  -2.1782175975344625E-002   6.0097984635149038E-003   1.7305582585762203E-002
  -3.3964242766367857E-002   9.9957940567164671E-003   1.3237120534709518E-002
  -3.1658368932291195E-002   9.2232250062385390E-003   1.2695861130539027E-002
  -2.9352495098214578E-002   8.5011745542877132E-003   1.2171073907354987E-002
  -2.7046621264137968E-002   7.8296427008652351E-003   1.1662758865157129E-002
  -2.4740747430061355E-002   7.2086294459696720E-003   1.1170916003945763E-002
  -3.6912168870523225E-002   1.0977572711094952E-002   6.6485063427746474E-003
  -3.4572528845296047E-002   1.0177937841602161E-002   6.2095272148242342E-003
  -3.2232888820069014E-002   9.4830408379925277E-003   5.8216082881878302E-003
  -2.9893248794841877E-002   8.8928817002664525E-003   5.4847495628665578E-003
  -2.7553608769614799E-002   8.4074604284244403E-003   5.1989510388600474E-003
  -3.9852736940828914E-002   1.1959351365473214E-002   5.7166981477507761E-006
  -3.7444742704122791E-002   1.1132650676965672E-002  -2.7676288622752176E-004
  -3.5036748467416834E-002   1.0464907121697731E-002  -4.7359424896006863E-004
  -3.2628754230710849E-002   9.9561206996690438E-003  -5.8477739004882817E-004
  -3.0220759994004753E-002   9.6062914108794306E-003  -6.1031230949470938E-004
  -1.8677894405464301E-002   4.8109674810601355E-003   2.3602950784309962E-002
  -1.5654478522638182E-002   4.0795069158969799E-003   2.4391822948024444E-002
  -1.2631062639812035E-002   3.7274395985947562E-003   2.5653973052630230E-002
  -9.6076467569859297E-003   3.7547655291528467E-003   2.7389401098126487E-002
  -6.5842308741597688E-003   4.1614847075720496E-003   2.9598107084513825E-002
  -2.1782175975344625E-002   6.0097984635149038E-003   1.7305582585762203E-002
  -1.8554601851362498E-002   5.3429970321235976E-003   1.8252395929806708E-002
  -1.5327027727380413E-002   4.8595038826739767E-003   1.9134247815271954E-002
  -1.2099453603398300E-002   4.5593190151665963E-003   1.9951138242158356E-002
  -8.8718794794162004E-003   4.4424424296017895E-003   2.0703067210465775E-002
  -2.4740747430061355E-002   7.2086294459696720E-003   1.1170916003945763E-002
  -2.1847254464393381E-002   6.6064871483498822E-003   1.2079585562401185E-002
  -1.8953761498725283E-002   5.9915681667538773E-003   1.2385054262807574E-002
  -1.6060268533057278E-002   5.3638725011802384E-003   1.2087322105165103E-002
  -1.3166775567389266E-002   4.7234001516309188E-003   1.1186389089473364E-002
  -2.7553608769614799E-002   8.4074604284244403E-003   5.1989510388600474E-003
  -2.5532436361730759E-002   7.8699772645756672E-003   5.8733918458078321E-003
  -2.3511263953846735E-002   7.1236324508331048E-003   5.4063923952366692E-003
  -2.1490091545962667E-002   6.1684259871943783E-003   3.7979526871468623E-003
  -1.9468919138078671E-002   5.0043578736605754E-003   1.0480727215376948E-003
  -3.0220759994004753E-002   9.6062914108794306E-003  -6.1031230949470938E-004
  -2.9610147543374765E-002   9.1334673808033395E-003  -3.6618521997289211E-004
  -2.8999535092744666E-002   8.2556967349128318E-003  -1.8017377874401108E-003
  -2.8388922642114678E-002   6.9729794732075884E-003  -4.9169700118965390E-003
  -2.7778310191484579E-002   5.2853155956897879E-003  -9.7118818933416007E-003
  -6.5842308741597688E-003   4.1614847075720496E-003   2.9598107084513825E-002
  -6.0562099347031273E-003   6.1428997095802629E-003   3.4075505779175397E-002
  -5.5281889952464858E-003   1.0894313110904524E-002   3.9238147632990106E-002
  -5.0001680557898304E-003   1.8415724911545812E-002   4.5086032645958479E-002
  -4.4721471163332582E-003   2.8707135111504467E-002   5.1619160818080712E-002
  -8.8718794794162004E-003   4.4424424296017895E-003   2.0703067210465775E-002
  -7.5863148423306603E-003   5.6590363487398765E-003   2.5872334524276952E-002
  -6.3007502052452036E-003   9.3592629953441475E-003   3.1871446074192844E-002
  -5.0151855681596566E-003   1.5543122369414762E-002   3.8700401860212702E-002
  -3.7296209310740958E-003   2.4210614470950409E-002   4.6359201882336887E-002
  -1.3166775567389266E-002   4.7234001516309188E-003   1.1186389089473364E-002
  -1.0979066155724138E-002   5.1751729879006003E-003   1.6761159350583726E-002
  -8.7913567440589535E-003   7.8242128797844229E-003   2.3310374924749397E-002
  -6.6036473323937382E-003   1.2670519827283320E-002   3.0834035811969536E-002
  -4.4159379207286409E-003   1.9714093830396129E-002   3.9332142012245108E-002
  -1.9468919138078671E-002   5.0043578736605754E-003   1.0480727215376948E-003
  -1.6234463874883268E-002   4.6913096270603249E-003   6.7419802580961571E-003
  -1.3000008611687831E-002   6.2891627642239281E-003   1.3554934184660503E-002
  -9.7655533484923424E-003   9.7979172851508523E-003   2.1486934501229890E-002
  -6.5310980852969908E-003   1.5217573189842182E-002   3.0537981207805459E-002
  -2.7778310191484579E-002   5.2853155956897879E-003  -9.7118818933416007E-003
  -2.3352507999808259E-002   4.2074462662204937E-003  -4.1852027531866787E-003
  -1.8926705808131938E-002   4.7541126486645435E-003   2.6051238539250565E-003
  -1.4500903616455563E-002   6.9253147430206607E-003   1.0659097927992432E-002
  -1.0075101424779298E-002   1.0721052549287791E-002   1.9976719469016802E-002
 </DataArray>
 </PointData>
 </Piece>
 </UnstructuredGrid>
 </VTKFile>
