 <VTKFile type="UnstructuredGrid"  version="0.1"   >
 <UnstructuredGrid>
 <Piece  NumberOfPoints="          1600 "  NumberOfCells="         1024 ">
 <Points>
 <DataArray  type="Float64" NumberOfComponents="3"  format="ascii" >
   0.0000000000000000        0.0000000000000000        0.0000000000000000     
   3.1250000000000000E-002   0.0000000000000000        0.0000000000000000     
   6.2500000000000000E-002   0.0000000000000000        0.0000000000000000     
   9.3750000000000000E-002   0.0000000000000000        0.0000000000000000     
  0.12500000000000000        0.0000000000000000        0.0000000000000000     
   0.0000000000000000        3.1250000000000000E-002   0.0000000000000000     
   3.1250000000000000E-002   3.1250000000000000E-002   0.0000000000000000     
   6.2500000000000000E-002   3.1250000000000000E-002   0.0000000000000000     
   9.3750000000000000E-002   3.1250000000000000E-002   0.0000000000000000     
  0.12500000000000000        3.1250000000000000E-002   0.0000000000000000     
   0.0000000000000000        6.2500000000000000E-002   0.0000000000000000     
   3.1250000000000000E-002   6.2500000000000000E-002   0.0000000000000000     
   6.2500000000000000E-002   6.2500000000000000E-002   0.0000000000000000     
   9.3750000000000000E-002   6.2500000000000000E-002   0.0000000000000000     
  0.12500000000000000        6.2500000000000000E-002   0.0000000000000000     
   0.0000000000000000        9.3750000000000000E-002   0.0000000000000000     
   3.1250000000000000E-002   9.3750000000000000E-002   0.0000000000000000     
   6.2500000000000000E-002   9.3750000000000000E-002   0.0000000000000000     
   9.3750000000000000E-002   9.3750000000000000E-002   0.0000000000000000     
  0.12500000000000000        9.3750000000000000E-002   0.0000000000000000     
   0.0000000000000000       0.12500000000000000        0.0000000000000000     
   3.1250000000000000E-002  0.12500000000000000        0.0000000000000000     
   6.2500000000000000E-002  0.12500000000000000        0.0000000000000000     
   9.3750000000000000E-002  0.12500000000000000        0.0000000000000000     
  0.12500000000000000       0.12500000000000000        0.0000000000000000     
  0.12500000000000000        0.0000000000000000        0.0000000000000000     
  0.15625000000000000        0.0000000000000000        0.0000000000000000     
  0.18750000000000000        0.0000000000000000        0.0000000000000000     
  0.21875000000000000        0.0000000000000000        0.0000000000000000     
  0.25000000000000000        0.0000000000000000        0.0000000000000000     
  0.12500000000000000        3.1250000000000000E-002   0.0000000000000000     
  0.15625000000000000        3.1250000000000000E-002   0.0000000000000000     
  0.18750000000000000        3.1250000000000000E-002   0.0000000000000000     
  0.21875000000000000        3.1250000000000000E-002   0.0000000000000000     
  0.25000000000000000        3.1250000000000000E-002   0.0000000000000000     
  0.12500000000000000        6.2500000000000000E-002   0.0000000000000000     
  0.15625000000000000        6.2500000000000000E-002   0.0000000000000000     
  0.18750000000000000        6.2500000000000000E-002   0.0000000000000000     
  0.21875000000000000        6.2500000000000000E-002   0.0000000000000000     
  0.25000000000000000        6.2500000000000000E-002   0.0000000000000000     
  0.12500000000000000        9.3750000000000000E-002   0.0000000000000000     
  0.15625000000000000        9.3750000000000000E-002   0.0000000000000000     
  0.18750000000000000        9.3750000000000000E-002   0.0000000000000000     
  0.21875000000000000        9.3750000000000000E-002   0.0000000000000000     
  0.25000000000000000        9.3750000000000000E-002   0.0000000000000000     
  0.12500000000000000       0.12500000000000000        0.0000000000000000     
  0.15625000000000000       0.12500000000000000        0.0000000000000000     
  0.18750000000000000       0.12500000000000000        0.0000000000000000     
  0.21875000000000000       0.12500000000000000        0.0000000000000000     
  0.25000000000000000       0.12500000000000000        0.0000000000000000     
  0.25000000000000000        0.0000000000000000        0.0000000000000000     
  0.28125000000000000        0.0000000000000000        0.0000000000000000     
  0.31250000000000000        0.0000000000000000        0.0000000000000000     
  0.34375000000000000        0.0000000000000000        0.0000000000000000     
  0.37500000000000000        0.0000000000000000        0.0000000000000000     
  0.25000000000000000        3.1250000000000000E-002   0.0000000000000000     
  0.28125000000000000        3.1250000000000000E-002   0.0000000000000000     
  0.31250000000000000        3.1250000000000000E-002   0.0000000000000000     
  0.34375000000000000        3.1250000000000000E-002   0.0000000000000000     
  0.37500000000000000        3.1250000000000000E-002   0.0000000000000000     
  0.25000000000000000        6.2500000000000000E-002   0.0000000000000000     
  0.28125000000000000        6.2500000000000000E-002   0.0000000000000000     
  0.31250000000000000        6.2500000000000000E-002   0.0000000000000000     
  0.34375000000000000        6.2500000000000000E-002   0.0000000000000000     
  0.37500000000000000        6.2500000000000000E-002   0.0000000000000000     
  0.25000000000000000        9.3750000000000000E-002   0.0000000000000000     
  0.28125000000000000        9.3750000000000000E-002   0.0000000000000000     
  0.31250000000000000        9.3750000000000000E-002   0.0000000000000000     
  0.34375000000000000        9.3750000000000000E-002   0.0000000000000000     
  0.37500000000000000        9.3750000000000000E-002   0.0000000000000000     
  0.25000000000000000       0.12500000000000000        0.0000000000000000     
  0.28125000000000000       0.12500000000000000        0.0000000000000000     
  0.31250000000000000       0.12500000000000000        0.0000000000000000     
  0.34375000000000000       0.12500000000000000        0.0000000000000000     
  0.37500000000000000       0.12500000000000000        0.0000000000000000     
  0.37500000000000000        0.0000000000000000        0.0000000000000000     
  0.40625000000000000        0.0000000000000000        0.0000000000000000     
  0.43750000000000000        0.0000000000000000        0.0000000000000000     
  0.46875000000000000        0.0000000000000000        0.0000000000000000     
  0.50000000000000000        0.0000000000000000        0.0000000000000000     
  0.37500000000000000        3.1250000000000000E-002   0.0000000000000000     
  0.40625000000000000        3.1250000000000000E-002   0.0000000000000000     
  0.43750000000000000        3.1250000000000000E-002   0.0000000000000000     
  0.46875000000000000        3.1250000000000000E-002   0.0000000000000000     
  0.50000000000000000        3.1250000000000000E-002   0.0000000000000000     
  0.37500000000000000        6.2500000000000000E-002   0.0000000000000000     
  0.40625000000000000        6.2500000000000000E-002   0.0000000000000000     
  0.43750000000000000        6.2500000000000000E-002   0.0000000000000000     
  0.46875000000000000        6.2500000000000000E-002   0.0000000000000000     
  0.50000000000000000        6.2500000000000000E-002   0.0000000000000000     
  0.37500000000000000        9.3750000000000000E-002   0.0000000000000000     
  0.40625000000000000        9.3750000000000000E-002   0.0000000000000000     
  0.43750000000000000        9.3750000000000000E-002   0.0000000000000000     
  0.46875000000000000        9.3750000000000000E-002   0.0000000000000000     
  0.50000000000000000        9.3750000000000000E-002   0.0000000000000000     
  0.37500000000000000       0.12500000000000000        0.0000000000000000     
  0.40625000000000000       0.12500000000000000        0.0000000000000000     
  0.43750000000000000       0.12500000000000000        0.0000000000000000     
  0.46875000000000000       0.12500000000000000        0.0000000000000000     
  0.50000000000000000       0.12500000000000000        0.0000000000000000     
  0.50000000000000000        0.0000000000000000        0.0000000000000000     
  0.53125000000000000        0.0000000000000000        0.0000000000000000     
  0.56250000000000000        0.0000000000000000        0.0000000000000000     
  0.59375000000000000        0.0000000000000000        0.0000000000000000     
  0.62500000000000000        0.0000000000000000        0.0000000000000000     
  0.50000000000000000        3.1250000000000000E-002   0.0000000000000000     
  0.53125000000000000        3.1250000000000000E-002   0.0000000000000000     
  0.56250000000000000        3.1250000000000000E-002   0.0000000000000000     
  0.59375000000000000        3.1250000000000000E-002   0.0000000000000000     
  0.62500000000000000        3.1250000000000000E-002   0.0000000000000000     
  0.50000000000000000        6.2500000000000000E-002   0.0000000000000000     
  0.53125000000000000        6.2500000000000000E-002   0.0000000000000000     
  0.56250000000000000        6.2500000000000000E-002   0.0000000000000000     
  0.59375000000000000        6.2500000000000000E-002   0.0000000000000000     
  0.62500000000000000        6.2500000000000000E-002   0.0000000000000000     
  0.50000000000000000        9.3750000000000000E-002   0.0000000000000000     
  0.53125000000000000        9.3750000000000000E-002   0.0000000000000000     
  0.56250000000000000        9.3750000000000000E-002   0.0000000000000000     
  0.59375000000000000        9.3750000000000000E-002   0.0000000000000000     
  0.62500000000000000        9.3750000000000000E-002   0.0000000000000000     
  0.50000000000000000       0.12500000000000000        0.0000000000000000     
  0.53125000000000000       0.12500000000000000        0.0000000000000000     
  0.56250000000000000       0.12500000000000000        0.0000000000000000     
  0.59375000000000000       0.12500000000000000        0.0000000000000000     
  0.62500000000000000       0.12500000000000000        0.0000000000000000     
  0.62500000000000000        0.0000000000000000        0.0000000000000000     
  0.65625000000000000        0.0000000000000000        0.0000000000000000     
  0.68750000000000000        0.0000000000000000        0.0000000000000000     
  0.71875000000000000        0.0000000000000000        0.0000000000000000     
  0.75000000000000000        0.0000000000000000        0.0000000000000000     
  0.62500000000000000        3.1250000000000000E-002   0.0000000000000000     
  0.65625000000000000        3.1250000000000000E-002   0.0000000000000000     
  0.68750000000000000        3.1250000000000000E-002   0.0000000000000000     
  0.71875000000000000        3.1250000000000000E-002   0.0000000000000000     
  0.75000000000000000        3.1250000000000000E-002   0.0000000000000000     
  0.62500000000000000        6.2500000000000000E-002   0.0000000000000000     
  0.65625000000000000        6.2500000000000000E-002   0.0000000000000000     
  0.68750000000000000        6.2500000000000000E-002   0.0000000000000000     
  0.71875000000000000        6.2500000000000000E-002   0.0000000000000000     
  0.75000000000000000        6.2500000000000000E-002   0.0000000000000000     
  0.62500000000000000        9.3750000000000000E-002   0.0000000000000000     
  0.65625000000000000        9.3750000000000000E-002   0.0000000000000000     
  0.68750000000000000        9.3750000000000000E-002   0.0000000000000000     
  0.71875000000000000        9.3750000000000000E-002   0.0000000000000000     
  0.75000000000000000        9.3750000000000000E-002   0.0000000000000000     
  0.62500000000000000       0.12500000000000000        0.0000000000000000     
  0.65625000000000000       0.12500000000000000        0.0000000000000000     
  0.68750000000000000       0.12500000000000000        0.0000000000000000     
  0.71875000000000000       0.12500000000000000        0.0000000000000000     
  0.75000000000000000       0.12500000000000000        0.0000000000000000     
  0.75000000000000000        0.0000000000000000        0.0000000000000000     
  0.78125000000000000        0.0000000000000000        0.0000000000000000     
  0.81250000000000000        0.0000000000000000        0.0000000000000000     
  0.84375000000000000        0.0000000000000000        0.0000000000000000     
  0.87500000000000000        0.0000000000000000        0.0000000000000000     
  0.75000000000000000        3.1250000000000000E-002   0.0000000000000000     
  0.78125000000000000        3.1250000000000000E-002   0.0000000000000000     
  0.81250000000000000        3.1250000000000000E-002   0.0000000000000000     
  0.84375000000000000        3.1250000000000000E-002   0.0000000000000000     
  0.87500000000000000        3.1250000000000000E-002   0.0000000000000000     
  0.75000000000000000        6.2500000000000000E-002   0.0000000000000000     
  0.78125000000000000        6.2500000000000000E-002   0.0000000000000000     
  0.81250000000000000        6.2500000000000000E-002   0.0000000000000000     
  0.84375000000000000        6.2500000000000000E-002   0.0000000000000000     
  0.87500000000000000        6.2500000000000000E-002   0.0000000000000000     
  0.75000000000000000        9.3750000000000000E-002   0.0000000000000000     
  0.78125000000000000        9.3750000000000000E-002   0.0000000000000000     
  0.81250000000000000        9.3750000000000000E-002   0.0000000000000000     
  0.84375000000000000        9.3750000000000000E-002   0.0000000000000000     
  0.87500000000000000        9.3750000000000000E-002   0.0000000000000000     
  0.75000000000000000       0.12500000000000000        0.0000000000000000     
  0.78125000000000000       0.12500000000000000        0.0000000000000000     
  0.81250000000000000       0.12500000000000000        0.0000000000000000     
  0.84375000000000000       0.12500000000000000        0.0000000000000000     
  0.87500000000000000       0.12500000000000000        0.0000000000000000     
  0.87500000000000000        0.0000000000000000        0.0000000000000000     
  0.90625000000000000        0.0000000000000000        0.0000000000000000     
  0.93750000000000000        0.0000000000000000        0.0000000000000000     
  0.96875000000000000        0.0000000000000000        0.0000000000000000     
   1.0000000000000000        0.0000000000000000        0.0000000000000000     
  0.87500000000000000        3.1250000000000000E-002   0.0000000000000000     
  0.90625000000000000        3.1250000000000000E-002   0.0000000000000000     
  0.93750000000000000        3.1250000000000000E-002   0.0000000000000000     
  0.96875000000000000        3.1250000000000000E-002   0.0000000000000000     
   1.0000000000000000        3.1250000000000000E-002   0.0000000000000000     
  0.87500000000000000        6.2500000000000000E-002   0.0000000000000000     
  0.90625000000000000        6.2500000000000000E-002   0.0000000000000000     
  0.93750000000000000        6.2500000000000000E-002   0.0000000000000000     
  0.96875000000000000        6.2500000000000000E-002   0.0000000000000000     
   1.0000000000000000        6.2500000000000000E-002   0.0000000000000000     
  0.87500000000000000        9.3750000000000000E-002   0.0000000000000000     
  0.90625000000000000        9.3750000000000000E-002   0.0000000000000000     
  0.93750000000000000        9.3750000000000000E-002   0.0000000000000000     
  0.96875000000000000        9.3750000000000000E-002   0.0000000000000000     
   1.0000000000000000        9.3750000000000000E-002   0.0000000000000000     
  0.87500000000000000       0.12500000000000000        0.0000000000000000     
  0.90625000000000000       0.12500000000000000        0.0000000000000000     
  0.93750000000000000       0.12500000000000000        0.0000000000000000     
  0.96875000000000000       0.12500000000000000        0.0000000000000000     
   1.0000000000000000       0.12500000000000000        0.0000000000000000     
   0.0000000000000000       0.12500000000000000        0.0000000000000000     
   3.1250000000000000E-002  0.12500000000000000        0.0000000000000000     
   6.2500000000000000E-002  0.12500000000000000        0.0000000000000000     
   9.3750000000000000E-002  0.12500000000000000        0.0000000000000000     
  0.12500000000000000       0.12500000000000000        0.0000000000000000     
   0.0000000000000000       0.15625000000000000        0.0000000000000000     
   3.1250000000000000E-002  0.15625000000000000        0.0000000000000000     
   6.2500000000000000E-002  0.15625000000000000        0.0000000000000000     
   9.3750000000000000E-002  0.15625000000000000        0.0000000000000000     
  0.12500000000000000       0.15625000000000000        0.0000000000000000     
   0.0000000000000000       0.18750000000000000        0.0000000000000000     
   3.1250000000000000E-002  0.18750000000000000        0.0000000000000000     
   6.2500000000000000E-002  0.18750000000000000        0.0000000000000000     
   9.3750000000000000E-002  0.18750000000000000        0.0000000000000000     
  0.12500000000000000       0.18750000000000000        0.0000000000000000     
   0.0000000000000000       0.21875000000000000        0.0000000000000000     
   3.1250000000000000E-002  0.21875000000000000        0.0000000000000000     
   6.2500000000000000E-002  0.21875000000000000        0.0000000000000000     
   9.3750000000000000E-002  0.21875000000000000        0.0000000000000000     
  0.12500000000000000       0.21875000000000000        0.0000000000000000     
   0.0000000000000000       0.25000000000000000        0.0000000000000000     
   3.1250000000000000E-002  0.25000000000000000        0.0000000000000000     
   6.2500000000000000E-002  0.25000000000000000        0.0000000000000000     
   9.3750000000000000E-002  0.25000000000000000        0.0000000000000000     
  0.12500000000000000       0.25000000000000000        0.0000000000000000     
  0.12500000000000000       0.12500000000000000        0.0000000000000000     
  0.15625000000000000       0.12500000000000000        0.0000000000000000     
  0.18750000000000000       0.12500000000000000        0.0000000000000000     
  0.21875000000000000       0.12500000000000000        0.0000000000000000     
  0.25000000000000000       0.12500000000000000        0.0000000000000000     
  0.12500000000000000       0.15625000000000000        0.0000000000000000     
  0.15625000000000000       0.15625000000000000        0.0000000000000000     
  0.18750000000000000       0.15625000000000000        0.0000000000000000     
  0.21875000000000000       0.15625000000000000        0.0000000000000000     
  0.25000000000000000       0.15625000000000000        0.0000000000000000     
  0.12500000000000000       0.18750000000000000        0.0000000000000000     
  0.15625000000000000       0.18750000000000000        0.0000000000000000     
  0.18750000000000000       0.18750000000000000        0.0000000000000000     
  0.21875000000000000       0.18750000000000000        0.0000000000000000     
  0.25000000000000000       0.18750000000000000        0.0000000000000000     
  0.12500000000000000       0.21875000000000000        0.0000000000000000     
  0.15625000000000000       0.21875000000000000        0.0000000000000000     
  0.18750000000000000       0.21875000000000000        0.0000000000000000     
  0.21875000000000000       0.21875000000000000        0.0000000000000000     
  0.25000000000000000       0.21875000000000000        0.0000000000000000     
  0.12500000000000000       0.25000000000000000        0.0000000000000000     
  0.15625000000000000       0.25000000000000000        0.0000000000000000     
  0.18750000000000000       0.25000000000000000        0.0000000000000000     
  0.21875000000000000       0.25000000000000000        0.0000000000000000     
  0.25000000000000000       0.25000000000000000        0.0000000000000000     
  0.25000000000000000       0.12500000000000000        0.0000000000000000     
  0.28125000000000000       0.12500000000000000        0.0000000000000000     
  0.31250000000000000       0.12500000000000000        0.0000000000000000     
  0.34375000000000000       0.12500000000000000        0.0000000000000000     
  0.37500000000000000       0.12500000000000000        0.0000000000000000     
  0.25000000000000000       0.15625000000000000        0.0000000000000000     
  0.28125000000000000       0.15625000000000000        0.0000000000000000     
  0.31250000000000000       0.15625000000000000        0.0000000000000000     
  0.34375000000000000       0.15625000000000000        0.0000000000000000     
  0.37500000000000000       0.15625000000000000        0.0000000000000000     
  0.25000000000000000       0.18750000000000000        0.0000000000000000     
  0.28125000000000000       0.18750000000000000        0.0000000000000000     
  0.31250000000000000       0.18750000000000000        0.0000000000000000     
  0.34375000000000000       0.18750000000000000        0.0000000000000000     
  0.37500000000000000       0.18750000000000000        0.0000000000000000     
  0.25000000000000000       0.21875000000000000        0.0000000000000000     
  0.28125000000000000       0.21875000000000000        0.0000000000000000     
  0.31250000000000000       0.21875000000000000        0.0000000000000000     
  0.34375000000000000       0.21875000000000000        0.0000000000000000     
  0.37500000000000000       0.21875000000000000        0.0000000000000000     
  0.25000000000000000       0.25000000000000000        0.0000000000000000     
  0.28125000000000000       0.25000000000000000        0.0000000000000000     
  0.31250000000000000       0.25000000000000000        0.0000000000000000     
  0.34375000000000000       0.25000000000000000        0.0000000000000000     
  0.37500000000000000       0.25000000000000000        0.0000000000000000     
  0.37500000000000000       0.12500000000000000        0.0000000000000000     
  0.40625000000000000       0.12500000000000000        0.0000000000000000     
  0.43750000000000000       0.12500000000000000        0.0000000000000000     
  0.46875000000000000       0.12500000000000000        0.0000000000000000     
  0.50000000000000000       0.12500000000000000        0.0000000000000000     
  0.37500000000000000       0.15625000000000000        0.0000000000000000     
  0.40625000000000000       0.15625000000000000        0.0000000000000000     
  0.43750000000000000       0.15625000000000000        0.0000000000000000     
  0.46875000000000000       0.15625000000000000        0.0000000000000000     
  0.50000000000000000       0.15625000000000000        0.0000000000000000     
  0.37500000000000000       0.18750000000000000        0.0000000000000000     
  0.40625000000000000       0.18750000000000000        0.0000000000000000     
  0.43750000000000000       0.18750000000000000        0.0000000000000000     
  0.46875000000000000       0.18750000000000000        0.0000000000000000     
  0.50000000000000000       0.18750000000000000        0.0000000000000000     
  0.37500000000000000       0.21875000000000000        0.0000000000000000     
  0.40625000000000000       0.21875000000000000        0.0000000000000000     
  0.43750000000000000       0.21875000000000000        0.0000000000000000     
  0.46875000000000000       0.21875000000000000        0.0000000000000000     
  0.50000000000000000       0.21875000000000000        0.0000000000000000     
  0.37500000000000000       0.25000000000000000        0.0000000000000000     
  0.40625000000000000       0.25000000000000000        0.0000000000000000     
  0.43750000000000000       0.25000000000000000        0.0000000000000000     
  0.46875000000000000       0.25000000000000000        0.0000000000000000     
  0.50000000000000000       0.25000000000000000        0.0000000000000000     
  0.50000000000000000       0.12500000000000000        0.0000000000000000     
  0.53125000000000000       0.12500000000000000        0.0000000000000000     
  0.56250000000000000       0.12500000000000000        0.0000000000000000     
  0.59375000000000000       0.12500000000000000        0.0000000000000000     
  0.62500000000000000       0.12500000000000000        0.0000000000000000     
  0.50000000000000000       0.15625000000000000        0.0000000000000000     
  0.53125000000000000       0.15625000000000000        0.0000000000000000     
  0.56250000000000000       0.15625000000000000        0.0000000000000000     
  0.59375000000000000       0.15625000000000000        0.0000000000000000     
  0.62500000000000000       0.15625000000000000        0.0000000000000000     
  0.50000000000000000       0.18750000000000000        0.0000000000000000     
  0.53125000000000000       0.18750000000000000        0.0000000000000000     
  0.56250000000000000       0.18750000000000000        0.0000000000000000     
  0.59375000000000000       0.18750000000000000        0.0000000000000000     
  0.62500000000000000       0.18750000000000000        0.0000000000000000     
  0.50000000000000000       0.21875000000000000        0.0000000000000000     
  0.53125000000000000       0.21875000000000000        0.0000000000000000     
  0.56250000000000000       0.21875000000000000        0.0000000000000000     
  0.59375000000000000       0.21875000000000000        0.0000000000000000     
  0.62500000000000000       0.21875000000000000        0.0000000000000000     
  0.50000000000000000       0.25000000000000000        0.0000000000000000     
  0.53125000000000000       0.25000000000000000        0.0000000000000000     
  0.56250000000000000       0.25000000000000000        0.0000000000000000     
  0.59375000000000000       0.25000000000000000        0.0000000000000000     
  0.62500000000000000       0.25000000000000000        0.0000000000000000     
  0.62500000000000000       0.12500000000000000        0.0000000000000000     
  0.65625000000000000       0.12500000000000000        0.0000000000000000     
  0.68750000000000000       0.12500000000000000        0.0000000000000000     
  0.71875000000000000       0.12500000000000000        0.0000000000000000     
  0.75000000000000000       0.12500000000000000        0.0000000000000000     
  0.62500000000000000       0.15625000000000000        0.0000000000000000     
  0.65625000000000000       0.15625000000000000        0.0000000000000000     
  0.68750000000000000       0.15625000000000000        0.0000000000000000     
  0.71875000000000000       0.15625000000000000        0.0000000000000000     
  0.75000000000000000       0.15625000000000000        0.0000000000000000     
  0.62500000000000000       0.18750000000000000        0.0000000000000000     
  0.65625000000000000       0.18750000000000000        0.0000000000000000     
  0.68750000000000000       0.18750000000000000        0.0000000000000000     
  0.71875000000000000       0.18750000000000000        0.0000000000000000     
  0.75000000000000000       0.18750000000000000        0.0000000000000000     
  0.62500000000000000       0.21875000000000000        0.0000000000000000     
  0.65625000000000000       0.21875000000000000        0.0000000000000000     
  0.68750000000000000       0.21875000000000000        0.0000000000000000     
  0.71875000000000000       0.21875000000000000        0.0000000000000000     
  0.75000000000000000       0.21875000000000000        0.0000000000000000     
  0.62500000000000000       0.25000000000000000        0.0000000000000000     
  0.65625000000000000       0.25000000000000000        0.0000000000000000     
  0.68750000000000000       0.25000000000000000        0.0000000000000000     
  0.71875000000000000       0.25000000000000000        0.0000000000000000     
  0.75000000000000000       0.25000000000000000        0.0000000000000000     
  0.75000000000000000       0.12500000000000000        0.0000000000000000     
  0.78125000000000000       0.12500000000000000        0.0000000000000000     
  0.81250000000000000       0.12500000000000000        0.0000000000000000     
  0.84375000000000000       0.12500000000000000        0.0000000000000000     
  0.87500000000000000       0.12500000000000000        0.0000000000000000     
  0.75000000000000000       0.15625000000000000        0.0000000000000000     
  0.78125000000000000       0.15625000000000000        0.0000000000000000     
  0.81250000000000000       0.15625000000000000        0.0000000000000000     
  0.84375000000000000       0.15625000000000000        0.0000000000000000     
  0.87500000000000000       0.15625000000000000        0.0000000000000000     
  0.75000000000000000       0.18750000000000000        0.0000000000000000     
  0.78125000000000000       0.18750000000000000        0.0000000000000000     
  0.81250000000000000       0.18750000000000000        0.0000000000000000     
  0.84375000000000000       0.18750000000000000        0.0000000000000000     
  0.87500000000000000       0.18750000000000000        0.0000000000000000     
  0.75000000000000000       0.21875000000000000        0.0000000000000000     
  0.78125000000000000       0.21875000000000000        0.0000000000000000     
  0.81250000000000000       0.21875000000000000        0.0000000000000000     
  0.84375000000000000       0.21875000000000000        0.0000000000000000     
  0.87500000000000000       0.21875000000000000        0.0000000000000000     
  0.75000000000000000       0.25000000000000000        0.0000000000000000     
  0.78125000000000000       0.25000000000000000        0.0000000000000000     
  0.81250000000000000       0.25000000000000000        0.0000000000000000     
  0.84375000000000000       0.25000000000000000        0.0000000000000000     
  0.87500000000000000       0.25000000000000000        0.0000000000000000     
  0.87500000000000000       0.12500000000000000        0.0000000000000000     
  0.90625000000000000       0.12500000000000000        0.0000000000000000     
  0.93750000000000000       0.12500000000000000        0.0000000000000000     
  0.96875000000000000       0.12500000000000000        0.0000000000000000     
   1.0000000000000000       0.12500000000000000        0.0000000000000000     
  0.87500000000000000       0.15625000000000000        0.0000000000000000     
  0.90625000000000000       0.15625000000000000        0.0000000000000000     
  0.93750000000000000       0.15625000000000000        0.0000000000000000     
  0.96875000000000000       0.15625000000000000        0.0000000000000000     
   1.0000000000000000       0.15625000000000000        0.0000000000000000     
  0.87500000000000000       0.18750000000000000        0.0000000000000000     
  0.90625000000000000       0.18750000000000000        0.0000000000000000     
  0.93750000000000000       0.18750000000000000        0.0000000000000000     
  0.96875000000000000       0.18750000000000000        0.0000000000000000     
   1.0000000000000000       0.18750000000000000        0.0000000000000000     
  0.87500000000000000       0.21875000000000000        0.0000000000000000     
  0.90625000000000000       0.21875000000000000        0.0000000000000000     
  0.93750000000000000       0.21875000000000000        0.0000000000000000     
  0.96875000000000000       0.21875000000000000        0.0000000000000000     
   1.0000000000000000       0.21875000000000000        0.0000000000000000     
  0.87500000000000000       0.25000000000000000        0.0000000000000000     
  0.90625000000000000       0.25000000000000000        0.0000000000000000     
  0.93750000000000000       0.25000000000000000        0.0000000000000000     
  0.96875000000000000       0.25000000000000000        0.0000000000000000     
   1.0000000000000000       0.25000000000000000        0.0000000000000000     
   0.0000000000000000       0.25000000000000000        0.0000000000000000     
   3.1250000000000000E-002  0.25000000000000000        0.0000000000000000     
   6.2500000000000000E-002  0.25000000000000000        0.0000000000000000     
   9.3750000000000000E-002  0.25000000000000000        0.0000000000000000     
  0.12500000000000000       0.25000000000000000        0.0000000000000000     
   0.0000000000000000       0.28125000000000000        0.0000000000000000     
   3.1250000000000000E-002  0.28125000000000000        0.0000000000000000     
   6.2500000000000000E-002  0.28125000000000000        0.0000000000000000     
   9.3750000000000000E-002  0.28125000000000000        0.0000000000000000     
  0.12500000000000000       0.28125000000000000        0.0000000000000000     
   0.0000000000000000       0.31250000000000000        0.0000000000000000     
   3.1250000000000000E-002  0.31250000000000000        0.0000000000000000     
   6.2500000000000000E-002  0.31250000000000000        0.0000000000000000     
   9.3750000000000000E-002  0.31250000000000000        0.0000000000000000     
  0.12500000000000000       0.31250000000000000        0.0000000000000000     
   0.0000000000000000       0.34375000000000000        0.0000000000000000     
   3.1250000000000000E-002  0.34375000000000000        0.0000000000000000     
   6.2500000000000000E-002  0.34375000000000000        0.0000000000000000     
   9.3750000000000000E-002  0.34375000000000000        0.0000000000000000     
  0.12500000000000000       0.34375000000000000        0.0000000000000000     
   0.0000000000000000       0.37500000000000000        0.0000000000000000     
   3.1250000000000000E-002  0.37500000000000000        0.0000000000000000     
   6.2500000000000000E-002  0.37500000000000000        0.0000000000000000     
   9.3750000000000000E-002  0.37500000000000000        0.0000000000000000     
  0.12500000000000000       0.37500000000000000        0.0000000000000000     
  0.12500000000000000       0.25000000000000000        0.0000000000000000     
  0.15625000000000000       0.25000000000000000        0.0000000000000000     
  0.18750000000000000       0.25000000000000000        0.0000000000000000     
  0.21875000000000000       0.25000000000000000        0.0000000000000000     
  0.25000000000000000       0.25000000000000000        0.0000000000000000     
  0.12500000000000000       0.28125000000000000        0.0000000000000000     
  0.15625000000000000       0.28125000000000000        0.0000000000000000     
  0.18750000000000000       0.28125000000000000        0.0000000000000000     
  0.21875000000000000       0.28125000000000000        0.0000000000000000     
  0.25000000000000000       0.28125000000000000        0.0000000000000000     
  0.12500000000000000       0.31250000000000000        0.0000000000000000     
  0.15625000000000000       0.31250000000000000        0.0000000000000000     
  0.18750000000000000       0.31250000000000000        0.0000000000000000     
  0.21875000000000000       0.31250000000000000        0.0000000000000000     
  0.25000000000000000       0.31250000000000000        0.0000000000000000     
  0.12500000000000000       0.34375000000000000        0.0000000000000000     
  0.15625000000000000       0.34375000000000000        0.0000000000000000     
  0.18750000000000000       0.34375000000000000        0.0000000000000000     
  0.21875000000000000       0.34375000000000000        0.0000000000000000     
  0.25000000000000000       0.34375000000000000        0.0000000000000000     
  0.12500000000000000       0.37500000000000000        0.0000000000000000     
  0.15625000000000000       0.37500000000000000        0.0000000000000000     
  0.18750000000000000       0.37500000000000000        0.0000000000000000     
  0.21875000000000000       0.37500000000000000        0.0000000000000000     
  0.25000000000000000       0.37500000000000000        0.0000000000000000     
  0.25000000000000000       0.25000000000000000        0.0000000000000000     
  0.28125000000000000       0.25000000000000000        0.0000000000000000     
  0.31250000000000000       0.25000000000000000        0.0000000000000000     
  0.34375000000000000       0.25000000000000000        0.0000000000000000     
  0.37500000000000000       0.25000000000000000        0.0000000000000000     
  0.25000000000000000       0.28125000000000000        0.0000000000000000     
  0.28125000000000000       0.28125000000000000        0.0000000000000000     
  0.31250000000000000       0.28125000000000000        0.0000000000000000     
  0.34375000000000000       0.28125000000000000        0.0000000000000000     
  0.37500000000000000       0.28125000000000000        0.0000000000000000     
  0.25000000000000000       0.31250000000000000        0.0000000000000000     
  0.28125000000000000       0.31250000000000000        0.0000000000000000     
  0.31250000000000000       0.31250000000000000        0.0000000000000000     
  0.34375000000000000       0.31250000000000000        0.0000000000000000     
  0.37500000000000000       0.31250000000000000        0.0000000000000000     
  0.25000000000000000       0.34375000000000000        0.0000000000000000     
  0.28125000000000000       0.34375000000000000        0.0000000000000000     
  0.31250000000000000       0.34375000000000000        0.0000000000000000     
  0.34375000000000000       0.34375000000000000        0.0000000000000000     
  0.37500000000000000       0.34375000000000000        0.0000000000000000     
  0.25000000000000000       0.37500000000000000        0.0000000000000000     
  0.28125000000000000       0.37500000000000000        0.0000000000000000     
  0.31250000000000000       0.37500000000000000        0.0000000000000000     
  0.34375000000000000       0.37500000000000000        0.0000000000000000     
  0.37500000000000000       0.37500000000000000        0.0000000000000000     
  0.37500000000000000       0.25000000000000000        0.0000000000000000     
  0.40625000000000000       0.25000000000000000        0.0000000000000000     
  0.43750000000000000       0.25000000000000000        0.0000000000000000     
  0.46875000000000000       0.25000000000000000        0.0000000000000000     
  0.50000000000000000       0.25000000000000000        0.0000000000000000     
  0.37500000000000000       0.28125000000000000        0.0000000000000000     
  0.40625000000000000       0.28125000000000000        0.0000000000000000     
  0.43750000000000000       0.28125000000000000        0.0000000000000000     
  0.46875000000000000       0.28125000000000000        0.0000000000000000     
  0.50000000000000000       0.28125000000000000        0.0000000000000000     
  0.37500000000000000       0.31250000000000000        0.0000000000000000     
  0.40625000000000000       0.31250000000000000        0.0000000000000000     
  0.43750000000000000       0.31250000000000000        0.0000000000000000     
  0.46875000000000000       0.31250000000000000        0.0000000000000000     
  0.50000000000000000       0.31250000000000000        0.0000000000000000     
  0.37500000000000000       0.34375000000000000        0.0000000000000000     
  0.40625000000000000       0.34375000000000000        0.0000000000000000     
  0.43750000000000000       0.34375000000000000        0.0000000000000000     
  0.46875000000000000       0.34375000000000000        0.0000000000000000     
  0.50000000000000000       0.34375000000000000        0.0000000000000000     
  0.37500000000000000       0.37500000000000000        0.0000000000000000     
  0.40625000000000000       0.37500000000000000        0.0000000000000000     
  0.43750000000000000       0.37500000000000000        0.0000000000000000     
  0.46875000000000000       0.37500000000000000        0.0000000000000000     
  0.50000000000000000       0.37500000000000000        0.0000000000000000     
  0.50000000000000000       0.25000000000000000        0.0000000000000000     
  0.53125000000000000       0.25000000000000000        0.0000000000000000     
  0.56250000000000000       0.25000000000000000        0.0000000000000000     
  0.59375000000000000       0.25000000000000000        0.0000000000000000     
  0.62500000000000000       0.25000000000000000        0.0000000000000000     
  0.50000000000000000       0.28125000000000000        0.0000000000000000     
  0.53125000000000000       0.28125000000000000        0.0000000000000000     
  0.56250000000000000       0.28125000000000000        0.0000000000000000     
  0.59375000000000000       0.28125000000000000        0.0000000000000000     
  0.62500000000000000       0.28125000000000000        0.0000000000000000     
  0.50000000000000000       0.31250000000000000        0.0000000000000000     
  0.53125000000000000       0.31250000000000000        0.0000000000000000     
  0.56250000000000000       0.31250000000000000        0.0000000000000000     
  0.59375000000000000       0.31250000000000000        0.0000000000000000     
  0.62500000000000000       0.31250000000000000        0.0000000000000000     
  0.50000000000000000       0.34375000000000000        0.0000000000000000     
  0.53125000000000000       0.34375000000000000        0.0000000000000000     
  0.56250000000000000       0.34375000000000000        0.0000000000000000     
  0.59375000000000000       0.34375000000000000        0.0000000000000000     
  0.62500000000000000       0.34375000000000000        0.0000000000000000     
  0.50000000000000000       0.37500000000000000        0.0000000000000000     
  0.53125000000000000       0.37500000000000000        0.0000000000000000     
  0.56250000000000000       0.37500000000000000        0.0000000000000000     
  0.59375000000000000       0.37500000000000000        0.0000000000000000     
  0.62500000000000000       0.37500000000000000        0.0000000000000000     
  0.62500000000000000       0.25000000000000000        0.0000000000000000     
  0.65625000000000000       0.25000000000000000        0.0000000000000000     
  0.68750000000000000       0.25000000000000000        0.0000000000000000     
  0.71875000000000000       0.25000000000000000        0.0000000000000000     
  0.75000000000000000       0.25000000000000000        0.0000000000000000     
  0.62500000000000000       0.28125000000000000        0.0000000000000000     
  0.65625000000000000       0.28125000000000000        0.0000000000000000     
  0.68750000000000000       0.28125000000000000        0.0000000000000000     
  0.71875000000000000       0.28125000000000000        0.0000000000000000     
  0.75000000000000000       0.28125000000000000        0.0000000000000000     
  0.62500000000000000       0.31250000000000000        0.0000000000000000     
  0.65625000000000000       0.31250000000000000        0.0000000000000000     
  0.68750000000000000       0.31250000000000000        0.0000000000000000     
  0.71875000000000000       0.31250000000000000        0.0000000000000000     
  0.75000000000000000       0.31250000000000000        0.0000000000000000     
  0.62500000000000000       0.34375000000000000        0.0000000000000000     
  0.65625000000000000       0.34375000000000000        0.0000000000000000     
  0.68750000000000000       0.34375000000000000        0.0000000000000000     
  0.71875000000000000       0.34375000000000000        0.0000000000000000     
  0.75000000000000000       0.34375000000000000        0.0000000000000000     
  0.62500000000000000       0.37500000000000000        0.0000000000000000     
  0.65625000000000000       0.37500000000000000        0.0000000000000000     
  0.68750000000000000       0.37500000000000000        0.0000000000000000     
  0.71875000000000000       0.37500000000000000        0.0000000000000000     
  0.75000000000000000       0.37500000000000000        0.0000000000000000     
  0.75000000000000000       0.25000000000000000        0.0000000000000000     
  0.78125000000000000       0.25000000000000000        0.0000000000000000     
  0.81250000000000000       0.25000000000000000        0.0000000000000000     
  0.84375000000000000       0.25000000000000000        0.0000000000000000     
  0.87500000000000000       0.25000000000000000        0.0000000000000000     
  0.75000000000000000       0.28125000000000000        0.0000000000000000     
  0.78125000000000000       0.28125000000000000        0.0000000000000000     
  0.81250000000000000       0.28125000000000000        0.0000000000000000     
  0.84375000000000000       0.28125000000000000        0.0000000000000000     
  0.87500000000000000       0.28125000000000000        0.0000000000000000     
  0.75000000000000000       0.31250000000000000        0.0000000000000000     
  0.78125000000000000       0.31250000000000000        0.0000000000000000     
  0.81250000000000000       0.31250000000000000        0.0000000000000000     
  0.84375000000000000       0.31250000000000000        0.0000000000000000     
  0.87500000000000000       0.31250000000000000        0.0000000000000000     
  0.75000000000000000       0.34375000000000000        0.0000000000000000     
  0.78125000000000000       0.34375000000000000        0.0000000000000000     
  0.81250000000000000       0.34375000000000000        0.0000000000000000     
  0.84375000000000000       0.34375000000000000        0.0000000000000000     
  0.87500000000000000       0.34375000000000000        0.0000000000000000     
  0.75000000000000000       0.37500000000000000        0.0000000000000000     
  0.78125000000000000       0.37500000000000000        0.0000000000000000     
  0.81250000000000000       0.37500000000000000        0.0000000000000000     
  0.84375000000000000       0.37500000000000000        0.0000000000000000     
  0.87500000000000000       0.37500000000000000        0.0000000000000000     
  0.87500000000000000       0.25000000000000000        0.0000000000000000     
  0.90625000000000000       0.25000000000000000        0.0000000000000000     
  0.93750000000000000       0.25000000000000000        0.0000000000000000     
  0.96875000000000000       0.25000000000000000        0.0000000000000000     
   1.0000000000000000       0.25000000000000000        0.0000000000000000     
  0.87500000000000000       0.28125000000000000        0.0000000000000000     
  0.90625000000000000       0.28125000000000000        0.0000000000000000     
  0.93750000000000000       0.28125000000000000        0.0000000000000000     
  0.96875000000000000       0.28125000000000000        0.0000000000000000     
   1.0000000000000000       0.28125000000000000        0.0000000000000000     
  0.87500000000000000       0.31250000000000000        0.0000000000000000     
  0.90625000000000000       0.31250000000000000        0.0000000000000000     
  0.93750000000000000       0.31250000000000000        0.0000000000000000     
  0.96875000000000000       0.31250000000000000        0.0000000000000000     
   1.0000000000000000       0.31250000000000000        0.0000000000000000     
  0.87500000000000000       0.34375000000000000        0.0000000000000000     
  0.90625000000000000       0.34375000000000000        0.0000000000000000     
  0.93750000000000000       0.34375000000000000        0.0000000000000000     
  0.96875000000000000       0.34375000000000000        0.0000000000000000     
   1.0000000000000000       0.34375000000000000        0.0000000000000000     
  0.87500000000000000       0.37500000000000000        0.0000000000000000     
  0.90625000000000000       0.37500000000000000        0.0000000000000000     
  0.93750000000000000       0.37500000000000000        0.0000000000000000     
  0.96875000000000000       0.37500000000000000        0.0000000000000000     
   1.0000000000000000       0.37500000000000000        0.0000000000000000     
   0.0000000000000000       0.37500000000000000        0.0000000000000000     
   3.1250000000000000E-002  0.37500000000000000        0.0000000000000000     
   6.2500000000000000E-002  0.37500000000000000        0.0000000000000000     
   9.3750000000000000E-002  0.37500000000000000        0.0000000000000000     
  0.12500000000000000       0.37500000000000000        0.0000000000000000     
   0.0000000000000000       0.40625000000000000        0.0000000000000000     
   3.1250000000000000E-002  0.40625000000000000        0.0000000000000000     
   6.2500000000000000E-002  0.40625000000000000        0.0000000000000000     
   9.3750000000000000E-002  0.40625000000000000        0.0000000000000000     
  0.12500000000000000       0.40625000000000000        0.0000000000000000     
   0.0000000000000000       0.43750000000000000        0.0000000000000000     
   3.1250000000000000E-002  0.43750000000000000        0.0000000000000000     
   6.2500000000000000E-002  0.43750000000000000        0.0000000000000000     
   9.3750000000000000E-002  0.43750000000000000        0.0000000000000000     
  0.12500000000000000       0.43750000000000000        0.0000000000000000     
   0.0000000000000000       0.46875000000000000        0.0000000000000000     
   3.1250000000000000E-002  0.46875000000000000        0.0000000000000000     
   6.2500000000000000E-002  0.46875000000000000        0.0000000000000000     
   9.3750000000000000E-002  0.46875000000000000        0.0000000000000000     
  0.12500000000000000       0.46875000000000000        0.0000000000000000     
   0.0000000000000000       0.50000000000000000        0.0000000000000000     
   3.1250000000000000E-002  0.50000000000000000        0.0000000000000000     
   6.2500000000000000E-002  0.50000000000000000        0.0000000000000000     
   9.3750000000000000E-002  0.50000000000000000        0.0000000000000000     
  0.12500000000000000       0.50000000000000000        0.0000000000000000     
  0.12500000000000000       0.37500000000000000        0.0000000000000000     
  0.15625000000000000       0.37500000000000000        0.0000000000000000     
  0.18750000000000000       0.37500000000000000        0.0000000000000000     
  0.21875000000000000       0.37500000000000000        0.0000000000000000     
  0.25000000000000000       0.37500000000000000        0.0000000000000000     
  0.12500000000000000       0.40625000000000000        0.0000000000000000     
  0.15625000000000000       0.40625000000000000        0.0000000000000000     
  0.18750000000000000       0.40625000000000000        0.0000000000000000     
  0.21875000000000000       0.40625000000000000        0.0000000000000000     
  0.25000000000000000       0.40625000000000000        0.0000000000000000     
  0.12500000000000000       0.43750000000000000        0.0000000000000000     
  0.15625000000000000       0.43750000000000000        0.0000000000000000     
  0.18750000000000000       0.43750000000000000        0.0000000000000000     
  0.21875000000000000       0.43750000000000000        0.0000000000000000     
  0.25000000000000000       0.43750000000000000        0.0000000000000000     
  0.12500000000000000       0.46875000000000000        0.0000000000000000     
  0.15625000000000000       0.46875000000000000        0.0000000000000000     
  0.18750000000000000       0.46875000000000000        0.0000000000000000     
  0.21875000000000000       0.46875000000000000        0.0000000000000000     
  0.25000000000000000       0.46875000000000000        0.0000000000000000     
  0.12500000000000000       0.50000000000000000        0.0000000000000000     
  0.15625000000000000       0.50000000000000000        0.0000000000000000     
  0.18750000000000000       0.50000000000000000        0.0000000000000000     
  0.21875000000000000       0.50000000000000000        0.0000000000000000     
  0.25000000000000000       0.50000000000000000        0.0000000000000000     
  0.25000000000000000       0.37500000000000000        0.0000000000000000     
  0.28125000000000000       0.37500000000000000        0.0000000000000000     
  0.31250000000000000       0.37500000000000000        0.0000000000000000     
  0.34375000000000000       0.37500000000000000        0.0000000000000000     
  0.37500000000000000       0.37500000000000000        0.0000000000000000     
  0.25000000000000000       0.40625000000000000        0.0000000000000000     
  0.28125000000000000       0.40625000000000000        0.0000000000000000     
  0.31250000000000000       0.40625000000000000        0.0000000000000000     
  0.34375000000000000       0.40625000000000000        0.0000000000000000     
  0.37500000000000000       0.40625000000000000        0.0000000000000000     
  0.25000000000000000       0.43750000000000000        0.0000000000000000     
  0.28125000000000000       0.43750000000000000        0.0000000000000000     
  0.31250000000000000       0.43750000000000000        0.0000000000000000     
  0.34375000000000000       0.43750000000000000        0.0000000000000000     
  0.37500000000000000       0.43750000000000000        0.0000000000000000     
  0.25000000000000000       0.46875000000000000        0.0000000000000000     
  0.28125000000000000       0.46875000000000000        0.0000000000000000     
  0.31250000000000000       0.46875000000000000        0.0000000000000000     
  0.34375000000000000       0.46875000000000000        0.0000000000000000     
  0.37500000000000000       0.46875000000000000        0.0000000000000000     
  0.25000000000000000       0.50000000000000000        0.0000000000000000     
  0.28125000000000000       0.50000000000000000        0.0000000000000000     
  0.31250000000000000       0.50000000000000000        0.0000000000000000     
  0.34375000000000000       0.50000000000000000        0.0000000000000000     
  0.37500000000000000       0.50000000000000000        0.0000000000000000     
  0.37500000000000000       0.37500000000000000        0.0000000000000000     
  0.40625000000000000       0.37500000000000000        0.0000000000000000     
  0.43750000000000000       0.37500000000000000        0.0000000000000000     
  0.46875000000000000       0.37500000000000000        0.0000000000000000     
  0.50000000000000000       0.37500000000000000        0.0000000000000000     
  0.37500000000000000       0.40625000000000000        0.0000000000000000     
  0.40625000000000000       0.40625000000000000        0.0000000000000000     
  0.43750000000000000       0.40625000000000000        0.0000000000000000     
  0.46875000000000000       0.40625000000000000        0.0000000000000000     
  0.50000000000000000       0.40625000000000000        0.0000000000000000     
  0.37500000000000000       0.43750000000000000        0.0000000000000000     
  0.40625000000000000       0.43750000000000000        0.0000000000000000     
  0.43750000000000000       0.43750000000000000        0.0000000000000000     
  0.46875000000000000       0.43750000000000000        0.0000000000000000     
  0.50000000000000000       0.43750000000000000        0.0000000000000000     
  0.37500000000000000       0.46875000000000000        0.0000000000000000     
  0.40625000000000000       0.46875000000000000        0.0000000000000000     
  0.43750000000000000       0.46875000000000000        0.0000000000000000     
  0.46875000000000000       0.46875000000000000        0.0000000000000000     
  0.50000000000000000       0.46875000000000000        0.0000000000000000     
  0.37500000000000000       0.50000000000000000        0.0000000000000000     
  0.40625000000000000       0.50000000000000000        0.0000000000000000     
  0.43750000000000000       0.50000000000000000        0.0000000000000000     
  0.46875000000000000       0.50000000000000000        0.0000000000000000     
  0.50000000000000000       0.50000000000000000        0.0000000000000000     
  0.50000000000000000       0.37500000000000000        0.0000000000000000     
  0.53125000000000000       0.37500000000000000        0.0000000000000000     
  0.56250000000000000       0.37500000000000000        0.0000000000000000     
  0.59375000000000000       0.37500000000000000        0.0000000000000000     
  0.62500000000000000       0.37500000000000000        0.0000000000000000     
  0.50000000000000000       0.40625000000000000        0.0000000000000000     
  0.53125000000000000       0.40625000000000000        0.0000000000000000     
  0.56250000000000000       0.40625000000000000        0.0000000000000000     
  0.59375000000000000       0.40625000000000000        0.0000000000000000     
  0.62500000000000000       0.40625000000000000        0.0000000000000000     
  0.50000000000000000       0.43750000000000000        0.0000000000000000     
  0.53125000000000000       0.43750000000000000        0.0000000000000000     
  0.56250000000000000       0.43750000000000000        0.0000000000000000     
  0.59375000000000000       0.43750000000000000        0.0000000000000000     
  0.62500000000000000       0.43750000000000000        0.0000000000000000     
  0.50000000000000000       0.46875000000000000        0.0000000000000000     
  0.53125000000000000       0.46875000000000000        0.0000000000000000     
  0.56250000000000000       0.46875000000000000        0.0000000000000000     
  0.59375000000000000       0.46875000000000000        0.0000000000000000     
  0.62500000000000000       0.46875000000000000        0.0000000000000000     
  0.50000000000000000       0.50000000000000000        0.0000000000000000     
  0.53125000000000000       0.50000000000000000        0.0000000000000000     
  0.56250000000000000       0.50000000000000000        0.0000000000000000     
  0.59375000000000000       0.50000000000000000        0.0000000000000000     
  0.62500000000000000       0.50000000000000000        0.0000000000000000     
  0.62500000000000000       0.37500000000000000        0.0000000000000000     
  0.65625000000000000       0.37500000000000000        0.0000000000000000     
  0.68750000000000000       0.37500000000000000        0.0000000000000000     
  0.71875000000000000       0.37500000000000000        0.0000000000000000     
  0.75000000000000000       0.37500000000000000        0.0000000000000000     
  0.62500000000000000       0.40625000000000000        0.0000000000000000     
  0.65625000000000000       0.40625000000000000        0.0000000000000000     
  0.68750000000000000       0.40625000000000000        0.0000000000000000     
  0.71875000000000000       0.40625000000000000        0.0000000000000000     
  0.75000000000000000       0.40625000000000000        0.0000000000000000     
  0.62500000000000000       0.43750000000000000        0.0000000000000000     
  0.65625000000000000       0.43750000000000000        0.0000000000000000     
  0.68750000000000000       0.43750000000000000        0.0000000000000000     
  0.71875000000000000       0.43750000000000000        0.0000000000000000     
  0.75000000000000000       0.43750000000000000        0.0000000000000000     
  0.62500000000000000       0.46875000000000000        0.0000000000000000     
  0.65625000000000000       0.46875000000000000        0.0000000000000000     
  0.68750000000000000       0.46875000000000000        0.0000000000000000     
  0.71875000000000000       0.46875000000000000        0.0000000000000000     
  0.75000000000000000       0.46875000000000000        0.0000000000000000     
  0.62500000000000000       0.50000000000000000        0.0000000000000000     
  0.65625000000000000       0.50000000000000000        0.0000000000000000     
  0.68750000000000000       0.50000000000000000        0.0000000000000000     
  0.71875000000000000       0.50000000000000000        0.0000000000000000     
  0.75000000000000000       0.50000000000000000        0.0000000000000000     
  0.75000000000000000       0.37500000000000000        0.0000000000000000     
  0.78125000000000000       0.37500000000000000        0.0000000000000000     
  0.81250000000000000       0.37500000000000000        0.0000000000000000     
  0.84375000000000000       0.37500000000000000        0.0000000000000000     
  0.87500000000000000       0.37500000000000000        0.0000000000000000     
  0.75000000000000000       0.40625000000000000        0.0000000000000000     
  0.78125000000000000       0.40625000000000000        0.0000000000000000     
  0.81250000000000000       0.40625000000000000        0.0000000000000000     
  0.84375000000000000       0.40625000000000000        0.0000000000000000     
  0.87500000000000000       0.40625000000000000        0.0000000000000000     
  0.75000000000000000       0.43750000000000000        0.0000000000000000     
  0.78125000000000000       0.43750000000000000        0.0000000000000000     
  0.81250000000000000       0.43750000000000000        0.0000000000000000     
  0.84375000000000000       0.43750000000000000        0.0000000000000000     
  0.87500000000000000       0.43750000000000000        0.0000000000000000     
  0.75000000000000000       0.46875000000000000        0.0000000000000000     
  0.78125000000000000       0.46875000000000000        0.0000000000000000     
  0.81250000000000000       0.46875000000000000        0.0000000000000000     
  0.84375000000000000       0.46875000000000000        0.0000000000000000     
  0.87500000000000000       0.46875000000000000        0.0000000000000000     
  0.75000000000000000       0.50000000000000000        0.0000000000000000     
  0.78125000000000000       0.50000000000000000        0.0000000000000000     
  0.81250000000000000       0.50000000000000000        0.0000000000000000     
  0.84375000000000000       0.50000000000000000        0.0000000000000000     
  0.87500000000000000       0.50000000000000000        0.0000000000000000     
  0.87500000000000000       0.37500000000000000        0.0000000000000000     
  0.90625000000000000       0.37500000000000000        0.0000000000000000     
  0.93750000000000000       0.37500000000000000        0.0000000000000000     
  0.96875000000000000       0.37500000000000000        0.0000000000000000     
   1.0000000000000000       0.37500000000000000        0.0000000000000000     
  0.87500000000000000       0.40625000000000000        0.0000000000000000     
  0.90625000000000000       0.40625000000000000        0.0000000000000000     
  0.93750000000000000       0.40625000000000000        0.0000000000000000     
  0.96875000000000000       0.40625000000000000        0.0000000000000000     
   1.0000000000000000       0.40625000000000000        0.0000000000000000     
  0.87500000000000000       0.43750000000000000        0.0000000000000000     
  0.90625000000000000       0.43750000000000000        0.0000000000000000     
  0.93750000000000000       0.43750000000000000        0.0000000000000000     
  0.96875000000000000       0.43750000000000000        0.0000000000000000     
   1.0000000000000000       0.43750000000000000        0.0000000000000000     
  0.87500000000000000       0.46875000000000000        0.0000000000000000     
  0.90625000000000000       0.46875000000000000        0.0000000000000000     
  0.93750000000000000       0.46875000000000000        0.0000000000000000     
  0.96875000000000000       0.46875000000000000        0.0000000000000000     
   1.0000000000000000       0.46875000000000000        0.0000000000000000     
  0.87500000000000000       0.50000000000000000        0.0000000000000000     
  0.90625000000000000       0.50000000000000000        0.0000000000000000     
  0.93750000000000000       0.50000000000000000        0.0000000000000000     
  0.96875000000000000       0.50000000000000000        0.0000000000000000     
   1.0000000000000000       0.50000000000000000        0.0000000000000000     
   0.0000000000000000       0.50000000000000000        0.0000000000000000     
   3.1250000000000000E-002  0.50000000000000000        0.0000000000000000     
   6.2500000000000000E-002  0.50000000000000000        0.0000000000000000     
   9.3750000000000000E-002  0.50000000000000000        0.0000000000000000     
  0.12500000000000000       0.50000000000000000        0.0000000000000000     
   0.0000000000000000       0.53125000000000000        0.0000000000000000     
   3.1250000000000000E-002  0.53125000000000000        0.0000000000000000     
   6.2500000000000000E-002  0.53125000000000000        0.0000000000000000     
   9.3750000000000000E-002  0.53125000000000000        0.0000000000000000     
  0.12500000000000000       0.53125000000000000        0.0000000000000000     
   0.0000000000000000       0.56250000000000000        0.0000000000000000     
   3.1250000000000000E-002  0.56250000000000000        0.0000000000000000     
   6.2500000000000000E-002  0.56250000000000000        0.0000000000000000     
   9.3750000000000000E-002  0.56250000000000000        0.0000000000000000     
  0.12500000000000000       0.56250000000000000        0.0000000000000000     
   0.0000000000000000       0.59375000000000000        0.0000000000000000     
   3.1250000000000000E-002  0.59375000000000000        0.0000000000000000     
   6.2500000000000000E-002  0.59375000000000000        0.0000000000000000     
   9.3750000000000000E-002  0.59375000000000000        0.0000000000000000     
  0.12500000000000000       0.59375000000000000        0.0000000000000000     
   0.0000000000000000       0.62500000000000000        0.0000000000000000     
   3.1250000000000000E-002  0.62500000000000000        0.0000000000000000     
   6.2500000000000000E-002  0.62500000000000000        0.0000000000000000     
   9.3750000000000000E-002  0.62500000000000000        0.0000000000000000     
  0.12500000000000000       0.62500000000000000        0.0000000000000000     
  0.12500000000000000       0.50000000000000000        0.0000000000000000     
  0.15625000000000000       0.50000000000000000        0.0000000000000000     
  0.18750000000000000       0.50000000000000000        0.0000000000000000     
  0.21875000000000000       0.50000000000000000        0.0000000000000000     
  0.25000000000000000       0.50000000000000000        0.0000000000000000     
  0.12500000000000000       0.53125000000000000        0.0000000000000000     
  0.15625000000000000       0.53125000000000000        0.0000000000000000     
  0.18750000000000000       0.53125000000000000        0.0000000000000000     
  0.21875000000000000       0.53125000000000000        0.0000000000000000     
  0.25000000000000000       0.53125000000000000        0.0000000000000000     
  0.12500000000000000       0.56250000000000000        0.0000000000000000     
  0.15625000000000000       0.56250000000000000        0.0000000000000000     
  0.18750000000000000       0.56250000000000000        0.0000000000000000     
  0.21875000000000000       0.56250000000000000        0.0000000000000000     
  0.25000000000000000       0.56250000000000000        0.0000000000000000     
  0.12500000000000000       0.59375000000000000        0.0000000000000000     
  0.15625000000000000       0.59375000000000000        0.0000000000000000     
  0.18750000000000000       0.59375000000000000        0.0000000000000000     
  0.21875000000000000       0.59375000000000000        0.0000000000000000     
  0.25000000000000000       0.59375000000000000        0.0000000000000000     
  0.12500000000000000       0.62500000000000000        0.0000000000000000     
  0.15625000000000000       0.62500000000000000        0.0000000000000000     
  0.18750000000000000       0.62500000000000000        0.0000000000000000     
  0.21875000000000000       0.62500000000000000        0.0000000000000000     
  0.25000000000000000       0.62500000000000000        0.0000000000000000     
  0.25000000000000000       0.50000000000000000        0.0000000000000000     
  0.28125000000000000       0.50000000000000000        0.0000000000000000     
  0.31250000000000000       0.50000000000000000        0.0000000000000000     
  0.34375000000000000       0.50000000000000000        0.0000000000000000     
  0.37500000000000000       0.50000000000000000        0.0000000000000000     
  0.25000000000000000       0.53125000000000000        0.0000000000000000     
  0.28125000000000000       0.53125000000000000        0.0000000000000000     
  0.31250000000000000       0.53125000000000000        0.0000000000000000     
  0.34375000000000000       0.53125000000000000        0.0000000000000000     
  0.37500000000000000       0.53125000000000000        0.0000000000000000     
  0.25000000000000000       0.56250000000000000        0.0000000000000000     
  0.28125000000000000       0.56250000000000000        0.0000000000000000     
  0.31250000000000000       0.56250000000000000        0.0000000000000000     
  0.34375000000000000       0.56250000000000000        0.0000000000000000     
  0.37500000000000000       0.56250000000000000        0.0000000000000000     
  0.25000000000000000       0.59375000000000000        0.0000000000000000     
  0.28125000000000000       0.59375000000000000        0.0000000000000000     
  0.31250000000000000       0.59375000000000000        0.0000000000000000     
  0.34375000000000000       0.59375000000000000        0.0000000000000000     
  0.37500000000000000       0.59375000000000000        0.0000000000000000     
  0.25000000000000000       0.62500000000000000        0.0000000000000000     
  0.28125000000000000       0.62500000000000000        0.0000000000000000     
  0.31250000000000000       0.62500000000000000        0.0000000000000000     
  0.34375000000000000       0.62500000000000000        0.0000000000000000     
  0.37500000000000000       0.62500000000000000        0.0000000000000000     
  0.37500000000000000       0.50000000000000000        0.0000000000000000     
  0.40625000000000000       0.50000000000000000        0.0000000000000000     
  0.43750000000000000       0.50000000000000000        0.0000000000000000     
  0.46875000000000000       0.50000000000000000        0.0000000000000000     
  0.50000000000000000       0.50000000000000000        0.0000000000000000     
  0.37500000000000000       0.53125000000000000        0.0000000000000000     
  0.40625000000000000       0.53125000000000000        0.0000000000000000     
  0.43750000000000000       0.53125000000000000        0.0000000000000000     
  0.46875000000000000       0.53125000000000000        0.0000000000000000     
  0.50000000000000000       0.53125000000000000        0.0000000000000000     
  0.37500000000000000       0.56250000000000000        0.0000000000000000     
  0.40625000000000000       0.56250000000000000        0.0000000000000000     
  0.43750000000000000       0.56250000000000000        0.0000000000000000     
  0.46875000000000000       0.56250000000000000        0.0000000000000000     
  0.50000000000000000       0.56250000000000000        0.0000000000000000     
  0.37500000000000000       0.59375000000000000        0.0000000000000000     
  0.40625000000000000       0.59375000000000000        0.0000000000000000     
  0.43750000000000000       0.59375000000000000        0.0000000000000000     
  0.46875000000000000       0.59375000000000000        0.0000000000000000     
  0.50000000000000000       0.59375000000000000        0.0000000000000000     
  0.37500000000000000       0.62500000000000000        0.0000000000000000     
  0.40625000000000000       0.62500000000000000        0.0000000000000000     
  0.43750000000000000       0.62500000000000000        0.0000000000000000     
  0.46875000000000000       0.62500000000000000        0.0000000000000000     
  0.50000000000000000       0.62500000000000000        0.0000000000000000     
  0.50000000000000000       0.50000000000000000        0.0000000000000000     
  0.53125000000000000       0.50000000000000000        0.0000000000000000     
  0.56250000000000000       0.50000000000000000        0.0000000000000000     
  0.59375000000000000       0.50000000000000000        0.0000000000000000     
  0.62500000000000000       0.50000000000000000        0.0000000000000000     
  0.50000000000000000       0.53125000000000000        0.0000000000000000     
  0.53125000000000000       0.53125000000000000        0.0000000000000000     
  0.56250000000000000       0.53125000000000000        0.0000000000000000     
  0.59375000000000000       0.53125000000000000        0.0000000000000000     
  0.62500000000000000       0.53125000000000000        0.0000000000000000     
  0.50000000000000000       0.56250000000000000        0.0000000000000000     
  0.53125000000000000       0.56250000000000000        0.0000000000000000     
  0.56250000000000000       0.56250000000000000        0.0000000000000000     
  0.59375000000000000       0.56250000000000000        0.0000000000000000     
  0.62500000000000000       0.56250000000000000        0.0000000000000000     
  0.50000000000000000       0.59375000000000000        0.0000000000000000     
  0.53125000000000000       0.59375000000000000        0.0000000000000000     
  0.56250000000000000       0.59375000000000000        0.0000000000000000     
  0.59375000000000000       0.59375000000000000        0.0000000000000000     
  0.62500000000000000       0.59375000000000000        0.0000000000000000     
  0.50000000000000000       0.62500000000000000        0.0000000000000000     
  0.53125000000000000       0.62500000000000000        0.0000000000000000     
  0.56250000000000000       0.62500000000000000        0.0000000000000000     
  0.59375000000000000       0.62500000000000000        0.0000000000000000     
  0.62500000000000000       0.62500000000000000        0.0000000000000000     
  0.62500000000000000       0.50000000000000000        0.0000000000000000     
  0.65625000000000000       0.50000000000000000        0.0000000000000000     
  0.68750000000000000       0.50000000000000000        0.0000000000000000     
  0.71875000000000000       0.50000000000000000        0.0000000000000000     
  0.75000000000000000       0.50000000000000000        0.0000000000000000     
  0.62500000000000000       0.53125000000000000        0.0000000000000000     
  0.65625000000000000       0.53125000000000000        0.0000000000000000     
  0.68750000000000000       0.53125000000000000        0.0000000000000000     
  0.71875000000000000       0.53125000000000000        0.0000000000000000     
  0.75000000000000000       0.53125000000000000        0.0000000000000000     
  0.62500000000000000       0.56250000000000000        0.0000000000000000     
  0.65625000000000000       0.56250000000000000        0.0000000000000000     
  0.68750000000000000       0.56250000000000000        0.0000000000000000     
  0.71875000000000000       0.56250000000000000        0.0000000000000000     
  0.75000000000000000       0.56250000000000000        0.0000000000000000     
  0.62500000000000000       0.59375000000000000        0.0000000000000000     
  0.65625000000000000       0.59375000000000000        0.0000000000000000     
  0.68750000000000000       0.59375000000000000        0.0000000000000000     
  0.71875000000000000       0.59375000000000000        0.0000000000000000     
  0.75000000000000000       0.59375000000000000        0.0000000000000000     
  0.62500000000000000       0.62500000000000000        0.0000000000000000     
  0.65625000000000000       0.62500000000000000        0.0000000000000000     
  0.68750000000000000       0.62500000000000000        0.0000000000000000     
  0.71875000000000000       0.62500000000000000        0.0000000000000000     
  0.75000000000000000       0.62500000000000000        0.0000000000000000     
  0.75000000000000000       0.50000000000000000        0.0000000000000000     
  0.78125000000000000       0.50000000000000000        0.0000000000000000     
  0.81250000000000000       0.50000000000000000        0.0000000000000000     
  0.84375000000000000       0.50000000000000000        0.0000000000000000     
  0.87500000000000000       0.50000000000000000        0.0000000000000000     
  0.75000000000000000       0.53125000000000000        0.0000000000000000     
  0.78125000000000000       0.53125000000000000        0.0000000000000000     
  0.81250000000000000       0.53125000000000000        0.0000000000000000     
  0.84375000000000000       0.53125000000000000        0.0000000000000000     
  0.87500000000000000       0.53125000000000000        0.0000000000000000     
  0.75000000000000000       0.56250000000000000        0.0000000000000000     
  0.78125000000000000       0.56250000000000000        0.0000000000000000     
  0.81250000000000000       0.56250000000000000        0.0000000000000000     
  0.84375000000000000       0.56250000000000000        0.0000000000000000     
  0.87500000000000000       0.56250000000000000        0.0000000000000000     
  0.75000000000000000       0.59375000000000000        0.0000000000000000     
  0.78125000000000000       0.59375000000000000        0.0000000000000000     
  0.81250000000000000       0.59375000000000000        0.0000000000000000     
  0.84375000000000000       0.59375000000000000        0.0000000000000000     
  0.87500000000000000       0.59375000000000000        0.0000000000000000     
  0.75000000000000000       0.62500000000000000        0.0000000000000000     
  0.78125000000000000       0.62500000000000000        0.0000000000000000     
  0.81250000000000000       0.62500000000000000        0.0000000000000000     
  0.84375000000000000       0.62500000000000000        0.0000000000000000     
  0.87500000000000000       0.62500000000000000        0.0000000000000000     
  0.87500000000000000       0.50000000000000000        0.0000000000000000     
  0.90625000000000000       0.50000000000000000        0.0000000000000000     
  0.93750000000000000       0.50000000000000000        0.0000000000000000     
  0.96875000000000000       0.50000000000000000        0.0000000000000000     
   1.0000000000000000       0.50000000000000000        0.0000000000000000     
  0.87500000000000000       0.53125000000000000        0.0000000000000000     
  0.90625000000000000       0.53125000000000000        0.0000000000000000     
  0.93750000000000000       0.53125000000000000        0.0000000000000000     
  0.96875000000000000       0.53125000000000000        0.0000000000000000     
   1.0000000000000000       0.53125000000000000        0.0000000000000000     
  0.87500000000000000       0.56250000000000000        0.0000000000000000     
  0.90625000000000000       0.56250000000000000        0.0000000000000000     
  0.93750000000000000       0.56250000000000000        0.0000000000000000     
  0.96875000000000000       0.56250000000000000        0.0000000000000000     
   1.0000000000000000       0.56250000000000000        0.0000000000000000     
  0.87500000000000000       0.59375000000000000        0.0000000000000000     
  0.90625000000000000       0.59375000000000000        0.0000000000000000     
  0.93750000000000000       0.59375000000000000        0.0000000000000000     
  0.96875000000000000       0.59375000000000000        0.0000000000000000     
   1.0000000000000000       0.59375000000000000        0.0000000000000000     
  0.87500000000000000       0.62500000000000000        0.0000000000000000     
  0.90625000000000000       0.62500000000000000        0.0000000000000000     
  0.93750000000000000       0.62500000000000000        0.0000000000000000     
  0.96875000000000000       0.62500000000000000        0.0000000000000000     
   1.0000000000000000       0.62500000000000000        0.0000000000000000     
   0.0000000000000000       0.62500000000000000        0.0000000000000000     
   3.1250000000000000E-002  0.62500000000000000        0.0000000000000000     
   6.2500000000000000E-002  0.62500000000000000        0.0000000000000000     
   9.3750000000000000E-002  0.62500000000000000        0.0000000000000000     
  0.12500000000000000       0.62500000000000000        0.0000000000000000     
   0.0000000000000000       0.65625000000000000        0.0000000000000000     
   3.1250000000000000E-002  0.65625000000000000        0.0000000000000000     
   6.2500000000000000E-002  0.65625000000000000        0.0000000000000000     
   9.3750000000000000E-002  0.65625000000000000        0.0000000000000000     
  0.12500000000000000       0.65625000000000000        0.0000000000000000     
   0.0000000000000000       0.68750000000000000        0.0000000000000000     
   3.1250000000000000E-002  0.68750000000000000        0.0000000000000000     
   6.2500000000000000E-002  0.68750000000000000        0.0000000000000000     
   9.3750000000000000E-002  0.68750000000000000        0.0000000000000000     
  0.12500000000000000       0.68750000000000000        0.0000000000000000     
   0.0000000000000000       0.71875000000000000        0.0000000000000000     
   3.1250000000000000E-002  0.71875000000000000        0.0000000000000000     
   6.2500000000000000E-002  0.71875000000000000        0.0000000000000000     
   9.3750000000000000E-002  0.71875000000000000        0.0000000000000000     
  0.12500000000000000       0.71875000000000000        0.0000000000000000     
   0.0000000000000000       0.75000000000000000        0.0000000000000000     
   3.1250000000000000E-002  0.75000000000000000        0.0000000000000000     
   6.2500000000000000E-002  0.75000000000000000        0.0000000000000000     
   9.3750000000000000E-002  0.75000000000000000        0.0000000000000000     
  0.12500000000000000       0.75000000000000000        0.0000000000000000     
  0.12500000000000000       0.62500000000000000        0.0000000000000000     
  0.15625000000000000       0.62500000000000000        0.0000000000000000     
  0.18750000000000000       0.62500000000000000        0.0000000000000000     
  0.21875000000000000       0.62500000000000000        0.0000000000000000     
  0.25000000000000000       0.62500000000000000        0.0000000000000000     
  0.12500000000000000       0.65625000000000000        0.0000000000000000     
  0.15625000000000000       0.65625000000000000        0.0000000000000000     
  0.18750000000000000       0.65625000000000000        0.0000000000000000     
  0.21875000000000000       0.65625000000000000        0.0000000000000000     
  0.25000000000000000       0.65625000000000000        0.0000000000000000     
  0.12500000000000000       0.68750000000000000        0.0000000000000000     
  0.15625000000000000       0.68750000000000000        0.0000000000000000     
  0.18750000000000000       0.68750000000000000        0.0000000000000000     
  0.21875000000000000       0.68750000000000000        0.0000000000000000     
  0.25000000000000000       0.68750000000000000        0.0000000000000000     
  0.12500000000000000       0.71875000000000000        0.0000000000000000     
  0.15625000000000000       0.71875000000000000        0.0000000000000000     
  0.18750000000000000       0.71875000000000000        0.0000000000000000     
  0.21875000000000000       0.71875000000000000        0.0000000000000000     
  0.25000000000000000       0.71875000000000000        0.0000000000000000     
  0.12500000000000000       0.75000000000000000        0.0000000000000000     
  0.15625000000000000       0.75000000000000000        0.0000000000000000     
  0.18750000000000000       0.75000000000000000        0.0000000000000000     
  0.21875000000000000       0.75000000000000000        0.0000000000000000     
  0.25000000000000000       0.75000000000000000        0.0000000000000000     
  0.25000000000000000       0.62500000000000000        0.0000000000000000     
  0.28125000000000000       0.62500000000000000        0.0000000000000000     
  0.31250000000000000       0.62500000000000000        0.0000000000000000     
  0.34375000000000000       0.62500000000000000        0.0000000000000000     
  0.37500000000000000       0.62500000000000000        0.0000000000000000     
  0.25000000000000000       0.65625000000000000        0.0000000000000000     
  0.28125000000000000       0.65625000000000000        0.0000000000000000     
  0.31250000000000000       0.65625000000000000        0.0000000000000000     
  0.34375000000000000       0.65625000000000000        0.0000000000000000     
  0.37500000000000000       0.65625000000000000        0.0000000000000000     
  0.25000000000000000       0.68750000000000000        0.0000000000000000     
  0.28125000000000000       0.68750000000000000        0.0000000000000000     
  0.31250000000000000       0.68750000000000000        0.0000000000000000     
  0.34375000000000000       0.68750000000000000        0.0000000000000000     
  0.37500000000000000       0.68750000000000000        0.0000000000000000     
  0.25000000000000000       0.71875000000000000        0.0000000000000000     
  0.28125000000000000       0.71875000000000000        0.0000000000000000     
  0.31250000000000000       0.71875000000000000        0.0000000000000000     
  0.34375000000000000       0.71875000000000000        0.0000000000000000     
  0.37500000000000000       0.71875000000000000        0.0000000000000000     
  0.25000000000000000       0.75000000000000000        0.0000000000000000     
  0.28125000000000000       0.75000000000000000        0.0000000000000000     
  0.31250000000000000       0.75000000000000000        0.0000000000000000     
  0.34375000000000000       0.75000000000000000        0.0000000000000000     
  0.37500000000000000       0.75000000000000000        0.0000000000000000     
  0.37500000000000000       0.62500000000000000        0.0000000000000000     
  0.40625000000000000       0.62500000000000000        0.0000000000000000     
  0.43750000000000000       0.62500000000000000        0.0000000000000000     
  0.46875000000000000       0.62500000000000000        0.0000000000000000     
  0.50000000000000000       0.62500000000000000        0.0000000000000000     
  0.37500000000000000       0.65625000000000000        0.0000000000000000     
  0.40625000000000000       0.65625000000000000        0.0000000000000000     
  0.43750000000000000       0.65625000000000000        0.0000000000000000     
  0.46875000000000000       0.65625000000000000        0.0000000000000000     
  0.50000000000000000       0.65625000000000000        0.0000000000000000     
  0.37500000000000000       0.68750000000000000        0.0000000000000000     
  0.40625000000000000       0.68750000000000000        0.0000000000000000     
  0.43750000000000000       0.68750000000000000        0.0000000000000000     
  0.46875000000000000       0.68750000000000000        0.0000000000000000     
  0.50000000000000000       0.68750000000000000        0.0000000000000000     
  0.37500000000000000       0.71875000000000000        0.0000000000000000     
  0.40625000000000000       0.71875000000000000        0.0000000000000000     
  0.43750000000000000       0.71875000000000000        0.0000000000000000     
  0.46875000000000000       0.71875000000000000        0.0000000000000000     
  0.50000000000000000       0.71875000000000000        0.0000000000000000     
  0.37500000000000000       0.75000000000000000        0.0000000000000000     
  0.40625000000000000       0.75000000000000000        0.0000000000000000     
  0.43750000000000000       0.75000000000000000        0.0000000000000000     
  0.46875000000000000       0.75000000000000000        0.0000000000000000     
  0.50000000000000000       0.75000000000000000        0.0000000000000000     
  0.50000000000000000       0.62500000000000000        0.0000000000000000     
  0.53125000000000000       0.62500000000000000        0.0000000000000000     
  0.56250000000000000       0.62500000000000000        0.0000000000000000     
  0.59375000000000000       0.62500000000000000        0.0000000000000000     
  0.62500000000000000       0.62500000000000000        0.0000000000000000     
  0.50000000000000000       0.65625000000000000        0.0000000000000000     
  0.53125000000000000       0.65625000000000000        0.0000000000000000     
  0.56250000000000000       0.65625000000000000        0.0000000000000000     
  0.59375000000000000       0.65625000000000000        0.0000000000000000     
  0.62500000000000000       0.65625000000000000        0.0000000000000000     
  0.50000000000000000       0.68750000000000000        0.0000000000000000     
  0.53125000000000000       0.68750000000000000        0.0000000000000000     
  0.56250000000000000       0.68750000000000000        0.0000000000000000     
  0.59375000000000000       0.68750000000000000        0.0000000000000000     
  0.62500000000000000       0.68750000000000000        0.0000000000000000     
  0.50000000000000000       0.71875000000000000        0.0000000000000000     
  0.53125000000000000       0.71875000000000000        0.0000000000000000     
  0.56250000000000000       0.71875000000000000        0.0000000000000000     
  0.59375000000000000       0.71875000000000000        0.0000000000000000     
  0.62500000000000000       0.71875000000000000        0.0000000000000000     
  0.50000000000000000       0.75000000000000000        0.0000000000000000     
  0.53125000000000000       0.75000000000000000        0.0000000000000000     
  0.56250000000000000       0.75000000000000000        0.0000000000000000     
  0.59375000000000000       0.75000000000000000        0.0000000000000000     
  0.62500000000000000       0.75000000000000000        0.0000000000000000     
  0.62500000000000000       0.62500000000000000        0.0000000000000000     
  0.65625000000000000       0.62500000000000000        0.0000000000000000     
  0.68750000000000000       0.62500000000000000        0.0000000000000000     
  0.71875000000000000       0.62500000000000000        0.0000000000000000     
  0.75000000000000000       0.62500000000000000        0.0000000000000000     
  0.62500000000000000       0.65625000000000000        0.0000000000000000     
  0.65625000000000000       0.65625000000000000        0.0000000000000000     
  0.68750000000000000       0.65625000000000000        0.0000000000000000     
  0.71875000000000000       0.65625000000000000        0.0000000000000000     
  0.75000000000000000       0.65625000000000000        0.0000000000000000     
  0.62500000000000000       0.68750000000000000        0.0000000000000000     
  0.65625000000000000       0.68750000000000000        0.0000000000000000     
  0.68750000000000000       0.68750000000000000        0.0000000000000000     
  0.71875000000000000       0.68750000000000000        0.0000000000000000     
  0.75000000000000000       0.68750000000000000        0.0000000000000000     
  0.62500000000000000       0.71875000000000000        0.0000000000000000     
  0.65625000000000000       0.71875000000000000        0.0000000000000000     
  0.68750000000000000       0.71875000000000000        0.0000000000000000     
  0.71875000000000000       0.71875000000000000        0.0000000000000000     
  0.75000000000000000       0.71875000000000000        0.0000000000000000     
  0.62500000000000000       0.75000000000000000        0.0000000000000000     
  0.65625000000000000       0.75000000000000000        0.0000000000000000     
  0.68750000000000000       0.75000000000000000        0.0000000000000000     
  0.71875000000000000       0.75000000000000000        0.0000000000000000     
  0.75000000000000000       0.75000000000000000        0.0000000000000000     
  0.75000000000000000       0.62500000000000000        0.0000000000000000     
  0.78125000000000000       0.62500000000000000        0.0000000000000000     
  0.81250000000000000       0.62500000000000000        0.0000000000000000     
  0.84375000000000000       0.62500000000000000        0.0000000000000000     
  0.87500000000000000       0.62500000000000000        0.0000000000000000     
  0.75000000000000000       0.65625000000000000        0.0000000000000000     
  0.78125000000000000       0.65625000000000000        0.0000000000000000     
  0.81250000000000000       0.65625000000000000        0.0000000000000000     
  0.84375000000000000       0.65625000000000000        0.0000000000000000     
  0.87500000000000000       0.65625000000000000        0.0000000000000000     
  0.75000000000000000       0.68750000000000000        0.0000000000000000     
  0.78125000000000000       0.68750000000000000        0.0000000000000000     
  0.81250000000000000       0.68750000000000000        0.0000000000000000     
  0.84375000000000000       0.68750000000000000        0.0000000000000000     
  0.87500000000000000       0.68750000000000000        0.0000000000000000     
  0.75000000000000000       0.71875000000000000        0.0000000000000000     
  0.78125000000000000       0.71875000000000000        0.0000000000000000     
  0.81250000000000000       0.71875000000000000        0.0000000000000000     
  0.84375000000000000       0.71875000000000000        0.0000000000000000     
  0.87500000000000000       0.71875000000000000        0.0000000000000000     
  0.75000000000000000       0.75000000000000000        0.0000000000000000     
  0.78125000000000000       0.75000000000000000        0.0000000000000000     
  0.81250000000000000       0.75000000000000000        0.0000000000000000     
  0.84375000000000000       0.75000000000000000        0.0000000000000000     
  0.87500000000000000       0.75000000000000000        0.0000000000000000     
  0.87500000000000000       0.62500000000000000        0.0000000000000000     
  0.90625000000000000       0.62500000000000000        0.0000000000000000     
  0.93750000000000000       0.62500000000000000        0.0000000000000000     
  0.96875000000000000       0.62500000000000000        0.0000000000000000     
   1.0000000000000000       0.62500000000000000        0.0000000000000000     
  0.87500000000000000       0.65625000000000000        0.0000000000000000     
  0.90625000000000000       0.65625000000000000        0.0000000000000000     
  0.93750000000000000       0.65625000000000000        0.0000000000000000     
  0.96875000000000000       0.65625000000000000        0.0000000000000000     
   1.0000000000000000       0.65625000000000000        0.0000000000000000     
  0.87500000000000000       0.68750000000000000        0.0000000000000000     
  0.90625000000000000       0.68750000000000000        0.0000000000000000     
  0.93750000000000000       0.68750000000000000        0.0000000000000000     
  0.96875000000000000       0.68750000000000000        0.0000000000000000     
   1.0000000000000000       0.68750000000000000        0.0000000000000000     
  0.87500000000000000       0.71875000000000000        0.0000000000000000     
  0.90625000000000000       0.71875000000000000        0.0000000000000000     
  0.93750000000000000       0.71875000000000000        0.0000000000000000     
  0.96875000000000000       0.71875000000000000        0.0000000000000000     
   1.0000000000000000       0.71875000000000000        0.0000000000000000     
  0.87500000000000000       0.75000000000000000        0.0000000000000000     
  0.90625000000000000       0.75000000000000000        0.0000000000000000     
  0.93750000000000000       0.75000000000000000        0.0000000000000000     
  0.96875000000000000       0.75000000000000000        0.0000000000000000     
   1.0000000000000000       0.75000000000000000        0.0000000000000000     
   0.0000000000000000       0.75000000000000000        0.0000000000000000     
   3.1250000000000000E-002  0.75000000000000000        0.0000000000000000     
   6.2500000000000000E-002  0.75000000000000000        0.0000000000000000     
   9.3750000000000000E-002  0.75000000000000000        0.0000000000000000     
  0.12500000000000000       0.75000000000000000        0.0000000000000000     
   0.0000000000000000       0.78125000000000000        0.0000000000000000     
   3.1250000000000000E-002  0.78125000000000000        0.0000000000000000     
   6.2500000000000000E-002  0.78125000000000000        0.0000000000000000     
   9.3750000000000000E-002  0.78125000000000000        0.0000000000000000     
  0.12500000000000000       0.78125000000000000        0.0000000000000000     
   0.0000000000000000       0.81250000000000000        0.0000000000000000     
   3.1250000000000000E-002  0.81250000000000000        0.0000000000000000     
   6.2500000000000000E-002  0.81250000000000000        0.0000000000000000     
   9.3750000000000000E-002  0.81250000000000000        0.0000000000000000     
  0.12500000000000000       0.81250000000000000        0.0000000000000000     
   0.0000000000000000       0.84375000000000000        0.0000000000000000     
   3.1250000000000000E-002  0.84375000000000000        0.0000000000000000     
   6.2500000000000000E-002  0.84375000000000000        0.0000000000000000     
   9.3750000000000000E-002  0.84375000000000000        0.0000000000000000     
  0.12500000000000000       0.84375000000000000        0.0000000000000000     
   0.0000000000000000       0.87500000000000000        0.0000000000000000     
   3.1250000000000000E-002  0.87500000000000000        0.0000000000000000     
   6.2500000000000000E-002  0.87500000000000000        0.0000000000000000     
   9.3750000000000000E-002  0.87500000000000000        0.0000000000000000     
  0.12500000000000000       0.87500000000000000        0.0000000000000000     
  0.12500000000000000       0.75000000000000000        0.0000000000000000     
  0.15625000000000000       0.75000000000000000        0.0000000000000000     
  0.18750000000000000       0.75000000000000000        0.0000000000000000     
  0.21875000000000000       0.75000000000000000        0.0000000000000000     
  0.25000000000000000       0.75000000000000000        0.0000000000000000     
  0.12500000000000000       0.78125000000000000        0.0000000000000000     
  0.15625000000000000       0.78125000000000000        0.0000000000000000     
  0.18750000000000000       0.78125000000000000        0.0000000000000000     
  0.21875000000000000       0.78125000000000000        0.0000000000000000     
  0.25000000000000000       0.78125000000000000        0.0000000000000000     
  0.12500000000000000       0.81250000000000000        0.0000000000000000     
  0.15625000000000000       0.81250000000000000        0.0000000000000000     
  0.18750000000000000       0.81250000000000000        0.0000000000000000     
  0.21875000000000000       0.81250000000000000        0.0000000000000000     
  0.25000000000000000       0.81250000000000000        0.0000000000000000     
  0.12500000000000000       0.84375000000000000        0.0000000000000000     
  0.15625000000000000       0.84375000000000000        0.0000000000000000     
  0.18750000000000000       0.84375000000000000        0.0000000000000000     
  0.21875000000000000       0.84375000000000000        0.0000000000000000     
  0.25000000000000000       0.84375000000000000        0.0000000000000000     
  0.12500000000000000       0.87500000000000000        0.0000000000000000     
  0.15625000000000000       0.87500000000000000        0.0000000000000000     
  0.18750000000000000       0.87500000000000000        0.0000000000000000     
  0.21875000000000000       0.87500000000000000        0.0000000000000000     
  0.25000000000000000       0.87500000000000000        0.0000000000000000     
  0.25000000000000000       0.75000000000000000        0.0000000000000000     
  0.28125000000000000       0.75000000000000000        0.0000000000000000     
  0.31250000000000000       0.75000000000000000        0.0000000000000000     
  0.34375000000000000       0.75000000000000000        0.0000000000000000     
  0.37500000000000000       0.75000000000000000        0.0000000000000000     
  0.25000000000000000       0.78125000000000000        0.0000000000000000     
  0.28125000000000000       0.78125000000000000        0.0000000000000000     
  0.31250000000000000       0.78125000000000000        0.0000000000000000     
  0.34375000000000000       0.78125000000000000        0.0000000000000000     
  0.37500000000000000       0.78125000000000000        0.0000000000000000     
  0.25000000000000000       0.81250000000000000        0.0000000000000000     
  0.28125000000000000       0.81250000000000000        0.0000000000000000     
  0.31250000000000000       0.81250000000000000        0.0000000000000000     
  0.34375000000000000       0.81250000000000000        0.0000000000000000     
  0.37500000000000000       0.81250000000000000        0.0000000000000000     
  0.25000000000000000       0.84375000000000000        0.0000000000000000     
  0.28125000000000000       0.84375000000000000        0.0000000000000000     
  0.31250000000000000       0.84375000000000000        0.0000000000000000     
  0.34375000000000000       0.84375000000000000        0.0000000000000000     
  0.37500000000000000       0.84375000000000000        0.0000000000000000     
  0.25000000000000000       0.87500000000000000        0.0000000000000000     
  0.28125000000000000       0.87500000000000000        0.0000000000000000     
  0.31250000000000000       0.87500000000000000        0.0000000000000000     
  0.34375000000000000       0.87500000000000000        0.0000000000000000     
  0.37500000000000000       0.87500000000000000        0.0000000000000000     
  0.37500000000000000       0.75000000000000000        0.0000000000000000     
  0.40625000000000000       0.75000000000000000        0.0000000000000000     
  0.43750000000000000       0.75000000000000000        0.0000000000000000     
  0.46875000000000000       0.75000000000000000        0.0000000000000000     
  0.50000000000000000       0.75000000000000000        0.0000000000000000     
  0.37500000000000000       0.78125000000000000        0.0000000000000000     
  0.40625000000000000       0.78125000000000000        0.0000000000000000     
  0.43750000000000000       0.78125000000000000        0.0000000000000000     
  0.46875000000000000       0.78125000000000000        0.0000000000000000     
  0.50000000000000000       0.78125000000000000        0.0000000000000000     
  0.37500000000000000       0.81250000000000000        0.0000000000000000     
  0.40625000000000000       0.81250000000000000        0.0000000000000000     
  0.43750000000000000       0.81250000000000000        0.0000000000000000     
  0.46875000000000000       0.81250000000000000        0.0000000000000000     
  0.50000000000000000       0.81250000000000000        0.0000000000000000     
  0.37500000000000000       0.84375000000000000        0.0000000000000000     
  0.40625000000000000       0.84375000000000000        0.0000000000000000     
  0.43750000000000000       0.84375000000000000        0.0000000000000000     
  0.46875000000000000       0.84375000000000000        0.0000000000000000     
  0.50000000000000000       0.84375000000000000        0.0000000000000000     
  0.37500000000000000       0.87500000000000000        0.0000000000000000     
  0.40625000000000000       0.87500000000000000        0.0000000000000000     
  0.43750000000000000       0.87500000000000000        0.0000000000000000     
  0.46875000000000000       0.87500000000000000        0.0000000000000000     
  0.50000000000000000       0.87500000000000000        0.0000000000000000     
  0.50000000000000000       0.75000000000000000        0.0000000000000000     
  0.53125000000000000       0.75000000000000000        0.0000000000000000     
  0.56250000000000000       0.75000000000000000        0.0000000000000000     
  0.59375000000000000       0.75000000000000000        0.0000000000000000     
  0.62500000000000000       0.75000000000000000        0.0000000000000000     
  0.50000000000000000       0.78125000000000000        0.0000000000000000     
  0.53125000000000000       0.78125000000000000        0.0000000000000000     
  0.56250000000000000       0.78125000000000000        0.0000000000000000     
  0.59375000000000000       0.78125000000000000        0.0000000000000000     
  0.62500000000000000       0.78125000000000000        0.0000000000000000     
  0.50000000000000000       0.81250000000000000        0.0000000000000000     
  0.53125000000000000       0.81250000000000000        0.0000000000000000     
  0.56250000000000000       0.81250000000000000        0.0000000000000000     
  0.59375000000000000       0.81250000000000000        0.0000000000000000     
  0.62500000000000000       0.81250000000000000        0.0000000000000000     
  0.50000000000000000       0.84375000000000000        0.0000000000000000     
  0.53125000000000000       0.84375000000000000        0.0000000000000000     
  0.56250000000000000       0.84375000000000000        0.0000000000000000     
  0.59375000000000000       0.84375000000000000        0.0000000000000000     
  0.62500000000000000       0.84375000000000000        0.0000000000000000     
  0.50000000000000000       0.87500000000000000        0.0000000000000000     
  0.53125000000000000       0.87500000000000000        0.0000000000000000     
  0.56250000000000000       0.87500000000000000        0.0000000000000000     
  0.59375000000000000       0.87500000000000000        0.0000000000000000     
  0.62500000000000000       0.87500000000000000        0.0000000000000000     
  0.62500000000000000       0.75000000000000000        0.0000000000000000     
  0.65625000000000000       0.75000000000000000        0.0000000000000000     
  0.68750000000000000       0.75000000000000000        0.0000000000000000     
  0.71875000000000000       0.75000000000000000        0.0000000000000000     
  0.75000000000000000       0.75000000000000000        0.0000000000000000     
  0.62500000000000000       0.78125000000000000        0.0000000000000000     
  0.65625000000000000       0.78125000000000000        0.0000000000000000     
  0.68750000000000000       0.78125000000000000        0.0000000000000000     
  0.71875000000000000       0.78125000000000000        0.0000000000000000     
  0.75000000000000000       0.78125000000000000        0.0000000000000000     
  0.62500000000000000       0.81250000000000000        0.0000000000000000     
  0.65625000000000000       0.81250000000000000        0.0000000000000000     
  0.68750000000000000       0.81250000000000000        0.0000000000000000     
  0.71875000000000000       0.81250000000000000        0.0000000000000000     
  0.75000000000000000       0.81250000000000000        0.0000000000000000     
  0.62500000000000000       0.84375000000000000        0.0000000000000000     
  0.65625000000000000       0.84375000000000000        0.0000000000000000     
  0.68750000000000000       0.84375000000000000        0.0000000000000000     
  0.71875000000000000       0.84375000000000000        0.0000000000000000     
  0.75000000000000000       0.84375000000000000        0.0000000000000000     
  0.62500000000000000       0.87500000000000000        0.0000000000000000     
  0.65625000000000000       0.87500000000000000        0.0000000000000000     
  0.68750000000000000       0.87500000000000000        0.0000000000000000     
  0.71875000000000000       0.87500000000000000        0.0000000000000000     
  0.75000000000000000       0.87500000000000000        0.0000000000000000     
  0.75000000000000000       0.75000000000000000        0.0000000000000000     
  0.78125000000000000       0.75000000000000000        0.0000000000000000     
  0.81250000000000000       0.75000000000000000        0.0000000000000000     
  0.84375000000000000       0.75000000000000000        0.0000000000000000     
  0.87500000000000000       0.75000000000000000        0.0000000000000000     
  0.75000000000000000       0.78125000000000000        0.0000000000000000     
  0.78125000000000000       0.78125000000000000        0.0000000000000000     
  0.81250000000000000       0.78125000000000000        0.0000000000000000     
  0.84375000000000000       0.78125000000000000        0.0000000000000000     
  0.87500000000000000       0.78125000000000000        0.0000000000000000     
  0.75000000000000000       0.81250000000000000        0.0000000000000000     
  0.78125000000000000       0.81250000000000000        0.0000000000000000     
  0.81250000000000000       0.81250000000000000        0.0000000000000000     
  0.84375000000000000       0.81250000000000000        0.0000000000000000     
  0.87500000000000000       0.81250000000000000        0.0000000000000000     
  0.75000000000000000       0.84375000000000000        0.0000000000000000     
  0.78125000000000000       0.84375000000000000        0.0000000000000000     
  0.81250000000000000       0.84375000000000000        0.0000000000000000     
  0.84375000000000000       0.84375000000000000        0.0000000000000000     
  0.87500000000000000       0.84375000000000000        0.0000000000000000     
  0.75000000000000000       0.87500000000000000        0.0000000000000000     
  0.78125000000000000       0.87500000000000000        0.0000000000000000     
  0.81250000000000000       0.87500000000000000        0.0000000000000000     
  0.84375000000000000       0.87500000000000000        0.0000000000000000     
  0.87500000000000000       0.87500000000000000        0.0000000000000000     
  0.87500000000000000       0.75000000000000000        0.0000000000000000     
  0.90625000000000000       0.75000000000000000        0.0000000000000000     
  0.93750000000000000       0.75000000000000000        0.0000000000000000     
  0.96875000000000000       0.75000000000000000        0.0000000000000000     
   1.0000000000000000       0.75000000000000000        0.0000000000000000     
  0.87500000000000000       0.78125000000000000        0.0000000000000000     
  0.90625000000000000       0.78125000000000000        0.0000000000000000     
  0.93750000000000000       0.78125000000000000        0.0000000000000000     
  0.96875000000000000       0.78125000000000000        0.0000000000000000     
   1.0000000000000000       0.78125000000000000        0.0000000000000000     
  0.87500000000000000       0.81250000000000000        0.0000000000000000     
  0.90625000000000000       0.81250000000000000        0.0000000000000000     
  0.93750000000000000       0.81250000000000000        0.0000000000000000     
  0.96875000000000000       0.81250000000000000        0.0000000000000000     
   1.0000000000000000       0.81250000000000000        0.0000000000000000     
  0.87500000000000000       0.84375000000000000        0.0000000000000000     
  0.90625000000000000       0.84375000000000000        0.0000000000000000     
  0.93750000000000000       0.84375000000000000        0.0000000000000000     
  0.96875000000000000       0.84375000000000000        0.0000000000000000     
   1.0000000000000000       0.84375000000000000        0.0000000000000000     
  0.87500000000000000       0.87500000000000000        0.0000000000000000     
  0.90625000000000000       0.87500000000000000        0.0000000000000000     
  0.93750000000000000       0.87500000000000000        0.0000000000000000     
  0.96875000000000000       0.87500000000000000        0.0000000000000000     
   1.0000000000000000       0.87500000000000000        0.0000000000000000     
   0.0000000000000000       0.87500000000000000        0.0000000000000000     
   3.1250000000000000E-002  0.87500000000000000        0.0000000000000000     
   6.2500000000000000E-002  0.87500000000000000        0.0000000000000000     
   9.3750000000000000E-002  0.87500000000000000        0.0000000000000000     
  0.12500000000000000       0.87500000000000000        0.0000000000000000     
   0.0000000000000000       0.90625000000000000        0.0000000000000000     
   3.1250000000000000E-002  0.90625000000000000        0.0000000000000000     
   6.2500000000000000E-002  0.90625000000000000        0.0000000000000000     
   9.3750000000000000E-002  0.90625000000000000        0.0000000000000000     
  0.12500000000000000       0.90625000000000000        0.0000000000000000     
   0.0000000000000000       0.93750000000000000        0.0000000000000000     
   3.1250000000000000E-002  0.93750000000000000        0.0000000000000000     
   6.2500000000000000E-002  0.93750000000000000        0.0000000000000000     
   9.3750000000000000E-002  0.93750000000000000        0.0000000000000000     
  0.12500000000000000       0.93750000000000000        0.0000000000000000     
   0.0000000000000000       0.96875000000000000        0.0000000000000000     
   3.1250000000000000E-002  0.96875000000000000        0.0000000000000000     
   6.2500000000000000E-002  0.96875000000000000        0.0000000000000000     
   9.3750000000000000E-002  0.96875000000000000        0.0000000000000000     
  0.12500000000000000       0.96875000000000000        0.0000000000000000     
   0.0000000000000000        1.0000000000000000        0.0000000000000000     
   3.1250000000000000E-002   1.0000000000000000        0.0000000000000000     
   6.2500000000000000E-002   1.0000000000000000        0.0000000000000000     
   9.3750000000000000E-002   1.0000000000000000        0.0000000000000000     
  0.12500000000000000        1.0000000000000000        0.0000000000000000     
  0.12500000000000000       0.87500000000000000        0.0000000000000000     
  0.15625000000000000       0.87500000000000000        0.0000000000000000     
  0.18750000000000000       0.87500000000000000        0.0000000000000000     
  0.21875000000000000       0.87500000000000000        0.0000000000000000     
  0.25000000000000000       0.87500000000000000        0.0000000000000000     
  0.12500000000000000       0.90625000000000000        0.0000000000000000     
  0.15625000000000000       0.90625000000000000        0.0000000000000000     
  0.18750000000000000       0.90625000000000000        0.0000000000000000     
  0.21875000000000000       0.90625000000000000        0.0000000000000000     
  0.25000000000000000       0.90625000000000000        0.0000000000000000     
  0.12500000000000000       0.93750000000000000        0.0000000000000000     
  0.15625000000000000       0.93750000000000000        0.0000000000000000     
  0.18750000000000000       0.93750000000000000        0.0000000000000000     
  0.21875000000000000       0.93750000000000000        0.0000000000000000     
  0.25000000000000000       0.93750000000000000        0.0000000000000000     
  0.12500000000000000       0.96875000000000000        0.0000000000000000     
  0.15625000000000000       0.96875000000000000        0.0000000000000000     
  0.18750000000000000       0.96875000000000000        0.0000000000000000     
  0.21875000000000000       0.96875000000000000        0.0000000000000000     
  0.25000000000000000       0.96875000000000000        0.0000000000000000     
  0.12500000000000000        1.0000000000000000        0.0000000000000000     
  0.15625000000000000        1.0000000000000000        0.0000000000000000     
  0.18750000000000000        1.0000000000000000        0.0000000000000000     
  0.21875000000000000        1.0000000000000000        0.0000000000000000     
  0.25000000000000000        1.0000000000000000        0.0000000000000000     
  0.25000000000000000       0.87500000000000000        0.0000000000000000     
  0.28125000000000000       0.87500000000000000        0.0000000000000000     
  0.31250000000000000       0.87500000000000000        0.0000000000000000     
  0.34375000000000000       0.87500000000000000        0.0000000000000000     
  0.37500000000000000       0.87500000000000000        0.0000000000000000     
  0.25000000000000000       0.90625000000000000        0.0000000000000000     
  0.28125000000000000       0.90625000000000000        0.0000000000000000     
  0.31250000000000000       0.90625000000000000        0.0000000000000000     
  0.34375000000000000       0.90625000000000000        0.0000000000000000     
  0.37500000000000000       0.90625000000000000        0.0000000000000000     
  0.25000000000000000       0.93750000000000000        0.0000000000000000     
  0.28125000000000000       0.93750000000000000        0.0000000000000000     
  0.31250000000000000       0.93750000000000000        0.0000000000000000     
  0.34375000000000000       0.93750000000000000        0.0000000000000000     
  0.37500000000000000       0.93750000000000000        0.0000000000000000     
  0.25000000000000000       0.96875000000000000        0.0000000000000000     
  0.28125000000000000       0.96875000000000000        0.0000000000000000     
  0.31250000000000000       0.96875000000000000        0.0000000000000000     
  0.34375000000000000       0.96875000000000000        0.0000000000000000     
  0.37500000000000000       0.96875000000000000        0.0000000000000000     
  0.25000000000000000        1.0000000000000000        0.0000000000000000     
  0.28125000000000000        1.0000000000000000        0.0000000000000000     
  0.31250000000000000        1.0000000000000000        0.0000000000000000     
  0.34375000000000000        1.0000000000000000        0.0000000000000000     
  0.37500000000000000        1.0000000000000000        0.0000000000000000     
  0.37500000000000000       0.87500000000000000        0.0000000000000000     
  0.40625000000000000       0.87500000000000000        0.0000000000000000     
  0.43750000000000000       0.87500000000000000        0.0000000000000000     
  0.46875000000000000       0.87500000000000000        0.0000000000000000     
  0.50000000000000000       0.87500000000000000        0.0000000000000000     
  0.37500000000000000       0.90625000000000000        0.0000000000000000     
  0.40625000000000000       0.90625000000000000        0.0000000000000000     
  0.43750000000000000       0.90625000000000000        0.0000000000000000     
  0.46875000000000000       0.90625000000000000        0.0000000000000000     
  0.50000000000000000       0.90625000000000000        0.0000000000000000     
  0.37500000000000000       0.93750000000000000        0.0000000000000000     
  0.40625000000000000       0.93750000000000000        0.0000000000000000     
  0.43750000000000000       0.93750000000000000        0.0000000000000000     
  0.46875000000000000       0.93750000000000000        0.0000000000000000     
  0.50000000000000000       0.93750000000000000        0.0000000000000000     
  0.37500000000000000       0.96875000000000000        0.0000000000000000     
  0.40625000000000000       0.96875000000000000        0.0000000000000000     
  0.43750000000000000       0.96875000000000000        0.0000000000000000     
  0.46875000000000000       0.96875000000000000        0.0000000000000000     
  0.50000000000000000       0.96875000000000000        0.0000000000000000     
  0.37500000000000000        1.0000000000000000        0.0000000000000000     
  0.40625000000000000        1.0000000000000000        0.0000000000000000     
  0.43750000000000000        1.0000000000000000        0.0000000000000000     
  0.46875000000000000        1.0000000000000000        0.0000000000000000     
  0.50000000000000000        1.0000000000000000        0.0000000000000000     
  0.50000000000000000       0.87500000000000000        0.0000000000000000     
  0.53125000000000000       0.87500000000000000        0.0000000000000000     
  0.56250000000000000       0.87500000000000000        0.0000000000000000     
  0.59375000000000000       0.87500000000000000        0.0000000000000000     
  0.62500000000000000       0.87500000000000000        0.0000000000000000     
  0.50000000000000000       0.90625000000000000        0.0000000000000000     
  0.53125000000000000       0.90625000000000000        0.0000000000000000     
  0.56250000000000000       0.90625000000000000        0.0000000000000000     
  0.59375000000000000       0.90625000000000000        0.0000000000000000     
  0.62500000000000000       0.90625000000000000        0.0000000000000000     
  0.50000000000000000       0.93750000000000000        0.0000000000000000     
  0.53125000000000000       0.93750000000000000        0.0000000000000000     
  0.56250000000000000       0.93750000000000000        0.0000000000000000     
  0.59375000000000000       0.93750000000000000        0.0000000000000000     
  0.62500000000000000       0.93750000000000000        0.0000000000000000     
  0.50000000000000000       0.96875000000000000        0.0000000000000000     
  0.53125000000000000       0.96875000000000000        0.0000000000000000     
  0.56250000000000000       0.96875000000000000        0.0000000000000000     
  0.59375000000000000       0.96875000000000000        0.0000000000000000     
  0.62500000000000000       0.96875000000000000        0.0000000000000000     
  0.50000000000000000        1.0000000000000000        0.0000000000000000     
  0.53125000000000000        1.0000000000000000        0.0000000000000000     
  0.56250000000000000        1.0000000000000000        0.0000000000000000     
  0.59375000000000000        1.0000000000000000        0.0000000000000000     
  0.62500000000000000        1.0000000000000000        0.0000000000000000     
  0.62500000000000000       0.87500000000000000        0.0000000000000000     
  0.65625000000000000       0.87500000000000000        0.0000000000000000     
  0.68750000000000000       0.87500000000000000        0.0000000000000000     
  0.71875000000000000       0.87500000000000000        0.0000000000000000     
  0.75000000000000000       0.87500000000000000        0.0000000000000000     
  0.62500000000000000       0.90625000000000000        0.0000000000000000     
  0.65625000000000000       0.90625000000000000        0.0000000000000000     
  0.68750000000000000       0.90625000000000000        0.0000000000000000     
  0.71875000000000000       0.90625000000000000        0.0000000000000000     
  0.75000000000000000       0.90625000000000000        0.0000000000000000     
  0.62500000000000000       0.93750000000000000        0.0000000000000000     
  0.65625000000000000       0.93750000000000000        0.0000000000000000     
  0.68750000000000000       0.93750000000000000        0.0000000000000000     
  0.71875000000000000       0.93750000000000000        0.0000000000000000     
  0.75000000000000000       0.93750000000000000        0.0000000000000000     
  0.62500000000000000       0.96875000000000000        0.0000000000000000     
  0.65625000000000000       0.96875000000000000        0.0000000000000000     
  0.68750000000000000       0.96875000000000000        0.0000000000000000     
  0.71875000000000000       0.96875000000000000        0.0000000000000000     
  0.75000000000000000       0.96875000000000000        0.0000000000000000     
  0.62500000000000000        1.0000000000000000        0.0000000000000000     
  0.65625000000000000        1.0000000000000000        0.0000000000000000     
  0.68750000000000000        1.0000000000000000        0.0000000000000000     
  0.71875000000000000        1.0000000000000000        0.0000000000000000     
  0.75000000000000000        1.0000000000000000        0.0000000000000000     
  0.75000000000000000       0.87500000000000000        0.0000000000000000     
  0.78125000000000000       0.87500000000000000        0.0000000000000000     
  0.81250000000000000       0.87500000000000000        0.0000000000000000     
  0.84375000000000000       0.87500000000000000        0.0000000000000000     
  0.87500000000000000       0.87500000000000000        0.0000000000000000     
  0.75000000000000000       0.90625000000000000        0.0000000000000000     
  0.78125000000000000       0.90625000000000000        0.0000000000000000     
  0.81250000000000000       0.90625000000000000        0.0000000000000000     
  0.84375000000000000       0.90625000000000000        0.0000000000000000     
  0.87500000000000000       0.90625000000000000        0.0000000000000000     
  0.75000000000000000       0.93750000000000000        0.0000000000000000     
  0.78125000000000000       0.93750000000000000        0.0000000000000000     
  0.81250000000000000       0.93750000000000000        0.0000000000000000     
  0.84375000000000000       0.93750000000000000        0.0000000000000000     
  0.87500000000000000       0.93750000000000000        0.0000000000000000     
  0.75000000000000000       0.96875000000000000        0.0000000000000000     
  0.78125000000000000       0.96875000000000000        0.0000000000000000     
  0.81250000000000000       0.96875000000000000        0.0000000000000000     
  0.84375000000000000       0.96875000000000000        0.0000000000000000     
  0.87500000000000000       0.96875000000000000        0.0000000000000000     
  0.75000000000000000        1.0000000000000000        0.0000000000000000     
  0.78125000000000000        1.0000000000000000        0.0000000000000000     
  0.81250000000000000        1.0000000000000000        0.0000000000000000     
  0.84375000000000000        1.0000000000000000        0.0000000000000000     
  0.87500000000000000        1.0000000000000000        0.0000000000000000     
  0.87500000000000000       0.87500000000000000        0.0000000000000000     
  0.90625000000000000       0.87500000000000000        0.0000000000000000     
  0.93750000000000000       0.87500000000000000        0.0000000000000000     
  0.96875000000000000       0.87500000000000000        0.0000000000000000     
   1.0000000000000000       0.87500000000000000        0.0000000000000000     
  0.87500000000000000       0.90625000000000000        0.0000000000000000     
  0.90625000000000000       0.90625000000000000        0.0000000000000000     
  0.93750000000000000       0.90625000000000000        0.0000000000000000     
  0.96875000000000000       0.90625000000000000        0.0000000000000000     
   1.0000000000000000       0.90625000000000000        0.0000000000000000     
  0.87500000000000000       0.93750000000000000        0.0000000000000000     
  0.90625000000000000       0.93750000000000000        0.0000000000000000     
  0.93750000000000000       0.93750000000000000        0.0000000000000000     
  0.96875000000000000       0.93750000000000000        0.0000000000000000     
   1.0000000000000000       0.93750000000000000        0.0000000000000000     
  0.87500000000000000       0.96875000000000000        0.0000000000000000     
  0.90625000000000000       0.96875000000000000        0.0000000000000000     
  0.93750000000000000       0.96875000000000000        0.0000000000000000     
  0.96875000000000000       0.96875000000000000        0.0000000000000000     
   1.0000000000000000       0.96875000000000000        0.0000000000000000     
  0.87500000000000000        1.0000000000000000        0.0000000000000000     
  0.90625000000000000        1.0000000000000000        0.0000000000000000     
  0.93750000000000000        1.0000000000000000        0.0000000000000000     
  0.96875000000000000        1.0000000000000000        0.0000000000000000     
   1.0000000000000000        1.0000000000000000        0.0000000000000000     
 </DataArray>
 </Points>
 <Cells>
 <DataArray  type="Int32"  Name="connectivity"  format="ascii">
           0           1           6           5
           1           2           7           6
           2           3           8           7
           3           4           9           8
           5           6          11          10
           6           7          12          11
           7           8          13          12
           8           9          14          13
          10          11          16          15
          11          12          17          16
          12          13          18          17
          13          14          19          18
          15          16          21          20
          16          17          22          21
          17          18          23          22
          18          19          24          23
          25          26          31          30
          26          27          32          31
          27          28          33          32
          28          29          34          33
          30          31          36          35
          31          32          37          36
          32          33          38          37
          33          34          39          38
          35          36          41          40
          36          37          42          41
          37          38          43          42
          38          39          44          43
          40          41          46          45
          41          42          47          46
          42          43          48          47
          43          44          49          48
          50          51          56          55
          51          52          57          56
          52          53          58          57
          53          54          59          58
          55          56          61          60
          56          57          62          61
          57          58          63          62
          58          59          64          63
          60          61          66          65
          61          62          67          66
          62          63          68          67
          63          64          69          68
          65          66          71          70
          66          67          72          71
          67          68          73          72
          68          69          74          73
          75          76          81          80
          76          77          82          81
          77          78          83          82
          78          79          84          83
          80          81          86          85
          81          82          87          86
          82          83          88          87
          83          84          89          88
          85          86          91          90
          86          87          92          91
          87          88          93          92
          88          89          94          93
          90          91          96          95
          91          92          97          96
          92          93          98          97
          93          94          99          98
         100         101         106         105
         101         102         107         106
         102         103         108         107
         103         104         109         108
         105         106         111         110
         106         107         112         111
         107         108         113         112
         108         109         114         113
         110         111         116         115
         111         112         117         116
         112         113         118         117
         113         114         119         118
         115         116         121         120
         116         117         122         121
         117         118         123         122
         118         119         124         123
         125         126         131         130
         126         127         132         131
         127         128         133         132
         128         129         134         133
         130         131         136         135
         131         132         137         136
         132         133         138         137
         133         134         139         138
         135         136         141         140
         136         137         142         141
         137         138         143         142
         138         139         144         143
         140         141         146         145
         141         142         147         146
         142         143         148         147
         143         144         149         148
         150         151         156         155
         151         152         157         156
         152         153         158         157
         153         154         159         158
         155         156         161         160
         156         157         162         161
         157         158         163         162
         158         159         164         163
         160         161         166         165
         161         162         167         166
         162         163         168         167
         163         164         169         168
         165         166         171         170
         166         167         172         171
         167         168         173         172
         168         169         174         173
         175         176         181         180
         176         177         182         181
         177         178         183         182
         178         179         184         183
         180         181         186         185
         181         182         187         186
         182         183         188         187
         183         184         189         188
         185         186         191         190
         186         187         192         191
         187         188         193         192
         188         189         194         193
         190         191         196         195
         191         192         197         196
         192         193         198         197
         193         194         199         198
         200         201         206         205
         201         202         207         206
         202         203         208         207
         203         204         209         208
         205         206         211         210
         206         207         212         211
         207         208         213         212
         208         209         214         213
         210         211         216         215
         211         212         217         216
         212         213         218         217
         213         214         219         218
         215         216         221         220
         216         217         222         221
         217         218         223         222
         218         219         224         223
         225         226         231         230
         226         227         232         231
         227         228         233         232
         228         229         234         233
         230         231         236         235
         231         232         237         236
         232         233         238         237
         233         234         239         238
         235         236         241         240
         236         237         242         241
         237         238         243         242
         238         239         244         243
         240         241         246         245
         241         242         247         246
         242         243         248         247
         243         244         249         248
         250         251         256         255
         251         252         257         256
         252         253         258         257
         253         254         259         258
         255         256         261         260
         256         257         262         261
         257         258         263         262
         258         259         264         263
         260         261         266         265
         261         262         267         266
         262         263         268         267
         263         264         269         268
         265         266         271         270
         266         267         272         271
         267         268         273         272
         268         269         274         273
         275         276         281         280
         276         277         282         281
         277         278         283         282
         278         279         284         283
         280         281         286         285
         281         282         287         286
         282         283         288         287
         283         284         289         288
         285         286         291         290
         286         287         292         291
         287         288         293         292
         288         289         294         293
         290         291         296         295
         291         292         297         296
         292         293         298         297
         293         294         299         298
         300         301         306         305
         301         302         307         306
         302         303         308         307
         303         304         309         308
         305         306         311         310
         306         307         312         311
         307         308         313         312
         308         309         314         313
         310         311         316         315
         311         312         317         316
         312         313         318         317
         313         314         319         318
         315         316         321         320
         316         317         322         321
         317         318         323         322
         318         319         324         323
         325         326         331         330
         326         327         332         331
         327         328         333         332
         328         329         334         333
         330         331         336         335
         331         332         337         336
         332         333         338         337
         333         334         339         338
         335         336         341         340
         336         337         342         341
         337         338         343         342
         338         339         344         343
         340         341         346         345
         341         342         347         346
         342         343         348         347
         343         344         349         348
         350         351         356         355
         351         352         357         356
         352         353         358         357
         353         354         359         358
         355         356         361         360
         356         357         362         361
         357         358         363         362
         358         359         364         363
         360         361         366         365
         361         362         367         366
         362         363         368         367
         363         364         369         368
         365         366         371         370
         366         367         372         371
         367         368         373         372
         368         369         374         373
         375         376         381         380
         376         377         382         381
         377         378         383         382
         378         379         384         383
         380         381         386         385
         381         382         387         386
         382         383         388         387
         383         384         389         388
         385         386         391         390
         386         387         392         391
         387         388         393         392
         388         389         394         393
         390         391         396         395
         391         392         397         396
         392         393         398         397
         393         394         399         398
         400         401         406         405
         401         402         407         406
         402         403         408         407
         403         404         409         408
         405         406         411         410
         406         407         412         411
         407         408         413         412
         408         409         414         413
         410         411         416         415
         411         412         417         416
         412         413         418         417
         413         414         419         418
         415         416         421         420
         416         417         422         421
         417         418         423         422
         418         419         424         423
         425         426         431         430
         426         427         432         431
         427         428         433         432
         428         429         434         433
         430         431         436         435
         431         432         437         436
         432         433         438         437
         433         434         439         438
         435         436         441         440
         436         437         442         441
         437         438         443         442
         438         439         444         443
         440         441         446         445
         441         442         447         446
         442         443         448         447
         443         444         449         448
         450         451         456         455
         451         452         457         456
         452         453         458         457
         453         454         459         458
         455         456         461         460
         456         457         462         461
         457         458         463         462
         458         459         464         463
         460         461         466         465
         461         462         467         466
         462         463         468         467
         463         464         469         468
         465         466         471         470
         466         467         472         471
         467         468         473         472
         468         469         474         473
         475         476         481         480
         476         477         482         481
         477         478         483         482
         478         479         484         483
         480         481         486         485
         481         482         487         486
         482         483         488         487
         483         484         489         488
         485         486         491         490
         486         487         492         491
         487         488         493         492
         488         489         494         493
         490         491         496         495
         491         492         497         496
         492         493         498         497
         493         494         499         498
         500         501         506         505
         501         502         507         506
         502         503         508         507
         503         504         509         508
         505         506         511         510
         506         507         512         511
         507         508         513         512
         508         509         514         513
         510         511         516         515
         511         512         517         516
         512         513         518         517
         513         514         519         518
         515         516         521         520
         516         517         522         521
         517         518         523         522
         518         519         524         523
         525         526         531         530
         526         527         532         531
         527         528         533         532
         528         529         534         533
         530         531         536         535
         531         532         537         536
         532         533         538         537
         533         534         539         538
         535         536         541         540
         536         537         542         541
         537         538         543         542
         538         539         544         543
         540         541         546         545
         541         542         547         546
         542         543         548         547
         543         544         549         548
         550         551         556         555
         551         552         557         556
         552         553         558         557
         553         554         559         558
         555         556         561         560
         556         557         562         561
         557         558         563         562
         558         559         564         563
         560         561         566         565
         561         562         567         566
         562         563         568         567
         563         564         569         568
         565         566         571         570
         566         567         572         571
         567         568         573         572
         568         569         574         573
         575         576         581         580
         576         577         582         581
         577         578         583         582
         578         579         584         583
         580         581         586         585
         581         582         587         586
         582         583         588         587
         583         584         589         588
         585         586         591         590
         586         587         592         591
         587         588         593         592
         588         589         594         593
         590         591         596         595
         591         592         597         596
         592         593         598         597
         593         594         599         598
         600         601         606         605
         601         602         607         606
         602         603         608         607
         603         604         609         608
         605         606         611         610
         606         607         612         611
         607         608         613         612
         608         609         614         613
         610         611         616         615
         611         612         617         616
         612         613         618         617
         613         614         619         618
         615         616         621         620
         616         617         622         621
         617         618         623         622
         618         619         624         623
         625         626         631         630
         626         627         632         631
         627         628         633         632
         628         629         634         633
         630         631         636         635
         631         632         637         636
         632         633         638         637
         633         634         639         638
         635         636         641         640
         636         637         642         641
         637         638         643         642
         638         639         644         643
         640         641         646         645
         641         642         647         646
         642         643         648         647
         643         644         649         648
         650         651         656         655
         651         652         657         656
         652         653         658         657
         653         654         659         658
         655         656         661         660
         656         657         662         661
         657         658         663         662
         658         659         664         663
         660         661         666         665
         661         662         667         666
         662         663         668         667
         663         664         669         668
         665         666         671         670
         666         667         672         671
         667         668         673         672
         668         669         674         673
         675         676         681         680
         676         677         682         681
         677         678         683         682
         678         679         684         683
         680         681         686         685
         681         682         687         686
         682         683         688         687
         683         684         689         688
         685         686         691         690
         686         687         692         691
         687         688         693         692
         688         689         694         693
         690         691         696         695
         691         692         697         696
         692         693         698         697
         693         694         699         698
         700         701         706         705
         701         702         707         706
         702         703         708         707
         703         704         709         708
         705         706         711         710
         706         707         712         711
         707         708         713         712
         708         709         714         713
         710         711         716         715
         711         712         717         716
         712         713         718         717
         713         714         719         718
         715         716         721         720
         716         717         722         721
         717         718         723         722
         718         719         724         723
         725         726         731         730
         726         727         732         731
         727         728         733         732
         728         729         734         733
         730         731         736         735
         731         732         737         736
         732         733         738         737
         733         734         739         738
         735         736         741         740
         736         737         742         741
         737         738         743         742
         738         739         744         743
         740         741         746         745
         741         742         747         746
         742         743         748         747
         743         744         749         748
         750         751         756         755
         751         752         757         756
         752         753         758         757
         753         754         759         758
         755         756         761         760
         756         757         762         761
         757         758         763         762
         758         759         764         763
         760         761         766         765
         761         762         767         766
         762         763         768         767
         763         764         769         768
         765         766         771         770
         766         767         772         771
         767         768         773         772
         768         769         774         773
         775         776         781         780
         776         777         782         781
         777         778         783         782
         778         779         784         783
         780         781         786         785
         781         782         787         786
         782         783         788         787
         783         784         789         788
         785         786         791         790
         786         787         792         791
         787         788         793         792
         788         789         794         793
         790         791         796         795
         791         792         797         796
         792         793         798         797
         793         794         799         798
         800         801         806         805
         801         802         807         806
         802         803         808         807
         803         804         809         808
         805         806         811         810
         806         807         812         811
         807         808         813         812
         808         809         814         813
         810         811         816         815
         811         812         817         816
         812         813         818         817
         813         814         819         818
         815         816         821         820
         816         817         822         821
         817         818         823         822
         818         819         824         823
         825         826         831         830
         826         827         832         831
         827         828         833         832
         828         829         834         833
         830         831         836         835
         831         832         837         836
         832         833         838         837
         833         834         839         838
         835         836         841         840
         836         837         842         841
         837         838         843         842
         838         839         844         843
         840         841         846         845
         841         842         847         846
         842         843         848         847
         843         844         849         848
         850         851         856         855
         851         852         857         856
         852         853         858         857
         853         854         859         858
         855         856         861         860
         856         857         862         861
         857         858         863         862
         858         859         864         863
         860         861         866         865
         861         862         867         866
         862         863         868         867
         863         864         869         868
         865         866         871         870
         866         867         872         871
         867         868         873         872
         868         869         874         873
         875         876         881         880
         876         877         882         881
         877         878         883         882
         878         879         884         883
         880         881         886         885
         881         882         887         886
         882         883         888         887
         883         884         889         888
         885         886         891         890
         886         887         892         891
         887         888         893         892
         888         889         894         893
         890         891         896         895
         891         892         897         896
         892         893         898         897
         893         894         899         898
         900         901         906         905
         901         902         907         906
         902         903         908         907
         903         904         909         908
         905         906         911         910
         906         907         912         911
         907         908         913         912
         908         909         914         913
         910         911         916         915
         911         912         917         916
         912         913         918         917
         913         914         919         918
         915         916         921         920
         916         917         922         921
         917         918         923         922
         918         919         924         923
         925         926         931         930
         926         927         932         931
         927         928         933         932
         928         929         934         933
         930         931         936         935
         931         932         937         936
         932         933         938         937
         933         934         939         938
         935         936         941         940
         936         937         942         941
         937         938         943         942
         938         939         944         943
         940         941         946         945
         941         942         947         946
         942         943         948         947
         943         944         949         948
         950         951         956         955
         951         952         957         956
         952         953         958         957
         953         954         959         958
         955         956         961         960
         956         957         962         961
         957         958         963         962
         958         959         964         963
         960         961         966         965
         961         962         967         966
         962         963         968         967
         963         964         969         968
         965         966         971         970
         966         967         972         971
         967         968         973         972
         968         969         974         973
         975         976         981         980
         976         977         982         981
         977         978         983         982
         978         979         984         983
         980         981         986         985
         981         982         987         986
         982         983         988         987
         983         984         989         988
         985         986         991         990
         986         987         992         991
         987         988         993         992
         988         989         994         993
         990         991         996         995
         991         992         997         996
         992         993         998         997
         993         994         999         998
        1000        1001        1006        1005
        1001        1002        1007        1006
        1002        1003        1008        1007
        1003        1004        1009        1008
        1005        1006        1011        1010
        1006        1007        1012        1011
        1007        1008        1013        1012
        1008        1009        1014        1013
        1010        1011        1016        1015
        1011        1012        1017        1016
        1012        1013        1018        1017
        1013        1014        1019        1018
        1015        1016        1021        1020
        1016        1017        1022        1021
        1017        1018        1023        1022
        1018        1019        1024        1023
        1025        1026        1031        1030
        1026        1027        1032        1031
        1027        1028        1033        1032
        1028        1029        1034        1033
        1030        1031        1036        1035
        1031        1032        1037        1036
        1032        1033        1038        1037
        1033        1034        1039        1038
        1035        1036        1041        1040
        1036        1037        1042        1041
        1037        1038        1043        1042
        1038        1039        1044        1043
        1040        1041        1046        1045
        1041        1042        1047        1046
        1042        1043        1048        1047
        1043        1044        1049        1048
        1050        1051        1056        1055
        1051        1052        1057        1056
        1052        1053        1058        1057
        1053        1054        1059        1058
        1055        1056        1061        1060
        1056        1057        1062        1061
        1057        1058        1063        1062
        1058        1059        1064        1063
        1060        1061        1066        1065
        1061        1062        1067        1066
        1062        1063        1068        1067
        1063        1064        1069        1068
        1065        1066        1071        1070
        1066        1067        1072        1071
        1067        1068        1073        1072
        1068        1069        1074        1073
        1075        1076        1081        1080
        1076        1077        1082        1081
        1077        1078        1083        1082
        1078        1079        1084        1083
        1080        1081        1086        1085
        1081        1082        1087        1086
        1082        1083        1088        1087
        1083        1084        1089        1088
        1085        1086        1091        1090
        1086        1087        1092        1091
        1087        1088        1093        1092
        1088        1089        1094        1093
        1090        1091        1096        1095
        1091        1092        1097        1096
        1092        1093        1098        1097
        1093        1094        1099        1098
        1100        1101        1106        1105
        1101        1102        1107        1106
        1102        1103        1108        1107
        1103        1104        1109        1108
        1105        1106        1111        1110
        1106        1107        1112        1111
        1107        1108        1113        1112
        1108        1109        1114        1113
        1110        1111        1116        1115
        1111        1112        1117        1116
        1112        1113        1118        1117
        1113        1114        1119        1118
        1115        1116        1121        1120
        1116        1117        1122        1121
        1117        1118        1123        1122
        1118        1119        1124        1123
        1125        1126        1131        1130
        1126        1127        1132        1131
        1127        1128        1133        1132
        1128        1129        1134        1133
        1130        1131        1136        1135
        1131        1132        1137        1136
        1132        1133        1138        1137
        1133        1134        1139        1138
        1135        1136        1141        1140
        1136        1137        1142        1141
        1137        1138        1143        1142
        1138        1139        1144        1143
        1140        1141        1146        1145
        1141        1142        1147        1146
        1142        1143        1148        1147
        1143        1144        1149        1148
        1150        1151        1156        1155
        1151        1152        1157        1156
        1152        1153        1158        1157
        1153        1154        1159        1158
        1155        1156        1161        1160
        1156        1157        1162        1161
        1157        1158        1163        1162
        1158        1159        1164        1163
        1160        1161        1166        1165
        1161        1162        1167        1166
        1162        1163        1168        1167
        1163        1164        1169        1168
        1165        1166        1171        1170
        1166        1167        1172        1171
        1167        1168        1173        1172
        1168        1169        1174        1173
        1175        1176        1181        1180
        1176        1177        1182        1181
        1177        1178        1183        1182
        1178        1179        1184        1183
        1180        1181        1186        1185
        1181        1182        1187        1186
        1182        1183        1188        1187
        1183        1184        1189        1188
        1185        1186        1191        1190
        1186        1187        1192        1191
        1187        1188        1193        1192
        1188        1189        1194        1193
        1190        1191        1196        1195
        1191        1192        1197        1196
        1192        1193        1198        1197
        1193        1194        1199        1198
        1200        1201        1206        1205
        1201        1202        1207        1206
        1202        1203        1208        1207
        1203        1204        1209        1208
        1205        1206        1211        1210
        1206        1207        1212        1211
        1207        1208        1213        1212
        1208        1209        1214        1213
        1210        1211        1216        1215
        1211        1212        1217        1216
        1212        1213        1218        1217
        1213        1214        1219        1218
        1215        1216        1221        1220
        1216        1217        1222        1221
        1217        1218        1223        1222
        1218        1219        1224        1223
        1225        1226        1231        1230
        1226        1227        1232        1231
        1227        1228        1233        1232
        1228        1229        1234        1233
        1230        1231        1236        1235
        1231        1232        1237        1236
        1232        1233        1238        1237
        1233        1234        1239        1238
        1235        1236        1241        1240
        1236        1237        1242        1241
        1237        1238        1243        1242
        1238        1239        1244        1243
        1240        1241        1246        1245
        1241        1242        1247        1246
        1242        1243        1248        1247
        1243        1244        1249        1248
        1250        1251        1256        1255
        1251        1252        1257        1256
        1252        1253        1258        1257
        1253        1254        1259        1258
        1255        1256        1261        1260
        1256        1257        1262        1261
        1257        1258        1263        1262
        1258        1259        1264        1263
        1260        1261        1266        1265
        1261        1262        1267        1266
        1262        1263        1268        1267
        1263        1264        1269        1268
        1265        1266        1271        1270
        1266        1267        1272        1271
        1267        1268        1273        1272
        1268        1269        1274        1273
        1275        1276        1281        1280
        1276        1277        1282        1281
        1277        1278        1283        1282
        1278        1279        1284        1283
        1280        1281        1286        1285
        1281        1282        1287        1286
        1282        1283        1288        1287
        1283        1284        1289        1288
        1285        1286        1291        1290
        1286        1287        1292        1291
        1287        1288        1293        1292
        1288        1289        1294        1293
        1290        1291        1296        1295
        1291        1292        1297        1296
        1292        1293        1298        1297
        1293        1294        1299        1298
        1300        1301        1306        1305
        1301        1302        1307        1306
        1302        1303        1308        1307
        1303        1304        1309        1308
        1305        1306        1311        1310
        1306        1307        1312        1311
        1307        1308        1313        1312
        1308        1309        1314        1313
        1310        1311        1316        1315
        1311        1312        1317        1316
        1312        1313        1318        1317
        1313        1314        1319        1318
        1315        1316        1321        1320
        1316        1317        1322        1321
        1317        1318        1323        1322
        1318        1319        1324        1323
        1325        1326        1331        1330
        1326        1327        1332        1331
        1327        1328        1333        1332
        1328        1329        1334        1333
        1330        1331        1336        1335
        1331        1332        1337        1336
        1332        1333        1338        1337
        1333        1334        1339        1338
        1335        1336        1341        1340
        1336        1337        1342        1341
        1337        1338        1343        1342
        1338        1339        1344        1343
        1340        1341        1346        1345
        1341        1342        1347        1346
        1342        1343        1348        1347
        1343        1344        1349        1348
        1350        1351        1356        1355
        1351        1352        1357        1356
        1352        1353        1358        1357
        1353        1354        1359        1358
        1355        1356        1361        1360
        1356        1357        1362        1361
        1357        1358        1363        1362
        1358        1359        1364        1363
        1360        1361        1366        1365
        1361        1362        1367        1366
        1362        1363        1368        1367
        1363        1364        1369        1368
        1365        1366        1371        1370
        1366        1367        1372        1371
        1367        1368        1373        1372
        1368        1369        1374        1373
        1375        1376        1381        1380
        1376        1377        1382        1381
        1377        1378        1383        1382
        1378        1379        1384        1383
        1380        1381        1386        1385
        1381        1382        1387        1386
        1382        1383        1388        1387
        1383        1384        1389        1388
        1385        1386        1391        1390
        1386        1387        1392        1391
        1387        1388        1393        1392
        1388        1389        1394        1393
        1390        1391        1396        1395
        1391        1392        1397        1396
        1392        1393        1398        1397
        1393        1394        1399        1398
        1400        1401        1406        1405
        1401        1402        1407        1406
        1402        1403        1408        1407
        1403        1404        1409        1408
        1405        1406        1411        1410
        1406        1407        1412        1411
        1407        1408        1413        1412
        1408        1409        1414        1413
        1410        1411        1416        1415
        1411        1412        1417        1416
        1412        1413        1418        1417
        1413        1414        1419        1418
        1415        1416        1421        1420
        1416        1417        1422        1421
        1417        1418        1423        1422
        1418        1419        1424        1423
        1425        1426        1431        1430
        1426        1427        1432        1431
        1427        1428        1433        1432
        1428        1429        1434        1433
        1430        1431        1436        1435
        1431        1432        1437        1436
        1432        1433        1438        1437
        1433        1434        1439        1438
        1435        1436        1441        1440
        1436        1437        1442        1441
        1437        1438        1443        1442
        1438        1439        1444        1443
        1440        1441        1446        1445
        1441        1442        1447        1446
        1442        1443        1448        1447
        1443        1444        1449        1448
        1450        1451        1456        1455
        1451        1452        1457        1456
        1452        1453        1458        1457
        1453        1454        1459        1458
        1455        1456        1461        1460
        1456        1457        1462        1461
        1457        1458        1463        1462
        1458        1459        1464        1463
        1460        1461        1466        1465
        1461        1462        1467        1466
        1462        1463        1468        1467
        1463        1464        1469        1468
        1465        1466        1471        1470
        1466        1467        1472        1471
        1467        1468        1473        1472
        1468        1469        1474        1473
        1475        1476        1481        1480
        1476        1477        1482        1481
        1477        1478        1483        1482
        1478        1479        1484        1483
        1480        1481        1486        1485
        1481        1482        1487        1486
        1482        1483        1488        1487
        1483        1484        1489        1488
        1485        1486        1491        1490
        1486        1487        1492        1491
        1487        1488        1493        1492
        1488        1489        1494        1493
        1490        1491        1496        1495
        1491        1492        1497        1496
        1492        1493        1498        1497
        1493        1494        1499        1498
        1500        1501        1506        1505
        1501        1502        1507        1506
        1502        1503        1508        1507
        1503        1504        1509        1508
        1505        1506        1511        1510
        1506        1507        1512        1511
        1507        1508        1513        1512
        1508        1509        1514        1513
        1510        1511        1516        1515
        1511        1512        1517        1516
        1512        1513        1518        1517
        1513        1514        1519        1518
        1515        1516        1521        1520
        1516        1517        1522        1521
        1517        1518        1523        1522
        1518        1519        1524        1523
        1525        1526        1531        1530
        1526        1527        1532        1531
        1527        1528        1533        1532
        1528        1529        1534        1533
        1530        1531        1536        1535
        1531        1532        1537        1536
        1532        1533        1538        1537
        1533        1534        1539        1538
        1535        1536        1541        1540
        1536        1537        1542        1541
        1537        1538        1543        1542
        1538        1539        1544        1543
        1540        1541        1546        1545
        1541        1542        1547        1546
        1542        1543        1548        1547
        1543        1544        1549        1548
        1550        1551        1556        1555
        1551        1552        1557        1556
        1552        1553        1558        1557
        1553        1554        1559        1558
        1555        1556        1561        1560
        1556        1557        1562        1561
        1557        1558        1563        1562
        1558        1559        1564        1563
        1560        1561        1566        1565
        1561        1562        1567        1566
        1562        1563        1568        1567
        1563        1564        1569        1568
        1565        1566        1571        1570
        1566        1567        1572        1571
        1567        1568        1573        1572
        1568        1569        1574        1573
        1575        1576        1581        1580
        1576        1577        1582        1581
        1577        1578        1583        1582
        1578        1579        1584        1583
        1580        1581        1586        1585
        1581        1582        1587        1586
        1582        1583        1588        1587
        1583        1584        1589        1588
        1585        1586        1591        1590
        1586        1587        1592        1591
        1587        1588        1593        1592
        1588        1589        1594        1593
        1590        1591        1596        1595
        1591        1592        1597        1596
        1592        1593        1598        1597
        1593        1594        1599        1598
 </DataArray>
 <DataArray  type="Int32"  Name="offsets"  format="ascii"> 
           4
           8
          12
          16
          20
          24
          28
          32
          36
          40
          44
          48
          52
          56
          60
          64
          68
          72
          76
          80
          84
          88
          92
          96
         100
         104
         108
         112
         116
         120
         124
         128
         132
         136
         140
         144
         148
         152
         156
         160
         164
         168
         172
         176
         180
         184
         188
         192
         196
         200
         204
         208
         212
         216
         220
         224
         228
         232
         236
         240
         244
         248
         252
         256
         260
         264
         268
         272
         276
         280
         284
         288
         292
         296
         300
         304
         308
         312
         316
         320
         324
         328
         332
         336
         340
         344
         348
         352
         356
         360
         364
         368
         372
         376
         380
         384
         388
         392
         396
         400
         404
         408
         412
         416
         420
         424
         428
         432
         436
         440
         444
         448
         452
         456
         460
         464
         468
         472
         476
         480
         484
         488
         492
         496
         500
         504
         508
         512
         516
         520
         524
         528
         532
         536
         540
         544
         548
         552
         556
         560
         564
         568
         572
         576
         580
         584
         588
         592
         596
         600
         604
         608
         612
         616
         620
         624
         628
         632
         636
         640
         644
         648
         652
         656
         660
         664
         668
         672
         676
         680
         684
         688
         692
         696
         700
         704
         708
         712
         716
         720
         724
         728
         732
         736
         740
         744
         748
         752
         756
         760
         764
         768
         772
         776
         780
         784
         788
         792
         796
         800
         804
         808
         812
         816
         820
         824
         828
         832
         836
         840
         844
         848
         852
         856
         860
         864
         868
         872
         876
         880
         884
         888
         892
         896
         900
         904
         908
         912
         916
         920
         924
         928
         932
         936
         940
         944
         948
         952
         956
         960
         964
         968
         972
         976
         980
         984
         988
         992
         996
        1000
        1004
        1008
        1012
        1016
        1020
        1024
        1028
        1032
        1036
        1040
        1044
        1048
        1052
        1056
        1060
        1064
        1068
        1072
        1076
        1080
        1084
        1088
        1092
        1096
        1100
        1104
        1108
        1112
        1116
        1120
        1124
        1128
        1132
        1136
        1140
        1144
        1148
        1152
        1156
        1160
        1164
        1168
        1172
        1176
        1180
        1184
        1188
        1192
        1196
        1200
        1204
        1208
        1212
        1216
        1220
        1224
        1228
        1232
        1236
        1240
        1244
        1248
        1252
        1256
        1260
        1264
        1268
        1272
        1276
        1280
        1284
        1288
        1292
        1296
        1300
        1304
        1308
        1312
        1316
        1320
        1324
        1328
        1332
        1336
        1340
        1344
        1348
        1352
        1356
        1360
        1364
        1368
        1372
        1376
        1380
        1384
        1388
        1392
        1396
        1400
        1404
        1408
        1412
        1416
        1420
        1424
        1428
        1432
        1436
        1440
        1444
        1448
        1452
        1456
        1460
        1464
        1468
        1472
        1476
        1480
        1484
        1488
        1492
        1496
        1500
        1504
        1508
        1512
        1516
        1520
        1524
        1528
        1532
        1536
        1540
        1544
        1548
        1552
        1556
        1560
        1564
        1568
        1572
        1576
        1580
        1584
        1588
        1592
        1596
        1600
        1604
        1608
        1612
        1616
        1620
        1624
        1628
        1632
        1636
        1640
        1644
        1648
        1652
        1656
        1660
        1664
        1668
        1672
        1676
        1680
        1684
        1688
        1692
        1696
        1700
        1704
        1708
        1712
        1716
        1720
        1724
        1728
        1732
        1736
        1740
        1744
        1748
        1752
        1756
        1760
        1764
        1768
        1772
        1776
        1780
        1784
        1788
        1792
        1796
        1800
        1804
        1808
        1812
        1816
        1820
        1824
        1828
        1832
        1836
        1840
        1844
        1848
        1852
        1856
        1860
        1864
        1868
        1872
        1876
        1880
        1884
        1888
        1892
        1896
        1900
        1904
        1908
        1912
        1916
        1920
        1924
        1928
        1932
        1936
        1940
        1944
        1948
        1952
        1956
        1960
        1964
        1968
        1972
        1976
        1980
        1984
        1988
        1992
        1996
        2000
        2004
        2008
        2012
        2016
        2020
        2024
        2028
        2032
        2036
        2040
        2044
        2048
        2052
        2056
        2060
        2064
        2068
        2072
        2076
        2080
        2084
        2088
        2092
        2096
        2100
        2104
        2108
        2112
        2116
        2120
        2124
        2128
        2132
        2136
        2140
        2144
        2148
        2152
        2156
        2160
        2164
        2168
        2172
        2176
        2180
        2184
        2188
        2192
        2196
        2200
        2204
        2208
        2212
        2216
        2220
        2224
        2228
        2232
        2236
        2240
        2244
        2248
        2252
        2256
        2260
        2264
        2268
        2272
        2276
        2280
        2284
        2288
        2292
        2296
        2300
        2304
        2308
        2312
        2316
        2320
        2324
        2328
        2332
        2336
        2340
        2344
        2348
        2352
        2356
        2360
        2364
        2368
        2372
        2376
        2380
        2384
        2388
        2392
        2396
        2400
        2404
        2408
        2412
        2416
        2420
        2424
        2428
        2432
        2436
        2440
        2444
        2448
        2452
        2456
        2460
        2464
        2468
        2472
        2476
        2480
        2484
        2488
        2492
        2496
        2500
        2504
        2508
        2512
        2516
        2520
        2524
        2528
        2532
        2536
        2540
        2544
        2548
        2552
        2556
        2560
        2564
        2568
        2572
        2576
        2580
        2584
        2588
        2592
        2596
        2600
        2604
        2608
        2612
        2616
        2620
        2624
        2628
        2632
        2636
        2640
        2644
        2648
        2652
        2656
        2660
        2664
        2668
        2672
        2676
        2680
        2684
        2688
        2692
        2696
        2700
        2704
        2708
        2712
        2716
        2720
        2724
        2728
        2732
        2736
        2740
        2744
        2748
        2752
        2756
        2760
        2764
        2768
        2772
        2776
        2780
        2784
        2788
        2792
        2796
        2800
        2804
        2808
        2812
        2816
        2820
        2824
        2828
        2832
        2836
        2840
        2844
        2848
        2852
        2856
        2860
        2864
        2868
        2872
        2876
        2880
        2884
        2888
        2892
        2896
        2900
        2904
        2908
        2912
        2916
        2920
        2924
        2928
        2932
        2936
        2940
        2944
        2948
        2952
        2956
        2960
        2964
        2968
        2972
        2976
        2980
        2984
        2988
        2992
        2996
        3000
        3004
        3008
        3012
        3016
        3020
        3024
        3028
        3032
        3036
        3040
        3044
        3048
        3052
        3056
        3060
        3064
        3068
        3072
        3076
        3080
        3084
        3088
        3092
        3096
        3100
        3104
        3108
        3112
        3116
        3120
        3124
        3128
        3132
        3136
        3140
        3144
        3148
        3152
        3156
        3160
        3164
        3168
        3172
        3176
        3180
        3184
        3188
        3192
        3196
        3200
        3204
        3208
        3212
        3216
        3220
        3224
        3228
        3232
        3236
        3240
        3244
        3248
        3252
        3256
        3260
        3264
        3268
        3272
        3276
        3280
        3284
        3288
        3292
        3296
        3300
        3304
        3308
        3312
        3316
        3320
        3324
        3328
        3332
        3336
        3340
        3344
        3348
        3352
        3356
        3360
        3364
        3368
        3372
        3376
        3380
        3384
        3388
        3392
        3396
        3400
        3404
        3408
        3412
        3416
        3420
        3424
        3428
        3432
        3436
        3440
        3444
        3448
        3452
        3456
        3460
        3464
        3468
        3472
        3476
        3480
        3484
        3488
        3492
        3496
        3500
        3504
        3508
        3512
        3516
        3520
        3524
        3528
        3532
        3536
        3540
        3544
        3548
        3552
        3556
        3560
        3564
        3568
        3572
        3576
        3580
        3584
        3588
        3592
        3596
        3600
        3604
        3608
        3612
        3616
        3620
        3624
        3628
        3632
        3636
        3640
        3644
        3648
        3652
        3656
        3660
        3664
        3668
        3672
        3676
        3680
        3684
        3688
        3692
        3696
        3700
        3704
        3708
        3712
        3716
        3720
        3724
        3728
        3732
        3736
        3740
        3744
        3748
        3752
        3756
        3760
        3764
        3768
        3772
        3776
        3780
        3784
        3788
        3792
        3796
        3800
        3804
        3808
        3812
        3816
        3820
        3824
        3828
        3832
        3836
        3840
        3844
        3848
        3852
        3856
        3860
        3864
        3868
        3872
        3876
        3880
        3884
        3888
        3892
        3896
        3900
        3904
        3908
        3912
        3916
        3920
        3924
        3928
        3932
        3936
        3940
        3944
        3948
        3952
        3956
        3960
        3964
        3968
        3972
        3976
        3980
        3984
        3988
        3992
        3996
        4000
        4004
        4008
        4012
        4016
        4020
        4024
        4028
        4032
        4036
        4040
        4044
        4048
        4052
        4056
        4060
        4064
        4068
        4072
        4076
        4080
        4084
        4088
        4092
        4096
 </DataArray>
 <DataArray  type="UInt8"  Name="types"  format="ascii">
 9
 9
 9
 9
 9
 9
 9
 9
 9
 9
 9
 9
 9
 9
 9
 9
 9
 9
 9
 9
 9
 9
 9
 9
 9
 9
 9
 9
 9
 9
 9
 9
 9
 9
 9
 9
 9
 9
 9
 9
 9
 9
 9
 9
 9
 9
 9
 9
 9
 9
 9
 9
 9
 9
 9
 9
 9
 9
 9
 9
 9
 9
 9
 9
 9
 9
 9
 9
 9
 9
 9
 9
 9
 9
 9
 9
 9
 9
 9
 9
 9
 9
 9
 9
 9
 9
 9
 9
 9
 9
 9
 9
 9
 9
 9
 9
 9
 9
 9
 9
 9
 9
 9
 9
 9
 9
 9
 9
 9
 9
 9
 9
 9
 9
 9
 9
 9
 9
 9
 9
 9
 9
 9
 9
 9
 9
 9
 9
 9
 9
 9
 9
 9
 9
 9
 9
 9
 9
 9
 9
 9
 9
 9
 9
 9
 9
 9
 9
 9
 9
 9
 9
 9
 9
 9
 9
 9
 9
 9
 9
 9
 9
 9
 9
 9
 9
 9
 9
 9
 9
 9
 9
 9
 9
 9
 9
 9
 9
 9
 9
 9
 9
 9
 9
 9
 9
 9
 9
 9
 9
 9
 9
 9
 9
 9
 9
 9
 9
 9
 9
 9
 9
 9
 9
 9
 9
 9
 9
 9
 9
 9
 9
 9
 9
 9
 9
 9
 9
 9
 9
 9
 9
 9
 9
 9
 9
 9
 9
 9
 9
 9
 9
 9
 9
 9
 9
 9
 9
 9
 9
 9
 9
 9
 9
 9
 9
 9
 9
 9
 9
 9
 9
 9
 9
 9
 9
 9
 9
 9
 9
 9
 9
 9
 9
 9
 9
 9
 9
 9
 9
 9
 9
 9
 9
 9
 9
 9
 9
 9
 9
 9
 9
 9
 9
 9
 9
 9
 9
 9
 9
 9
 9
 9
 9
 9
 9
 9
 9
 9
 9
 9
 9
 9
 9
 9
 9
 9
 9
 9
 9
 9
 9
 9
 9
 9
 9
 9
 9
 9
 9
 9
 9
 9
 9
 9
 9
 9
 9
 9
 9
 9
 9
 9
 9
 9
 9
 9
 9
 9
 9
 9
 9
 9
 9
 9
 9
 9
 9
 9
 9
 9
 9
 9
 9
 9
 9
 9
 9
 9
 9
 9
 9
 9
 9
 9
 9
 9
 9
 9
 9
 9
 9
 9
 9
 9
 9
 9
 9
 9
 9
 9
 9
 9
 9
 9
 9
 9
 9
 9
 9
 9
 9
 9
 9
 9
 9
 9
 9
 9
 9
 9
 9
 9
 9
 9
 9
 9
 9
 9
 9
 9
 9
 9
 9
 9
 9
 9
 9
 9
 9
 9
 9
 9
 9
 9
 9
 9
 9
 9
 9
 9
 9
 9
 9
 9
 9
 9
 9
 9
 9
 9
 9
 9
 9
 9
 9
 9
 9
 9
 9
 9
 9
 9
 9
 9
 9
 9
 9
 9
 9
 9
 9
 9
 9
 9
 9
 9
 9
 9
 9
 9
 9
 9
 9
 9
 9
 9
 9
 9
 9
 9
 9
 9
 9
 9
 9
 9
 9
 9
 9
 9
 9
 9
 9
 9
 9
 9
 9
 9
 9
 9
 9
 9
 9
 9
 9
 9
 9
 9
 9
 9
 9
 9
 9
 9
 9
 9
 9
 9
 9
 9
 9
 9
 9
 9
 9
 9
 9
 9
 9
 9
 9
 9
 9
 9
 9
 9
 9
 9
 9
 9
 9
 9
 9
 9
 9
 9
 9
 9
 9
 9
 9
 9
 9
 9
 9
 9
 9
 9
 9
 9
 9
 9
 9
 9
 9
 9
 9
 9
 9
 9
 9
 9
 9
 9
 9
 9
 9
 9
 9
 9
 9
 9
 9
 9
 9
 9
 9
 9
 9
 9
 9
 9
 9
 9
 9
 9
 9
 9
 9
 9
 9
 9
 9
 9
 9
 9
 9
 9
 9
 9
 9
 9
 9
 9
 9
 9
 9
 9
 9
 9
 9
 9
 9
 9
 9
 9
 9
 9
 9
 9
 9
 9
 9
 9
 9
 9
 9
 9
 9
 9
 9
 9
 9
 9
 9
 9
 9
 9
 9
 9
 9
 9
 9
 9
 9
 9
 9
 9
 9
 9
 9
 9
 9
 9
 9
 9
 9
 9
 9
 9
 9
 9
 9
 9
 9
 9
 9
 9
 9
 9
 9
 9
 9
 9
 9
 9
 9
 9
 9
 9
 9
 9
 9
 9
 9
 9
 9
 9
 9
 9
 9
 9
 9
 9
 9
 9
 9
 9
 9
 9
 9
 9
 9
 9
 9
 9
 9
 9
 9
 9
 9
 9
 9
 9
 9
 9
 9
 9
 9
 9
 9
 9
 9
 9
 9
 9
 9
 9
 9
 9
 9
 9
 9
 9
 9
 9
 9
 9
 9
 9
 9
 9
 9
 9
 9
 9
 9
 9
 9
 9
 9
 9
 9
 9
 9
 9
 9
 9
 9
 9
 9
 9
 9
 9
 9
 9
 9
 9
 9
 9
 9
 9
 9
 9
 9
 9
 9
 9
 9
 9
 9
 9
 9
 9
 9
 9
 9
 9
 9
 9
 9
 9
 9
 9
 9
 9
 9
 9
 9
 9
 9
 9
 9
 9
 9
 9
 9
 9
 9
 9
 9
 9
 9
 9
 9
 9
 9
 9
 9
 9
 9
 9
 9
 9
 9
 9
 9
 9
 9
 9
 9
 9
 9
 9
 9
 9
 9
 9
 9
 9
 9
 9
 9
 9
 9
 9
 9
 9
 9
 9
 9
 9
 9
 9
 9
 9
 9
 9
 9
 9
 9
 9
 9
 9
 9
 9
 9
 9
 9
 9
 9
 9
 9
 9
 9
 9
 9
 9
 9
 9
 9
 9
 9
 9
 9
 9
 9
 9
 9
 9
 9
 9
 9
 9
 9
 9
 9
 9
 9
 9
 9
 9
 9
 9
 9
 9
 9
 9
 9
 9
 9
 9
 9
 9
 9
 9
 9
 9
 9
 9
 9
 9
 9
 9
 9
 9
 9
 9
 9
 9
 9
 9
 9
 9
 9
 9
 9
 9
 9
 9
 9
 9
 9
 9
 9
 9
 9
 9
 9
 9
 9
 9
 9
 9
 9
 9
 9
 9
 9
 9
 9
 9
 9
 9
 9
 9
 9
 9
 9
 9
 9
 9
 9
 9
 9
 9
 9
 9
 9
 9
 9
 9
 9
 9
 9
 9
 9
 9
 9
 9
 9
 9
 9
 9
 9
 9
 9
 9
 9
 9
 9
 9
 9
 9
 9
 9
 9
 9
 9
 9
 9
 9
 9
 </DataArray>
 </Cells> 
 <PointData>
 <DataArray  type="Float64" Name="disp" NumberOfComponents="3" format="ascii">
   0.0000000000000000        0.0000000000000000        0.0000000000000000     
   6.0960919567328888E-003   3.7903954521696444E-003   0.0000000000000000     
   1.1666256637743157E-002   7.3237956735094454E-003   0.0000000000000000     
   1.6710494043030807E-002   1.0600200664019403E-002   0.0000000000000000     
   2.1228804172595844E-002   1.3619610423699515E-002   0.0000000000000000     
   0.0000000000000000        0.0000000000000000        0.0000000000000000     
   4.8912572565773501E-003   3.0221029932192989E-003   0.0000000000000000     
   9.5738633713361165E-003   6.0604627339629390E-003   0.0000000000000000     
   1.4047818344276302E-002   9.1150792222309193E-003   0.0000000000000000     
   1.8313122175397906E-002   1.2185952458023241E-002   0.0000000000000000     
   0.0000000000000000        0.0000000000000000        0.0000000000000000     
   3.9536606394779883E-003   2.4250650582799222E-003   0.0000000000000000     
   7.9108349371011799E-003   5.0627959907283112E-003   0.0000000000000000     
   1.1871522892869576E-002   7.9131927973451685E-003   0.0000000000000000     
   1.5835724506783173E-002   1.0976255478130491E-002   0.0000000000000000     
   0.0000000000000000        0.0000000000000000        0.0000000000000000     
   3.2833021054348025E-003   1.9992816473515139E-003   0.0000000000000000     
   6.6771713350383460E-003   4.3307954438055627E-003   0.0000000000000000     
   1.0181607688810629E-002   6.9945413893621466E-003   0.0000000000000000     
   1.3796611166751654E-002   9.9905194840212638E-003   0.0000000000000000     
   0.0000000000000000        0.0000000000000000        0.0000000000000000     
   2.8801816544477932E-003   1.7447527604340747E-003   0.0000000000000000     
   5.8728725651476148E-003   3.8644610931946929E-003   0.0000000000000000     
   8.9780727320994628E-003   6.3591249982818546E-003   0.0000000000000000     
   1.2195782155303340E-002   9.2287444756955616E-003   0.0000000000000000     
   2.1228804172595844E-002   1.3619610423699515E-002   0.0000000000000000     
   2.5434076521216802E-002   1.6612602570775185E-002   0.0000000000000000     
   2.9539200583672241E-002   1.9809754723471806E-002   0.0000000000000000     
   3.3544176359962152E-002   2.3211066881789384E-002   0.0000000000000000     
   3.7449003850086544E-002   2.6816539045727908E-002   0.0000000000000000     
   1.8313122175397906E-002   1.2185952458023241E-002   0.0000000000000000     
   2.2407975056831165E-002   1.5341431206106128E-002   0.0000000000000000     
   2.6370577180706317E-002   1.8649864231245802E-002   0.0000000000000000     
   3.0200928547023359E-002   2.2111251533442271E-002   0.0000000000000000     
   3.3899029155782301E-002   2.5725593112695525E-002   0.0000000000000000     
   1.5835724506783173E-002   1.0976255478130491E-002   0.0000000000000000     
   1.9731642520559724E-002   1.4210819266918416E-002   0.0000000000000000     
   2.3487479675916970E-002   1.7575719397543068E-002   0.0000000000000000     
   2.7103235972854911E-002   2.1070955870004449E-002   0.0000000000000000     
   3.0578911411373550E-002   2.4696528684302558E-002   0.0000000000000000     
   1.3796611166751654E-002   9.9905194840212638E-003   0.0000000000000000     
   1.7405078912402488E-002   1.3220766753212038E-002   0.0000000000000000     
   2.0889908069304210E-002   1.6587320222363592E-002   0.0000000000000000     
   2.4251098637456808E-002   2.0090179891475921E-002   0.0000000000000000     
   2.7488650616860295E-002   2.3729345760549025E-002   0.0000000000000000     
   1.2195782155303340E-002   9.2287444756955616E-003   0.0000000000000000     
   1.5428284232359460E-002   1.2371273664987005E-002   0.0000000000000000     
   1.8577862360868030E-002   1.5684666705707378E-002   0.0000000000000000     
   2.1644516540829058E-002   1.9168923597856682E-002   0.0000000000000000     
   2.4628246772242540E-002   2.2824044341434913E-002   0.0000000000000000     
   3.7449003850086544E-002   2.6816539045727908E-002   0.0000000000000000     
   4.1257912421473988E-002   3.0621635940422179E-002   0.0000000000000000     
   4.4975131441553066E-002   3.4621822291006979E-002   0.0000000000000000     
   4.8600660910323792E-002   3.8817098097482308E-002   0.0000000000000000     
   5.2134500827786159E-002   4.3207463359848160E-002   0.0000000000000000     
   3.3899029155782301E-002   2.5725593112695525E-002   0.0000000000000000     
   3.7487974043687769E-002   2.9521786461450816E-002   0.0000000000000000     
   4.0990858247444403E-002   3.3528729072153401E-002   0.0000000000000000     
   4.4407681767052218E-002   3.7746420944803287E-002   0.0000000000000000     
   4.7738444602511212E-002   4.2174862079400452E-002   0.0000000000000000     
   3.0578911411373550E-002   2.4696528684302558E-002   0.0000000000000000     
   3.3943875234721595E-002   2.8497020674352901E-002   0.0000000000000000     
   3.7227496686147762E-002   3.2517014674070970E-002   0.0000000000000000     
   4.0429775765652064E-002   3.6756510683456756E-002   0.0000000000000000     
   4.3550712473234478E-002   4.1215508702510256E-002   0.0000000000000000     
   2.7488650616860295E-002   2.3729345760549025E-002   0.0000000000000000     
   3.0625615994575472E-002   2.7547338579128430E-002   0.0000000000000000     
   3.3685046757663151E-002   3.1586679096759655E-002   0.0000000000000000     
   3.6666942906123316E-002   3.5847367313442700E-002   0.0000000000000000     
   3.9571304439955983E-002   4.0329403229177579E-002   0.0000000000000000     
   2.4628246772242540E-002   2.2824044341434913E-002   0.0000000000000000     
   2.7533196323249395E-002   2.6672740175777407E-002   0.0000000000000000     
   3.0363508461990540E-002   3.0737722340219487E-002   0.0000000000000000     
   3.3119183188465982E-002   3.5018990834761156E-002   0.0000000000000000     
   3.5800220502675728E-002   3.9516545659402401E-002   0.0000000000000000     
   5.2134500827786159E-002   4.3207463359848160E-002   0.0000000000000000     
   5.5574335703578406E-002   4.7797125424406478E-002   0.0000000000000000     
   5.8917850047338786E-002   5.2590291637459201E-002   0.0000000000000000     
   6.2165043859067300E-002   5.7586961999006328E-002   0.0000000000000000     
   6.5315917138763946E-002   6.2787136509047853E-002   0.0000000000000000     
   4.7738444602511212E-002   4.2174862079400452E-002   0.0000000000000000     
   5.0979273129550133E-002   4.6807326452729690E-002   0.0000000000000000     
   5.4126293723897753E-002   5.1637088041575727E-002   0.0000000000000000     
   5.7179506385554101E-002   5.6664146845938609E-002   0.0000000000000000     
   6.0138911114519134E-002   6.1888502865818290E-002   0.0000000000000000     
   4.3550712473234478E-002   4.1215508702510256E-002   0.0000000000000000     
   4.6586291222008497E-002   4.5881363763530483E-002   0.0000000000000000     
   4.9532496425087613E-002   5.0741430898816449E-002   0.0000000000000000     
   5.2389328082471806E-002   5.5795710108368111E-002   0.0000000000000000     
   5.5156786194161089E-002   6.1044201392185506E-002   0.0000000000000000     
   3.9571304439955983E-002   4.0329403229177579E-002   0.0000000000000000     
   4.2395389980953539E-002   4.5019237356808912E-002   0.0000000000000000     
   4.5136458150908366E-002   4.9903320209181333E-002   0.0000000000000000     
   4.7794508949820465E-002   5.4981651786294869E-002   0.0000000000000000     
   5.0369542377689834E-002   6.0254232088149492E-002   0.0000000000000000     
   3.5800220502675728E-002   3.9516545659402401E-002   0.0000000000000000     
   3.8406569406385239E-002   4.4220947232564922E-002   0.0000000000000000     
   4.0938178901360013E-002   4.9122755972670407E-002   0.0000000000000000     
   4.3395048987600049E-002   5.4221971879718847E-002   0.0000000000000000     
   4.5777179665105354E-002   5.9518594953710258E-002   0.0000000000000000     
   6.5315917138763946E-002   6.2787136509047853E-002   0.0000000000000000     
   6.8372476428248119E-002   6.8177805301470606E-002   0.0000000000000000     
   7.1336728269339164E-002   7.3745958510161413E-002   0.0000000000000000     
   7.4208672662037095E-002   7.9491596135120288E-002   0.0000000000000000     
   7.6988309606341898E-002   8.5414718176347215E-002   0.0000000000000000     
   6.0138911114519134E-002   6.1888502865818290E-002   0.0000000000000000     
   6.3008071568835144E-002   6.7301608993505083E-002   0.0000000000000000     
   6.5790551406544384E-002   7.2894918121289259E-002   0.0000000000000000     
   6.8486350627646866E-002   7.8668430249170834E-002   0.0000000000000000     
   7.1095469232142550E-002   8.4622145377149793E-002   0.0000000000000000     
   5.5156786194161089E-002   6.1044201392185506E-002   0.0000000000000000     
   5.7838843242539677E-002   6.6480652657935832E-002   0.0000000000000000     
   6.0439471709991748E-002   7.2098811813286326E-002   0.0000000000000000     
   6.2958671596517329E-002   7.7898678858236967E-002   0.0000000000000000     
   6.5396442902116408E-002   8.3880253792787740E-002   0.0000000000000000     
   5.0369542377689834E-002   6.0254232088149492E-002   0.0000000000000000     
   5.2864791449361695E-002   6.5714936294762855E-002   0.0000000000000000     
   5.5283489179681247E-002   7.1357639586152571E-002   0.0000000000000000     
   5.7625635568648512E-002   7.7182341962318643E-002   0.0000000000000000     
   5.9891230616263474E-002   8.3189043423261097E-002   0.0000000000000000     
   4.5777179665105354E-002   5.9518594953710258E-002   0.0000000000000000     
   4.8085916189301206E-002   6.5004459903986150E-002   0.0000000000000000     
   5.0322603815612883E-002   7.0671401439888024E-002   0.0000000000000000     
   5.2487242544040399E-002   7.6519419561415905E-002   0.0000000000000000     
   5.4579832374583755E-002   8.2548514268569767E-002   0.0000000000000000     
   7.6988309606341898E-002   8.5414718176347215E-002   0.0000000000000000     
   7.9671130666819842E-002   9.1506604139130893E-002   0.0000000000000000     
   8.2252627408037168E-002   9.7758533528760100E-002   0.0000000000000000     
   8.4732799829993891E-002  0.10417050634523480        0.0000000000000000     
   8.7111647932689995E-002  0.11074252258855496        0.0000000000000000     
   7.1095469232142550E-002   8.4622145377149793E-002   0.0000000000000000     
   7.3612937925735977E-002   9.0744904319081166E-002   0.0000000000000000     
   7.6033787414131693E-002   9.7025547888819910E-002   0.0000000000000000     
   7.8358017697329641E-002  0.10346407608636608        0.0000000000000000     
   8.0585628775329862E-002  0.11006048891171963        0.0000000000000000     
   6.5396442902116408E-002   8.3880253792787740E-002   0.0000000000000000     
   6.7747860731866130E-002   9.0030975635511726E-002   0.0000000000000000     
   7.0008000190843633E-002   9.6338283404981892E-002   0.0000000000000000     
   7.2176861279048904E-002  0.10280217710119824        0.0000000000000000     
   7.4254443996481970E-002  0.10942265672416078        0.0000000000000000     
   5.9891230616263474E-002   8.3189043423261097E-002   0.0000000000000000     
   6.2075899085210259E-002   8.9364818088422629E-002   0.0000000000000000     
   6.4175265738172990E-002   9.5696740077246045E-002   0.0000000000000000     
   6.6189330575151667E-002  0.10218480938973130        0.0000000000000000     
   6.8118093596146276E-002  0.10882902602587842        0.0000000000000000     
   5.4579832374583755E-002   8.2548514268569767E-002   0.0000000000000000     
   5.6597052985768406E-002   8.8746431677813847E-002   0.0000000000000000     
   5.8535584056119784E-002   9.5100917905612342E-002   0.0000000000000000     
   6.0395425585637930E-002  0.10161197295196525        0.0000000000000000     
   6.2176577574322808E-002  0.10827959681687258        0.0000000000000000     
   8.7111647932689995E-002  0.11074252258855496        0.0000000000000000     
   8.9396093899843543E-002  0.11745931769706520        0.0000000000000000     
   9.1593059915172678E-002  0.12430562710911004        0.0000000000000000     
   9.3702545978677304E-002  0.13128145082468948        0.0000000000000000     
   9.5724552090357518E-002  0.13838678884380351        0.0000000000000000     
   8.0585628775329862E-002  0.11006048891171963        0.0000000000000000     
   8.2725561356232713E-002  0.11680242059099348        0.0000000000000000     
   8.4786756148138590E-002  0.12367750535030050        0.0000000000000000     
   8.6769213151047464E-002  0.13068574318964071        0.0000000000000000     
   8.8672932364959337E-002  0.13782713410901409        0.0000000000000000     
   7.4254443996481970E-002  0.10942265672416078        0.0000000000000000     
   7.6250602258415026E-002  0.11618915062568515        0.0000000000000000     
   7.8175189980120352E-002  0.12309108715758699        0.0000000000000000     
   8.0028207161597920E-002  0.13012846631986627        0.0000000000000000     
   8.1809653802847770E-002  0.13730128811252301        0.0000000000000000     
   6.8118093596146276E-002  0.10882902602587842        0.0000000000000000     
   6.9971216606390482E-002  0.11561950780114021        0.0000000000000000     
   7.1758361411117980E-002  0.12254637253096944        0.0000000000000000     
   7.3479528010328740E-002  0.12960962021536612        0.0000000000000000     
   7.5134716404022778E-002  0.13680925085433027        0.0000000000000000     
   6.2176577574322808E-002  0.10827959681687258        0.0000000000000000     
   6.3887404400159095E-002  0.11509349211735867        0.0000000000000000     
   6.5536270441131445E-002  0.12204336147044792        0.0000000000000000     
   6.7123175697239856E-002  0.12912920487614030        0.0000000000000000     
   6.8648120168484345E-002  0.13635102233443586        0.0000000000000000     
   9.5724552090357518E-002  0.13838678884380351        0.0000000000000000     
   9.7655317437400274E-002  0.14561929750438699        0.0000000000000000     
   9.9491081206992626E-002  0.15297663314437468        0.0000000000000000     
  0.10123184339913457       0.16045879576376654        0.0000000000000000     
  0.10287760401382610       0.16806578536256267        0.0000000000000000     
   8.8672932364959337E-002  0.13782713410901409        0.0000000000000000     
   9.0486676253957926E-002  0.14509043318517603        0.0000000000000000     
   9.2199207282126813E-002  0.15246439549488186        0.0000000000000000     
   9.3810525449466053E-002  0.15994902103813161        0.0000000000000000     
   9.5320630755975660E-002  0.16754430981492521        0.0000000000000000     
   8.1809653802847770E-002  0.13730128811252301        0.0000000000000000     
   8.3504163523031222E-002  0.14459316576566519        0.0000000000000000     
   8.5096369941309674E-002  0.15198771250940074        0.0000000000000000     
   8.6586273057683086E-002  0.15948492834372968        0.0000000000000000     
   8.7973872872151526E-002  0.16708481326865202        0.0000000000000000     
   7.5134716404022778E-002  0.13680925085433027        0.0000000000000000     
   7.6707779244620189E-002  0.14412749524585450        0.0000000000000000     
   7.8182569184541154E-002  0.15154658418793135        0.0000000000000000     
   7.9559086223785658E-002  0.15906651768056090        0.0000000000000000     
   8.0837330362353674E-002  0.16668729572374313        0.0000000000000000     
   6.8648120168484345E-002  0.13635102233443586        0.0000000000000000     
   7.0097523418724841E-002  0.14369342162574383        0.0000000000000000     
   7.1457805011821293E-002  0.15114101053047363        0.0000000000000000     
   7.2728964947773728E-002  0.15869378904862519        0.0000000000000000     
   7.3911003226582117E-002  0.16635175718019851        0.0000000000000000     
   0.0000000000000000        0.0000000000000000        0.0000000000000000     
   2.8801816544477932E-003   1.7447527604340747E-003   0.0000000000000000     
   5.8728725651476148E-003   3.8644610931946929E-003   0.0000000000000000     
   8.9780727320994628E-003   6.3591249982818546E-003   0.0000000000000000     
   1.2195782155303340E-002   9.2287444756955616E-003   0.0000000000000000     
   0.0000000000000000        0.0000000000000000        0.0000000000000000     
   2.6104414378221069E-003   1.5888193335933491E-003   0.0000000000000000     
   5.2899432001209321E-003   3.5564814993253608E-003   0.0000000000000000     
   8.0385052868964767E-003   5.9029864971960342E-003   0.0000000000000000     
   1.0856127698148739E-002   8.6283343272053718E-003   0.0000000000000000     
   0.0000000000000000        0.0000000000000000        0.0000000000000000     
   2.3402236068628883E-003   1.4588223028950819E-003   0.0000000000000000     
   4.7203878126502435E-003   3.2995452226272245E-003   0.0000000000000000     
   7.1404926173620651E-003   5.5221687591964271E-003   0.0000000000000000     
   9.6005380209983511E-003   8.1266929126026909E-003   0.0000000000000000     
   0.0000000000000000        0.0000000000000000        0.0000000000000000     
   2.0695281615701385E-003   1.3547616683392734E-003   0.0000000000000000     
   4.1642064027355473E-003   3.0936522631002843E-003   0.0000000000000000     
   6.2840347234962273E-003   5.2166717842830317E-003   0.0000000000000000     
   8.4290131238521793E-003   7.7238202318875163E-003   0.0000000000000000     
   0.0000000000000000        0.0000000000000000        0.0000000000000000     
   1.7983551019438576E-003   1.2766374299259238E-003   0.0000000000000000     
   3.6213989703768466E-003   2.9388026207445403E-003   0.0000000000000000     
   5.4691316052989675E-003   4.9864955724558489E-003   0.0000000000000000     
   7.3415530067102198E-003   7.4197162850598514E-003   0.0000000000000000     
   1.2195782155303340E-002   9.2287444756955616E-003   0.0000000000000000     
   1.5428284232359460E-002   1.2371273664987005E-002   0.0000000000000000     
   1.8577862360868030E-002   1.5684666705707378E-002   0.0000000000000000     
   2.1644516540829058E-002   1.9168923597856682E-002   0.0000000000000000     
   2.4628246772242540E-002   2.2824044341434913E-002   0.0000000000000000     
   1.0856127698148739E-002   8.6283343272053718E-003   0.0000000000000000     
   1.3689521921168204E-002   1.1650285103911794E-002   0.0000000000000000     
   1.6485399443245351E-002   1.4886598941873722E-002   0.0000000000000000     
   1.9243760264380190E-002   1.8337275841091155E-002   0.0000000000000000     
   2.1964604384572706E-002   2.2002315801564098E-002   0.0000000000000000     
   9.6005380209983511E-003   8.1266929126026909E-003   0.0000000000000000     
   1.2077055419566295E-002   1.1045746171654897E-002   0.0000000000000000     
   1.4546576209073087E-002   1.4211957025161920E-002   0.0000000000000000     
   1.7009100389518729E-002   1.7625325473123767E-002   0.0000000000000000     
   1.9464627960903220E-002   2.1285851515540438E-002   0.0000000000000000     
   8.4290131238521793E-003   7.7238202318875163E-003   0.0000000000000000     
   1.0590884727553738E-002   1.0557656868216310E-002   0.0000000000000000     
   1.2761392658351236E-002   1.3660740955571977E-002   0.0000000000000000     
   1.4940536916244687E-002   1.7033072493954513E-002   0.0000000000000000     
   1.7128317501234072E-002   2.0674651483363927E-002   0.0000000000000000     
   7.3415530067102198E-003   7.4197162850598514E-003   0.0000000000000000     
   9.2310098451305247E-003   1.0186017193596034E-002   0.0000000000000000     
   1.1129848791079802E-002   1.3232950733103883E-002   0.0000000000000000     
   1.3038069844558051E-002   1.6560516903583400E-002   0.0000000000000000     
   1.4955673005565273E-002   2.0168715705034583E-002   0.0000000000000000     
   2.4628246772242540E-002   2.2824044341434913E-002   0.0000000000000000     
   2.7533196323249395E-002   2.6672740175777407E-002   0.0000000000000000     
   3.0363508461990540E-002   3.0737722340219487E-002   0.0000000000000000     
   3.3119183188465982E-002   3.5018990834761156E-002   0.0000000000000000     
   3.5800220502675728E-002   3.9516545659402401E-002   0.0000000000000000     
   2.1964604384572706E-002   2.2002315801564098E-002   0.0000000000000000     
   2.4631330683903406E-002   2.5879718547225053E-002   0.0000000000000000     
   2.7227338042452805E-002   2.9967483802006527E-002   0.0000000000000000     
   2.9752626460220890E-002   3.4265611565908523E-002   0.0000000000000000     
   3.2207195937207667E-002   3.8774101838931041E-002   0.0000000000000000     
   1.9464627960903220E-002   2.1285851515540438E-002   0.0000000000000000     
   2.1884733539697557E-002   2.5174766776396584E-002   0.0000000000000000     
   2.4240991742372767E-002   2.9273302879676857E-002   0.0000000000000000     
   2.6533402568928843E-002   3.3581459825381271E-002   0.0000000000000000     
   2.8761966019365783E-002   3.8099237613509820E-002   0.0000000000000000     
   1.7128317501234072E-002   2.0674651483363927E-002   0.0000000000000000     
   1.9293404890631843E-002   2.4557884863291992E-002   0.0000000000000000     
   2.1404469561750433E-002   2.8655179573230483E-002   0.0000000000000000     
   2.3461511514589844E-002   3.2966535613179394E-002   0.0000000000000000     
   2.5464530749150078E-002   3.7491952983138739E-002   0.0000000000000000     
   1.4955673005565273E-002   2.0168715705034583E-002   0.0000000000000000     
   1.6857344736706258E-002   2.4029072807911295E-002   0.0000000000000000     
   1.8717771500585796E-002   2.8113113882667400E-002   0.0000000000000000     
   2.0536953297203890E-002   3.2420838929302899E-002   0.0000000000000000     
   2.2314890126560544E-002   3.6952247947817776E-002   0.0000000000000000     
   3.5800220502675728E-002   3.9516545659402401E-002   0.0000000000000000     
   3.8406569406385239E-002   4.4220947232564922E-002   0.0000000000000000     
   4.0938178901360013E-002   4.9122755972670407E-002   0.0000000000000000     
   4.3395048987600049E-002   5.4221971879718847E-002   0.0000000000000000     
   4.5777179665105354E-002   5.9518594953710258E-002   0.0000000000000000     
   3.2207195937207667E-002   3.8774101838931041E-002   0.0000000000000000     
   3.4593369293183907E-002   4.3488510649769191E-002   0.0000000000000000     
   3.6913469347920405E-002   4.8404394027118096E-002   0.0000000000000000     
   3.9167496101417135E-002   5.3521751970977735E-002   0.0000000000000000     
   4.1355449553674123E-002   5.8840584481348143E-002   0.0000000000000000     
   2.8761966019365783E-002   3.8099237613509820E-002   0.0000000000000000     
   3.0929329436229863E-002   4.2823944867392390E-002   0.0000000000000000     
   3.3038140162067353E-002   4.7752890210358862E-002   0.0000000000000000     
   3.5088398196878277E-002   5.2886073642409236E-002   0.0000000000000000     
   3.7080103540662608E-002   5.8223495163543512E-002   0.0000000000000000     
   2.5464530749150078E-002   3.7491952983138739E-002   0.0000000000000000     
   2.7414449835523099E-002   4.2227249885434484E-002   0.0000000000000000     
   2.9312191343800902E-002   4.7168244522392690E-002   0.0000000000000000     
   3.1157755273983470E-002   5.2314936894013300E-002   0.0000000000000000     
   3.2951141626070816E-002   5.7667327000296364E-002   0.0000000000000000     
   2.2314890126560544E-002   3.6952247947817776E-002   0.0000000000000000     
   2.4048730491063625E-002   4.1698425703895509E-002   0.0000000000000000     
   2.5735622893121018E-002   4.6650456963219587E-002   0.0000000000000000     
   2.7375567332732723E-002   5.1808341725789978E-002   0.0000000000000000     
   2.8968563809898741E-002   5.7172079991606693E-002   0.0000000000000000     
   4.5777179665105354E-002   5.9518594953710258E-002   0.0000000000000000     
   4.8085916189301206E-002   6.5004459903986150E-002   0.0000000000000000     
   5.0322603815612883E-002   7.0671401439888024E-002   0.0000000000000000     
   5.2487242544040399E-002   7.6519419561415905E-002   0.0000000000000000     
   5.4579832374583755E-002   8.2548514268569767E-002   0.0000000000000000     
   4.1355449553674123E-002   5.8840584481348143E-002   0.0000000000000000     
   4.3476690928718087E-002   6.4350150859319416E-002   0.0000000000000000     
   4.5530581450575779E-002   7.0039710405981698E-002   0.0000000000000000     
   4.7517121119247184E-002   7.5909263121334961E-002   0.0000000000000000     
   4.9436309934732317E-002   8.1958809005379274E-002   0.0000000000000000     
   3.7080103540662608E-002   5.8223495163543512E-002   0.0000000000000000     
   3.9011589133972242E-002   6.3752936534476404E-002   0.0000000000000000     
   4.0881187917359056E-002   6.9462179515922623E-002   0.0000000000000000     
   4.2688899890823064E-002   7.5351224107882170E-002   0.0000000000000000     
   4.4434725054364257E-002   8.1420070310355017E-002   0.0000000000000000     
   3.2951141626070816E-002   5.7667327000296364E-002   0.0000000000000000     
   3.4690610805063658E-002   6.3212816929457100E-002   0.0000000000000000     
   3.6374423215962730E-002   6.8938808769710799E-002   0.0000000000000000     
   3.8002578858768038E-002   7.4845302521057436E-002   0.0000000000000000     
   3.9575077733479569E-002   8.0932298183497023E-002   0.0000000000000000     
   2.8968563809898741E-002   5.7172079991606693E-002   0.0000000000000000     
   3.0513755941992342E-002   6.2729792044261518E-002   0.0000000000000000     
   3.2010287346386786E-002   6.8469598167346227E-002   0.0000000000000000     
   3.3458158023082087E-002   7.4391498360860828E-002   0.0000000000000000     
   3.4857367972078238E-002   8.0495492624805307E-002   0.0000000000000000     
   5.4579832374583755E-002   8.2548514268569767E-002   0.0000000000000000     
   5.6597052985768406E-002   8.8746431677813847E-002   0.0000000000000000     
   5.8535584056119784E-002   9.5100917905612342E-002   0.0000000000000000     
   6.0395425585637930E-002  0.10161197295196525        0.0000000000000000     
   6.2176577574322808E-002  0.10827959681687258        0.0000000000000000     
   4.9436309934732317E-002   8.1958809005379274E-002   0.0000000000000000     
   5.1285859938975428E-002   8.8176964342414788E-002   0.0000000000000000     
   5.3063483173920761E-002   9.4552345416741831E-002   0.0000000000000000     
   5.4769179639568330E-002  0.10108495222836034        0.0000000000000000     
   5.6402949335918127E-002  0.10777478477727034        0.0000000000000000     
   4.4434725054364257E-002   8.1420070310355017E-002   0.0000000000000000     
   4.6116857450266252E-002   8.7657564020954898E-002   0.0000000000000000     
   4.7733491120812682E-002   9.4052551137295493E-002   0.0000000000000000     
   4.9284626066003534E-002  0.10060503165937679        0.0000000000000000     
   5.0770262285838814E-002  0.10731500558719879        0.0000000000000000     
   3.9575077733479569E-002   8.0932298183497023E-002   0.0000000000000000     
   4.1090045519640871E-002   8.7188230713434151E-002   0.0000000000000000     
   4.2545607896795533E-002   9.3601535067273353E-002   0.0000000000000000     
   4.3941764864943514E-002  0.10017221124501462        0.0000000000000000     
   4.5278516424084848E-002  0.10690025924665800        0.0000000000000000     
   3.4857367972078238E-002   8.0495492624805307E-002   0.0000000000000000     
   3.6205424147099291E-002   8.6768964419852518E-002   0.0000000000000000     
   3.7499833501869313E-002   9.3199297206675386E-002   0.0000000000000000     
   3.8740596036388304E-002   9.9786490985273826E-002   0.0000000000000000     
   3.9927711750656250E-002  0.10653054575564790        0.0000000000000000     
   6.2176577574322808E-002  0.10827959681687258        0.0000000000000000     
   6.3887404400159095E-002  0.11509349211735867        0.0000000000000000     
   6.5536270441131445E-002  0.12204336147044792        0.0000000000000000     
   6.7123175697239856E-002  0.12912920487614030        0.0000000000000000     
   6.8648120168484345E-002  0.13635102233443586        0.0000000000000000     
   5.6402949335918127E-002  0.10777478477727034        0.0000000000000000     
   5.7971540159669932E-002  0.11461081980952120        0.0000000000000000     
   5.9481700007523501E-002  0.12158203407116244        0.0000000000000000     
   6.0933428879478856E-002  0.12868842756219398        0.0000000000000000     
   6.2326726775535989E-002  0.13593000028261581        0.0000000000000000     
   5.0770262285838814E-002  0.10731500558719879        0.0000000000000000     
   5.2195998404872081E-002  0.11417120711280852        0.0000000000000000     
   5.3567433047656904E-002  0.12116237042825304        0.0000000000000000     
   5.4884566214193263E-002  0.12828849553353225        0.0000000000000000     
   5.6147397904481193E-002  0.13554958242864623        0.0000000000000000     
   4.5278516424084848E-002  0.10690025924665800        0.0000000000000000     
   4.6560779135765548E-002  0.11377465402722060        0.0000000000000000     
   4.7793469561531632E-002  0.12078437054171966        0.0000000000000000     
   4.8976587701383106E-002  0.12792940879015516        0.0000000000000000     
   5.0110133555319965E-002  0.13520976877252705        0.0000000000000000     
   3.9927711750656250E-002  0.10653054575564790        0.0000000000000000     
   4.1065882352350321E-002  0.11342116055275744        0.0000000000000000     
   4.2159809549147692E-002  0.12044803441156238        0.0000000000000000     
   4.3209493341048344E-002  0.12761116733206268        0.0000000000000000     
   4.4214933728052297E-002  0.13491055931425835        0.0000000000000000     
   6.8648120168484345E-002  0.13635102233443586        0.0000000000000000     
   7.0097523418724841E-002  0.14369342162574383        0.0000000000000000     
   7.1457805011821293E-002  0.15114101053047363        0.0000000000000000     
   7.2728964947773728E-002  0.15869378904862519        0.0000000000000000     
   7.3911003226582117E-002  0.16635175718019851        0.0000000000000000     
   6.2326726775535989E-002  0.13593000028261581        0.0000000000000000     
   6.3651487177799754E-002  0.14329462733276532        0.0000000000000000     
   6.4897603568375040E-002  0.15077018381297982        0.0000000000000000     
   6.6065075947261853E-002  0.15835666972325935        0.0000000000000000     
   6.7153904314460167E-002  0.16605408506360381        0.0000000000000000     
   5.6147397904481193E-002  0.13554958242864623        0.0000000000000000     
   5.7347761654299584E-002  0.14293479479435089        0.0000000000000000     
   5.8477490999427374E-002  0.15043329631140220        0.0000000000000000     
   5.9536585939864536E-002  0.15804508697980016        0.0000000000000000     
   6.0525046475611105E-002  0.16577016679954476        0.0000000000000000     
   5.0110133555319965E-002  0.13520976877252705        0.0000000000000000     
   5.1186346848224332E-002  0.14261392401050058        0.0000000000000000     
   5.2197467304978262E-002  0.15013034802574077        0.0000000000000000     
   5.3143494925581805E-002  0.15775904081824771        0.0000000000000000     
   5.4024429710034919E-002  0.16550000238802132        0.0000000000000000     
   4.4214933728052297E-002  0.13491055931425835        0.0000000000000000     
   4.5167242759573956E-002  0.14233201498121434        0.0000000000000000     
   4.6057532485027718E-002  0.14986133895599549        0.0000000000000000     
   4.6885802904413618E-002  0.15749853123860191        0.0000000000000000     
   4.7652054017731628E-002  0.16524359182903353        0.0000000000000000     
   0.0000000000000000        0.0000000000000000        0.0000000000000000     
   1.7983551019438576E-003   1.2766374299259238E-003   0.0000000000000000     
   3.6213989703768466E-003   2.9388026207445403E-003   0.0000000000000000     
   5.4691316052989675E-003   4.9864955724558489E-003   0.0000000000000000     
   7.3415530067102198E-003   7.4197162850598514E-003   0.0000000000000000     
   0.0000000000000000        0.0000000000000000        0.0000000000000000     
   1.5349971629101170E-003   1.2173460021780110E-003   0.0000000000000000     
   3.0993406721519508E-003   2.8204973832703971E-003   0.0000000000000000     
   4.6930305277255013E-003   4.8094541432771578E-003   0.0000000000000000     
   6.3160667296307677E-003   7.1842162821982936E-003   0.0000000000000000     
   0.0000000000000000        0.0000000000000000        0.0000000000000000     
   1.2877470793949898E-003   1.1697837996185140E-003   0.0000000000000000     
   2.6054066646386716E-003   2.7242376383882594E-003   0.0000000000000000     
   3.9529787557310457E-003   4.6633615163092345E-003   0.0000000000000000     
   5.3304633526721117E-003   6.9871554333814419E-003   0.0000000000000000     
   0.0000000000000000        0.0000000000000000        0.0000000000000000     
   1.0566048513984752E-003   1.1339508222474324E-003   0.0000000000000000     
   2.1395969478370087E-003   2.6500233860981266E-003   0.0000000000000000     
   3.2489762893156021E-003   4.5482176915520823E-003   0.0000000000000000     
   4.3847428758342528E-003   6.8285337386092991E-003   0.0000000000000000     
   0.0000000000000000        0.0000000000000000        0.0000000000000000     
   8.4157047892057381E-004   1.1098470700647662E-003   0.0000000000000000     
   1.7019115217469633E-003   2.5978546263999988E-003   0.0000000000000000     
   2.5810231284791687E-003   4.4640226690056978E-003   0.0000000000000000     
   3.4789052991171902E-003   6.7083511978818641E-003   0.0000000000000000     
   7.3415530067102198E-003   7.4197162850598514E-003   0.0000000000000000     
   9.2310098451305247E-003   1.0186017193596034E-002   0.0000000000000000     
   1.1129848791079802E-002   1.3232950733103883E-002   0.0000000000000000     
   1.3038069844558051E-002   1.6560516903583400E-002   0.0000000000000000     
   1.4955673005565273E-002   2.0168715705034583E-002   0.0000000000000000     
   6.3160667296307677E-003   7.1842162821982936E-003   0.0000000000000000     
   7.9557334058937852E-003   9.8951746479618644E-003   0.0000000000000000     
   9.5993146845405834E-003   1.2892720088495934E-002   0.0000000000000000     
   1.1246810565571167E-002   1.6176852603800501E-002   0.0000000000000000     
   1.2898221048985532E-002   1.9747572193875566E-002   0.0000000000000000     
   5.3304633526721117E-003   6.9871554333814419E-003   0.0000000000000000     
   6.7233580434406370E-003   9.6494767314815981E-003   0.0000000000000000     
   8.1171604160153871E-003   1.2604182752486421E-002   0.0000000000000000     
   9.5118704703963611E-003   1.5851273496395910E-002   0.0000000000000000     
   1.0907488206583564E-002   1.9390748963210063E-002   0.0000000000000000     
   4.3847428758342528E-003   6.8285337386092991E-003   0.0000000000000000     
   5.5338837577710827E-003   9.4489234441552331E-003   0.0000000000000000     
   6.6833859855042121E-003   1.2367338725075340E-002   0.0000000000000000     
   7.8332495590336393E-003   1.5583779581369623E-002   0.0000000000000000     
   8.9834744783593677E-003   1.9098246013038073E-002   0.0000000000000000     
   3.4789052991171902E-003   6.7083511978818641E-003   0.0000000000000000     
   4.3873105488851215E-003   9.2935147859827729E-003   0.0000000000000000     
   5.2979913930070567E-003   1.2182188006262697E-002   0.0000000000000000     
   6.2109478314829984E-003   1.5374370858721637E-002   0.0000000000000000     
   7.1261798643129422E-003   1.8870063343359594E-002   0.0000000000000000     
   1.4955673005565273E-002   2.0168715705034583E-002   0.0000000000000000     
   1.6857344736706258E-002   2.4029072807911295E-002   0.0000000000000000     
   1.8717771500585796E-002   2.8113113882667400E-002   0.0000000000000000     
   2.0536953297203890E-002   3.2420838929302899E-002   0.0000000000000000     
   2.2314890126560544E-002   3.6952247947817776E-002   0.0000000000000000     
   1.2898221048985532E-002   1.9747572193875566E-002   0.0000000000000000     
   1.4537262751614819E-002   2.3578880356987773E-002   0.0000000000000000     
   1.6147652290290165E-002   2.7644778591403754E-002   0.0000000000000000     
   1.7729389665011568E-002   3.1945266897123521E-002   0.0000000000000000     
   1.9282474875779033E-002   3.6480345274147064E-002   0.0000000000000000     
   1.0907488206583564E-002   1.9390748963210063E-002   0.0000000000000000     
   1.2293868609051540E-002   2.3197857257254723E-002   0.0000000000000000     
   1.3660866662274835E-002   2.7247846482855709E-002   0.0000000000000000     
   1.5008482366253456E-002   3.1540716640013032E-002   0.0000000000000000     
   1.6336715720987396E-002   3.6076467728726691E-002   0.0000000000000000     
   8.9834744783593677E-003   1.9098246013038073E-002   0.0000000000000000     
   1.0127162309016415E-002   2.2886003508712140E-002   0.0000000000000000     
   1.1257414616539811E-002   2.6922317557023265E-002   0.0000000000000000     
   1.2374231400929549E-002   3.1207188157971449E-002   0.0000000000000000     
   1.3477612662185633E-002   3.5740615311556687E-002   0.0000000000000000     
   7.1261798643129422E-003   1.8870063343359594E-002   0.0000000000000000     
   8.0371438515094516E-003   2.2643319111360034E-002   0.0000000000000000     
   8.9372961530850888E-003   2.6668191813906415E-002   0.0000000000000000     
   9.8266367690398506E-003   3.0944681450998743E-002   0.0000000000000000     
   1.0705165699373739E-002   3.5472788022637022E-002   0.0000000000000000     
   2.2314890126560544E-002   3.6952247947817776E-002   0.0000000000000000     
   2.4048730491063625E-002   4.1698425703895509E-002   0.0000000000000000     
   2.5735622893121018E-002   4.6650456963219587E-002   0.0000000000000000     
   2.7375567332732723E-002   5.1808341725789978E-002   0.0000000000000000     
   2.8968563809898741E-002   5.7172079991606693E-002   0.0000000000000000     
   1.9282474875779033E-002   3.6480345274147064E-002   0.0000000000000000     
   2.0800292522626707E-002   4.1235645938950224E-002   0.0000000000000000     
   2.2276227205588743E-002   4.6196801108008841E-002   0.0000000000000000     
   2.3710278924665141E-002   5.1363810781322933E-002   0.0000000000000000     
   2.5102447679855904E-002   5.6736674958892466E-002   0.0000000000000000     
   1.6336715720987396E-002   3.6076467728726691E-002   0.0000000000000000     
   1.7637257049987625E-002   4.0837084206773379E-002   0.0000000000000000     
   1.8901796676765104E-002   4.5804550531929764E-002   0.0000000000000000     
   2.0130334601319830E-002   5.0978866704195845E-002   0.0000000000000000     
   2.1322870823651814E-002   5.6360032723571624E-002   0.0000000000000000     
   1.3477612662185633E-002   3.5740615311556687E-002   0.0000000000000000     
   1.4559624073146376E-002   4.0502740507364979E-002   0.0000000000000000     
   1.5612331306650098E-002   4.5473705234982328E-002   0.0000000000000000     
   1.6635734362696795E-002   5.0653509494408729E-002   0.0000000000000000     
   1.7629833241286471E-002   5.6042153285644200E-002   0.0000000000000000     
   1.0705165699373739E-002   3.5472788022637022E-002   0.0000000000000000     
   1.1567393592102963E-002   4.0232614840725024E-002   0.0000000000000000     
   1.2407831095243724E-002   4.5204265217166556E-002   0.0000000000000000     
   1.3226478208796027E-002   5.0387739151961597E-002   0.0000000000000000     
   1.4023334932759875E-002   5.5783036645110168E-002   0.0000000000000000     
   2.8968563809898741E-002   5.7172079991606693E-002   0.0000000000000000     
   3.0513755941992342E-002   6.2729792044261518E-002   0.0000000000000000     
   3.2010287346386786E-002   6.8469598167346227E-002   0.0000000000000000     
   3.3458158023082087E-002   7.4391498360860828E-002   0.0000000000000000     
   3.4857367972078238E-002   8.0495492624805307E-002   0.0000000000000000     
   2.5102447679855904E-002   5.6736674958892466E-002   0.0000000000000000     
   2.6452882565693388E-002   6.2304371414453226E-002   0.0000000000000000     
   2.7761732676709970E-002   6.8055877921741004E-002   0.0000000000000000     
   2.9028998012905639E-002   7.3991194480755737E-002   0.0000000000000000     
   3.0254678574280408E-002   8.0110321091497488E-002   0.0000000000000000     
   2.1322870823651814E-002   5.6360032723571624E-002   0.0000000000000000     
   2.2479848697101915E-002   6.1937064575595835E-002   0.0000000000000000     
   2.3601711575011015E-002   6.7698978245807173E-002   0.0000000000000000     
   2.4688459457379103E-002   7.3645773734205652E-002   0.0000000000000000     
   2.5740092344206197E-002   7.9777451040791258E-002   0.0000000000000000     
   1.7629833241286471E-002   5.6042153285644200E-002   0.0000000000000000     
   1.8594654336217913E-002   6.1627871527689337E-002   0.0000000000000000     
   1.9530224041289915E-002   6.7398899139544777E-002   0.0000000000000000     
   2.0436542356502482E-002   7.3355236121210504E-002   0.0000000000000000     
   2.1313609281855612E-002   7.9496882472686561E-002   0.0000000000000000     
   1.4023334932759875E-002   5.5783036645110168E-002   0.0000000000000000     
   1.4797299483041383E-002   6.1376792270733727E-002   0.0000000000000000     
   1.5547270075546682E-002   6.7155640602953814E-002   0.0000000000000000     
   1.6273246710275770E-002   7.3119581641770390E-002   0.0000000000000000     
   1.6975229387228650E-002   7.9268615387183453E-002   0.0000000000000000     
   3.4857367972078238E-002   8.0495492624805307E-002   0.0000000000000000     
   3.6205424147099291E-002   8.6768964419852518E-002   0.0000000000000000     
   3.7499833501869313E-002   9.3199297206675386E-002   0.0000000000000000     
   3.8740596036388304E-002   9.9786490985273826E-002   0.0000000000000000     
   3.9927711750656250E-002  0.10653054575564790        0.0000000000000000     
   3.0254678574280408E-002   8.0110321091497488E-002   0.0000000000000000     
   3.1435663709587121E-002   8.6399531928692222E-002   0.0000000000000000     
   3.2568842767578668E-002   9.2845101167065916E-002   0.0000000000000000     
   3.3654215748255022E-002   9.9447028806618598E-002   0.0000000000000000     
   3.4691782651616203E-002  0.10620531484735024        0.0000000000000000     
   2.5740092344206197E-002   7.9777451040791258E-002   0.0000000000000000     
   2.6753434584049999E-002   8.6079700028435346E-002   0.0000000000000000     
   2.7725310525468214E-002   9.2538210560009285E-002   0.0000000000000000     
   2.8655720168460852E-002   9.9152982635513101E-002   0.0000000000000000     
   2.9544663513027911E-002  0.10592401625494677        0.0000000000000000     
   2.1313609281855612E-002   7.9496882472686561E-002   0.0000000000000000     
   2.2158736770487904E-002   8.5809468719081891E-002   0.0000000000000000     
   2.2969236775537961E-002   9.2278625385505478E-002   0.0000000000000000     
   2.3745109297005788E-002   9.8904352471957321E-002   0.0000000000000000     
   2.4486354334891377E-002  0.10568664997843745        0.0000000000000000     
   1.6975229387228650E-002   7.9268615387183453E-002   0.0000000000000000     
   1.7651570268900851E-002   8.5588838000631856E-002   0.0000000000000000     
   1.8300621517787906E-002   9.2066345643554481E-002   0.0000000000000000     
   1.8922383133889827E-002   9.8701138315951273E-002   0.0000000000000000     
   1.9516855117206591E-002  0.10549321601782229        0.0000000000000000     
   3.9927711750656250E-002  0.10653054575564790        0.0000000000000000     
   4.1065882352350321E-002  0.11342116055275744        0.0000000000000000     
   4.2159809549147692E-002  0.12044803441156238        0.0000000000000000     
   4.3209493341048344E-002  0.12761116733206268        0.0000000000000000     
   4.4214933728052297E-002  0.13491055931425835        0.0000000000000000     
   3.4691782651616203E-002  0.10620531484735024        0.0000000000000000     
   3.5686155469687508E-002  0.11311050065132834        0.0000000000000000     
   3.6641946194494270E-002  0.12015312758062041        0.0000000000000000     
   3.7559154826036466E-002  0.12733319563522638        0.0000000000000000     
   3.8437781364314097E-002  0.13465070481514640        0.0000000000000000     
   2.9544663513027911E-002  0.10592401625494677        0.0000000000000000     
   3.0396445902838194E-002  0.11284244828484262        0.0000000000000000     
   3.1215372681560525E-002  0.11989941559173302        0.0000000000000000     
   3.2001443849194879E-002  0.12709491817561797        0.0000000000000000     
   3.2754659405741286E-002  0.13442895603649740        0.0000000000000000     
   2.4486354334891377E-002  0.10568664997843745        0.0000000000000000     
   2.5196753651802385E-002  0.11261700345330025        0.0000000000000000     
   2.5880089010346462E-002  0.11968689844490021        0.0000000000000000     
   2.6536360410523624E-002  0.12689633495323727        0.0000000000000000     
   2.7165567852333844E-002  0.13424531297831152        0.0000000000000000     
   1.9516855117206591E-002  0.10549321601782229        0.0000000000000000     
   2.0087078716580067E-002  0.11243416615670125        0.0000000000000000     
   2.0636095180852090E-002  0.11951557614012197        0.0000000000000000     
   2.1163904510022664E-002  0.12673744596808442        0.0000000000000000     
   2.1670506704091784E-002  0.13409977564058859        0.0000000000000000     
   4.4214933728052297E-002  0.13491055931425835        0.0000000000000000     
   4.5167242759573956E-002  0.14233201498121434        0.0000000000000000     
   4.6057532485027718E-002  0.14986133895599549        0.0000000000000000     
   4.6885802904413618E-002  0.15749853123860191        0.0000000000000000     
   4.7652054017731628E-002  0.16524359182903353        0.0000000000000000     
   3.8437781364314097E-002  0.13465070481514640        0.0000000000000000     
   3.9267689582849756E-002  0.14208858168351354        0.0000000000000000     
   4.0038743255165994E-002  0.14962975280346122        0.0000000000000000     
   4.0750942381262811E-002  0.15727421817498938        0.0000000000000000     
   4.1404286961140221E-002  0.16502197779809805        0.0000000000000000     
   3.2754659405741286E-002  0.13442895603649740        0.0000000000000000     
   3.3464927512552999E-002  0.14188313809441960        0.0000000000000000     
   3.4122156330983297E-002  0.14943907326943273        0.0000000000000000     
   3.4726345861032210E-002  0.15709676156153668        0.0000000000000000     
   3.5277496102699687E-002  0.16485620297073161        0.0000000000000000     
   2.7165567852333844E-002  0.13424531297831152        0.0000000000000000     
   2.7758956548683680E-002  0.14171568421393252        0.0000000000000000     
   2.8307771712479661E-002  0.14928930035390997        0.0000000000000000     
   2.8812013343721778E-002  0.15696616139824390        0.0000000000000000     
   2.9271681442410040E-002  0.16474626734693426        0.0000000000000000     
   2.1670506704091784E-002  0.13409977564058859        0.0000000000000000     
   2.2149776691241803E-002  0.14158622004205224        0.0000000000000000     
   2.2595589399655051E-002  0.14918043405689296        0.0000000000000000     
   2.3007944829331543E-002  0.15688241768511088        0.0000000000000000     
   2.3386842980271272E-002  0.16469217092670591        0.0000000000000000     
   0.0000000000000000        0.0000000000000000        0.0000000000000000     
   8.4157047892057381E-004   1.1098470700647662E-003   0.0000000000000000     
   1.7019115217469633E-003   2.5978546263999988E-003   0.0000000000000000     
   2.5810231284791687E-003   4.4640226690056978E-003   0.0000000000000000     
   3.4789052991171902E-003   6.7083511978818641E-003   0.0000000000000000     
   0.0000000000000000        0.0000000000000000        0.0000000000000000     
   6.3372811961723990E-004   1.0938894602050349E-003   0.0000000000000000     
   1.2778036068608659E-003   2.5618600929642652E-003   0.0000000000000000     
   1.9322264617308788E-003   4.4039118982776900E-003   0.0000000000000000     
   2.5969966842272776E-003   6.6200448761453102E-003   0.0000000000000000     
   0.0000000000000000        0.0000000000000000        0.0000000000000000     
   4.2416193114442848E-004   1.0824949098027581E-003   0.0000000000000000     
   8.5272642367104925E-004   2.5361685194613126E-003   0.0000000000000000     
   1.2856934775798627E-003   4.3610208289756626E-003   0.0000000000000000     
   1.7230630928708681E-003   6.5570518383458089E-003   0.0000000000000000     
   0.0000000000000000        0.0000000000000000        0.0000000000000000     
   2.1287191350213955E-004   1.0756634188579359E-003   0.0000000000000000     
   4.2667997217751304E-004   2.5207799058911415E-003   0.0000000000000000     
   6.4142417602612058E-004   4.3353494610996164E-003   0.0000000000000000     
   8.5710452504796216E-004   6.5193720844833603E-003   0.0000000000000000     
   0.0000000000000000        0.0000000000000000        0.0000000000000000     
  -1.4193330962700840E-007   1.0733949873705680E-003   0.0000000000000000     
  -3.3574761974271413E-007   2.5156942522537519E-003   0.0000000000000000     
  -5.8144293034722563E-007   4.3268977946495516E-003   0.0000000000000000     
  -8.7901924144048868E-007   6.5070056145579676E-003   0.0000000000000000     
   3.4789052991171902E-003   6.7083511978818641E-003   0.0000000000000000     
   4.3873105488851215E-003   9.2935147859827729E-003   0.0000000000000000     
   5.2979913930070567E-003   1.2182188006262697E-002   0.0000000000000000     
   6.2109478314829984E-003   1.5374370858721637E-002   0.0000000000000000     
   7.1261798643129422E-003   1.8870063343359594E-002   0.0000000000000000     
   2.5969966842272776E-003   6.6200448761453102E-003   0.0000000000000000     
   3.2691852590148499E-003   9.1773328888740246E-003   0.0000000000000000     
   3.9458631707583848E-003   1.2042849798770735E-002   0.0000000000000000     
   4.6270304194578806E-003   1.5216595605835439E-002   0.0000000000000000     
   5.3126870051133394E-003   1.8698570310068139E-002   0.0000000000000000     
   1.7230630928708681E-003   6.5570518383458089E-003   0.0000000000000000     
   2.1650547303923655E-003   9.0944598847388040E-003   0.0000000000000000     
   2.6118878509926542E-003   1.1943443305321707E-002   0.0000000000000000     
   3.0635624546717344E-003   1.5104002100094509E-002   0.0000000000000000     
   3.5200785414296054E-003   1.8576136269057218E-002   0.0000000000000000     
   8.5710452504796216E-004   6.5193720844833603E-003   0.0000000000000000     
   1.0749189630176674E-003   9.0448957735771145E-003   0.0000000000000000     
   1.2960654337098661E-003   1.1883968525915610E-002   0.0000000000000000     
   1.5205439371245579E-003   1.5036590341498846E-002   0.0000000000000000     
   1.7483544732617429E-003   1.8502761220326829E-002   0.0000000000000000     
  -8.7901924144048868E-007   6.5070056145579676E-003   0.0000000000000000     
  -1.2220431092440487E-006   9.0286405553889476E-003   0.0000000000000000     
  -1.6040810899801424E-006   1.1864425460552445E-002   0.0000000000000000     
  -2.0251331836485631E-006   1.5014360330048451E-002   0.0000000000000000     
  -2.4851993902493073E-006   1.8478445163876978E-002   0.0000000000000000     
   7.1261798643129422E-003   1.8870063343359594E-002   0.0000000000000000     
   8.0371438515094516E-003   2.2643319111360034E-002   0.0000000000000000     
   8.9372961530850888E-003   2.6668191813906415E-002   0.0000000000000000     
   9.8266367690398506E-003   3.0944681450998743E-002   0.0000000000000000     
   1.0705165699373739E-002   3.5472788022637022E-002   0.0000000000000000     
   5.3126870051133394E-003   1.8698570310068139E-002   0.0000000000000000     
   5.9958730588415467E-003   2.2461254186339968E-002   0.0000000000000000     
   6.6696287117592916E-003   2.6477127509522049E-002   0.0000000000000000     
   7.3339539638665741E-003   3.0746190279614397E-002   0.0000000000000000     
   7.9888488151633932E-003   3.5268442496617002E-002   0.0000000000000000     
   3.5200785414296054E-003   1.8576136269057218E-002   0.0000000000000000     
   3.9754097533235971E-003   2.2331258854793503E-002   0.0000000000000000     
   4.4235297324110388E-003   2.6340782899887057E-002   0.0000000000000000     
   4.8644384786919303E-003   3.0604708404337867E-002   0.0000000000000000     
   5.2981359921662717E-003   3.5123035368145934E-002   0.0000000000000000     
   1.7483544732617429E-003   1.8502761220326829E-002   0.0000000000000000     
   1.9757539349556058E-003   2.2253333116720658E-002   0.0000000000000000     
   2.1989992150403320E-003   2.6259157985001433E-002   0.0000000000000000     
   2.4180903135159206E-003   3.0520235825169151E-002   0.0000000000000000     
   2.6330272303823712E-003   3.5036566637223820E-002   0.0000000000000000     
  -2.4851993902493073E-006   1.8478445163876978E-002   0.0000000000000000     
  -3.0943962624280707E-006   2.2227476972121421E-002   0.0000000000000000     
  -3.9628403528301696E-006   2.6232252764865179E-002   0.0000000000000000     
  -5.0905316614558615E-006   3.0492772542108259E-002   0.0000000000000000     
  -6.4774701883053495E-006   3.5009036303850639E-002   0.0000000000000000     
   1.0705165699373739E-002   3.5472788022637022E-002   0.0000000000000000     
   1.1567393592102963E-002   4.0232614840725024E-002   0.0000000000000000     
   1.2407831095243724E-002   4.5204265217166556E-002   0.0000000000000000     
   1.3226478208796027E-002   5.0387739151961597E-002   0.0000000000000000     
   1.4023334932759875E-002   5.5783036645110168E-002   0.0000000000000000     
   7.9888488151633932E-003   3.5268442496617002E-002   0.0000000000000000     
   8.6317696553730536E-003   4.0024649508660401E-002   0.0000000000000000     
   9.2601728742188524E-003   4.4995576663875110E-002   0.0000000000000000     
   9.8740584717007945E-003   5.0181223962261136E-002   0.0000000000000000     
   1.0473426447818877E-002   5.5581591403818471E-002   0.0000000000000000     
   5.2981359921662717E-003   3.5123035368145934E-002   0.0000000000000000     
   5.7239563114723242E-003   3.9876786812977974E-002   0.0000000000000000     
   6.1412334752483522E-003   4.4846985760500668E-002   0.0000000000000000     
   6.5499674834943560E-003   5.0033632210714052E-002   0.0000000000000000     
   6.9501583362103327E-003   5.5436726163618083E-002   0.0000000000000000     
   2.6330272303823712E-003   3.5036566637223820E-002   0.0000000000000000     
   2.8439535604007750E-003   3.9789026753677736E-002   0.0000000000000000     
   3.0510128983322203E-003   4.4758492507043245E-002   0.0000000000000000     
   3.2542052441767080E-003   4.9944963897320324E-002   0.0000000000000000     
   3.4535305979342384E-003   5.5348440924508982E-002   0.0000000000000000     
  -6.4774701883053495E-006   3.5009036303850639E-002   0.0000000000000000     
  -8.2385978415953865E-006   3.9761369330759709E-002   0.0000000000000000     
  -1.0488856529541207E-005   4.4730096903502832E-002   0.0000000000000000     
  -1.3228246252144113E-005   4.9915219022079994E-002   0.0000000000000000     
  -1.6456767009403886E-005   5.5316735686491182E-002   0.0000000000000000     
   1.4023334932759875E-002   5.5783036645110168E-002   0.0000000000000000     
   1.4797299483041383E-002   6.1376792270733727E-002   0.0000000000000000     
   1.5547270075546682E-002   6.7155640602953814E-002   0.0000000000000000     
   1.6273246710275770E-002   7.3119581641770390E-002   0.0000000000000000     
   1.6975229387228650E-002   7.9268615387183453E-002   0.0000000000000000     
   1.0473426447818877E-002   5.5581591403818471E-002   0.0000000000000000     
   1.1056159113173678E-002   6.1181683564539048E-002   0.0000000000000000     
   1.1620138778365777E-002   6.6966505020414804E-002   0.0000000000000000     
   1.2165365443395167E-002   7.2936055771445685E-002   0.0000000000000000     
   1.2691839108261854E-002   7.9090335817631738E-002   0.0000000000000000     
   6.9501583362103327E-003   5.5436726163618083E-002   0.0000000000000000     
   7.3396082022161458E-003   6.1040402168915313E-002   0.0000000000000000     
   7.7161192503316543E-003   6.6828794776308251E-002   0.0000000000000000     
   8.0796914805568634E-003   7.2801903985796890E-002   0.0000000000000000     
   8.4303248928917687E-003   7.8959729797381278E-002   0.0000000000000000     
   3.4535305979342384E-003   5.5348440924508982E-002   0.0000000000000000     
   3.6476467501687865E-003   6.0952948083862514E-002   0.0000000000000000     
   3.8352114914443278E-003   6.6742509870634195E-002   0.0000000000000000     
   4.0162248217608639E-003   7.2717126284824019E-002   0.0000000000000000     
   4.1906867411183931E-003   7.8876797326432033E-002   0.0000000000000000     
  -1.6456767009403886E-005   5.5316735686491182E-002   0.0000000000000000     
  -1.9725242968398823E-005   6.0919321309380658E-002   0.0000000000000000     
  -2.2584498296208738E-005   6.6707650303392610E-002   0.0000000000000000     
  -2.5034532992833142E-005   7.2681722668527085E-002   0.0000000000000000     
  -2.7075347058271330E-005   7.8841538404784042E-002   0.0000000000000000     
   1.6975229387228650E-002   7.9268615387183453E-002   0.0000000000000000     
   1.7651570268900851E-002   8.5588838000631856E-002   0.0000000000000000     
   1.8300621517787906E-002   9.2066345643554481E-002   0.0000000000000000     
   1.8922383133889827E-002   9.8701138315951273E-002   0.0000000000000000     
   1.9516855117206591E-002  0.10549321601782229        0.0000000000000000     
   1.2691839108261854E-002   7.9090335817631738E-002   0.0000000000000000     
   1.3198979406766060E-002   8.5416002373964448E-002   0.0000000000000000     
   1.3686205972708001E-002   9.1899712655435256E-002   0.0000000000000000     
   1.4153518806087683E-002   9.8541466662044191E-002   0.0000000000000000     
   1.4600917906905105E-002  0.10534126439379124        0.0000000000000000     
   8.4303248928917687E-003   7.8959729797381278E-002   0.0000000000000000     
   8.7680085115607494E-003   8.5289156339958760E-002   0.0000000000000000     
   9.0927313607881907E-003   9.1777067742426749E-002   0.0000000000000000     
   9.4044934405740892E-003   9.8423464004785244E-002   0.0000000000000000     
   9.7032947509184467E-003  0.10522834512703427        0.0000000000000000     
   4.1906867411183931E-003   7.8876797326432033E-002   0.0000000000000000     
   4.3586575832849266E-003   8.5208299898614809E-002   0.0000000000000000     
   4.5201976820284763E-003   9.1698410904528932E-002   0.0000000000000000     
   4.6753070373490397E-003   9.8347130344174458E-002   0.0000000000000000     
   4.8239856492466203E-003  0.10515445821755134        0.0000000000000000     
  -2.7075347058271330E-005   7.8841538404784042E-002   0.0000000000000000     
  -2.9073378061412374E-005   8.5173433049932606E-002   0.0000000000000000     
  -3.1395063571143772E-005   9.1663742141741875E-002   0.0000000000000000     
  -3.4040403587464859E-005   9.8312465680211819E-002   0.0000000000000000     
  -3.7009398110376870E-005  0.10511960366534248        0.0000000000000000     
   1.9516855117206591E-002  0.10549321601782229        0.0000000000000000     
   2.0087078716580067E-002  0.11243416615670125        0.0000000000000000     
   2.0636095180852090E-002  0.11951557614012197        0.0000000000000000     
   2.1163904510022664E-002  0.12673744596808442        0.0000000000000000     
   2.1670506704091784E-002  0.13409977564058859        0.0000000000000000     
   1.4600917906905105E-002  0.10534126439379124        0.0000000000000000     
   1.5030591737706144E-002  0.11229053762269768        0.0000000000000000     
   1.5444728761036678E-002  0.11938071812078480        0.0000000000000000     
   1.5843328976896706E-002  0.12661180588805254        0.0000000000000000     
   1.6226392385286233E-002  0.13398380092450096        0.0000000000000000     
   9.7032947509184467E-003  0.10522834512703427        0.0000000000000000     
   9.9904633557155037E-003  0.11218271907894163        0.0000000000000000     
   1.0267327318859504E-002  0.11927759383027518        0.0000000000000000     
   1.0533886640350446E-002  0.12651296938103493        0.0000000000000000     
   1.0790141320188329E-002  0.13388884573122084        0.0000000000000000     
   4.8239856492466203E-003  0.10515445821755134        0.0000000000000000     
   4.9666935706081513E-003  0.11211071052543306        0.0000000000000000     
   5.1038908543205698E-003  0.11920620326859313        0.0000000000000000     
   5.2355775003838766E-003  0.12644093644703150        0.0000000000000000     
   5.3617535087980735E-003  0.13381491006074822        0.0000000000000000     
  -3.7009398110376870E-005  0.10511960366534248        0.0000000000000000     
  -4.0717617615916970E-005  0.11207451196217202        0.0000000000000000     
  -4.5580632580124276E-005  0.11916654643573864        0.0000000000000000     
  -5.1598443002998518E-005  0.12639570708604231        0.0000000000000000     
  -5.8771048884538341E-005  0.13376199391308308        0.0000000000000000     
   2.1670506704091784E-002  0.13409977564058859        0.0000000000000000     
   2.2149776691241803E-002  0.14158622004205224        0.0000000000000000     
   2.2595589399655051E-002  0.14918043405689296        0.0000000000000000     
   2.3007944829331543E-002  0.15688241768511088        0.0000000000000000     
   2.3386842980271272E-002  0.16469217092670591        0.0000000000000000     
   1.6226392385286233E-002  0.13398380092450096        0.0000000000000000     
   1.6590658806396496E-002  0.14148241085970803        0.0000000000000000     
   1.6932868060418740E-002  0.14909334332325175        0.0000000000000000     
   1.7253020147352954E-002  0.15681659831513212        0.0000000000000000     
   1.7551115067199155E-002  0.16465217583534913        0.0000000000000000     
   1.0790141320188329E-002  0.13388884573122084        0.0000000000000000     
   1.1034873760316918E-002  0.14139192194782921        0.0000000000000000     
   1.1266866362679966E-002  0.14900889709785622        0.0000000000000000     
   1.1486119127277476E-002  0.15673977118130195        0.0000000000000000     
   1.1692632054109453E-002  0.16458454419816634        0.0000000000000000     
   5.3617535087980735E-003  0.13381491006074822        0.0000000000000000     
   5.4824215530030578E-003  0.14131475330641569        0.0000000000000000     
   5.5975843064387356E-003  0.14892709538070645        0.0000000000000000     
   5.7072417691051034E-003  0.15665193628362040        0.0000000000000000     
   5.8113939410021666E-003  0.16448927601515759        0.0000000000000000     
  -5.8771048884538341E-005  0.13376199391308308        0.0000000000000000     
  -6.6697815545078195E-005  0.14125090493546755        0.0000000000000000     
  -7.4978108304953072E-005  0.14884793817180234        0.0000000000000000     
  -8.3611927164161482E-005  0.15655309362208741        0.0000000000000000     
  -9.2599272122703344E-005  0.16436637128632287        0.0000000000000000     
   0.0000000000000000        0.0000000000000000        0.0000000000000000     
  -1.4193330962700840E-007   1.0733949873705680E-003   0.0000000000000000     
  -3.3574761974271413E-007   2.5156942522537519E-003   0.0000000000000000     
  -5.8144293034722563E-007   4.3268977946495516E-003   0.0000000000000000     
  -8.7901924144048868E-007   6.5070056145579676E-003   0.0000000000000000     
   0.0000000000000000        0.0000000000000000        0.0000000000000000     
  -2.1315114999316602E-004   1.0757019004411685E-003   0.0000000000000000     
  -4.2733621100141415E-004   2.5209162562840606E-003   0.0000000000000000     
  -6.4255518302474461E-004   4.3356430675286772E-003   0.0000000000000000     
  -8.5880806606315708E-004   6.5198823341750161E-003   0.0000000000000000     
   0.0000000000000000        0.0000000000000000        0.0000000000000000     
  -4.2442727725077248E-004   1.0825964431702508E-003   0.0000000000000000     
  -8.5333689324819753E-004   2.5364506157169848E-003   0.0000000000000000     
  -1.2867288479922749E-003   4.3615625176402018E-003   0.0000000000000000     
  -1.7246031414830051E-003   6.5579321489399019E-003   0.0000000000000000     
   0.0000000000000000        0.0000000000000000        0.0000000000000000     
  -6.3397031508244633E-004   1.0940786155578155E-003   0.0000000000000000     
  -1.2783377943600925E-003   2.5622973305525244E-003   0.0000000000000000     
  -1.9331024378329384E-003   4.4046561449841279E-003   0.0000000000000000     
  -2.5982642455009840E-003   6.6211550588526234E-003   0.0000000000000000     
   0.0000000000000000        0.0000000000000000        0.0000000000000000     
  -8.4178026348818774E-004   1.1101484176038621E-003   0.0000000000000000     
  -1.7023389143370994E-003   2.5984564007906796E-003   0.0000000000000000     
  -2.5816759525467349E-003   4.4649239495604520E-003   0.0000000000000000     
  -3.4797913781170948E-003   6.7095510639131788E-003   0.0000000000000000     
  -8.7901924144048868E-007   6.5070056145579676E-003   0.0000000000000000     
  -1.2220431092440487E-006   9.0286405553889476E-003   0.0000000000000000     
  -1.6040810899801424E-006   1.1864425460552445E-002   0.0000000000000000     
  -2.0251331836485631E-006   1.5014360330048451E-002   0.0000000000000000     
  -2.4851993902493073E-006   1.8478445163876978E-002   0.0000000000000000     
  -8.5880806606315708E-004   6.5198823341750161E-003   0.0000000000000000     
  -1.0772822521197131E-003   9.0455866536026681E-003   0.0000000000000000     
  -1.2991651331974751E-003   1.1884708623191216E-002   0.0000000000000000     
  -1.5244567092964427E-003   1.5037248242940662E-002   0.0000000000000000     
  -1.7531569804166156E-003   1.8503205512851006E-002   0.0000000000000000     
  -1.7246031414830051E-003   6.5579321489399019E-003   0.0000000000000000     
  -2.1671756281450845E-003   9.0956264916466321E-003   0.0000000000000000     
  -2.6146621624032105E-003   1.1944712527790934E-002   0.0000000000000000     
  -3.0670627442573820E-003   1.5105190257372810E-002   0.0000000000000000     
  -3.5243773737076004E-003   1.8577059680392263E-002   0.0000000000000000     
  -2.5982642455009840E-003   6.6211550588526234E-003   0.0000000000000000     
  -3.2709021711853571E-003   9.1787600695208381E-003   0.0000000000000000     
  -3.9480951687071841E-003   1.2044437174351597E-002   0.0000000000000000     
  -4.6298432380664674E-003   1.5218186373344897E-002   0.0000000000000000     
  -5.3161463792632041E-003   1.8700007666500741E-002   0.0000000000000000     
  -3.4797913781170948E-003   6.7095510639131788E-003   0.0000000000000000     
  -4.3884618812405317E-003   9.2949873872252876E-003   0.0000000000000000     
  -5.2994641521094000E-003   1.2183882562873201E-002   0.0000000000000000     
  -6.2127981907236975E-003   1.5376236590856922E-002   0.0000000000000000     
  -7.1284639970834261E-003   1.8872049471176447E-002   0.0000000000000000     
  -2.4851993902493073E-006   1.8478445163876978E-002   0.0000000000000000     
  -3.0943962624280707E-006   2.2227476972121421E-002   0.0000000000000000     
  -3.9628403528301696E-006   2.6232252764865179E-002   0.0000000000000000     
  -5.0905316614558615E-006   3.0492772542108259E-002   0.0000000000000000     
  -6.4774701883053495E-006   3.5009036303850639E-002   0.0000000000000000     
  -1.7531569804166156E-003   1.8503205512851006E-002   0.0000000000000000     
  -1.9817244514652539E-003   2.2253740574191615E-002   0.0000000000000000     
  -2.2066176273496190E-003   2.6260013568231846E-002   0.0000000000000000     
  -2.4278365080697096E-003   3.0522024494971697E-002   0.0000000000000000     
  -2.6453810936255266E-003   3.5039773354411170E-002   0.0000000000000000     
  -3.5243773737076004E-003   1.8577059680392263E-002   0.0000000000000000     
  -3.9807254417876230E-003   2.2332174076127059E-002   0.0000000000000000     
  -4.4302263395312068E-003   2.6342386723854975E-002   0.0000000000000000     
  -4.8728800669383520E-003   3.0607697623576006E-002   0.0000000000000000     
  -5.3086866240090597E-003   3.5128106775290158E-002   0.0000000000000000     
  -5.3161463792632041E-003   1.8700007666500741E-002   0.0000000000000000     
  -6.0000973672295344E-003   2.2462777477927760E-002   0.0000000000000000     
  -6.6747889768975933E-003   2.6479372231734570E-002   0.0000000000000000     
  -7.3402212082673834E-003   3.0749791927921176E-002   0.0000000000000000     
  -7.9963940613389049E-003   3.5274036566487595E-002   0.0000000000000000     
  -7.1284639970834261E-003   1.8872049471176447E-002   0.0000000000000000     
  -8.0398402277909887E-003   2.2645550779593713E-002   0.0000000000000000     
  -8.9403055394487781E-003   2.6670970091870635E-002   0.0000000000000000     
  -9.8298599320568031E-003   3.0948307408007227E-002   0.0000000000000000     
  -1.0708503405615060E-002   3.5477562728003481E-002   0.0000000000000000     
  -6.4774701883053495E-006   3.5009036303850639E-002   0.0000000000000000     
  -8.2385978415953865E-006   3.9761369330759709E-002   0.0000000000000000     
  -1.0488856529541207E-005   4.4730096903502832E-002   0.0000000000000000     
  -1.3228246252144113E-005   4.9915219022079994E-002   0.0000000000000000     
  -1.6456767009403886E-005   5.5316735686491182E-002   0.0000000000000000     
  -2.6453810936255266E-003   3.5039773354411170E-002   0.0000000000000000     
  -2.8596044773803288E-003   3.9792953066900234E-002   0.0000000000000000     
  -3.0708597526973775E-003   4.4761256552788856E-002   0.0000000000000000     
  -3.2791469195766710E-003   4.9944683812077034E-002   0.0000000000000000     
  -3.4844659780182106E-003   5.5343234844764770E-002   0.0000000000000000     
  -5.3086866240090597E-003   3.5128106775290158E-002   0.0000000000000000     
  -5.7371283923409715E-003   3.9882916484775661E-002   0.0000000000000000     
  -6.1576877535317312E-003   4.4851429057810782E-002   0.0000000000000000     
  -6.5703647075813394E-003   5.0033644494395506E-002   0.0000000000000000     
  -6.9751592544897963E-003   5.5429562794529826E-002   0.0000000000000000     
  -7.9963940613389049E-003   3.5274036566487595E-002   0.0000000000000000     
  -8.6408103427235219E-003   4.0031259584385984E-002   0.0000000000000000     
  -9.2709728590326026E-003   4.5000614418568598E-002   0.0000000000000000     
  -9.8868816102661520E-003   5.0182101069035374E-002   0.0000000000000000     
  -1.0488536596424161E-002   5.5575719535786369E-002   0.0000000000000000     
  -1.0708503405615060E-002   3.5477562728003481E-002   0.0000000000000000     
  -1.1570650328527979E-002   4.0237982365731229E-002   0.0000000000000000     
  -1.2410715069199992E-002   4.5208812635062295E-002   0.0000000000000000     
  -1.3228697627631104E-002   5.0390053535996675E-002   0.0000000000000000     
  -1.4024598003821305E-002   5.5781705068534360E-002   0.0000000000000000     
  -1.6456767009403886E-005   5.5316735686491182E-002   0.0000000000000000     
  -1.9725242968398823E-005   6.0919321309380658E-002   0.0000000000000000     
  -2.2584498296208738E-005   6.6707650303392610E-002   0.0000000000000000     
  -2.5034532992833142E-005   7.2681722668527085E-002   0.0000000000000000     
  -2.7075347058271330E-005   7.8841538404784042E-002   0.0000000000000000     
  -3.4844659780182106E-003   5.5343234844764770E-002   0.0000000000000000     
  -3.6846467014050571E-003   6.0942548980699736E-002   0.0000000000000000     
  -3.8775188631202740E-003   6.6728265549729618E-002   0.0000000000000000     
  -4.0630824631638597E-003   7.2700384551854402E-002   0.0000000000000000     
  -4.2413375015358150E-003   7.8858905987074124E-002   0.0000000000000000     
  -6.9751592544897963E-003   5.5429562794529826E-002   0.0000000000000000     
  -7.3692565493508333E-003   6.1025658233049750E-002   0.0000000000000000     
  -7.7498417472581819E-003   6.6808405084791272E-002   0.0000000000000000     
  -8.1169148482118474E-003   7.2777803349754380E-002   0.0000000000000000     
  -8.4704758522118253E-003   7.8933853027939080E-002   0.0000000000000000     
  -1.0488536596424161E-002   5.5575719535786369E-002   0.0000000000000000     
  -1.1073554786805728E-002   6.1168649066430707E-002   0.0000000000000000     
  -1.1639553150709941E-002   6.6948068908577574E-002   0.0000000000000000     
  -1.2186531688136796E-002   7.2913979062227005E-002   0.0000000000000000     
  -1.2714490399086302E-002   7.9066379527378966E-002   0.0000000000000000     
  -1.4024598003821305E-002   5.5781705068534360E-002   0.0000000000000000     
  -1.4797541413769740E-002   6.1371521480842593E-002   0.0000000000000000     
  -1.5546653073475544E-002   6.7147257021088549E-002   0.0000000000000000     
  -1.6271932982938709E-002   7.3108911689272263E-002   0.0000000000000000     
  -1.6973381142159249E-002   7.9256485485393713E-002   0.0000000000000000     
  -2.7075347058271330E-005   7.8841538404784042E-002   0.0000000000000000     
  -2.9073378061412374E-005   8.5173433049932606E-002   0.0000000000000000     
  -3.1395063571143772E-005   9.1663742141741875E-002   0.0000000000000000     
  -3.4040403587464859E-005   9.8312465680211819E-002   0.0000000000000000     
  -3.7009398110376870E-005  0.10511960366534248        0.0000000000000000     
  -4.2413375015358150E-003   7.8858905987074124E-002   0.0000000000000000     
  -4.4130248590421558E-003   8.5189663823703840E-002   0.0000000000000000     
  -4.5788854164889011E-003   9.1678492030058706E-002   0.0000000000000000     
  -4.7389191738760458E-003   9.8325390606138666E-002   0.0000000000000000     
  -4.8931261312035925E-003  0.10513035955194376        0.0000000000000000     
  -8.4704758522118253E-003   7.8933853027939080E-002   0.0000000000000000     
  -8.8110373462211913E-003   8.5262100249720210E-002   0.0000000000000000     
  -9.1391119172030220E-003   9.1748091145472624E-002   0.0000000000000000     
  -9.4546995651573189E-003   9.8391825715196307E-002   0.0000000000000000     
  -9.7578002900840753E-003  0.10519330395889130        0.0000000000000000     
  -1.2714490399086302E-002   7.9066379527378966E-002   0.0000000000000000     
  -1.3223110839598521E-002   8.5390742327981745E-002   0.0000000000000000     
  -1.3712074565713517E-002   9.1872539487983698E-002   0.0000000000000000     
  -1.4181381577431283E-002   9.8511771007384813E-002   0.0000000000000000     
  -1.4631031874751829E-002  0.10530843688618508        0.0000000000000000     
  -1.6973381142159249E-002   7.9256485485393713E-002   0.0000000000000000     
  -1.7649245339174138E-002   8.5575590058488402E-002   0.0000000000000000     
  -1.8297773362020368E-002   9.2051837057591873E-002   0.0000000000000000     
  -1.8918965210697941E-002   9.8685226482704100E-002   0.0000000000000000     
  -1.9512820885206842E-002  0.10547575833382511        0.0000000000000000     
  -3.7009398110376870E-005  0.10511960366534248        0.0000000000000000     
  -4.0717617615916970E-005  0.11207451196217202        0.0000000000000000     
  -4.5580632580124276E-005  0.11916654643573864        0.0000000000000000     
  -5.1598443002998518E-005  0.12639570708604231        0.0000000000000000     
  -5.8771048884538341E-005  0.13376199391308308        0.0000000000000000     
  -4.8931261312035925E-003  0.10513035955194376        0.0000000000000000     
  -5.0427265275674957E-003  0.11208198400583941        0.0000000000000000     
  -5.1889406020637022E-003  0.11916884910619099        0.0000000000000000     
  -5.3317683546922172E-003  0.12639095485299856        0.0000000000000000     
  -5.4712097854530354E-003  0.13374830124626205        0.0000000000000000     
  -9.7578002900840753E-003  0.10519330395889130        0.0000000000000000     
  -1.0050289477857376E-002  0.11214098727311615        0.0000000000000000     
  -1.0334042514351287E-002  0.11922333705442952        0.0000000000000000     
  -1.0609059399565813E-002  0.12644035330283140        0.0000000000000000     
  -1.0875340133500954E-002  0.13379203601832174        0.0000000000000000     
  -1.4631031874751829E-002  0.10530843688618508        0.0000000000000000     
  -1.5063406468485556E-002  0.11225152176400227        0.0000000000000000     
  -1.5480886369442875E-002  0.11933001028045417        0.0000000000000000     
  -1.5883471577623785E-002  0.12654390243554078        0.0000000000000000     
  -1.6271162093028292E-002  0.13389319822926213        0.0000000000000000     
  -1.9512820885206842E-002  0.10547575833382511        0.0000000000000000     
  -2.0082077499452039E-002  0.11241358747849778        0.0000000000000000     
  -2.0629472167338472E-002  0.11948886878426503        0.0000000000000000     
  -2.1155004888866142E-002  0.12670160225112684        0.0000000000000000     
  -2.1658675664035055E-002  0.13405178787908317        0.0000000000000000     
  -5.8771048884538341E-005  0.13376199391308308        0.0000000000000000     
  -6.6697815545078195E-005  0.14125090493546755        0.0000000000000000     
  -7.4978108304953072E-005  0.14884793817180234        0.0000000000000000     
  -8.3611927164161482E-005  0.15655309362208741        0.0000000000000000     
  -9.2599272122703344E-005  0.16436637128632287        0.0000000000000000     
  -5.4712097854530354E-003  0.13374830124626205        0.0000000000000000     
  -5.6065205800045525E-003  0.14122516711774216        0.0000000000000000     
  -5.7369564240051553E-003  0.14880583129919950        0.0000000000000000     
  -5.8625173174548404E-003  0.15649029379063406        0.0000000000000000     
  -5.9832032603536148E-003  0.16427855459204593        0.0000000000000000     
  -1.0875340133500954E-002  0.13379203601832174        0.0000000000000000     
  -1.1131082975052421E-002  0.14126233013599696        0.0000000000000000     
  -1.1374486183115921E-002  0.14883518059095355        0.0000000000000000     
  -1.1605549757691458E-002  0.15651058738319143        0.0000000000000000     
  -1.1824273698779029E-002  0.16428855051271060        0.0000000000000000     
  -1.6271162093028292E-002  0.13389319822926213        0.0000000000000000     
  -1.6640385000688682E-002  0.14136239399023201        0.0000000000000000     
  -1.6987567385637253E-002  0.14893598604706443        0.0000000000000000     
  -1.7312709247874012E-002  0.15661397439975941        0.0000000000000000     
  -1.7615810587398941E-002  0.16439635904831693        0.0000000000000000     
  -2.1658675664035055E-002  0.13405178787908317        0.0000000000000000     
  -2.2134426656913342E-002  0.14152535868044727        0.0000000000000000     
  -2.2576200031569158E-002  0.14910824766753225        0.0000000000000000     
  -2.2983995788002493E-002  0.15680045484033811        0.0000000000000000     
  -2.3357813926213358E-002  0.16460198019886485        0.0000000000000000     
   0.0000000000000000        0.0000000000000000        0.0000000000000000     
  -8.4178026348818774E-004   1.1101484176038621E-003   0.0000000000000000     
  -1.7023389143370994E-003   2.5984564007906796E-003   0.0000000000000000     
  -2.5816759525467349E-003   4.4649239495604520E-003   0.0000000000000000     
  -3.4797913781170948E-003   6.7095510639131788E-003   0.0000000000000000     
   0.0000000000000000        0.0000000000000000        0.0000000000000000     
  -1.0567706342791883E-003   1.1343521922977749E-003   0.0000000000000000     
  -2.1398986868251821E-003   2.6507601621140139E-003   0.0000000000000000     
  -3.2493841576379822E-003   4.5492239094487158E-003   0.0000000000000000     
  -4.3852270467175875E-003   6.8297434343018827E-003   0.0000000000000000     
   0.0000000000000000        0.0000000000000000        0.0000000000000000     
  -1.2878549392666403E-003   1.1702362826289383E-003   0.0000000000000000     
  -2.6055755454703054E-003   2.7250409502050919E-003   0.0000000000000000     
  -3.9531618186109969E-003   4.6644140027284602E-003   0.0000000000000000     
  -5.3306137586887148E-003   6.9883554401990429E-003   0.0000000000000000     
   0.0000000000000000        0.0000000000000000        0.0000000000000000     
  -1.5350331784505431E-003   1.2178006885973517E-003   0.0000000000000000     
  -3.0993694902724704E-003   2.8212987650639131E-003   0.0000000000000000     
  -4.6930089354657815E-003   4.8104942293996835E-003   0.0000000000000000     
  -6.3159515140304764E-003   7.1853870816046628E-003   0.0000000000000000     
   0.0000000000000000        0.0000000000000000        0.0000000000000000     
  -1.7983053518308974E-003   1.2770454102030160E-003   0.0000000000000000     
  -3.6212805212316747E-003   2.9395336066904781E-003   0.0000000000000000     
  -5.4689255082023330E-003   4.9874645894623856E-003   0.0000000000000000     
  -7.3412403127428704E-003   7.4208383585187398E-003   0.0000000000000000     
  -3.4797913781170948E-003   6.7095510639131788E-003   0.0000000000000000     
  -4.3884618812405317E-003   9.2949873872252876E-003   0.0000000000000000     
  -5.2994641521094000E-003   1.2183882562873201E-002   0.0000000000000000     
  -6.2127981907236975E-003   1.5376236590856922E-002   0.0000000000000000     
  -7.1284639970834261E-003   1.8872049471176447E-002   0.0000000000000000     
  -4.3852270467175875E-003   6.8297434343018827E-003   0.0000000000000000     
  -5.5344496109612003E-003   9.4503359684365244E-003   0.0000000000000000     
  -6.6840741072660224E-003   1.2369018743615645E-002   0.0000000000000000     
  -7.8341005356320527E-003   1.5585791759839252E-002   0.0000000000000000     
  -8.9845288960592913E-003   1.9100655017107344E-002   0.0000000000000000     
  -5.3306137586887148E-003   6.9883554401990429E-003   0.0000000000000000     
  -6.7234602129979575E-003   9.6508333368310814E-003   0.0000000000000000     
  -8.1172300288332219E-003   1.2605815766838823E-002   0.0000000000000000     
  -9.5119232061945079E-003   1.5853302730222261E-002   0.0000000000000000     
  -1.0907539745081817E-002   1.9393294226981394E-002   0.0000000000000000     
  -6.3159515140304764E-003   7.1853870816046628E-003   0.0000000000000000     
  -7.9554936873507988E-003   9.8964794924089709E-003   0.0000000000000000     
  -9.5989319168109967E-003   1.2894273632542731E-002   0.0000000000000000     
  -1.1246266202411065E-002   1.6178769502005943E-002   0.0000000000000000     
  -1.2897496544151009E-002   1.9749967100798599E-002   0.0000000000000000     
  -7.3412403127428704E-003   7.4208383585187398E-003   0.0000000000000000     
  -9.2305500340197286E-003   1.0187274435170186E-002   0.0000000000000000     
  -1.1129179771199345E-002   1.3234392340727373E-002   0.0000000000000000     
  -1.3037129524281724E-002   1.6562192075190295E-002   0.0000000000000000     
  -1.4954399293266861E-002   2.0170673638558963E-002   0.0000000000000000     
  -7.1284639970834261E-003   1.8872049471176447E-002   0.0000000000000000     
  -8.0398402277909887E-003   2.2645550779593713E-002   0.0000000000000000     
  -8.9403055394487781E-003   2.6670970091870635E-002   0.0000000000000000     
  -9.8298599320568031E-003   3.0948307408007227E-002   0.0000000000000000     
  -1.0708503405615060E-002   3.5477562728003481E-002   0.0000000000000000     
  -8.9845288960592913E-003   1.9100655017107344E-002   0.0000000000000000     
  -1.0128270605497793E-002   2.2888795972153850E-002   0.0000000000000000     
  -1.1258237080897612E-002   2.6925402081712721E-002   0.0000000000000000     
  -1.2374428322258749E-002   3.1210473345783946E-002   0.0000000000000000     
  -1.3476844329581203E-002   3.5744009764367521E-002   0.0000000000000000     
  -1.0907539745081817E-002   1.9393294226981394E-002   0.0000000000000000     
  -1.2293705082375754E-002   2.3200815046637135E-002   0.0000000000000000     
  -1.3660044654956936E-002   2.7250889978710384E-002   0.0000000000000000     
  -1.5006558462825352E-002   3.1543519023201134E-002   0.0000000000000000     
  -1.6333246505981010E-002   3.6078702180109404E-002   0.0000000000000000     
  -1.2897496544151009E-002   1.9749967100798599E-002   0.0000000000000000     
  -1.4536143658424884E-002   2.3581608003043548E-002   0.0000000000000000     
  -1.6145728261626757E-002   2.7647433782863620E-002   0.0000000000000000     
  -1.7726250353756620E-002   3.1947444440258821E-002   0.0000000000000000     
  -1.9277709934814483E-002   3.6481639975229144E-002   0.0000000000000000     
  -1.4954399293266861E-002   2.0170673638558963E-002   0.0000000000000000     
  -1.6855586333645169E-002   2.4031174841373099E-002   0.0000000000000000     
  -1.8715287900907068E-002   2.8115033494172437E-002   0.0000000000000000     
  -2.0533503995052549E-002   3.2422249596956977E-002   0.0000000000000000     
  -2.2310234616081615E-002   3.6952823149726727E-002   0.0000000000000000     
  -1.0708503405615060E-002   3.5477562728003481E-002   0.0000000000000000     
  -1.1570650328527979E-002   4.0237982365731229E-002   0.0000000000000000     
  -1.2410715069199992E-002   4.5208812635062295E-002   0.0000000000000000     
  -1.3228697627631104E-002   5.0390053535996675E-002   0.0000000000000000     
  -1.4024598003821305E-002   5.5781705068534360E-002   0.0000000000000000     
  -1.3476844329581203E-002   3.5744009764367521E-002   0.0000000000000000     
  -1.4557333453735296E-002   4.0506191144321357E-002   0.0000000000000000     
  -1.5607744045591341E-002   4.5477197292503345E-002   0.0000000000000000     
  -1.6628076105149343E-002   5.0657028208913504E-002   0.0000000000000000     
  -1.7618329632409301E-002   5.6045683893551822E-002   0.0000000000000000     
  -1.6333246505981010E-002   3.6078702180109404E-002   0.0000000000000000     
  -1.7631544822326414E-002   4.0838992235666373E-002   0.0000000000000000     
  -1.8892889449764094E-002   4.5806941976103251E-002   0.0000000000000000     
  -2.0117280388294020E-002   5.0982551401420023E-002   0.0000000000000000     
  -2.1304717637916221E-002   5.6365820511616690E-002   0.0000000000000000     
  -1.9277709934814483E-002   3.6481639975229144E-002   0.0000000000000000     
  -2.0793284434301347E-002   4.1236385639766296E-002   0.0000000000000000     
  -2.2266151281718230E-002   4.6198046685861985E-002   0.0000000000000000     
  -2.3696310477065139E-002   5.1366623113516217E-002   0.0000000000000000     
  -2.5083762020342067E-002   5.6742114922728980E-002   0.0000000000000000     
  -2.2310234616081615E-002   3.6952823149726727E-002   0.0000000000000000     
  -2.4042552289660082E-002   4.1698371356621106E-002   0.0000000000000000     
  -2.5727529541453780E-002   4.6650511421779561E-002   0.0000000000000000     
  -2.7365166371462697E-002   5.1809243345202094E-002   0.0000000000000000     
  -2.8955462779686834E-002   5.7174567126888690E-002   0.0000000000000000     
  -1.4024598003821305E-002   5.5781705068534360E-002   0.0000000000000000     
  -1.4797541413769740E-002   6.1371521480842593E-002   0.0000000000000000     
  -1.5546653073475544E-002   6.7147257021088549E-002   0.0000000000000000     
  -1.6271932982938709E-002   7.3108911689272263E-002   0.0000000000000000     
  -1.6973381142159249E-002   7.9256485485393713E-002   0.0000000000000000     
  -1.7618329632409301E-002   5.6045683893551822E-002   0.0000000000000000     
  -1.8579185028631953E-002   6.1631290989934827E-002   0.0000000000000000     
  -1.9511322695078045E-002   6.7401976141579042E-002   0.0000000000000000     
  -2.0414742631747567E-002   7.3357739348484483E-002   0.0000000000000000     
  -2.1289444838640533E-002   7.9498580610651140E-002   0.0000000000000000     
  -2.1304717637916221E-002   5.6365820511616690E-002   0.0000000000000000     
  -2.2456454229781458E-002   6.1944973107356804E-002   0.0000000000000000     
  -2.3573743195040502E-002   6.7708232989303896E-002   0.0000000000000000     
  -2.4656584533693359E-002   7.3655600157457993E-002   0.0000000000000000     
  -2.5704978245740025E-002   7.9787074611819067E-002   0.0000000000000000     
  -2.5083762020342067E-002   5.6742114922728980E-002   0.0000000000000000     
  -2.6429349017218249E-002   6.2312567833108540E-002   0.0000000000000000     
  -2.7733914573362915E-002   6.8066027564263137E-002   0.0000000000000000     
  -2.8997458688776075E-002   7.4002494116192752E-002   0.0000000000000000     
  -3.0219981363457722E-002   8.0121967488897439E-002   0.0000000000000000     
  -2.8955462779686834E-002   5.7174567126888690E-002   0.0000000000000000     
  -3.0497869390942317E-002   6.2734075167190026E-002   0.0000000000000000     
  -3.1991836830045278E-002   6.8475359866456725E-002   0.0000000000000000     
  -3.3437365096995714E-002   7.4398421224688815E-002   0.0000000000000000     
  -3.4834454191793623E-002   8.0503259241886282E-002   0.0000000000000000     
  -1.6973381142159249E-002   7.9256485485393713E-002   0.0000000000000000     
  -1.7649245339174138E-002   8.5575590058488402E-002   0.0000000000000000     
  -1.8297773362020368E-002   9.2051837057591873E-002   0.0000000000000000     
  -1.8918965210697941E-002   9.8685226482704100E-002   0.0000000000000000     
  -1.9512820885206842E-002  0.10547575833382511        0.0000000000000000     
  -2.1289444838640533E-002   7.9498580610651140E-002   0.0000000000000000     
  -2.2132312692085484E-002   8.5810413872611777E-002   0.0000000000000000     
  -2.2940229568410981E-002   9.2279153078899098E-002   0.0000000000000000     
  -2.3713195467617010E-002   9.8904798229513133E-002   0.0000000000000000     
  -2.4451210389703597E-002  0.10568734932445384        0.0000000000000000     
  -2.5704978245740025E-002   7.9787074611819067E-002   0.0000000000000000     
  -2.6715184745469980E-002   8.6088984201723395E-002   0.0000000000000000     
  -2.7683464447172731E-002   9.2547656776507309E-002   0.0000000000000000     
  -2.8609817350848249E-002   9.9163092336170752E-002   0.0000000000000000     
  -2.9494243456496549E-002  0.10593529088071375        0.0000000000000000     
  -3.0219981363457722E-002   8.0121967488897439E-002   0.0000000000000000     
  -3.1397861499327634E-002   8.6411301045823313E-002   0.0000000000000000     
  -3.2527477998305604E-002   9.2857348150416505E-002   0.0000000000000000     
  -3.3608830860391618E-002   9.9460108802677000E-002   0.0000000000000000     
  -3.4641920085585698E-002  0.10621958300260487        0.0000000000000000     
  -3.4834454191793623E-002   8.0503259241886282E-002   0.0000000000000000     
  -3.6180342953658448E-002   8.6777364404911433E-002   0.0000000000000000     
  -3.7472270221809628E-002   9.3208227200626659E-002   0.0000000000000000     
  -3.8710235996247164E-002   9.9795847629031875E-002   0.0000000000000000     
  -3.9894240276971041E-002  0.10654022569012714        0.0000000000000000     
  -1.9512820885206842E-002  0.10547575833382511        0.0000000000000000     
  -2.0082077499452039E-002  0.11241358747849778        0.0000000000000000     
  -2.0629472167338472E-002  0.11948886878426503        0.0000000000000000     
  -2.1155004888866142E-002  0.12670160225112684        0.0000000000000000     
  -2.1658675664035055E-002  0.13405178787908317        0.0000000000000000     
  -2.4451210389703597E-002  0.10568734932445384        0.0000000000000000     
  -2.5157333814707670E-002  0.11261813863485440        0.0000000000000000     
  -2.5834625222666191E-002  0.11968849843184794        0.0000000000000000     
  -2.6483084613579157E-002  0.12689842871543447        0.0000000000000000     
  -2.7102711987446571E-002  0.13424792948561393        0.0000000000000000     
  -2.9494243456496549E-002  0.10593529088071375        0.0000000000000000     
  -3.0340206658203292E-002  0.11285612945132396        0.0000000000000000     
  -3.1151170850054147E-002  0.11991748508918894        0.0000000000000000     
  -3.1927136032049115E-002  0.12711935779430875        0.0000000000000000     
  -3.2668102204188192E-002  0.13446174756668336        0.0000000000000000     
  -3.4641920085585698E-002  0.10621958300260487        0.0000000000000000     
  -3.5630696029938895E-002  0.11312755992790642        0.0000000000000000     
  -3.6579109049502338E-002  0.12017582875628803        0.0000000000000000     
  -3.7487159144276007E-002  0.12736438948774972        0.0000000000000000     
  -3.8354846314259915E-002  0.13469324212229150        0.0000000000000000     
  -3.9894240276971041E-002  0.10654022569012714        0.0000000000000000     
  -4.1028801929914510E-002  0.11343243006460180        0.0000000000000000     
  -4.2118439821010781E-002  0.12046352943314519        0.0000000000000000     
  -4.3163153950259853E-002  0.12763352379575735        0.0000000000000000     
  -4.4162944317661740E-002  0.13494241315243824        0.0000000000000000     
  -2.1658675664035055E-002  0.13405178787908317        0.0000000000000000     
  -2.2134426656913342E-002  0.14152535868044727        0.0000000000000000     
  -2.2576200031569158E-002  0.14910824766753225        0.0000000000000000     
  -2.2983995788002493E-002  0.15680045484033811        0.0000000000000000     
  -2.3357813926213358E-002  0.16460198019886485        0.0000000000000000     
  -2.7102711987446571E-002  0.13424792948561393        0.0000000000000000     
  -2.7685176238846757E-002  0.14172420955761214        0.0000000000000000     
  -2.8222146262358031E-002  0.14931447774665485        0.0000000000000000     
  -2.8713622057980403E-002  0.15701873405274200        0.0000000000000000     
  -2.9159603625713855E-002  0.16483697847587370        0.0000000000000000     
  -3.2668102204188192E-002  0.13446174756668336        0.0000000000000000     
  -3.3364602041609272E-002  0.14193193197269610        0.0000000000000000     
  -3.4007168219450289E-002  0.14951718857873020        0.0000000000000000     
  -3.4595800737711201E-002  0.15721751738478570        0.0000000000000000     
  -3.5130499596392022E-002  0.16503291839086268        0.0000000000000000     
  -3.8354846314259915E-002  0.13469324212229150        0.0000000000000000     
  -3.9172704065200924E-002  0.14214852592569907        0.0000000000000000     
  -3.9931265902845917E-002  0.14971638016375829        0.0000000000000000     
  -4.0630531827194886E-002  0.15739680483646926        0.0000000000000000     
  -4.1270501838247854E-002  0.16518979994383179        0.0000000000000000     
  -4.4162944317661740E-002  0.13494241315243824        0.0000000000000000     
  -4.5109482309621675E-002  0.14237399141662113        0.0000000000000000     
  -4.5994439312544919E-002  0.14991205250173922        0.0000000000000000     
  -4.6817815326431478E-002  0.15755659640779254        0.0000000000000000     
  -4.7579610351281346E-002  0.16530762313478109        0.0000000000000000     
   0.0000000000000000        0.0000000000000000        0.0000000000000000     
  -1.7983053518308974E-003   1.2770454102030160E-003   0.0000000000000000     
  -3.6212805212316747E-003   2.9395336066904781E-003   0.0000000000000000     
  -5.4689255082023330E-003   4.9874645894623856E-003   0.0000000000000000     
  -7.3412403127428704E-003   7.4208383585187398E-003   0.0000000000000000     
   0.0000000000000000        0.0000000000000000        0.0000000000000000     
  -2.0693996051146580E-003   1.3551035412486272E-003   0.0000000000000000     
  -4.1639564153292796E-003   3.0942839541403793E-003   0.0000000000000000     
  -6.2836704306438625E-003   5.2175412386752558E-003   0.0000000000000000     
  -8.4285416510584098E-003   7.7248753948532586E-003   0.0000000000000000     
   0.0000000000000000        0.0000000000000000        0.0000000000000000     
  -2.3400440840087812E-003   1.4591081755368821E-003   0.0000000000000000     
  -4.7200449495466423E-003   3.3000882864692091E-003   0.0000000000000000     
  -7.1400025966135818E-003   5.5229403327969832E-003   0.0000000000000000     
  -9.5999170252096030E-003   8.1276643145202013E-003   0.0000000000000000     
   0.0000000000000000        0.0000000000000000        0.0000000000000000     
  -2.6102387885132659E-003   1.5890593130677801E-003   0.0000000000000000     
  -5.2895461238837626E-003   3.5569466036769683E-003   0.0000000000000000     
  -8.0379220061114909E-003   5.9036618718275652E-003   0.0000000000000000     
  -1.0855366435196450E-002   8.6292051175195696E-003   0.0000000000000000     
   0.0000000000000000        0.0000000000000000        0.0000000000000000     
  -2.8799837186281128E-003   1.7449569538413225E-003   0.0000000000000000     
  -5.8724599383406422E-003   3.8648589057636564E-003   0.0000000000000000     
  -8.9774286591375874E-003   6.3597058557670035E-003   0.0000000000000000     
  -1.2194889881018949E-002   9.2294978038513619E-003   0.0000000000000000     
  -7.3412403127428704E-003   7.4208383585187398E-003   0.0000000000000000     
  -9.2305500340197286E-003   1.0187274435170186E-002   0.0000000000000000     
  -1.1129179771199345E-002   1.3234392340727373E-002   0.0000000000000000     
  -1.3037129524281724E-002   1.6562192075190295E-002   0.0000000000000000     
  -1.4954399293266861E-002   2.0170673638558963E-002   0.0000000000000000     
  -8.4285416510584098E-003   7.7248753948532586E-003   0.0000000000000000     
  -1.0590261423401897E-002   1.0558855439890725E-002   0.0000000000000000     
  -1.2760521094503294E-002   1.3662050391003993E-002   0.0000000000000000     
  -1.4939320664362607E-002   1.7034460248193065E-002   0.0000000000000000     
  -1.7126660132979837E-002   2.0676085011457949E-002   0.0000000000000000     
  -9.5999170252096030E-003   8.1276643145202013E-003   0.0000000000000000     
  -1.2076260025894448E-002   1.1046859781346586E-002   0.0000000000000000     
  -1.4545503389227865E-002   1.4213126282983851E-002   0.0000000000000000     
  -1.7007647115209849E-002   1.7626463819432000E-002   0.0000000000000000     
  -1.9462691203840400E-002   2.1286872390691026E-002   0.0000000000000000     
  -1.0855366435196450E-002   8.6292051175195696E-003   0.0000000000000000     
  -1.3688545841497387E-002   1.1651287459537763E-002   0.0000000000000000     
  -1.6484126655373046E-002   1.4887620016666936E-002   0.0000000000000000     
  -1.9242108876823431E-002   1.8338202788907080E-002   0.0000000000000000     
  -2.1962492505848544E-002   2.2003035776258201E-002   0.0000000000000000     
  -1.2194889881018949E-002   9.2294978038513619E-003   0.0000000000000000     
  -1.5427118870210711E-002   1.2372138474464266E-002   0.0000000000000000     
  -1.8576390892938853E-002   1.5685531592053253E-002   0.0000000000000000     
  -2.1642705949203370E-002   1.9169677156618319E-002   0.0000000000000000     
  -2.4626064039004272E-002   2.2824575168159472E-002   0.0000000000000000     
  -1.4954399293266861E-002   2.0170673638558963E-002   0.0000000000000000     
  -1.6855586333645169E-002   2.4031174841373099E-002   0.0000000000000000     
  -1.8715287900907068E-002   2.8115033494172437E-002   0.0000000000000000     
  -2.0533503995052549E-002   3.2422249596956977E-002   0.0000000000000000     
  -2.2310234616081615E-002   3.6952823149726727E-002   0.0000000000000000     
  -1.7126660132979837E-002   2.0676085011457949E-002   0.0000000000000000     
  -1.9291236652766310E-002   2.4559255676755105E-002   0.0000000000000000     
  -2.1401747376133345E-002   2.8656303240041016E-002   0.0000000000000000     
  -2.3458192303080945E-002   3.2967227701315702E-002   0.0000000000000000     
  -2.5460571433609108E-002   3.7492029060579128E-002   0.0000000000000000     
  -1.9462691203840400E-002   2.1286872390691026E-002   0.0000000000000000     
  -2.1882298160517979E-002   2.5175590624318896E-002   0.0000000000000000     
  -2.4238130490641059E-002   2.9273857147873571E-002   0.0000000000000000     
  -2.6530188194209613E-002   3.3581671961355052E-002   0.0000000000000000     
  -2.8758471271223669E-002   3.8099035064763323E-002   0.0000000000000000     
  -2.1962492505848544E-002   2.2003035776258201E-002   0.0000000000000000     
  -2.4628770856900194E-002   2.5880179684064475E-002   0.0000000000000000     
  -2.7224437244430202E-002   2.9967695217670089E-002   0.0000000000000000     
  -2.9749491668438564E-002   3.4265582377075041E-002   0.0000000000000000     
  -3.2203934128925284E-002   3.8773841162279339E-002   0.0000000000000000     
  -2.4626064039004272E-002   2.2824575168159472E-002   0.0000000000000000     
  -2.7530654741912949E-002   2.6673022855991844E-002   0.0000000000000000     
  -3.0360667637500786E-002   3.0737817449430577E-002   0.0000000000000000     
  -3.3116102725767788E-002   3.5018958948475676E-002   0.0000000000000000     
  -3.5796960006713972E-002   3.9516447353127128E-002   0.0000000000000000     
  -2.2310234616081615E-002   3.6952823149726727E-002   0.0000000000000000     
  -2.4042552289660082E-002   4.1698371356621106E-002   0.0000000000000000     
  -2.5727529541453780E-002   4.6650511421779561E-002   0.0000000000000000     
  -2.7365166371462697E-002   5.1809243345202094E-002   0.0000000000000000     
  -2.8955462779686834E-002   5.7174567126888690E-002   0.0000000000000000     
  -2.5460571433609108E-002   3.7492029060579128E-002   0.0000000000000000     
  -2.7409870970112975E-002   4.2226727933626550E-002   0.0000000000000000     
  -2.9307077114987659E-002   4.7167344936253193E-002   0.0000000000000000     
  -3.1152189868233170E-002   5.2313880068459072E-002   0.0000000000000000     
  -3.2945209229849497E-002   5.7666333330244179E-002   0.0000000000000000     
  -2.8758471271223669E-002   3.8099035064763323E-002   0.0000000000000000     
  -3.0925763057370357E-002   4.2823233918178362E-002   0.0000000000000000     
  -3.3034846888336807E-002   4.7751555981680134E-002   0.0000000000000000     
  -3.5085722764123035E-002   5.2884001255268612E-002   0.0000000000000000     
  -3.7078390684729019E-002   5.8220569738943795E-002   0.0000000000000000     
  -3.2203934128925284E-002   3.8773841162279339E-002   0.0000000000000000     
  -3.4590228551432220E-002   4.3487889310276563E-002   0.0000000000000000     
  -3.6910838861501226E-002   4.8403144558060336E-002   0.0000000000000000     
  -3.9165765059132281E-002   5.3519606905630672E-002   0.0000000000000000     
  -4.1355007144325412E-002   5.8837276352987564E-002   0.0000000000000000     
  -3.5796960006713972E-002   3.9516447353127128E-002   0.0000000000000000     
  -3.8403267452298585E-002   4.4220694109921126E-002   0.0000000000000000     
  -4.0935053034480896E-002   4.9122110665393841E-002   0.0000000000000000     
  -4.3392316753260919E-002   5.4220697019545287E-002   0.0000000000000000     
  -4.5775058608638661E-002   5.9516453172375458E-002   0.0000000000000000     
  -2.8955462779686834E-002   5.7174567126888690E-002   0.0000000000000000     
  -3.0497869390942317E-002   6.2734075167190026E-002   0.0000000000000000     
  -3.1991836830045278E-002   6.8475359866456725E-002   0.0000000000000000     
  -3.3437365096995714E-002   7.4398421224688815E-002   0.0000000000000000     
  -3.4834454191793623E-002   8.0503259241886282E-002   0.0000000000000000     
  -3.2945209229849497E-002   5.7666333330244179E-002   0.0000000000000000     
  -3.4684279729542668E-002   6.3212136392831617E-002   0.0000000000000000     
  -3.6367545897018697E-002   6.8938720927444477E-002   0.0000000000000000     
  -3.7995007732277583E-002   7.4846086934082776E-002   0.0000000000000000     
  -3.9566665235319334E-002   8.0934234412746497E-002   0.0000000000000000     
  -3.7078390684729019E-002   5.8220569738943795E-002   0.0000000000000000     
  -3.9010844411608278E-002   6.3749392793263679E-002   0.0000000000000000     
  -4.0881077706214256E-002   6.9458601778786169E-002   0.0000000000000000     
  -4.2689090568546979E-002   7.5348196695511294E-002   0.0000000000000000     
  -4.4434882998606443E-002   8.1418177543439052E-002   0.0000000000000000     
  -4.1355007144325412E-002   5.8837276352987564E-002   0.0000000000000000     
  -4.3477563437139120E-002   6.4345844368486199E-002   0.0000000000000000     
  -4.5532432257631948E-002   7.0035002420481801E-002   0.0000000000000000     
  -4.7519613605803888E-002   7.5904750508974370E-002   0.0000000000000000     
  -4.9439107481654948E-002   8.1955088633963918E-002   0.0000000000000000     
  -4.5775058608638661E-002   5.9516453172375458E-002   0.0000000000000000     
  -4.8084436806135236E-002   6.5001491118499191E-002   0.0000000000000000     
  -5.0321609551271788E-002   7.0667922852531373E-002   0.0000000000000000     
  -5.2486576844048331E-002   7.6515748374471990E-002   0.0000000000000000     
  -5.4579338684464851E-002   8.2544967684321055E-002   0.0000000000000000     
  -3.4834454191793623E-002   8.0503259241886282E-002   0.0000000000000000     
  -3.6180342953658448E-002   8.6777364404911433E-002   0.0000000000000000     
  -3.7472270221809628E-002   9.3208227200626659E-002   0.0000000000000000     
  -3.8710235996247164E-002   9.9795847629031875E-002   0.0000000000000000     
  -3.9894240276971041E-002  0.10654022569012714        0.0000000000000000     
  -3.9566665235319334E-002   8.0934234412746497E-002   0.0000000000000000     
  -4.1080655780236369E-002   8.7191180575849875E-002   0.0000000000000000     
  -4.2535116741121128E-002   9.3604942635807084E-002   0.0000000000000000     
  -4.3930048117973595E-002  0.10017552059261808        0.0000000000000000     
  -4.5265449910793787E-002  0.10690291444628292        0.0000000000000000     
  -4.4434882998606443E-002   8.1418177543439052E-002   0.0000000000000000     
  -4.6116826650835357E-002   8.7656755855500590E-002   0.0000000000000000     
  -4.7733293179676436E-002   9.4052143164627011E-002   0.0000000000000000     
  -4.9284282585129686E-002  0.10060433947081832        0.0000000000000000     
  -5.0769794867195107E-002  0.10731334477407453        0.0000000000000000     
  -4.9439107481654948E-002   8.1955088633963918E-002   0.0000000000000000     
  -5.1288855565455406E-002   8.8174090243863551E-002   0.0000000000000000     
  -5.3066799537475569E-002   9.4549828787086440E-002   0.0000000000000000     
  -5.4772939397715437E-002  0.10108230426363256        0.0000000000000000     
  -5.6407275146175009E-002  0.10777151667350195        0.0000000000000000     
  -5.4579338684464851E-002   8.2544967684321055E-002   0.0000000000000000     
  -5.6596742524096522E-002   8.8743183740938772E-002   0.0000000000000000     
  -5.8535635814518518E-002   9.5097999503185371E-002   0.0000000000000000     
  -6.0396018555730832E-002  0.10160941497106082        0.0000000000000000     
  -6.2177890747733486E-002  0.10827743014456515        0.0000000000000000     
  -3.9894240276971041E-002  0.10654022569012714        0.0000000000000000     
  -4.1028801929914510E-002  0.11343243006460180        0.0000000000000000     
  -4.2118439821010781E-002  0.12046352943314519        0.0000000000000000     
  -4.3163153950259853E-002  0.12763352379575735        0.0000000000000000     
  -4.4162944317661740E-002  0.13494241315243824        0.0000000000000000     
  -4.5265449910793787E-002  0.10690291444628292        0.0000000000000000     
  -4.6546540794595297E-002  0.11377728730396672        0.0000000000000000     
  -4.7778539444391768E-002  0.12078880227283462        0.0000000000000000     
  -4.8961445860183188E-002  0.12793745935288661        0.0000000000000000     
  -5.0095260041969555E-002  0.13522325854412268        0.0000000000000000     
  -5.0769794867195107E-002  0.10731334477407453        0.0000000000000000     
  -5.2195929060446483E-002  0.11416867908855786        0.0000000000000000     
  -5.3568784199457646E-002  0.12115986242843049        0.0000000000000000     
  -5.4888360284228575E-002  0.12828689479369249        0.0000000000000000     
  -5.6154657314759257E-002  0.13554977618434377        0.0000000000000000     
  -5.6407275146175009E-002  0.10777151667350195        0.0000000000000000     
  -5.7976966727468056E-002  0.11460660541837515        0.0000000000000000     
  -5.9489174086208393E-002  0.12157670989993284        0.0000000000000000     
  -6.0943897222395987E-002  0.12868183011817497        0.0000000000000000     
  -6.2341136136030872E-002  0.13592196607310156        0.0000000000000000     
  -6.2177890747733486E-002  0.10827743014456515        0.0000000000000000     
  -6.3889653795660015E-002  0.11509106629341866        0.0000000000000000     
  -6.5539709104644003E-002  0.12203934468734164        0.0000000000000000     
  -6.7128056674685452E-002  0.12912226532633411        0.0000000000000000     
  -6.8654696505784346E-002  0.13633982821039600        0.0000000000000000     
  -4.4162944317661740E-002  0.13494241315243824        0.0000000000000000     
  -4.5109482309621675E-002  0.14237399141662113        0.0000000000000000     
  -4.5994439312544919E-002  0.14991205250173922        0.0000000000000000     
  -4.6817815326431478E-002  0.15755659640779254        0.0000000000000000     
  -4.7579610351281346E-002  0.16530762313478109        0.0000000000000000     
  -5.0095260041969555E-002  0.13522325854412268        0.0000000000000000     
  -5.1172592646069215E-002  0.14262796671169070        0.0000000000000000     
  -5.2186054328800531E-002  0.15013335072073847        0.0000000000000000     
  -5.3135645090163483E-002  0.15773941057126603        0.0000000000000000     
  -5.4021364930158106E-002  0.16544614626327336        0.0000000000000000     
  -5.6154657314759257E-002  0.13554977618434377        0.0000000000000000     
  -5.7359690945741233E-002  0.14293009007713625        0.0000000000000000     
  -5.8495476831865956E-002  0.15040941994882165        0.0000000000000000     
  -5.9562014973133452E-002  0.15798776579940008        0.0000000000000000     
  -6.0559305369543709E-002  0.16566512762887139        0.0000000000000000     
  -6.2341136136030872E-002  0.13592196607310156        0.0000000000000000     
  -6.3670777208637702E-002  0.14328036151295778        0.0000000000000000     
  -6.4922706821741200E-002  0.15074026018598879        0.0000000000000000     
  -6.6096924975341337E-002  0.15830166209219462        0.0000000000000000     
  -6.7193431669438156E-002  0.16596456723157521        0.0000000000000000     
  -6.8654696505784346E-002  0.13633982821039600        0.0000000000000000     
  -7.0105851434758643E-002  0.14367878101915532        0.0000000000000000     
  -7.1467744298426270E-002  0.15112587143223988        0.0000000000000000     
  -7.2740375096787199E-002  0.15868109944964973        0.0000000000000000     
  -7.3923743829841473E-002  0.16634446507138481        0.0000000000000000     
   0.0000000000000000        0.0000000000000000        0.0000000000000000     
  -2.8799837186281128E-003   1.7449569538413225E-003   0.0000000000000000     
  -5.8724599383406422E-003   3.8648589057636564E-003   0.0000000000000000     
  -8.9774286591375874E-003   6.3597058557670035E-003   0.0000000000000000     
  -1.2194889881018949E-002   9.2294978038513619E-003   0.0000000000000000     
   0.0000000000000000        0.0000000000000000        0.0000000000000000     
  -3.2831177697251325E-003   1.9994559904644507E-003   0.0000000000000000     
  -6.6767596224414829E-003   4.3311316577873855E-003   0.0000000000000000     
  -1.0180925558149046E-002   6.9950270019688036E-003   0.0000000000000000     
  -1.3795615576847831E-002   9.9911420230087040E-003   0.0000000000000000     
   0.0000000000000000        0.0000000000000000        0.0000000000000000     
  -3.9534798371761376E-003   2.4252113155441082E-003   0.0000000000000000     
  -7.9104184057104850E-003   5.0630713248062641E-003   0.0000000000000000     
  -1.1870815705603046E-002   7.9135800277864692E-003   0.0000000000000000     
  -1.5834671736853819E-002   1.0976737424484722E-002   0.0000000000000000     
   0.0000000000000000        0.0000000000000000        0.0000000000000000     
  -4.8910699209811261E-003   3.0222229290802942E-003   0.0000000000000000     
  -9.5734362881476544E-003   6.0606779068202946E-003   0.0000000000000000     
  -1.4047099101499582E-002   9.1153649332200038E-003   0.0000000000000000     
  -1.8312058361036908E-002   1.2186284008279419E-002   0.0000000000000000     
   0.0000000000000000        0.0000000000000000        0.0000000000000000     
  -6.0958880211400990E-003   3.7904908310730091E-003   0.0000000000000000     
  -1.1665813269752984E-002   7.3239514038294772E-003   0.0000000000000000     
  -1.6709775745838654E-002   1.0600381718269405E-002   0.0000000000000000     
  -2.1227775449397114E-002   1.3619781774392790E-002   0.0000000000000000     
  -1.2194889881018949E-002   9.2294978038513619E-003   0.0000000000000000     
  -1.5427118870210711E-002   1.2372138474464266E-002   0.0000000000000000     
  -1.8576390892938853E-002   1.5685531592053253E-002   0.0000000000000000     
  -2.1642705949203370E-002   1.9169677156618319E-002   0.0000000000000000     
  -2.4626064039004272E-002   2.2824575168159472E-002   0.0000000000000000     
  -1.3795615576847831E-002   9.9911420230087040E-003   0.0000000000000000     
  -1.7403756249514433E-002   1.3221475009974870E-002   0.0000000000000000     
  -2.0888274147125459E-002   1.6588024251935073E-002   0.0000000000000000     
  -2.4249169269680900E-002   2.0090789748889323E-002   0.0000000000000000     
  -2.7486441617180772E-002   2.3729771500837611E-002   0.0000000000000000     
  -1.5834671736853819E-002   1.0976737424484722E-002   0.0000000000000000     
  -1.9730235116888570E-002   1.4211359249918348E-002   0.0000000000000000     
  -2.3485754463133047E-002   1.7576261239104673E-002   0.0000000000000000     
  -2.7101229775587276E-002   2.1071443392043681E-002   0.0000000000000000     
  -3.0576661054251227E-002   2.4696905708735395E-002   0.0000000000000000     
  -1.8312058361036908E-002   1.2186284008279419E-002   0.0000000000000000     
  -2.2406555472333105E-002   1.5341791194294708E-002   0.0000000000000000     
  -2.6368831840961629E-002   1.8650242553562037E-002   0.0000000000000000     
  -3.0198887466922474E-002   2.2111638086081409E-002   0.0000000000000000     
  -3.3896722350215638E-002   2.5725977791852817E-002   0.0000000000000000     
  -2.1227775449397114E-002   1.3619781774392790E-002   0.0000000000000000     
  -2.5432717315848057E-002   1.6612770843103943E-002   0.0000000000000000     
  -2.9537506280611189E-002   1.9809968195307177E-002   0.0000000000000000     
  -3.3542142343686507E-002   2.3211373831002489E-002   0.0000000000000000     
  -3.7446625505074015E-002   2.6816987750189883E-002   0.0000000000000000     
  -2.4626064039004272E-002   2.2824575168159472E-002   0.0000000000000000     
  -2.7530654741912949E-002   2.6673022855991844E-002   0.0000000000000000     
  -3.0360667637500786E-002   3.0737817449430577E-002   0.0000000000000000     
  -3.3116102725767788E-002   3.5018958948475676E-002   0.0000000000000000     
  -3.5796960006713972E-002   3.9516447353127128E-002   0.0000000000000000     
  -2.7486441617180772E-002   2.3729771500837611E-002   0.0000000000000000     
  -3.0623130219325230E-002   2.7547569188287574E-002   0.0000000000000000     
  -3.3682274105814453E-002   3.1586782491746845E-002   0.0000000000000000     
  -3.6663873276648426E-002   3.5847411411215425E-002   0.0000000000000000     
  -3.9567927731827164E-002   4.0329455946693314E-002   0.0000000000000000     
  -3.0576661054251227E-002   2.4696905708735395E-002   0.0000000000000000     
  -3.3941377692906040E-002   2.8497267729138253E-002   0.0000000000000000     
  -3.7224709085332819E-002   3.2517148993210725E-002   0.0000000000000000     
  -4.0426655231531591E-002   3.6756549500952800E-002   0.0000000000000000     
  -4.3547216131502316E-002   4.1215469252364495E-002   0.0000000000000000     
  -3.3896722350215638E-002   2.5725977791852817E-002   0.0000000000000000     
  -3.7485397162655379E-002   2.9522118478543882E-002   0.0000000000000000     
  -4.0987972576055923E-002   3.3528916953822215E-002   0.0000000000000000     
  -4.4404448590417277E-002   3.7746373217687805E-002   0.0000000000000000     
  -4.7734825205739427E-002   4.2174487270140656E-002   0.0000000000000000     
  -3.7446625505074015E-002   2.6816987750189883E-002   0.0000000000000000     
  -4.1255188628573247E-002   3.0622121436504453E-002   0.0000000000000000     
  -4.4972064577983736E-002   3.4622086373581294E-002   0.0000000000000000     
  -4.8597253353305496E-002   3.8816882561420407E-002   0.0000000000000000     
  -5.2130754954538505E-002   4.3206510000021792E-002   0.0000000000000000     
  -3.5796960006713972E-002   3.9516447353127128E-002   0.0000000000000000     
  -3.8403267452298585E-002   4.4220694109921126E-002   0.0000000000000000     
  -4.0935053034480896E-002   4.9122110665393841E-002   0.0000000000000000     
  -4.3392316753260919E-002   5.4220697019545287E-002   0.0000000000000000     
  -4.5775058608638661E-002   5.9516453172375458E-002   0.0000000000000000     
  -3.9567927731827164E-002   4.0329455946693314E-002   0.0000000000000000     
  -4.2391703153446994E-002   4.5019281521505042E-002   0.0000000000000000     
  -4.5132465223604278E-002   4.9903253558975132E-002   0.0000000000000000     
  -4.7790213942299008E-002   5.4981372059103584E-002   0.0000000000000000     
  -5.0364949309531157E-002   6.0253637021890377E-002   0.0000000000000000     
  -4.3547216131502316E-002   4.1215469252364495E-002   0.0000000000000000     
  -4.6582359048355039E-002   4.5881284749421290E-002   0.0000000000000000     
  -4.9528051245199774E-002   5.0741372494098685E-002   0.0000000000000000     
  -5.2384292722036534E-002   5.5795732486396674E-002   0.0000000000000000     
  -5.5151083478865305E-002   6.1044364726315255E-002   0.0000000000000000     
  -4.7734825205739427E-002   4.2174487270140656E-002   0.0000000000000000     
  -5.0975235137022699E-002   4.6806703793669857E-002   0.0000000000000000     
  -5.4121811099267406E-002   5.1636467470764495E-002   0.0000000000000000     
  -5.7174553092473532E-002   5.6663778301424564E-002   0.0000000000000000     
  -6.0133461116641078E-002   6.1888636285650070E-002   0.0000000000000000     
  -5.2130754954538505E-002   4.3206510000021792E-002   0.0000000000000000     
  -5.5570331419449989E-002   4.7795538654250749E-002   0.0000000000000000     
  -5.8913744785807153E-002   5.2588538488972575E-002   0.0000000000000000     
  -6.2160995053609995E-002   5.7585509504187268E-002   0.0000000000000000     
  -6.5312082222858503E-002   6.2786451699894816E-002   0.0000000000000000     
  -4.5775058608638661E-002   5.9516453172375458E-002   0.0000000000000000     
  -4.8084436806135236E-002   6.5001491118499191E-002   0.0000000000000000     
  -5.0321609551271788E-002   7.0667922852531373E-002   0.0000000000000000     
  -5.2486576844048331E-002   7.6515748374471990E-002   0.0000000000000000     
  -5.4579338684464851E-002   8.2544967684321055E-002   0.0000000000000000     
  -5.0364949309531157E-002   6.0253637021890377E-002   0.0000000000000000     
  -5.2859941264582558E-002   6.5713961821144487E-002   0.0000000000000000     
  -5.5278459746735002E-002   7.1356259830674840E-002   0.0000000000000000     
  -5.7620504755988476E-002   7.7180531050481421E-002   0.0000000000000000     
  -5.9886076292342980E-002   8.3186775480564232E-002   0.0000000000000000     
  -5.5151083478865305E-002   6.1044364726315255E-002   0.0000000000000000     
  -5.7832553558467066E-002   6.6480885254263919E-002   0.0000000000000000     
  -6.0432833003622795E-002   7.2098910110652129E-002   0.0000000000000000     
  -6.2951921814332512E-002   7.7898439295479890E-002   0.0000000000000000     
  -6.5389819990596190E-002   8.3879472808747205E-002   0.0000000000000000     
  -6.0133461116641078E-002   6.1888636285650070E-002   0.0000000000000000     
  -6.3002273687788740E-002   6.7302261417857487E-002   0.0000000000000000     
  -6.5784729321935201E-002   7.2895873692463267E-002   0.0000000000000000     
  -6.8480828019080425E-002   7.8669473109467425E-002   0.0000000000000000     
  -7.1090569779224441E-002   8.4623059668869932E-002   0.0000000000000000     
  -6.5312082222858503E-002   6.2786451699894816E-002   0.0000000000000000     
  -6.8369101652547601E-002   6.8178090311925163E-002   0.0000000000000000     
  -7.1334148701672179E-002   7.3747150576108214E-002   0.0000000000000000     
  -7.4207223370232236E-002   7.9493632492443969E-002   0.0000000000000000     
  -7.6988325658227774E-002   8.5417536060932428E-002   0.0000000000000000     
  -5.4579338684464851E-002   8.2544967684321055E-002   0.0000000000000000     
  -5.6596742524096522E-002   8.8743183740938772E-002   0.0000000000000000     
  -5.8535635814518518E-002   9.5097999503185371E-002   0.0000000000000000     
  -6.0396018555730832E-002  0.10160941497106082        0.0000000000000000     
  -6.2177890747733486E-002  0.10827743014456515        0.0000000000000000     
  -5.9886076292342980E-002   8.3186775480564232E-002   0.0000000000000000     
  -6.2070815082564526E-002   8.9362314247121127E-002   0.0000000000000000     
  -6.4170361853419053E-002   9.5694468476349881E-002   0.0000000000000000     
  -6.6184716604906560E-002  0.10218323816825052        0.0000000000000000     
  -6.8113879337027075E-002  0.10882862332282303        0.0000000000000000     
  -6.5389819990596190E-002   8.3879472808747205E-002   0.0000000000000000     
  -6.7741400796665199E-002   9.0029759662805450E-002   0.0000000000000000     
  -7.0001537496790861E-002   9.6337048870006076E-002   0.0000000000000000     
  -7.2170230090973245E-002  0.10280134043034905        0.0000000000000000     
  -7.4247478579212295E-002  0.10942263434383438        0.0000000000000000     
  -7.1090569779224441E-002   8.4623059668869932E-002   0.0000000000000000     
  -7.3608499666398555E-002   9.0745519987991782E-002   0.0000000000000000     
  -7.6029162744634060E-002   9.7025740684153955E-002   0.0000000000000000     
  -7.8352559013930928E-002  0.10346372175735646        0.0000000000000000     
  -8.0578688474289159E-002  0.11005946320759924        0.0000000000000000     
  -7.6988325658227774E-002   8.5417536060932428E-002   0.0000000000000000     
  -7.9672111691764608E-002   9.1509595222680110E-002   0.0000000000000000     
  -8.2253237596948539E-002   9.7760543918793533E-002   0.0000000000000000     
  -8.4731703373779554E-002  0.10417038214927268        0.0000000000000000     
  -8.7107509022257681E-002  0.11073910991411759        0.0000000000000000     
  -6.2177890747733486E-002  0.10827743014456515        0.0000000000000000     
  -6.3889653795660015E-002  0.11509106629341866        0.0000000000000000     
  -6.5539709104644003E-002  0.12203934468734164        0.0000000000000000     
  -6.7128056674685452E-002  0.12912226532633411        0.0000000000000000     
  -6.8654696505784346E-002  0.13633982821039600        0.0000000000000000     
  -6.8113879337027075E-002  0.10882862332282303        0.0000000000000000     
  -6.9967282787854579E-002  0.11561960164138371        0.0000000000000000     
  -7.1754359695463080E-002  0.12254515082524892        0.0000000000000000     
  -7.3475110059852564E-002  0.12960527087441862        0.0000000000000000     
  -7.5129533881023031E-002  0.13679996178889278        0.0000000000000000     
  -7.4247478579212295E-002  0.10942263434383438        0.0000000000000000     
  -7.6243146226883954E-002  0.11618975138996571        0.0000000000000000     
  -7.8167096299364164E-002  0.12309151234824665        0.0000000000000000     
  -8.0019328796652925E-002  0.13012791721867725        0.0000000000000000     
  -8.1799843718750223E-002  0.13729896600125749        0.0000000000000000     
  -8.0578688474289159E-002  0.11005946320759924        0.0000000000000000     
  -8.2717244112748153E-002  0.11680151553916464        0.0000000000000000     
  -8.4777918916347283E-002  0.12367842925633493        0.0000000000000000     
  -8.6760712885086536E-002  0.13069020435911005        0.0000000000000000     
  -8.8665626018965896E-002  0.13783684084749012        0.0000000000000000     
  -8.7107509022257681E-002  0.11073910991411759        0.0000000000000000     
  -8.9389576445447205E-002  0.11745489408898048        0.0000000000000000     
  -9.1586827546412439E-002  0.12430590154951363        0.0000000000000000     
  -9.3699262325153396E-002  0.13129213229571704        0.0000000000000000     
  -9.5726880781670076E-002  0.13841358632759071        0.0000000000000000     
  -6.8654696505784346E-002  0.13633982821039600        0.0000000000000000     
  -7.0105851434758643E-002  0.14367878101915532        0.0000000000000000     
  -7.1467744298426270E-002  0.15112587143223988        0.0000000000000000     
  -7.2740375096787199E-002  0.15868109944964973        0.0000000000000000     
  -7.3923743829841473E-002  0.16634446507138481        0.0000000000000000     
  -7.5129533881023031E-002  0.13679996178889278        0.0000000000000000     
  -7.6701048005749645E-002  0.14411879592713825        0.0000000000000000     
  -7.8173069280807514E-002  0.15155134564762179        0.0000000000000000     
  -7.9545597706196694E-002  0.15909761095034342        0.0000000000000000     
  -8.0818633281917115E-002  0.16675759183530314        0.0000000000000000     
  -8.1799843718750223E-002  0.13729896600125749        0.0000000000000000     
  -8.3492501303256292E-002  0.14459385356831597        0.0000000000000000     
  -8.5081161787771378E-002  0.15200177479218147        0.0000000000000000     
  -8.6565825172295482E-002  0.15952272967285386        0.0000000000000000     
  -8.7946491456828577E-002  0.16715671821033320        0.0000000000000000     
  -8.8665626018965896E-002  0.13783684084749012        0.0000000000000000     
  -9.0480211327278584E-002  0.14510395394268855        0.0000000000000000     
  -9.2192021819317793E-002  0.15247715886591884        0.0000000000000000     
  -9.3801057495083565E-002  0.15995645561718097        0.0000000000000000     
  -9.5307318354575857E-002  0.16754184419647500        0.0000000000000000     
  -9.5726880781670076E-002  0.13841358632759071        0.0000000000000000     
  -9.7664178077816521E-002  0.14564909705025592        0.0000000000000000     
  -9.9505649375446814E-002  0.15297749786883394        0.0000000000000000     
 -0.10125129467456097       0.16039878878332481        0.0000000000000000     
 -0.10290111397515896       0.16791296979372849        0.0000000000000000     
 </DataArray>
 <DataArray  type="Float64" Name="stress" NumberOfComponents="3" format="ascii">
   13416908507.275669        4025072552.1827006        2893951803.7547565     
   11766756717.541616        1890501151.0272920        1715774100.9755785     
   10313883917.724611        413526382.92868710        810702958.84193528     
   9058290107.8246422       -405851752.11311483        178738377.35382551     
   7999975287.8417149       -567633254.09811306       -180119643.48875028     
   10540130800.850935        3162039240.2552805        2225704334.3683410     
   9667795256.0905857        1589621398.6930413        1446657753.8614297     
   8944099709.3956337        512670217.34880257        863097056.62879133     
   8369044160.7660856       -68814303.777438641        475022242.67042583     
   7942628610.2019310       -154832164.68568420        282433311.98633355     
   8338082764.8113651        2501424829.4434094        1712294489.4983544     
   8021790101.1068249        1424628538.2989740        1275633540.7701285     
   7805498443.6160431        681168934.53373194        956837797.94491327     
   7689207792.3390188        271046018.14768219        755907261.02271104     
   7672918147.2757559        194259789.14082861        672841930.00351918     
   6810764399.1569557        2043229319.7470868        1353722269.1447976     
   6828741252.5903387        1395522569.8450880        1202701461.7016742     
   6898080120.3858366        919022534.48347783        1091925182.7903016     
   7018781002.5434532        613729213.66225529        1021393432.4106793     
   7190843899.0631847        479642607.38142204        991106210.56280780     
   5958175703.8877106        1787452711.1663132        1149987673.3076699     
   6088648710.5411253        1502303493.3313839        1227861516.6560678     
   6221844739.7050142        1226231017.1980381        1268359211.1649551     
   6357763791.3793793        959235282.76627541        1271480756.8343322     
   6496405865.5642214        701316290.03609729        1237226153.6641977     
   7999975287.8417149       -567633254.09811306       -180119643.48875028     
   7917917290.1597157       -200210881.57875681       -78213251.857177898     
   7794400189.0314941        29014479.453193188       -8975406.6809490751     
   7629423984.4570522        120042828.99774122        27593892.039936371     
   7422988676.4363880        72874167.054881573        31494644.305483397     
   7942628610.2019310       -154832164.68568420        282433311.98633355     
   7740047487.4563980        16302274.534420490        281161023.71648747     
   7514102391.9967375        109556804.70743179        265144401.07601285     
   7264793323.8229485        124931425.83335114        234383444.06491223     
   6992120282.9350300        62426137.912171364        188878152.68318683     
   7672918147.2757559        194259789.14082861        672841930.00351918     
   7401025933.9944439        184469905.42000723        589501947.68636394     
   7123864878.7311001        157117215.09240437        509341843.08329672     
   6841434981.4857187        112201718.15802002        432361616.19431996     
   6553736242.2583036        49723414.616852999        358561267.01942730     
   7190843899.0631847        479642607.38142204        991106210.56280780     
   6900852629.7738523        304292011.07800150        846809520.05245256     
   6623687649.2345810        171695710.60811210        723616919.34090114     
   6359348957.4453678        81853705.971753597        621528408.42815244     
   6107836554.4062119        34765997.168925285        540543987.31420743     
   6496405865.5642214        701316290.03609729        1237226153.6641977     
   6239527574.7946243        375768591.50840592        1053083740.8147533     
   6013570703.5071812        153292291.25455666        907969629.84882534     
   5818535251.7018909        33887389.274550438        801883820.76641846     
   5654421219.3787546        17553885.568385124        734826313.56752777     
   7422988676.4363880        72874167.054881573        31494644.305483397     
   7219719873.2536373       -17875381.847435951        14609324.635041114     
   7028549181.1583157       -68297893.791658878        2216911.7652062541     
   6849476600.1504221       -78393368.777788639       -5682594.3040235844     
   6682502130.2299604       -48161806.805809021       -9089193.5726392735     
   6992120282.9350300        62426137.912171364        188878152.68318683     
   6809084320.1842575        3094640.6287698746        180590316.07587072     
   6633774528.2992363       -30482953.768800259        176122976.47279453     
   6466190907.2799606       -38306645.280543804        175476133.87396288     
   6306333457.1264372       -20376433.906451225        178649788.27937207     
   6553736242.2583036        49723414.616852999        358561267.01942730     
   6389011949.0927486        21233617.698333263        353770316.54994732     
   6227641886.5712624        3924589.5933828354        352127453.28834051     
   6069626054.6938448       -2203669.6979982853        353632677.23460656     
   5914964453.4604998        2848839.8241856098        358285988.38874996     
   6107836554.4062119        34765997.168925285        540543987.31420743     
   5959502759.9791126        36541549.361262083        534149326.05726874     
   5810151255.9744034        34924736.294903755        530230342.21183664     
   5659782042.3920841        29915557.969848156        528787035.77791172     
   5508395119.2321606        21514014.386100292        529819406.75549841     
   5654421219.3787546        17553885.568385124        734826313.56752777     
   5520556752.8433495        49018435.617550850        721727344.59783614     
   5381302636.5086565        62517486.335758448        710431643.24328709     
   5236658870.3746748        58051037.723004580        700939209.50388002     
   5086625454.4414053        35619089.779290199        693250043.37961566     
   6682502130.2299604       -48161806.805809021       -9089193.5726392735     
   6509347465.6386185       -8892617.1063578129       -3462475.1749583716     
   6331276021.4732990        13987307.346522331        3310118.0628530420     
   6148287797.7340107        20477966.552834511        11228586.140787922     
   5960382794.4207535        10579360.512571573        20292929.058845628     
   6306333457.1264372       -20376433.906451225        178649788.27937207     
   6132522855.1635208        625662.10810446739        175082392.83890918     
   5955771464.8732891        11825130.364940405        174080038.50747761     
   5776079286.2557383        13221970.864035606        175642725.28506941     
   5593446319.3108664        4816183.6054067612        179770453.17169380     
   5914964453.4604998        2848839.8241856098        358285988.38874996     
   5744552674.8943148        6800270.3843476772        347829802.23123795     
   5573176099.2474613        7535710.6756165028        341357823.45165825     
   5400834726.5199404        5055160.6979925632        338870052.05000556     
   5227528556.7117491       -641379.54852104187        340366488.02629036     
   5508395119.2321606        21514014.386100292        529819406.75549841     
   5345436924.8309927        9631207.7223474979        514779753.00202984     
   5183489924.5958118        1119048.2785475254        505143472.89539379     
   5022554118.5266113       -4022463.9453160763        500910566.43559390     
   4862629506.6234026       -5793328.9492206573        502081033.62262386     
   5086625454.4414053        35619089.779290199        693250043.37961566     
   4935175604.9735527        9118474.1221110821        675932245.15128231     
   4786712940.9183388       -7424856.8262746334        665436986.83868635     
   4641237462.2757587       -14010903.065883160        661764268.44183123     
   4498749169.0458174       -10639664.596695423        664914089.96071029     
   5960382794.4207535        10579360.512571573        20292929.058845628     
   5779539010.8944302       -1465581.5258953571        12862430.462822035     
   5600800115.5568438       -6494229.6019012928        9725516.9789546896     
   5424166108.4079895       -4506583.7154726982        10882188.607240068     
   5249636989.4478617        4497356.1333882809        16332445.347686177     
   5593446319.3108664        4816183.6054067612        179770453.17169380     
   5425049141.7650862       -1751795.2638542652        174565687.29693627     
   5257988623.9112215       -3864241.8267207146        173377734.02523685     
   5092264765.7492676       -1521156.0832121372        176206593.35659420     
   4927877567.2792397        5277461.9666960239        183052265.29101032     
   5227528556.7117491       -641379.54852104187        340366488.02629036     
   5070787206.5490828       -1969628.8278157711        336491188.29317856     
   4914614287.5815153       -1403107.4567759037        336355928.65402794     
   4759009799.8090515        1058184.5646135807        339960709.10883683     
   4603973743.2316895        5414247.2363350391        347305529.65760654     
   4862629506.6234026       -5793328.9492206573        502081033.62262386     
   4716753205.2464218       -2119082.2177851200        498638933.45154542     
   4570677106.5677309        889173.50795078278        498660100.86532933     
   4424401210.5873289        3231438.2279736996        502144535.86396968     
   4277925517.3052096        4907711.9422903061        509092238.44747746     
   4498749169.0458174       -10639664.596695423        664914089.96071029     
   4362947137.8571062       -2200155.4337377548        661008922.77203965     
   4226177080.8698673        3012601.0674536228        660290250.65913653     
   4088438998.0841041        4998604.9068968296        662758073.62199700     
   3949732889.4998083        3757856.0845663548        668412391.66061914     
   5249636989.4478617        4497356.1333882809        16332445.347686177     
   5056316380.1895456        8570968.5402650833        12669903.888430111     
   4861357115.4770536        7182396.0999007225        12247180.680174513     
   4664759195.3104067        331638.81234002113        15064275.722908497     
   4466522619.6895962       -11981303.322415352        21121189.016636543     
   4927877567.2792397        5277461.9666960239        183052265.29101032     
   4742642247.9859886        6189310.9213931561        177279720.63374311     
   4556312686.9030666        3453687.2438485622        175216449.26450664     
   4368888884.0304689       -2929409.0659463406        176862451.18328866     
   4180370839.3682051       -12959978.007955551        182217726.39008602     
   4603973743.2316895        5414247.2363350391        347305529.65760654     
   4428165014.0093107        3566722.7706079483        340058131.07756603     
   4251806456.6617479       -113562.11239576340        336989460.82257909     
   4074898071.1890011       -5626607.4126780033        338099518.89264148     
   3897439857.5910730       -12972413.130228281        343388305.28775942     
   4277925517.3052096        4907711.9422903061        509092238.44747746     
   4112884678.2594962        703204.08788061142        501005135.21989769     
   3947838424.7530880       -3519351.9688463211        497566215.35440290     
   3782786756.7859921       -7759956.2278721333        498775478.85098398     
   3617729674.3581944       -12018608.689226389        504632925.70964855     
   3949732889.4998083        3757856.0845663548        668412391.66061914     
   3796801240.7365551       -2401245.1267950535        660120733.06074286     
   3644408591.1770983       -6763682.3254933357        656946712.85997307     
   3492554940.8214355       -9329455.5115451813        658890331.05831611     
   3341240289.6695728       -10098564.684937716        665951587.65576005     
   4466522619.6895962       -11981303.322415352        21121189.016636543     
   4298041926.9738369       -13711920.698418856        9772056.9379425943     
   4132291467.6598563       -6341760.0685157776        5460182.5994785661     
   3969271241.7476587        10129178.567339659        8185566.0012803292     
   3808981249.2372222        35700895.209071636        17948207.143304329     
   4180370839.3682051       -12959978.007955551        182217726.39008602     
   4029971605.8669429       -10368906.764771938        174101463.56394407     
   3881448590.0917692       -1523776.4346122742        171859445.01967117     
   3734801792.0426893        13575412.982522488        175491670.75724617     
   3590031211.7196989        34928661.486618519        184998140.77669916     
   3897439857.5910730       -12972413.130228281        343388305.28775942     
   3761799187.7089291       -7056521.9464595318        337508560.09254056     
   3627180719.8771911        2266709.4053359032        336340045.72080231     
   3493584454.0958552        14997280.925145864        339882762.17254382     
   3361010390.3649378        31135192.613000870        348136709.44776821     
   3617729674.3581944       -12018608.689226389        504632925.70964855     
   3493524672.4997950       -3774766.2434773445        499993346.52372044     
   3369487857.0161219        5029697.4513473511        498901984.70289457     
   3245619227.9071670        14394782.395239711        501358840.24716657     
   3121918785.1729288        24320488.588198900        507363913.15653551     
   3341240289.6695728       -10098564.684937716        665951587.65576005     
   3225148060.2395449       -523639.65582990646        661555822.85748899     
   3108370001.5085545        6765187.7033960819        659545261.96593893     
   2990906113.4766016        11767917.392750621        659919904.98110449     
   2872756396.1436877        14484549.412223935        662679751.90299177     
   3808981249.2372222        35700895.209071636        17948207.143304329     
   3628727689.0006299        42865790.103061676        24529285.355347529     
   3437556366.9469304        13638145.606683969        24632797.144360848     
   3235467283.0761137       -51982038.280072451        18258742.510326356     
   3022460437.3881969       -153994761.55717349        5407121.4532696716     
   3590031211.7196989        34928661.486618519        184998140.77669916     
   3395272505.1965885        33495282.386070013        179485835.63028821     
   3193501192.1047764        8686548.0564916134        171277509.14680251     
   2984717272.4442596       -39497541.502100229        160373161.32623056     
   2768920746.2150288       -111056986.28971887        146772792.16857874     
   3361010390.3649378        31135192.613000870        348136709.44776821     
   3162550952.0865970        24344863.877259612        335087035.39938784     
   2960984062.4879704        7196364.0738987923        323122885.09987378     
   2756309721.5690370       -20310306.797144890        312244258.54923594     
   2548527929.3298111       -58175148.735852599        302451155.74746639     
   3121918785.1729288        24320488.588198900        507363913.15653551     
   2930563029.6706681        15414534.576711416        491332884.66265541     
   2740004978.0965085        9167593.6589049101        480168925.00359339     
   2550244630.4504538        5579665.8347921371        473872034.17935175     
   2361281986.7325120        4650751.1043695211        472442212.18993896     
   2872756396.1436877        14484549.412223935        662679751.90299177     
   2699308737.9487844        6704294.4843566418        648223383.42008066     
   2530563938.9303918        14600236.811513782        642415628.85793388     
   2366521999.0885110        38172376.393731236        645256488.21657884     
   2207182918.4231491        77420713.230972528        656745961.49599266     
   5958175703.8877106        1787452711.1663132        1149987673.3076699     
   6088648710.5411253        1502303493.3313839        1227861516.6560678     
   6221844739.7050142        1226231017.1980381        1268359211.1649551     
   6357763791.3793793        959235282.76627541        1271480756.8343322     
   6496405865.5642214        701316290.03609729        1237226153.6641977     
   5434889724.3085661        1630466917.2925699        1033401539.0946592     
   5490107143.2361145        1372538903.7334015        1113793274.4887836     
   5547522554.2724876        1121937530.5369763        1167390428.7158084     
   5607135957.4176826        878662797.70329416        1194193001.7757332     
   5668947352.6717014        642714705.23235559        1194200993.6685591     
   4895479505.7244596        1468643851.7173378        936274703.61345363     
   4905674387.4187469        1247006957.5817118        1018571795.5847102     
   4917542230.8202047        1030946602.4699882        1084655874.0612783     
   4931083035.9288349        820462786.38216758        1134526939.0431576     
   4946296802.7446346        615555509.31824994        1168184990.5303483     
   4339945048.1353912        1301983514.4406176        858607166.86405289     
   4335350443.0890198        1125707654.8763139        942197079.94384730     
   4331903769.3481684        953258232.99707365        1020155547.2013646     
   4329605026.9128342        784635248.80289507        1092482568.6366045     
   4328454215.7830191        619838702.29377937        1159178144.2495663     
   3768286351.5413628        1130485905.4624088        800398928.84645724     
   3779135310.2469358        1008640995.6172093        884669127.56619585     
   3790607169.8563752        888872422.11823225        973889448.13606787     
   3802701930.3696818        771180184.96547723        1068059890.5560738     
   3815419591.7868552        655564284.15894473        1167180454.8262131     
   6496405865.5642214        701316290.03609729        1237226153.6641977     
   6239527574.7946243        375768591.50840592        1053083740.8147533     
   6013570703.5071812        153292291.25455666        907969629.84882534     
   5818535251.7018909        33887389.274550438        801883820.76641846     
   5654421219.3787546        17553885.568385124        734826313.56752777     
   5668947352.6717014        642714705.23235559        1194200993.6685591     
   5519064788.1462650        383213042.84505558        1073367065.3077606     
   5393327935.6993532        204197087.38616872        980567846.91117048     
   5291736795.3309650        105666838.85569215        915803338.47878683     
   5214291367.0411024        87622297.253629684        879073540.01060963     
   4946296802.7446346        615555509.31824994        1168184990.5303483     
   4871999701.8367558        412676804.28336096        1102754554.6872971     
   4815072605.6037722        267698114.83145380        1054365236.8891411     
   4775515514.0456820        180619440.96252942        1023017037.1358813     
   4753328427.1624861        151440782.67658615        1008709955.4275167     
   4328454215.7830191        619838702.29377937        1159178144.2495663     
   4298332315.8660927        464159875.82331979        1141246208.9533606     
   4278804713.2204318        343795373.59041214        1129361799.7827396     
   4269871407.8460374        258745195.59505701        1123524916.7377031     
   4271532399.7429094        209009341.83725333        1123735559.8182511     
   3815419591.7868552        655564284.15894473        1167180454.8262131     
   3798062630.2342782        537662257.46493351        1188842028.1059532     
   3784524258.5493393        432488863.66304445        1205557535.5919659     
   3774804476.7320347        340044102.75327754        1217326977.2842529     
   3768903284.7823687        260327974.73563230        1224150353.1828120     
   5654421219.3787546        17553885.568385124        734826313.56752777     
   5520556752.8433495        49018435.617550850        721727344.59783614     
   5381302636.5086565        62517486.335758448        710431643.24328709     
   5236658870.3746748        58051037.723004580        700939209.50388002     
   5086625454.4414053        35619089.779290199        693250043.37961566     
   5214291367.0411024        87622297.253629684        879073540.01060963     
   5077810958.8387022        85288824.246018887        855398849.31344998     
   4939221033.6576977        75923627.976387739        835708171.96271980     
   4798521591.4980888        59526708.444744825        820001507.95841265     
   4655712632.3598738        36098065.651086807        808278857.30053496     
   4753328427.1624861        151440782.67658615        1008709955.4275167     
   4620462779.3824739        117178497.23900795        978286364.62702441     
   4488767747.4445391        86818264.608359575        954027532.90424132     
   4358243331.3486814        60360084.784639835        935933460.25916815     
   4228889531.0949082        37803957.767852545        924004146.69180512     
   4271532399.7429094        209009341.83725333        1123735559.8182511     
   4148512214.4746633        144687454.59652352        1090389890.5385544     
   4029942777.8691816        95201396.231669188        1065389726.0678507     
   3915824089.9264627        60551166.742691278        1048735066.4061403     
   3806156150.6465054        40736766.129587650        1040425911.5534217     
   3768903284.7823687        260327974.73563230        1224150353.1828120     
   3661959264.1152740        167815696.31856751        1191709427.0480411     
   3562746124.9316254        101073022.84632242        1169794751.4535480     
   3471263867.2314224        60099954.318895578        1158406326.3993318     
   3387512491.0146666        44896490.736292481        1157544151.8853917     
   5086625454.4414053        35619089.779290199        693250043.37961566     
   4935175604.9735527        9118474.1221110821        675932245.15128231     
   4786712940.9183388       -7424856.8262746334        665436986.83868635     
   4641237462.2757587       -14010903.065883160        661764268.44183123     
   4498749169.0458174       -10639664.596695423        664914089.96071029     
   4655712632.3598738        36098065.651086807        808278857.30053496     
   4522731640.7852020        15697221.669926167        794973126.65785050     
   4391912523.4705181        2502625.2220695019        787644030.24586737     
   4263255280.4158268       -3485723.6924872398        786291568.06459129     
   4136759911.6211252       -2267825.0737380981        790915740.11401510     
   4228889531.0949082        37803957.767852545        924004146.69180512     
   4111960524.0276022        22777823.446965218        913747620.62334752     
   3996368080.0676460        12206899.483900547        908621823.10055757     
   3882112199.2150331        6091185.8786487579        908626754.12344277     
   3769192881.4697676        4430682.6312193871        913762413.69199634     
   3806156150.6465054        40736766.129587650        1040425911.5534217     
   3702862254.7007613        30360279.453233957        1032255727.0477728     
   3600079610.7097182        21687965.959210634        1028370365.4027591     
   3497808218.6733761        14719825.647528410        1028769826.6183859     
   3396048078.5917330        9455858.5181717873        1033454110.6946468     
   3387512491.0146666        44896490.736292481        1157544151.8853917     
   3295436832.8046751        38444589.688727617        1150497445.9311297     
   3203047115.3967395        30945824.648012519        1146889657.1524713     
   3110343338.7908573        22400195.614142537        1146720785.5494180     
   3017325502.9870300        12807702.587125897        1149990831.1219709     
   4498749169.0458174       -10639664.596695423        664914089.96071029     
   4362947137.8571062       -2200155.4337377548        661008922.77203965     
   4226177080.8698673        3012601.0674536228        660290250.65913653     
   4088438998.0841041        4998604.9068968296        662758073.62199700     
   3949732889.4998083        3757856.0845663548        668412391.66061914     
   4136759911.6211252       -2267825.0737380981        790915740.11401510     
   4008448231.4360304        1072034.7014615536        784541120.97400343     
   3879733042.6438479        3066865.7863664627        781918657.38894987     
   3750614345.2445788        3716668.1809835434        783048349.35885727     
   3621092139.2382188        3021441.8853054047        787930196.88372612     
   3769192881.4697676        4430682.6312193871        913762413.69199634     
   3649987725.0859923        3155744.8579790592        905576945.99065125     
   3530943577.2865663        2417502.3659074306        901709294.32345939     
   3412060438.0714917        2215955.1550102234        902159458.69043005     
   3293338307.4407744        2551103.2252895832        906927439.09155405     
   3396048078.5917330        9455858.5181717873        1033454110.6946468     
   3287565618.8069792        4050975.0357971191        1024116397.8219812     
   3179808684.7980213        1064510.8060675859        1019662161.4626696     
   3072777276.5648518        496465.82897031307        1020091401.6167116     
   2966471394.1074758        2346840.1045169830        1025404118.2841029     
   3017325502.9870300        12807702.587125897        1149990831.1219709     
   2921181912.5990076        3757725.2349363565        1140159476.4679966     
   2826328365.1782122       -992108.89315330982        1135777258.8065748     
   2732764860.7246490       -1441799.7971390486        1136844178.1377027     
   2640491399.2383204        2408652.5229871273        1143360234.4613802     
   3949732889.4998083        3757856.0845663548        668412391.66061914     
   3796801240.7365551       -2401245.1267950535        660120733.06074286     
   3644408591.1770983       -6763682.3254933357        656946712.85997307     
   3492554940.8214355       -9329455.5115451813        658890331.05831611     
   3341240289.6695728       -10098564.684937716        665951587.65576005     
   3621092139.2382188        3021441.8853054047        787930196.88372612     
   3481859807.0830007       -755008.45969128609        780310477.24076879     
   3342920091.5317950       -3556070.1246438026        777561212.54341888     
   3204272992.5846033       -5381743.1095525026        779682402.79167485     
   3065918510.2414279       -6232027.4144046307        786674047.98553562     
   3293338307.4407744        2551103.2252895832        906927439.09155405     
   3167099053.4550076        945432.21506905556        899692212.03910577     
   3040906033.4734764       -506125.44769835472        897080256.47876227     
   2914759247.4961739       -1803569.7630323172        899091572.41051972     
   2788658695.5231085       -2946900.7309151888        905726159.83438087     
   2966471394.1074758        2346840.1045169830        1025404118.2841029     
   2852518979.8525805        2700076.8975034952        1018265937.4557598     
   2738366417.0021396        2386151.7053382397        1015503844.6660107     
   2624013705.5561495        1405064.5280059576        1017117839.9148577     
   2509460845.5146117       -243184.63448023796        1023107923.2023088     
   2640491399.2383204        2408652.5229871273        1143360234.4613802     
   2538119586.2757182        4508925.5876122713        1136031653.4907176     
   2435301242.1177883        5120761.3344768286        1132831977.1051559     
   2332036366.7645283        4244159.7635666132        1133761205.3046849     
   2228324960.2159376        1879120.8748983145        1138819338.0893080     
   3341240289.6695728       -10098564.684937716        665951587.65576005     
   3225148060.2395449       -523639.65582990646        661555822.85748899     
   3108370001.5085545        6765187.7033960819        659545261.96593893     
   2990906113.4766016        11767917.392750621        659919904.98110449     
   2872756396.1436877        14484549.412223935        662679751.90299177     
   3065918510.2414279       -6232027.4144046307        786674047.98553562     
   2956024794.9788070        1413834.1255028248        781234448.71572793     
   2845810715.2356429        7991814.0635776520        778622901.85780013     
   2735276271.0119324        13501912.399835348        778839407.41173637     
   2624421462.3076720        17944129.134265065        781883965.37755382     
   2788658695.5231085       -2946900.7309151888        905726159.83438087     
   2686228775.8711944        3149481.7527663708        899669101.71685946     
   2583843956.5591469        9396198.7026767731        896882944.51637185     
   2481504237.5869708        15793250.118825555        897367688.23290873     
   2379209618.9546609        22340636.001202583        901123332.86646831     
   2509460845.5146117       -243184.63448023796        1023107923.2023088     
   2415760002.9166923        4683303.2259601355        1016859781.8608954     
   2322469725.4790659        10978341.620702386        1014325389.9416634     
   2229590013.2017217        18641930.549726129        1015504747.4446130     
   2137120866.0846653        27674070.013037205        1020397854.3697397     
   2228324960.2159376        1879120.8748983145        1138819338.0893080     
   2144618476.1153173        6015298.5451049805        1132806489.1478221     
   2061688021.9954007        12738242.817652702        1130950238.1336749     
   1979533597.8561866        22047953.692548394        1133250585.0468552     
   1898155203.6976776        33944431.169790864        1139707529.8873730     
   2872756396.1436877        14484549.412223935        662679751.90299177     
   2699308737.9487844        6704294.4843566418        648223383.42008066     
   2530563938.9303918        14600236.811513782        642415628.85793388     
   2366521999.0885110        38172376.393731236        645256488.21657884     
   2207182918.4231491        77420713.230972528        656745961.49599266     
   2624421462.3076720        17944129.134265065        781883965.37755382     
   2472040872.1805825        13330503.516945004        771848036.65431356     
   2322223652.2978492        17261445.380808353        768638170.37541044     
   2174969802.6594687        29736954.725837350        772254366.54085743     
   2030279323.2654343        50757031.552042246        782696625.15062511     
   2379209618.9546609        22340636.001202583        901123332.86646831     
   2242688806.9627256        19331452.714650273        893011773.48204899     
   2106591876.2829762        17735207.135404348        889903725.06553221     
   1970918826.9154172        17551899.263457656        891799187.61692297     
   1835669658.8600566        18781529.098826528        898698161.13622046     
   2137120866.0846653        27674070.013037205        1020397854.3697397     
   2011252542.2952008        24707142.077451825        1011714593.9032857     
   1883668610.8857708        16021522.075303793        1006212292.9282974     
   1754369071.8563583        1617210.0065640211        1003890951.4447919     
   1623353925.2069883       -18505794.128703117        1004750569.4527366     
   1898155203.6976776        33944431.169790864        1139707529.8873730     
   1777732078.1780152        29457571.605354905        1127956497.9180295     
   1653453856.1062269        12120390.200499058        1117563873.9637239     
   1525320537.4823031       -18067113.044810891        1108529658.0244486     
   1393332122.3062561       -61104938.130531967        1100853850.1002107     
   3768286351.5413628        1130485905.4624088        800398928.84645724     
   3779135310.2469358        1008640995.6172093        884669127.56619585     
   3790607169.8563752        888872422.11823225        973889448.13606787     
   3802701930.3696818        771180184.96547723        1068059890.5560738     
   3815419591.7868552        655564284.15894473        1167180454.8262131     
   3207716549.7900844        962314964.93702531        756511984.77845442     
   3235816703.0080643        868165525.80730593        852882225.49717987     
   3263645401.4331422        773111237.36791241        951181231.51789725     
   3291202645.0653181        677152099.61884546        1051409002.8406056     
   3318488433.9045911        580288112.56010437        1153565539.4653060     
   2685448776.7292700        805634633.01878107        721808329.87783265     
   2722167677.1792507        736590930.42041957        829235197.61598170     
   2757720767.1395597        663661192.85648823        935569474.10798001     
   2792108046.6101990        586845420.32698703        1040811159.3538281     
   2825329515.5911660        506143612.83191609        1144960253.3535249     
   2201483032.3589187        660444909.70767558        696287964.14459181     
   2238188232.7604933        613917209.45655000        813728043.92260075     
   2272833266.9756293        560522288.58395922        927054175.90631688     
   2305418135.0043244        500260147.08990240        1036266360.0957403     
   2335942836.8465805        433130784.97437978        1141364596.4908707     
   1755819316.6790309        526745795.00370932        679950887.57873189     
   1783878369.7517941        500144362.91569829        806360764.41703701     
   1808982900.9413488        463694524.55032527        925635336.91290736     
   1831132910.2476950        417396279.90759051        1037774605.0663426     
   1850328397.6708324        361249628.98749411        1142778568.8773432     
   3815419591.7868552        655564284.15894473        1167180454.8262131     
   3798062630.2342782        537662257.46493351        1188842028.1059532     
   3784524258.5493393        432488863.66304445        1205557535.5919659     
   3774804476.7320347        340044102.75327754        1217326977.2842529     
   3768903284.7823687        260327974.73563230        1224150353.1828120     
   3318488433.9045911        580288112.56010437        1153565539.4653060     
   3293839982.0049076        473073150.97161520        1181853047.8551710     
   3272910873.4862180        378256000.65310276        1207011537.5166364     
   3255701108.3485208        295836661.60456705        1229041008.4497025     
   3242210686.5918159        225815133.82600820        1247941460.6543705     
   2825329515.5911660        506143612.83191609        1144960253.3535249     
   2798581136.3881698        411173185.26208562        1179757909.2857640     
   2775452854.0795231        328269747.34008789        1213243593.5549316     
   2755944668.6652260        257433299.06592214        1245417306.1610286     
   2740056580.1452780        198663840.43958938        1276279047.1040545     
   2335942836.8465805        433130784.97437978        1141364596.4908707     
   2312286093.3840637        351962360.33634621        1182556612.3977330     
   2292150200.3292551        282530103.72400141        1224253703.7068515     
   2275535157.6821527        224834015.13734347        1266455870.4182272     
   2262440965.4427557        178874094.57637477        1309163112.5318604     
   1850328397.6708324        361249628.98749411        1142778568.8773432     
   1834954852.9925911        295440676.19439590        1190249157.1910782     
   1823002912.2354145        241037069.80484402        1240041867.9723978     
   1814472575.3992991        198038809.81883138        1292156701.2213025     
   1809363842.4842477        166445896.23636496        1346593656.9377928     
   3768903284.7823687        260327974.73563230        1224150353.1828120     
   3661959264.1152740        167815696.31856751        1191709427.0480411     
   3562746124.9316254        101073022.84632242        1169794751.4535480     
   3471263867.2314224        60099954.318895578        1158406326.3993318     
   3387512491.0146666        44896490.736292481        1157544151.8853917     
   3242210686.5918159        225815133.82600820        1247941460.6543705     
   3164905398.9707193        151504691.06090426        1230915791.9532809     
   3093675632.6539731        97445985.976974368        1221962474.5199194     
   3028521387.6415768        63639018.574212432        1221081508.3542902     
   2969442663.9335337        50083788.852623343        1228272893.4563880     
   2740056580.1452780        198663840.43958938        1276279047.1040545     
   2685378884.7914715        140451891.09283626        1272737382.2943673     
   2635121350.5629215        96973812.163605094        1274814169.4798634     
   2589283977.4596286        68229603.651898384        1282509408.6605406     
   2547866765.4815917        54219265.557714462        1295823099.8364003     
   2262440965.4427557        178874094.57637477        1309163112.5318604     
   2223379721.5775337        134657296.41435862        1317174198.0713003     
   2187083278.6584721        99656501.406217456        1328349836.3333752     
   2153551636.6855741        73871709.551950693        1342690027.3180845     
   2122784795.6588390        57302920.851561666        1360194771.0254312     
   1809363842.4842477        166445896.23636496        1346593656.9377928     
   1778907909.3289027        134120907.02547544        1364226239.2840810     
   1749561416.9406261        105494053.70481104        1382569475.0804579     
   1721324365.3194180        80565336.274376929        1401623364.3269229     
   1694196754.4652762        59334754.734164178        1421387907.0234756     
   3387512491.0146666        44896490.736292481        1157544151.8853917     
   3295436832.8046751        38444589.688727617        1150497445.9311297     
   3203047115.3967395        30945824.648012519        1146889657.1524713     
   3110343338.7908573        22400195.614142537        1146720785.5494180     
   3017325502.9870300        12807702.587125897        1149990831.1219709     
   2969442663.9335337        50083788.852623343        1228272893.4563880     
   2885643830.1605992        38805311.810924888        1220301191.1824419     
   2802160322.7971735        28577922.800920010        1216371184.9908147     
   2718992141.8432550        19401621.822609425        1216482874.8814986     
   2636139287.2988453        11276408.875993371        1220636260.8545012     
   2547866765.4815917        54219265.557714462        1295823099.8364003     
   2474066981.5934587        38630880.156204224        1287660684.4514687     
   2401211909.7222886        26191534.811231732        1284142744.0555639     
   2329301549.8680811        16901229.522802472        1285269278.6486874     
   2258335902.0308352        10759964.290917516        1291040288.2308350     
   2122784795.6588390        57302920.851561666        1360194771.0254312     
   2060706287.1032546        37921294.724560499        1352575925.7382088     
   2000201876.1720870        23786660.678949475        1350204334.3467245     
   1941271562.8653345        14899018.714726686        1353079996.8509784     
   1883915347.1829991        11258368.831891775        1361202913.2509701     
   1694196754.4652762        59334754.734164178        1421387907.0234756     
   1645561746.6899860        36676555.516001105        1415046915.0426588     
   1599130222.1465654        21363300.404071093        1414555955.8642921     
   1554902180.8350148        13394989.398372650        1419915029.4883749     
   1512877622.7553365        12771622.498917997        1431124135.9149065     
   3017325502.9870300        12807702.587125897        1149990831.1219709     
   2921181912.5990076        3757725.2349363565        1140159476.4679966     
   2826328365.1782122       -992108.89315330982        1135777258.8065748     
   2732764860.7246490       -1441799.7971390486        1136844178.1377027     
   2640491399.2383204        2408652.5229871273        1143360234.4613802     
   2636139287.2988453        11276408.875993371        1220636260.8545012     
   2554514380.2243838        5335944.1482622623        1213032265.0922244     
   2473771749.3632030        2336400.1314711571        1210429770.4344883     
   2393911394.7153015        2277776.8256143332        1212828776.8813002     
   2314933316.2806883        5160074.2307102680        1220229284.4326563     
   2258335902.0308352        10759964.290917516        1291040288.2308350     
   2189950718.5899243        7545324.2836416960        1285187923.4806390     
   2122040044.6083484        5912382.4741473198        1283889423.9469869     
   2054603880.0861034        5861138.8624206781        1287144789.6298745     
   1987642225.0231881        7391593.4484666586        1294954020.5293086     
   1883915347.1829991        11258368.831891775        1361202913.2509701     
   1827490927.6956332        10385865.641074657        1356626451.6332514     
   1771133250.9136484        9735838.1348654032        1356156219.3440690     
   1714842316.8370461        9308286.3132634163        1359792216.3834264     
   1658618125.4658251        9103210.1762655377        1367534442.7513239     
   1512877622.7553365        12771622.498917997        1431124135.9149065     
   1467135007.5415013        13857568.220546246        1427347849.5500541     
   1421051368.2791035        13806767.113636851        1427230156.6257377     
   1374626704.9681332        12619219.178150237        1430771057.1419563     
   1327861017.6085961        10294924.414108038        1437970551.0987093     
   2640491399.2383204        2408652.5229871273        1143360234.4613802     
   2538119586.2757182        4508925.5876122713        1136031653.4907176     
   2435301242.1177883        5120761.3344768286        1132831977.1051559     
   2332036366.7645283        4244159.7635666132        1133761205.3046849     
   2228324960.2159376        1879120.8748983145        1138819338.0893080     
   2314933316.2806883        5160074.2307102680        1220229284.4326563     
   2223175253.6683235        5258760.3399858475        1212107266.1609123     
   2131227475.6937892        4725061.9086916447        1208482671.3324089     
   2039089982.3570805        3558978.9368175268        1209355499.9471524     
   1946762773.6582019        1760511.4243744612        1214725752.0051396     
   1987642225.0231881        7391593.4484666586        1294954020.5293086     
   1907550823.7843511        5804565.9093852043        1286338183.4284880     
   1827526523.0164981        4441206.6069188118        1282588288.6290660     
   1747569322.7196317        3301515.5410679579        1283704336.1310387     
   1667679222.8937461        2385492.7118327618        1289686325.9344065     
   1658618125.4658251        9103210.1762655377        1367534442.7513239     
   1591246296.6237986        6146342.2958109975        1358724405.2934539     
   1524198384.0859139        4269195.4291613102        1355148828.9951260     
   1457474387.8521700        3471769.5763112903        1356807713.8563464     
   1391074307.9225693        3754064.7372741103        1363701059.8771112     
   1327861017.6085961        10294924.414108038        1437970551.0987093     
   1274261672.1866674        6284089.4992614985        1429265931.7558007     
   1221243058.9020362        4209028.3754099607        1426164292.4305871     
   1168805177.7547054        4069741.0425571799        1428665633.1230717     
   1116948028.7446733        5866227.5007029772        1436769953.8332505     
   2228324960.2159376        1879120.8748983145        1138819338.0893080     
   2144618476.1153173        6015298.5451049805        1132806489.1478221     
   2061688021.9954007        12738242.817652702        1130950238.1336749     
   1979533597.8561866        22047953.692548394        1133250585.0468552     
   1898155203.6976776        33944431.169790864        1139707529.8873730     
   1946762773.6582019        1760511.4243744612        1214725752.0051396     
   1874162492.3115063        6684970.4952188730        1210477397.0798934     
   1802282595.5869646        14010711.639908314        1210433766.0224860     
   1731123083.4845719        23737734.858432770        1214594858.8329232     
   1660683956.0043349        35866040.150801599        1222960675.5112083     
   1667679222.8937461        2385492.7118327618        1289686325.9344065     
   1606322646.9881508        8139483.9894726872        1287137545.4404161     
   1545630810.3461547        16109272.812448442        1288841614.7547801     
   1485603712.9677606        26294859.180761337        1294798533.8774974     
   1426241354.8529639        38696243.094405413        1305008302.8085721     
   1391074307.9225693        3754064.7372741103        1363701059.8771112     
   1341098940.1452439        10378839.027862847        1362786934.2294035     
   1291732666.2729685        19033926.335277438        1366173784.3305593     
   1242975486.3057430        29719326.659526408        1373861610.1805794     
   1194827400.2435658        42435040.000606954        1385850411.7794671     
   1116948028.7446733        5866227.5007029772        1436769953.8332505     
   1078491371.7827926        13403035.610386252        1437425563.4468472     
   1040588163.3674088        22784672.208393455        1442430274.7498193     
   1003238403.4985259        34011137.294736385        1451784087.7421675     
   966442092.17613602        47082430.869389027        1465487002.4238944     
   1898155203.6976776        33944431.169790864        1139707529.8873730     
   1777732078.1780152        29457571.605354905        1127956497.9180295     
   1653453856.1062269        12120390.200499058        1117563873.9637239     
   1525320537.4823031       -18067113.044810891        1108529658.0244486     
   1393332122.3062561       -61104938.130531967        1100853850.1002107     
   1660683956.0043349        35866040.150801599        1222960675.5112083     
   1546864694.3087211        33137596.969680011        1209870550.6315947     
   1431110075.5455489        23957963.563372195        1200096124.5900581     
   1313420099.7148104        8327139.9318489432        1193637397.3866074     
   1193794766.8165145       -13754873.924873590        1190494369.0212350     
   1426241354.8529639        38696243.094405413        1305008302.8085721     
   1324618216.4758198        39403894.144939721        1292818781.0840175     
   1222979460.5156825        40059486.585494995        1285902249.0205908     
   1121325086.9725518        40663020.416068971        1284258706.6182876     
   1019655095.8464291        41214495.636681437        1287888153.8771250     
   1194827400.2435658        42435040.000606954        1385850411.7794671     
   1110992644.6793096        48256463.131101727        1376801189.2752981     
   1029062011.0166351        60424959.266867042        1374982247.2553029     
   949035499.25553286        78940528.407885760        1380393585.7194886     
   870913109.39600384        103803170.55413133        1393035204.6678522     
   966442092.17613602        47082430.869389027        1465487002.4238944     
   905987978.91919637        59695303.928196102        1461817775.2054393     
   849357727.04839778        85054381.607473016        1467336119.2942114     
   796551336.56374383        123159663.90722938        1482042034.6902025     
   747568807.46523821        174011150.82748571        1505935521.3934302     
   1755819316.6790309        526745795.00370932        679950887.57873189     
   1783878369.7517941        500144362.91569829        806360764.41703701     
   1808982900.9413488        463694524.55032527        925635336.91290736     
   1831132910.2476950        417396279.90759051        1037774605.0663426     
   1850328397.6708324        361249628.98749411        1142778568.8773432     
   1326180787.6305163        397854236.28915483        669673014.59293842     
   1339356088.3856845        375548752.66417783        791797493.60792100     
   1350321768.8250015        345877867.98636162        908616863.99879682     
   1359077828.9484665        308841582.25570571        1020131125.7655650     
   1365624268.7560797        264439895.47221109        1126340278.9082263     
   890290603.15428364        267087180.94628507        662330259.59989679     
   893811282.21565139        250646384.97148031        781038392.62013996     
   895867242.52852428        229323193.16835874        896271612.73460364     
   896458484.09290206        203117605.53692019        1008029919.9432880     
   895585006.90878463        172029622.07716465        1116313314.2461934     
   448148763.25033319        134444628.97509995        657922622.59960699     
   447243951.24169421        125437259.83760571        774083461.45369327     
   445619322.05191690        114030500.09631693        888599583.12032783     
   443274875.68100113        100224349.75123343        1001470987.5995113     
   440210612.12894714        84018808.802355528        1112697674.8912432     
  -244732.08133478530       -73419.624400435598        656450103.59206903     
  -345904.53618683876       -78622.737446110783        770932700.10858154     
  -421992.60482062941       -211.22976398278843        885600775.15597022     
  -472996.28723601135        161814.89864604411        1000454328.7342352     
  -498915.58343293588        407455.64778408862        1115493360.8433764     
   1850328397.6708324        361249628.98749411        1142778568.8773432     
   1834954852.9925911        295440676.19439590        1190249157.1910782     
   1823002912.2354145        241037069.80484402        1240041867.9723978     
   1814472575.3992991        198038809.81883138        1292156701.2213025     
   1809363842.4842477        166445896.23636496        1346593656.9377928     
   1365624268.7560797        264439895.47221109        1126340278.9082263     
   1359982434.6281323        216902025.19423118        1181741207.6797545     
   1356893274.8948398        177873069.56510085        1238089541.5188966     
   1356356789.5562005        147353028.58481669        1295385280.4256518     
   1358372978.6122169        125341902.25338238        1353628424.4000206     
   895585006.90878463        172029622.07716465        1116313314.2461934     
   895747119.33121276        141584505.11432782        1178630832.3613708     
   897592976.62188756        116751871.04564491        1240521038.1441913     
   901122578.78080738        97531719.871113807        1301983931.5946534     
   906335925.80797386        83924051.590736628        1363019512.7127597     
   440210612.12894714        84018808.802355528        1112697674.8912432     
   442248907.10183364        69488115.954686388        1180918031.2359278     
   445102017.41655761        57673474.246475905        1247336357.8482833     
   448769943.07311839        48574883.677721664        1311952654.7283094     
   453252684.07151711        42192344.248426959        1374766921.8760087     
  -498915.58343293588        407455.64778408862        1115493360.8433764     
  -512202.06000622874        612857.71530652000        1188602804.3034239     
  -579602.72115036414        637879.16759289603        1258535500.6311715     
  -701117.56686578703        482520.00464186363        1325291449.8266191     
  -876746.59715233790        146780.22645304474        1388870651.8897672     
   1809363842.4842477        166445896.23636496        1346593656.9377928     
   1778907909.3289027        134120907.02547544        1364226239.2840810     
   1749561416.9406261        105494053.70481104        1382569475.0804579     
   1721324365.3194180        80565336.274376929        1401623364.3269229     
   1694196754.4652762        59334754.734164178        1421387907.0234756     
   1358372978.6122169        125341902.25338238        1353628424.4000206     
   1332737015.9219284        100243258.47271276        1372365452.7758987     
   1307982309.4356608        78082135.372114182        1392431879.1139879     
   1284108859.1534128        58858532.951582372        1413827703.4142878     
   1261116665.0751860        42572451.211117864        1436552925.6768019     
   906335925.80797386        83924051.590736628        1363019512.7127597     
   887287775.04595137        66582105.679251224        1382594771.7946713     
   868892695.92490232        51417065.237676769        1404118173.3509173     
   851150688.44482613        38428930.266011506        1427589717.3814993     
   834061752.60572314        27617700.764256448        1453009403.8864167     
   453252684.07151711        42192344.248426959        1374766921.8760087     
   442560186.70097184        33137448.645087972        1394914196.3403971     
   432292576.40835190        25498843.301500604        1417628357.7912455     
   422449853.19365835        19276528.217668131        1442909406.2285528     
   413032017.05689055        14470503.393587455        1470757341.6523187     
  -876746.59715233790        146780.22645304474        1388870651.8897672     
  -1445749.1130100759       -90712.629775173904        1409323726.4130788     
  -1818049.1139890549        327469.56359299039        1432962432.4349737     
  -1993646.6000914348        1401326.8065494741        1459786769.9554513     
  -1972541.5713149239        3130859.0991024319        1489796738.9745116     
   1694196754.4652762        59334754.734164178        1421387907.0234756     
   1645561746.6899860        36676555.516001105        1415046915.0426588     
   1599130222.1465654        21363300.404071093        1414555955.8642921     
   1554902180.8350148        13394989.398372650        1419915029.4883749     
   1512877622.7553365        12771622.498917997        1431124135.9149065     
   1261116665.0751860        42572451.211117864        1436552925.6768019     
   1228563323.8484504        26974090.517362773        1433980388.9086027     
   1197473384.7855587        16253737.036423326        1436299138.5619800     
   1167846847.8865137        10411390.768304110        1443509174.6369319     
   1139683713.1513126        9447051.7129991055        1455610497.1334593     
   834061752.60572314        27617700.764256448        1453009403.8864167     
   814850802.55361795        18257395.982734382        1453341894.4181390     
   796363173.59733343        11308161.520613343        1457606924.9905632     
   778598865.73686624        6769997.3778866827        1465804495.6036885     
   761557878.97221947        4642903.5545577407        1477934606.2575154     
   413032017.05689055        14470503.393587455        1470757341.6523187     
   404424182.80549121        10526471.912119806        1473131431.5712662     
   395799588.58188647        6526573.8566343337        1478479315.1500399     
   387158234.38607514        2470809.2271270007        1486800992.3886418     
   378500120.21805727       -1640821.9764026552        1498096463.2870734     
  -1972541.5713149239        3130859.0991024319        1489796738.9745116     
  -2716535.3959328514        3781318.3055119086        1493349000.3679850     
  -4217370.2607796025        1908974.0444923197        1498916309.0404131     
  -6475046.1658607172       -2486173.6839758460        1506498664.9917953     
  -9489563.1111740768       -9404124.8798837829        1516096068.2221341     
   1512877622.7553365        12771622.498917997        1431124135.9149065     
   1467135007.5415013        13857568.220546246        1427347849.5500541     
   1421051368.2791035        13806767.113636851        1427230156.6257377     
   1374626704.9681332        12619219.178150237        1430771057.1419563     
   1327861017.6085961        10294924.414108038        1437970551.0987093     
   1139683713.1513126        9447051.7129991055        1455610497.1334593     
   1103256580.2212253        8042476.3206821084        1450051323.9770131     
   1066710416.4161613        6241131.3451097012        1448574048.6245937     
   1030045221.7361279        4043016.7863047123        1451178671.0762026     
   993260996.18111753        1448132.6442413926        1457865191.3318372     
   761557878.97221947        4642903.5545577407        1477934606.2575154     
   735655669.36442614        1110639.3598506153        1470851538.3453326     
   709856422.05525100       -2078417.1727945209        1468273672.6006694     
   684160137.04469609       -4924266.0433720052        1470201009.0235260     
   658566814.33275962       -7426907.2518890500        1476633547.6138990     
   378500120.21805727       -1640821.9764026552        1498096463.2870734     
   364332274.97110510       -6937942.6619364321        1489748492.6550145     
   350489385.19636643       -11151878.440092728        1486329028.5539672     
   336971450.89383954       -14282629.310876206        1487838070.9839292     
   323778472.06352758       -16330195.274276718        1494275619.9449065     
  -9489563.1111740768       -9404124.8798837829        1516096068.2221341     
  -10713602.958734589       -16103269.744672412        1506742186.9060571     
  -11390694.160494231       -20979252.456792507        1502740116.4844854     
  -11520836.716440588       -24032073.016201314        1504089856.9574146     
  -11104030.626585636       -25261731.422938749        1510791408.3248484     
   1327861017.6085961        10294924.414108038        1437970551.0987093     
   1274261672.1866674        6284089.4992614985        1429265931.7558007     
   1221243058.9020362        4209028.3754099607        1426164292.4305871     
   1168805177.7547054        4069741.0425571799        1428665633.1230717     
   1116948028.7446733        5866227.5007029772        1436769953.8332505     
   993260996.18111753        1448132.6442413926        1457865191.3318372     
   954158100.65323591       -1446964.0502219200        1449531722.0172598     
   915434931.67469609       -3076305.5802168250        1446488909.9372423     
   877091489.24549472       -3439891.9457483888        1448736755.0917892     
   839127773.36563432       -2537723.1468123198        1456275257.4808931     
   658566814.33275962       -7426907.2518890500        1476633547.6138990     
   633068017.88996947       -9473970.9686564803        1468436721.8083713     
   607747942.40855885       -10925298.147489846        1465218230.4542646     
   582606587.88852930       -11780888.788387239        1466978073.5515854     
   557643954.32988167       -12040742.891345054        1473716251.1003308     
   323778472.06352758       -16330195.274276718        1494275619.9449065     
   310991423.89686567       -17796931.256045207        1485980931.1291347     
   298182091.10362858       -19337949.326400548        1482352253.9816544     
   285350473.68381280       -20953249.485349685        1483389588.5024633     
   272496571.63742244       -22642831.732881382        1489092934.6915610     
  -11104030.626585636       -25261731.422938749        1510791408.3248484     
  -12071681.326071817       -26415844.912380744        1502164349.9795516     
  -13262622.240093665       -28314259.116943009        1497890980.5194111     
  -14676853.368655007       -30956974.036636055        1497971299.9444232     
  -16314374.711751122       -34343989.671445362        1502405308.2545922     
   1116948028.7446733        5866227.5007029772        1436769953.8332505     
   1078491371.7827926        13403035.610386252        1437425563.4468472     
   1040588163.3674088        22784672.208393455        1442430274.7498193     
   1003238403.4985259        34011137.294736385        1451784087.7421675     
   966442092.17613602        47082430.869389027        1465487002.4238944     
   839127773.36563432       -2537723.1468123198        1456275257.4808931     
   810595232.49619699        1789375.0996238291        1455817242.8783920     
   782075653.17260182        6159678.4988679588        1459384764.3183792     
   753569035.39485538        10573187.050941318        1466977821.8008478     
   725075379.16295695        15029900.755837232        1478596415.3258040     
   557643954.32988167       -12040742.891345054        1473716251.1003308     
   538111056.27604997       -11200696.491215616        1471514044.1143100     
   518050632.76741195       -12119068.273771971        1473013807.5238831     
   497462683.80396783       -14795858.239015371        1478215541.3290441     
   476347209.38572246       -19231066.386932820        1487119245.5297990     
   272496571.63742244       -22642831.732881382        1489092934.6915610     
   261038843.12235534       -25567179.162121877        1484515967.1545968     
   248513102.15183812       -32051568.109530613        1483317404.3663297     
   234919348.72586286       -42095998.575132340        1485497246.3267589     
   220257582.84443215       -55700470.558918804        1491055493.0358891     
  -16314374.711751122       -34343989.671445362        1502405308.2545922     
  -20621406.964879028       -41310072.913071729        1494823011.9992518     
  -26536938.674119361       -53637821.008406870        1490295554.8457184     
  -34060969.839463808       -71327233.957423106        1488822936.7939887     
  -43193500.460914597       -94378311.760125056        1490405157.8440678     
   966442092.17613602        47082430.869389027        1465487002.4238944     
   905987978.91919637        59695303.928196102        1461817775.2054393     
   849357727.04839778        85054381.607473016        1467336119.2942114     
   796551336.56374383        123159663.90722938        1482042034.6902025     
   747568807.46523821        174011150.82748571        1505935521.3934302     
   725075379.16295695        15029900.755837232        1478596415.3258040     
   683800875.81425631        18614092.290173650        1474943803.5049505     
   644466201.22595155        28664379.692496210        1478940708.3503966     
   607071355.39805341        45180762.962844819        1490587129.8621445     
   571616338.33055425        68163242.101187155        1509883068.0401852     
   476347209.38572246       -19231066.386932820        1487119245.5297990     
   449857874.11403894       -25993888.926438689        1481285211.0431852     
   423424334.97701204       -32570724.350422323        1481562638.5819373     
   397046591.97464800       -38961572.658864379        1487951528.1460695     
   370724645.10693878       -45166433.851790845        1500451879.7355609     
   220257582.84443215       -55700470.558918804        1491055493.0358891     
   204158973.81854606       -74128639.721633628        1480841997.8201401     
   186232128.30157602       -98650930.521296293        1475201909.9888430     
   166477046.29352659       -129267342.95788999        1474135229.5419800     
   144893727.79438758       -165977877.03144956        1477641956.4795687     
  -43193500.460914597       -94378311.760125056        1490405157.8440678     
  -53295825.072216928       -125790160.09539630        1473614163.8358226     
  -67110418.800353974       -169576238.82011595        1459858522.5710933     
  -84637281.645307556       -225736547.93422711        1449138234.0498869     
  -105876413.60709789       -294271087.43778855        1441453298.2721918     
  -244732.08133478530       -73419.624400435598        656450103.59206903     
  -345904.53618683876       -78622.737446110783        770932700.10858154     
  -421992.60482062941       -211.22976398278843        885600775.15597022     
  -472996.28723601135        161814.89864604411        1000454328.7342352     
  -498915.58343293588        407455.64778408862        1115493360.8433764     
  -448634783.96967018       -134590435.19090107        657929112.17745709     
  -447904113.50664723       -125537836.48429868        774140644.55738401     
  -446428614.32187289       -114002475.37185824        888716315.61565053     
  -444208286.41534698       -99984351.853579640        1001656125.3522568     
  -441243129.78706986       -83483465.929463208        1112960073.7672021     
  -890766293.54362285       -267229888.06308684        662376057.95594537     
  -894407608.31282997       -250680635.98186782        781156227.92407537     
  -896584350.02475274       -229249473.70970058        896479196.71800840     
  -897296518.67939067       -202936401.24658513        1008344964.3377442     
  -896544114.27674448       -171741418.59252146        1116753530.7832823     
  -1326639260.8031926       -397991778.24095780        669790940.92753375     
  -1339856388.9547350       -375507021.23015368        791979450.20865548     
  -1350889199.7134597       -345741206.24329120        908889418.46304333     
  -1359737693.0793669       -308694333.28037018        1020520845.6906970     
  -1366401869.0524571       -264366402.34139103        1126873731.8916168     
  -1756253685.7483792       -526876105.72451377        680173761.09222245     
  -1784250455.4323623       -500016992.22915626        806610311.41112483     
  -1809343163.3879945       -463477672.97263026        925946980.85075593     
  -1831531809.6152766       -417258147.95493579        1038183769.4111165     
  -1850816394.1142073       -361358417.17607212        1143320677.0922058     
  -498915.58343293588        407455.64778408862        1115493360.8433764     
  -512202.06000622874        612857.71530652000        1188602804.3034239     
  -579602.72115036414        637879.16759289603        1258535500.6311715     
  -701117.56686578703        482520.00464186363        1325291449.8266191     
  -876746.59715233790        146780.22645304474        1388870651.8897672     
  -441243129.78706986       -83483465.929463208        1112960073.7672021     
  -443352565.72168428       -68699270.909129322        1181122229.1619790     
  -446334948.92854363       -56824900.129611641        1247484372.1937594     
  -450190279.40764815       -47860353.590911463        1312046502.8625448     
  -454918557.15899760       -41805631.293027028        1374808621.1683335     
  -896544114.27674448       -171741418.59252146        1116753530.7832823     
  -896816171.75710332       -141198372.24568787        1179013092.8438354     
  -898780009.59738088       -116294593.76525024        1240849377.3106966     
  -902435627.79757738       -97030083.151207983        1302262384.1838663     
  -907783026.35769236       -83404840.403562188        1363252113.4633436     
  -1366401869.0524571       -264366402.34139103        1126873731.8916168     
  -1360903020.1662631       -216884446.29436842        1182275395.3489940     
  -1357914784.7276621       -177771201.73932174        1238630515.9819829     
  -1357437162.7366533       -147026668.67624897        1295939093.7905838     
  -1359470154.1932373       -124650847.10515225        1354201128.7747970     
  -1850816394.1142073       -361358417.17607212        1143320677.0922058     
  -1835613110.9491639       -295757493.05517137        1190909136.6774540     
  -1823739274.3193872       -241254724.05182570        1240827788.2076180     
  -1815194884.2248766       -197850110.16603386        1293076631.6826980     
  -1809979940.6656327       -165543651.39779747        1347655667.1026936     
  -876746.59715233790        146780.22645304474        1388870651.8897672     
  -1445749.1130100759       -90712.629775173904        1409323726.4130788     
  -1818049.1139890549        327469.56359299039        1432962432.4349737     
  -1993646.6000914348        1401326.8065494741        1459786769.9554513     
  -1972541.5713149239        3130859.0991024319        1489796738.9745116     
  -454918557.15899760       -41805631.293027028        1374808621.1683335     
  -445241159.45281225       -33063127.990429908        1395388434.4082365     
  -435768125.44089752       -25001837.002067417        1418592155.6683226     
  -426499455.12325156       -17621758.327933714        1444419784.9485903     
  -417435148.49987549       -10922891.968033448        1472871322.2490418     
  -907783026.35769236       -83404840.403562188        1363252113.4633436     
  -889464152.65346420       -66163818.209340394        1383490754.8424973     
  -871750708.85265291       -50940895.693175972        1405791580.7634356     
  -854642694.95525968       -37736072.855071306        1430154591.2261562     
  -838140110.96128321       -26549349.695023060        1456579786.2306602     
  -1359470154.1932373       -124650847.10515225        1354201128.7747970     
  -1334114728.7149653       -99392783.286506116        1373630687.7158637     
  -1309765799.3492584       -77489706.509741664        1394560707.7203138     
  -1286423366.0961173       -58941616.774865389        1416991188.7881477     
  -1264087428.9555404       -43748514.081867695        1440922130.9193645     
  -1809979940.6656327       -165543651.39779747        1347655667.1026936     
  -1779192887.6373160       -132750023.22192544        1365808233.0283341     
  -1749813396.9307122       -104648269.45176154        1384899536.5389583     
  -1721841468.5458224       -81238390.087309897        1404929577.6345661     
  -1695277102.4826441       -62520385.128566325        1425898356.3151569     
  -1972541.5713149239        3130859.0991024319        1489796738.9745116     
  -2716535.3959328514        3781318.3055119086        1493349000.3679850     
  -4217370.2607796025        1908974.0444923197        1498916309.0404131     
  -6475046.1658607172       -2486173.6839758460        1506498664.9917953     
  -9489563.1111740768       -9404124.8798837829        1516096068.2221341     
  -417435148.49987549       -10922891.968033448        1472871322.2490418     
  -410388936.65097088       -6431413.1399807334        1474188333.7396843     
  -404194597.87670195       -4779511.2273792922        1478596374.7106254     
  -398852132.17706668       -5967186.2302241772        1486095445.1618640     
  -394361539.55206919       -9994438.1485264450        1496685545.0934026     
  -838140110.96128321       -26549349.695023060        1456579786.2306602     
  -820229458.57787573       -17294580.787037134        1455550677.1116679     
  -803265711.30350661       -11196162.242510736        1458688579.6743186     
  -787248869.13817549       -8254094.0614442527        1465993493.9186113     
  -772178932.08188224       -8468376.2438386679        1477465419.8445461     
  -1264087428.9555404       -43748514.081867695        1440922130.9193645     
  -1232238101.1766484       -28808184.635656178        1437436030.4839358     
  -1201430710.5411961       -17340979.000909209        1439192923.9314923     
  -1171665257.0491848       -9346897.1776323915        1446192811.2620351     
  -1142941740.7006152       -4825939.1658281088        1458435692.4755635     
  -1695277102.4826441       -62520385.128566325        1425898356.3151569     
  -1646414864.4472849       -40972224.685829401        1419844393.8564868     
  -1598689595.5897706       -23213961.502575576        1420109407.4821460     
  -1552101295.9100993       -9245595.5787972212        1426693397.1921353     
  -1506649965.4082704        932873.08550244570        1439596362.9864540     
  -9489563.1111740768       -9404124.8798837829        1516096068.2221341     
  -10713602.958734589       -16103269.744672412        1506742186.9060571     
  -11390694.160494231       -20979252.456792507        1502740116.4844854     
  -11520836.716440588       -24032073.016201314        1504089856.9574146     
  -11104030.626585636       -25261731.422938749        1510791408.3248484     
  -394361539.55206919       -9994438.1485264450        1496685545.0934026     
  -380995313.93547136       -12215147.458303079        1490030547.1688914     
  -367341707.96224058       -13477922.245967761        1488213534.3480728     
  -353400721.63237107       -13782762.511504188        1491234506.6309478     
  -339172354.94586515       -13129668.254920140        1499093464.0175130     
  -772178932.08188224       -8468376.2438386679        1477465419.8445461     
  -745690514.68915689       -6651072.1050158739        1473206475.6409028     
  -719174285.22896683       -4741061.0746418238        1473271690.7501400     
  -692630243.70130754       -2738343.1527055204        1477661065.1722603     
  -666058390.10618401       -642918.33921998739        1486374598.9072647     
  -1142941740.7006152       -4825939.1658281088        1458435692.4755635     
  -1104799205.2197926        588956.31518501043        1456269972.3220882     
  -1066888425.9606705        5231331.0571950674        1457914585.6906836     
  -1029209402.9232548        9101185.0601832867        1463369532.5813501     
  -991762136.10753846        12198518.324174464        1472634812.9940927     
  -1506649965.4082704        932873.08550244570        1439596362.9864540     
  -1458321385.5273764        9504937.8023031354        1439221037.2124488     
  -1410484130.1573532        16439254.149533987        1442142219.1697056     
  -1363138199.2982056        21735822.127180755        1448359908.8582251     
  -1316283592.9499311        25394641.735250890        1457874106.2780044     
  -11104030.626585636       -25261731.422938749        1510791408.3248484     
  -12071681.326071817       -26415844.912380744        1502164349.9795516     
  -13262622.240093665       -28314259.116943009        1497890980.5194111     
  -14676853.368655007       -30956974.036636055        1497971299.9444232     
  -16314374.711751122       -34343989.671445362        1502405308.2545922     
  -339172354.94586515       -13129668.254920140        1499093464.0175130     
  -328032796.50123942       -13289327.154259741        1490814304.5506945     
  -317105526.55612117       -14156614.385292903        1487265204.4810874     
  -306390545.11051416       -15731529.948028833        1488446163.8086972     
  -295887852.16441238       -18014073.842449725        1494357182.5335243     
  -666058390.10618401       -642918.33921998739        1486374598.9072647     
  -641736278.19726920        514480.64759927988        1478456173.6531155     
  -617615453.07283485        1000923.6861517429        1475644178.3082433     
  -593695914.73288274        816410.77642899752        1477938612.8726482     
  -569977663.17741084       -39058.081561923027        1485339477.3463333     
  -991762136.10753846        12198518.324174464        1472634812.9940927     
  -953182126.41416049        14995578.493201435        1465089957.2868180     
  -914792401.79023278        17158355.097392619        1463027902.0008798     
  -876592962.23576117        18686848.136732101        1466448647.1362815     
  -838583807.75074148        19581057.611229539        1475352192.6930244     
  -1316283592.9499311        25394641.735250890        1457874106.2780044     
  -1262370341.1519127        30153966.382543802        1450715655.4518013     
  -1208636372.7083199        34315679.848417580        1449416375.5589964     
  -1155081687.6191509        37879782.132878780        1453976266.5995929     
  -1101706285.8844080        40846273.235920250        1464395328.5735896     
  -16314374.711751122       -34343989.671445362        1502405308.2545922     
  -20621406.964879028       -41310072.913071729        1494823011.9992518     
  -26536938.674119361       -53637821.008406870        1490295554.8457184     
  -34060969.839463808       -71327233.957423106        1488822936.7939887     
  -43193500.460914597       -94378311.760125056        1490405157.8440678     
  -295887852.16441238       -18014073.842449725        1494357182.5335243     
  -291029673.04812646       -23492603.408071771        1487600379.3252096     
  -286949951.49094343       -31565991.504035808        1484495617.9894090     
  -283648687.49287283       -42234238.130375095        1485042898.5261164     
  -281125881.05391157       -55497343.287077457        1489242220.9353385     
  -569977663.17741084       -39058.081561923027        1485339477.3463333     
  -554247979.06111372       -3518145.8819712698        1480376549.3982120     
  -538466710.60692775       -6825285.8894198835        1479662866.0933056     
  -522633857.81485081       -9960478.1038978994        1483198427.4316180     
  -506749420.68488741       -12923722.525421858        1490983233.4131505     
  -838583807.75074148        19581057.611229539        1475352192.6930244     
  -810276325.00384820        18613299.665195465        1473151522.2182562     
  -781087216.02206814        20584295.835452706        1475797299.1574123     
  -751016480.80540001        25494046.122001320        1483289523.5104914     
  -720064119.35384846        33342550.524830699        1495628195.2774982     
  -1101706285.8844080        40846273.235920250        1464395328.5735896     
  -1059114710.8763313        42901733.233435929        1465925297.7853413     
  -1014811467.7363671        50662753.670576155        1472898917.1817245     
  -968796556.46451724        64129334.547334790        1485316186.7627361     
  -921069977.06078422        83301475.863704145        1503177106.5283766     
  -43193500.460914597       -94378311.760125056        1490405157.8440678     
  -53295825.072216928       -125790160.09539630        1473614163.8358226     
  -67110418.800353974       -169576238.82011595        1459858522.5710933     
  -84637281.645307556       -225736547.93422711        1449138234.0498869     
  -105876413.60709789       -294271087.43778855        1441453298.2721918     
  -281125881.05391157       -55497343.287077457        1489242220.9353385     
  -276732214.56874001       -72051471.862357035        1474391960.6511142     
  -274100056.30409294       -94477294.506050915        1464228405.4452808     
  -273229406.25996560       -122774811.21814436        1458751555.3178329     
  -274120264.43636477       -156944021.99865603        1457961410.2687666     
  -506749420.68488741       -12923722.525421858        1490983233.4131505     
  -483141613.57504076       -13204686.482241064        1480349594.5653038     
  -459344553.78941345       -12854808.186459929        1476054013.1307113     
  -435358241.32800388       -11874087.638072222        1478096489.1093819     
  -411182676.19081354       -10262524.837078094        1486477022.5013039     
  -720064119.35384846        33342550.524830699        1495628195.2774982     
  -672524022.09112453        50750196.044931650        1491487065.5783799     
  -622843911.25631368        75291220.138660222        1495335345.6273873     
  -571023786.84942257        106965622.80598405        1507173035.4245291     
  -517063648.87044126        145773404.04694951        1527000134.9697926     
  -921069977.06078422        83301475.863704145        1503177106.5283766     
  -844879440.11698616        119813175.71918440        1507804373.6903472     
  -764598128.70479798        169960790.46929526        1522072402.9353120     
  -680226042.82422125        233744320.11403221        1545981194.2632818     
  -591763182.47525311        311163764.65341520        1579530747.6742396     
  -1756253685.7483792       -526876105.72451377        680173761.09222245     
  -1784250455.4323623       -500016992.22915626        806610311.41112483     
  -1809343163.3879945       -463477672.97263026        925946980.85075593     
  -1831531809.6152766       -417258147.95493579        1038183769.4111165     
  -1850816394.1142073       -361358417.17607212        1143320677.0922058     
  -2201864281.6262722       -660559284.48788166        696608716.45923185     
  -2238458718.9285197       -613853265.25448275        814037718.03159165     
  -2273024870.5418582       -560386293.72472167        927372954.83731723     
  -2305562736.4662890       -500158369.89859879        1036614426.8764083     
  -2336072316.7018099       -433169493.77611297        1141762134.1488647     
  -2685725761.6839604       -805717728.50518811        722180005.03778279     
  -2722328963.4255109       -736588132.58005953        829579719.15091825     
  -2757779655.5175953       -663616837.82337534        935891784.61005557     
  -2792077837.9602132       -586803844.23513556        1041116201.4151949     
  -2825223510.7533641       -506149151.81533986        1145252969.5663362     
  -3207838125.9214439       -962351437.77643323        756887626.82787502     
  -3235861188.9233379       -868221594.20588660        853236314.76910365     
  -3263607518.3152056       -773169305.26859081        951503470.16897058     
  -3291077114.0970492       -677194570.96454585        1051689093.0274762     
  -3318269976.2688675       -580297391.29375124        1153793183.3446200     
  -3768201374.3387227       -1130460412.3016169        800731581.82950878     
  -3779055395.4219971       -1008753650.1319637        885007504.88614833     
  -3790508458.9346886       -889043696.06036782        974208011.51406276     
  -3802560564.8767967       -771330550.08682942        1068333101.7132521     
  -3815211713.2483225       -655614212.21134818        1167382775.4837160     
  -1850816394.1142073       -361358417.17607212        1143320677.0922058     
  -1835613110.9491639       -295757493.05517137        1190909136.6774540     
  -1823739274.3193872       -241254724.05182570        1240827788.2076180     
  -1815194884.2248766       -197850110.16603386        1293076631.6826980     
  -1809979940.6656327       -165543651.39779747        1347655667.1026936     
  -2336072316.7018099       -433169493.77611297        1141762134.1488647     
  -2312537961.1428871       -352149276.72130138        1183117653.2515709     
  -2292470466.9691420       -282685264.28374755        1224993199.2660589     
  -2275869834.1805720       -224777456.46344751        1267388772.1923280     
  -2262736062.7771807       -178425853.26040554        1310304372.0303788     
  -2825223510.7533641       -506149151.81533986        1145252969.5663362     
  -2798529982.8952312       -411261211.85501772        1180215230.8616049     
  -2775440731.2721848       -328387526.01165342        1213887354.0355208     
  -2755955755.8842273       -257528094.28524840        1246269339.0880840     
  -2740075056.7313566       -198682916.67580104        1277361186.0192931     
  -3318269976.2688675       -580297391.29375124        1153793183.3446200     
  -3293589176.2061949       -473093298.45631886        1182201869.5075552     
  -3272650067.2285194       -378361509.23554838        1207510252.5160034     
  -3255452649.3358417       -296102023.63143682        1229718332.3699641     
  -3241996922.5281634       -226314841.64398587        1248826109.0694373     
  -3815211713.2483225       -655614212.21134818        1167382775.4837160     
  -3797715541.0757785       -537645536.52520800        1189077569.1894226     
  -3784098474.8381443       -432607213.95542908        1205861894.7075074     
  -3774360514.5354176       -340499244.50201452        1217735752.0379703     
  -3768501660.1676002       -261321628.16496003        1224699141.1808109     
  -1809979940.6656327       -165543651.39779747        1347655667.1026936     
  -1779192887.6373160       -132750023.22192544        1365808233.0283341     
  -1749813396.9307122       -104648269.45176154        1384899536.5389583     
  -1721841468.5458224       -81238390.087309897        1404929577.6345661     
  -1695277102.4826441       -62520385.128566325        1425898356.3151569     
  -2262736062.7771807       -178425853.26040554        1310304372.0303788     
  -2222905218.1717381       -133817869.08983314        1318479585.2383776     
  -2186037890.8578801       -99088275.891206622        1329946433.7680979     
  -2152134080.8356047       -74237073.664523602        1344704917.6195385     
  -2121193788.1049130       -59264262.409782290        1362755036.7926993     
  -2740075056.7313566       -198682916.67580104        1277361186.0192931     
  -2684477855.5866842       -140243807.02189958        1273743765.7114697     
  -2633400126.7034655       -96869604.906176090        1275770878.4621036     
  -2586841870.0816998       -68560310.328629494        1283442524.2711954     
  -2544803085.7213869       -55315923.289258122        1296758703.1387451     
  -3241996922.5281634       -226314841.64398587        1248826109.0694373     
  -3163910799.8821540       -152027837.01812351        1231600774.4476085     
  -3091900104.4674683       -97992256.496671438        1222372870.6209755     
  -3025964836.2841053       -64208100.079629302        1221142397.5895369     
  -2966104995.3320656       -50675367.766996264        1227909355.3532925     
  -3768501660.1676002       -261321628.16496003        1224699141.1808109     
  -3661204051.0581474       -169169959.07850194        1192050611.4467962     
  -3561537824.1498890       -102456230.66269076        1169752410.2447133     
  -3469502979.4428244       -61180442.917523623        1157804537.5745633     
  -3385099516.9369512       -45342595.842995524        1156206993.4363446     
  -1695277102.4826441       -62520385.128566325        1425898356.3151569     
  -1646414864.4472849       -40972224.685829401        1419844393.8564868     
  -1598689595.5897706       -23213961.502575576        1420109407.4821460     
  -1552101295.9100993       -9245595.5787972212        1426693397.1921353     
  -1506649965.4082704        932873.08550244570        1439596362.9864540     
  -2121193788.1049130       -59264262.409782290        1362755036.7926993     
  -2057772400.9103389       -40362245.135352731        1355923581.9091909     
  -1995221643.0084498       -24362325.503211856        1354583144.8718967     
  -1933541514.3992467       -11264503.513353109        1358733725.6808174     
  -1872732015.0827324       -1068779.1657921076        1368375324.3359523     
  -2544803085.7213869       -55315923.289258122        1296758703.1387451     
  -2469188144.3336406       -39769727.672949433        1289460485.6964147     
  -2394177492.3534217       -26237830.081736088        1286825327.8621836     
  -2319771129.7807326       -14720230.515617967        1288853229.6360519     
  -2245969056.6155725       -5216928.9745966196        1295544191.0180204     
  -2966104995.3320656       -50675367.766996264        1227909355.3532925     
  -2880662094.7171898       -39194672.298621893        1220455105.2181573     
  -2795557143.6246834       -28840475.238143682        1216835956.4530070     
  -2710790142.0545506       -19612776.585575104        1217051909.0578418     
  -2626361090.0067887       -11511576.340914965        1221102963.0326598     
  -3385099516.9369512       -45342595.842995524        1156206993.4363446     
  -3292194252.0609879       -38637079.012365103        1148907440.4744213     
  -3199360596.8222389       -32170260.972445488        1144615030.6443679     
  -3106598551.2207050       -25942141.723239064        1143329763.9461825     
  -3013908115.2563839       -19952721.264750242        1145051640.3798685     
  -1506649965.4082704        932873.08550244570        1439596362.9864540     
  -1458321385.5273764        9504937.8023031354        1439221037.2124488     
  -1410484130.1573532        16439254.149533987        1442142219.1697056     
  -1363138199.2982056        21735822.127180755        1448359908.8582251     
  -1316283592.9499311        25394641.735250890        1457874106.2780044     
  -1872732015.0827324       -1068779.1657921076        1368375324.3359523     
  -1815515683.2152750        5858856.4890593290        1365186251.8211107     
  -1758872769.3900807        10875098.669700861        1365916887.5020432     
  -1702803273.6071441        13979947.376154780        1370567231.3787532     
  -1647307195.8664694        15173402.608395934        1379137283.4512336     
  -2245969056.6155725       -5216928.9745966196        1295544191.0180204     
  -2178084400.0058022        600449.44502127171        1289445595.9757240     
  -2110855254.9696801        4232789.2858166695        1287889909.5937154     
  -2044281621.5072081        5680090.5477793217        1290877131.8719945     
  -1978363499.6183801        4942353.2309244871        1298407262.8105624     
  -2626361090.0067887       -11511576.340914965        1221102963.0326598     
  -2546027535.8989530       -6270283.3297985792        1211999069.6762877     
  -2466431586.8961558       -3487674.0021390915        1208061285.4447181     
  -2387573242.9983921       -3163748.3579227924        1209289610.3379495     
  -2309452504.2056632       -5298506.3971598148        1215684044.3559804     
  -3013908115.2563839       -19952721.264750242        1145051640.3798685     
  -2919345090.8947315       -14753341.835409999        1132846672.9228046     
  -2825601765.1695042       -12286291.194148540        1126431015.0550554     
  -2732678138.0807014       -12551569.340966463        1125804666.7766185     
  -2640574209.6283154       -15549176.275851369        1130967628.0874956     
  -1316283592.9499311        25394641.735250890        1457874106.2780044     
  -1262370341.1519127        30153966.382543802        1450715655.4518013     
  -1208636372.7083199        34315679.848417580        1449416375.5589964     
  -1155081687.6191509        37879782.132878780        1453976266.5995929     
  -1101706285.8844080        40846273.235920250        1464395328.5735896     
  -1647307195.8664694        15173402.608395934        1379137283.4512336     
  -1579006403.6570878        19156456.408465028        1371556822.8746204     
  -1510825698.3105795        22739220.665635228        1369363669.5688596     
  -1442765079.8269398        25921695.379903793        1372557823.5339494     
  -1374824548.2061749        28703880.551255822        1381139284.7698920     
  -1978363499.6183801        4942353.2309244871        1298407262.8105624     
  -1897023348.8906317        7744681.6158750057        1290473855.0570157     
  -1815744088.5341988        10344042.096437812        1287455890.9117742     
  -1734525718.5490837        12740434.672612190        1289353370.3748391     
  -1653368238.9352863        14933859.344394684        1296166293.4462066     
  -2309452504.2056632       -5298506.3971598148        1215684044.3559804     
  -2216421176.8525395       -4081357.9952272177        1207466751.9989843     
  -2123391543.3791771       -2869855.8591603041        1203693039.5877473     
  -2030363603.7855797       -1663999.9889800549        1204362907.1222646     
  -1937337358.0717449       -463790.38467395306        1209476354.6025412     
  -2640574209.6283154       -15549176.275851369        1130967628.0874956     
  -2537199887.5428109       -16321662.424831867        1122535513.7005296     
  -2433768062.8455157       -16902473.201179862        1118075115.5967722     
  -2330278735.5364256       -17291608.604876995        1117586433.7762229     
  -2226731905.6155472       -17489068.635945678        1121069468.2388854     
  -1101706285.8844080        40846273.235920250        1464395328.5735896     
  -1059114710.8763313        42901733.233435929        1465925297.7853413     
  -1014811467.7363671        50662753.670576155        1472898917.1817245     
  -968796556.46451724        64129334.547334790        1485316186.7627361     
  -921069977.06078422        83301475.863704145        1503177106.5283766     
  -1374824548.2061749        28703880.551255822        1381139284.7698920     
  -1319369397.2199464        29029474.747147322        1382038134.8835132     
  -1262944253.9544337        32588376.540652275        1387787593.0576134     
  -1205549118.4096336        39380585.931779861        1398387659.2921889     
  -1147183990.5855489        49406102.920521021        1413838333.5872447     
  -1653368238.9352863        14933859.344394684        1296166293.4462066     
  -1586743918.0399101        13021265.917953312        1295568735.9669964     
  -1519891280.7178497        11869727.247134447        1299228744.4241145     
  -1452810326.9691074        11479243.331921399        1307146318.8175588     
  -1385501056.7936788        11849814.172328472        1319321459.1473279     
  -1937337358.0717449       -463790.38467395306        1209476354.6025412     
  -1861238273.3362236       -5122893.2541385889        1206517101.0357962     
  -1785652548.0266223       -11493194.209989190        1207222371.2812300     
  -1710580182.1429398       -19574693.252243280        1211592165.3388379     
  -1636021175.6851695       -29367390.380872488        1219626483.2086186     
  -2226731905.6155472       -17489068.635945678        1121069468.2388854     
  -2142852463.1088922       -25403002.769150257        1114883230.0899103     
  -2060228055.8807480       -37500387.830722809        1111768473.6289587     
  -1978858683.9311309       -53781223.820719838        1111725198.8560309     
  -1898744347.2600226       -74245510.739078760        1114753405.7711265     
  -921069977.06078422        83301475.863704145        1503177106.5283766     
  -844879440.11698616        119813175.71918440        1507804373.6903472     
  -764598128.70479798        169960790.46929526        1522072402.9353120     
  -680226042.82422125        233744320.11403221        1545981194.2632818     
  -591763182.47525311        311163764.65341520        1579530747.6742396     
  -1147183990.5855489        49406102.920521021        1413838333.5872447     
  -1052267907.4146596        74629988.334471881        1416506908.1889093     
  -955530773.56404805        105924042.68083209        1426543867.2918460     
  -856972589.03371167        143288265.95960438        1443949210.8960571     
  -756593353.82364893        186722658.17079845        1468722939.0015337     
  -1385501056.7936788        11849814.172328472        1319321459.1473279     
  -1278351934.7720554        23838132.931839406        1317383330.1019106     
  -1171651485.8593733        34330874.661546528        1320541207.9760389     
  -1065399710.0556388        43328039.361438870        1328795092.7697115     
  -959596607.36083567        50829627.031544387        1342144984.4829385     
  -1636021175.6851695       -29367390.380872488        1219626483.2086186     
  -1523131522.1891737       -32562390.488714635        1210433639.4293416     
  -1412960265.5907774       -44818713.588559389        1204064424.9878905     
  -1305507405.8899961       -66136359.680449009        1200518839.8842571     
  -1200772943.0868170       -96515328.764348030        1199796884.1184454     
  -1898744347.2600226       -74245510.739078760        1114753405.7711265     
  -1786606669.6660087       -94571581.927170634        1095657836.1712167     
  -1679457112.7582626       -131524722.06949228        1077113518.3274000     
  -1577295676.5367918       -185104931.16607738        1059120452.2396824     
  -1480122361.0015929       -255312209.21687880        1041678637.9080585     
  -3768201374.3387227       -1130460412.3016169        800731581.82950878     
  -3779055395.4219971       -1008753650.1319637        885007504.88614833     
  -3790508458.9346886       -889043696.06036782        974208011.51406276     
  -3802560564.8767967       -771330550.08682942        1068333101.7132521     
  -3815211713.2483225       -655614212.21134818        1167382775.4837160     
  -4339666291.1254721       -1301899887.3376415        858878847.08460140     
  -4335125365.1647863       -1125757354.8289247        942478235.80153692     
  -4331714554.6502886       -953381873.80750418        1020433207.0566138     
  -4329433859.5819807       -784773444.27338111        1092743760.8498325     
  -4328283279.9598608       -619932066.22655487        1159409897.1811931     
  -4895083660.4713659       -1468525098.1414099        936496399.63507128     
  -4905344933.2756710       -1247005939.0363140        1018799668.8260683     
  -4917267394.5429354       -1031024074.8077550        1084889519.5220742     
  -4930851044.2731619       -820579505.45573211        1134765951.7230887     
  -4946095882.4663496       -615672230.98024654        1168428965.4291120     
  -5434453482.3764048       -1630336044.7129214        1033584239.4809179     
  -5489714099.7546520       -1372499402.7541327        1113971803.9597430     
  -5547166978.6126328       -1121970299.0611200        1167576948.9104435     
  -5606812118.9503441       -878748733.63388395        1194399674.3330197     
  -5668649520.7677889       -642834706.47242332        1194439980.2274721     
  -5957775756.8405895       -1787332727.0521770        1150142366.6221414     
  -6088232864.6017303       -1502237745.9823804        1227994641.2025607     
  -6221413306.8593750       -1226220546.5675998        1268495495.2217221     
  -6357317083.6135263       -959281128.80783474        1271644928.6796265     
  -6495944194.8641815       -701419492.70308590        1237442941.5762732     
  -3815211713.2483225       -655614212.21134818        1167382775.4837160     
  -3797715541.0757785       -537645536.52520800        1189077569.1894226     
  -3784098474.8381443       -432607213.95542908        1205861894.7075074     
  -3774360514.5354176       -340499244.50201452        1217735752.0379703     
  -3768501660.1676002       -261321628.16496003        1224699141.1808109     
  -4328283279.9598608       -619932066.22655487        1159409897.1811931     
  -4297955698.9102068       -464184777.34372008        1141464001.5788374     
  -4278265380.1674953       -343895029.48403013        1129580747.1780291     
  -4269212323.7317271       -259062822.64748740        1123760133.9787672     
  -4270796529.6029029       -209688156.83408785        1124002161.9810541     
  -4946095882.4663496       -615672230.98024654        1168428965.4291120     
  -4871585151.4276724       -412740806.56714320        1102957864.7513194     
  -4814469839.0679731       -267794111.08396864        1054522514.6642433     
  -4774749945.3872519       -180832144.53072381        1023122915.1678832     
  -4752425470.3855104       -151854906.90740728        1008759066.2622403     
  -5668649520.7677889       -642834706.47242332        1194439980.2274721     
  -5518603898.6281757       -383313624.19547725        1073559158.7068689     
  -5392711851.5395784       -204304458.75524521        980687197.16615176     
  -5290973379.5019941       -105807210.15172482        915824095.60531819     
  -5213388482.5154238       -87821878.384919643        878969854.02437198     
  -6495944194.8641815       -701419492.70308590        1237442941.5762732     
  -6239011940.5117226       -375903230.22872543        1053267883.4454851     
  -6012991417.5823126       -153426072.49786115        908074794.68375170     
  -5817882626.0759516       -33988019.510493517        801863675.29107237     
  -5653685565.9926405       -17589071.266620874        734634525.26744843     
  -3768501660.1676002       -261321628.16496003        1224699141.1808109     
  -3661204051.0581474       -169169959.07850194        1192050611.4467962     
  -3561537824.1498890       -102456230.66269076        1169752410.2447133     
  -3469502979.4428244       -61180442.917523623        1157804537.5745633     
  -3385099516.9369512       -45342595.842995524        1156206993.4363446     
  -4270796529.6029029       -209688156.83408785        1124002161.9810541     
  -4147793415.3175530       -145698872.96729636        1090525440.6314819     
  -4029160672.5671697       -96277494.217060804        1065278560.5513602     
  -3914898301.3517518       -61424020.583377123        1048261521.7406902     
  -3805006301.6713023       -41138452.066249847        1039474324.1994716     
  -4752425470.3855104       -151854906.90740728        1008759066.2622403     
  -4619775385.9599228       -117845568.77097797        978258665.74104285     
  -4488234662.4030743       -87534100.197013617        953867619.22681510     
  -4357803299.7149649       -60920501.185516119        935585926.71955776     
  -4228481297.8955956       -38004771.736483812        923413588.21926820     
  -5213388482.5154238       -87821878.384919643        878969854.02437198     
  -5077149962.9852571       -85610046.489547968        855250286.77548075     
  -4938759793.6576052       -76226048.602557898        835519586.27107632     
  -4798217974.5324659       -59669884.723941803        819777752.51116109     
  -4655524505.6098385       -35941554.853703737        808024785.49573326     
  -5653685565.9926405       -17589071.266620874        734634525.26744843     
  -5519917146.3935575       -48992306.123011112        721500303.73479331     
  -5380736066.3307619       -62353339.433686733        710234461.68414462     
  -5236142325.8042507       -57672171.198652267        700836999.11550272     
  -5086135924.8140278       -34948801.417907238        693307916.02886927     
  -3385099516.9369512       -45342595.842995524        1156206993.4363446     
  -3292194252.0609879       -38637079.012365103        1148907440.4744213     
  -3199360596.8222389       -32170260.972445488        1144615030.6443679     
  -3106598551.2207050       -25942141.723239064        1143329763.9461825     
  -3013908115.2563839       -19952721.264750242        1145051640.3798685     
  -3805006301.6713023       -41138452.066249847        1039474324.1994716     
  -3701851688.3460598       -30687447.408847094        1030931116.7866371     
  -3599478361.4769492       -22840730.938547134        1026400537.0890465     
  -3497886321.0639629       -17598302.655333042        1025882585.1067005     
  -3397075567.1071115       -14960162.559225798        1029377260.8395972     
  -4228481297.8955956       -38004771.736483812        923413588.21926820     
  -4112204523.0257230       -22946435.323708057        912798770.06678832     
  -3997418711.4308920       -12857976.494413137        907202064.21292675     
  -3884123863.1111078       -7739395.2485973835        906623470.65768290     
  -3772319978.0663676       -7590691.5862655640        911062989.40105689     
  -4655524505.6098385       -35941554.853703737        808024785.49573326     
  -4523252756.0999756       -15414042.756945848        794510400.31487381     
  -4393181646.6840715       -2221997.6400494576        787019612.01600778     
  -4265311177.3621292        3634580.4969799519        785552420.59913361     
  -4139641348.1341443        2155691.6541409492        790108826.06425107     
  -5086135924.8140278       -34948801.417907238        693307916.02886927     
  -4934996387.5688229       -8090269.7085616589        676066007.53089571     
  -4786767167.2364922        9067205.6245334148        665853180.49828887     
  -4641448263.8170319        16523624.581389189        662669434.93104994     
  -4499039677.3104486        14278987.161988258        666514770.82917702     
  -3013908115.2563839       -19952721.264750242        1145051640.3798685     
  -2919345090.8947315       -14753341.835409999        1132846672.9228046     
  -2825601765.1695042       -12286291.194148540        1126431015.0550554     
  -2732678138.0807014       -12551569.340966463        1125804666.7766185     
  -2640574209.6283154       -15549176.275851369        1130967628.0874956     
  -3397075567.1071115       -14960162.559225798        1029377260.8395972     
  -3289045850.7398009       -12008834.191230893        1018860028.2588382     
  -3181456276.7853208       -10524647.199331641        1013431260.9534271     
  -3074306845.2436647       -10507601.583514929        1013090958.9233637     
  -2967597556.1148362       -11957697.343785524        1017839122.1686505     
  -3772319978.0663676       -7590691.5862655640        911062989.40105689     
  -3652825982.0190144       -7488137.9772992134        902676307.29079771     
  -3533392572.1608925       -7587538.3324363232        898677246.14192224     
  -3414019748.4919987       -7888892.6516745090        899065805.95442986     
  -3294707511.0123382       -8392200.9350123405        903841986.72832131     
  -4139641348.1341443        2155691.6541409492        790108826.06425107     
  -4010685484.7323656       -1191253.1936099529        784295510.01868808     
  -3881410651.2962189       -3474964.5934655666        782168970.62054336     
  -3751816847.8257046       -4695442.5454423428        783729207.86981475     
  -3621904074.3208265       -4852687.0495343208        788976221.76650274     
  -4499039677.3104486        14278987.161988258        666514770.82917702     
  -4362624358.8798542        6881820.1598503590        663717636.44250572     
  -4225510514.1913009        1813074.0175702572        663906434.38928366     
  -4087698143.2447839       -927251.26483106613        667081164.66951764     
  -3949187246.0403032       -1339155.6873524189        673241827.28320312     
  -2640574209.6283154       -15549176.275851369        1130967628.0874956     
  -2537199887.5428109       -16321662.424831867        1122535513.7005296     
  -2433768062.8455157       -16902473.201179862        1118075115.5967722     
  -2330278735.5364256       -17291608.604876995        1117586433.7762229     
  -2226731905.6155472       -17489068.635945678        1121069468.2388854     
  -2967597556.1148362       -11957697.343785524        1017839122.1686505     
  -2853240338.2418146       -11756308.906989098        1009559824.9416565     
  -2738866864.3908114       -11500733.876911759        1005532452.5174389     
  -2624477134.5618310       -11190972.253581285        1005757004.8959972     
  -2510071148.7548671       -10827024.036975861        1010233482.0773325     
  -3294707511.0123382       -8392200.9350123405        903841986.72832131     
  -3168566801.5816088       -6976759.1813702583        895667385.58851850     
  -3042451082.8067102       -5644619.6138347387        892024917.77106082     
  -2916360354.6876421       -4395782.2324038744        892914583.27594662     
  -2790294617.2244048       -3230247.0370780230        898336382.10317612     
  -3621904074.3208265       -4852687.0495343208        788976221.76650274     
  -3483179277.5621953       -1983013.2479922771        780858195.64111519     
  -3344520718.0932126        665869.58805489540        777552511.35763657     
  -3205928395.9138656        3093961.4586433172        779059168.91606867     
  -3067402311.0241613        5301262.3637573719        785378168.31641293     
  -3949187246.0403032       -1339155.6873524189        673241827.28320312     
  -3797077766.1835790        3224928.8931365013        665132255.09944868     
  -3645075770.2503085        7430733.7287871838        662115233.27717030     
  -3493181258.2404938        11278258.819579840        664190761.81637144     
  -3341394230.1541319        14767504.165528774        671358840.71704912     
  -2226731905.6155472       -17489068.635945678        1121069468.2388854     
  -2142852463.1088922       -25403002.769150257        1114883230.0899103     
  -2060228055.8807480       -37500387.830722809        1111768473.6289587     
  -1978858683.9311309       -53781223.820719838        1111725198.8560309     
  -1898744347.2600226       -74245510.739078760        1114753405.7711265     
  -2510071148.7548671       -10827024.036975861        1010233482.0773325     
  -2418160695.9942088       -18649145.800456047        1003850103.1457388     
  -2327214242.1123061       -29684597.159791112        1000551755.2515743     
  -2237231787.1091700       -43933378.115010500        1000338438.3948357     
  -2148213330.9847932       -61395488.666102529        1003210152.5755292     
  -2790294617.2244048       -3230247.0370780230        898336382.10317612     
  -2690314441.7828708       -10948942.702765465        892095404.85534370     
  -2591007228.8203378       -20910846.631807446        888953007.99434495     
  -2492372978.3368120       -33115958.824202061        888909191.52018118     
  -2394411690.3322926       -47564279.279953361        891963955.43284965     
  -3067402311.0241613        5301262.3637573719        785378168.31641293     
  -2959313700.4748735       -2302393.4760752916        779619135.21872663     
  -2851607016.0048394       -11179136.246755242        776972231.85727692     
  -2744282257.6140566       -21328965.948270917        777437458.23206627     
  -2637339425.3025222       -32751882.580625653        781014814.34309494     
  -3341394230.1541319        14767504.165528774        671358840.71704912     
  -3225158472.0702219        7290501.8796042204        666421294.23588431     
  -3109013603.6658134       -489466.00465130806        664609426.84036362     
  -2992959624.9408956       -8572399.4872083664        665923238.53048551     
  -2876996535.8954759       -16958298.568102002        670362729.30625856     
  -1898744347.2600226       -74245510.739078760        1114753405.7711265     
  -1786606669.6660087       -94571581.927170634        1095657836.1712167     
  -1679457112.7582626       -131524722.06949228        1077113518.3274000     
  -1577295676.5367918       -185104931.16607738        1059120452.2396824     
  -1480122361.0015929       -255312209.21687880        1041678637.9080585     
  -2148213330.9847932       -61395488.666102529        1003210152.5755292     
  -2029677034.2081046       -75048396.167903185        982110845.72169173     
  -1913503869.8579783       -96578411.758252084        963842341.01697731     
  -1799693837.9344106       -125985535.43712133        948404638.46138608     
  -1688246938.4374065       -163269767.20453584        935797738.05492115     
  -2394411690.3322926       -47564279.279953361        891963955.43284965     
  -2262963773.2499952       -52590122.758587360        871923397.62808251     
  -2131254000.3345511       -56743113.460055947        856993192.36546707     
  -1999282371.5859478       -60023251.384350777        847173339.64499640     
  -1867048887.0042064       -62430536.531482100        842463839.46668684     
  -2637339425.3025222       -32751882.580625653        781014814.34309494     
  -2486466886.7916846       -27196761.699211478        765095491.89038956     
  -2332707504.1879826       -12018827.174920559        756566072.37286770     
  -2176061277.4914179        12781920.992244840        755426555.79052055     
  -2016528206.7019908        47205482.802279592        761676942.14335120     
  -2876996535.8954759       -16958298.568102002        670362729.30625856     
  -2700186374.8331594        1131687.0102458000        661627128.50861490     
  -2517864381.4182711        37594447.097156048        662560981.03917992     
  -2330030555.6508017        92429981.692657590        673164286.89795005     
  -2136684897.5307682        165638290.79673028        693437046.08492744     
  -5957775756.8405895       -1787332727.0521770        1150142366.6221414     
  -6088232864.6017303       -1502237745.9823804        1227994641.2025607     
  -6221413306.8593750       -1226220546.5675998        1268495495.2217221     
  -6357317083.6135263       -959281128.80783474        1271644928.6796265     
  -6495944194.8641815       -701419492.70308590        1237442941.5762732     
  -6810420877.1436119       -2043126263.1430836        1353855619.9644620     
  -6828325254.2565069       -1395453389.0422778        1202819276.0268409     
  -6897593736.4864693       -918994198.66503787        1092041554.7573569     
  -7018226323.8335028       -613748692.01136351        1021522456.1560102     
  -7190223016.2976093       -479716869.08125544        991261980.22280049     
  -8337759236.5651646       -2501327770.9695492        1712408838.4136002     
  -8021367902.3743982       -1424554109.6411097        1275736310.2339463     
  -7804981443.9212685       -681130034.10478687        956932447.95182431     
  -7688599861.2057724       -271055544.36057949        755997251.56723392     
  -7672223154.2279139       -194330640.40848827        672930721.08017468     
  -10539790835.105247       -3161937250.5315742        2225802021.9695559     
  -9667360808.9554119       -1589539907.7788782        1446745743.8238771     
  -8943576429.1637707       -512628052.88684750        863168174.80512440     
  -8368437695.7303305        68798314.144518375        475069314.91329777     
  -7941944608.6550961        154739193.31521559        282449164.14839768     
  -13416515672.763863       -4024954701.8291588        2894035170.6323295     
  -11766303973.999538       -1890410783.4555812        1715847576.7966325     
  -10313378692.213982       -413488255.01121998        810748735.31725693     
  -9057739827.4071846        405812883.50392628        178738646.19420174     
  -7999387379.5791559        567492632.08985662       -180182690.57253247     
  -6495944194.8641815       -701419492.70308590        1237442941.5762732     
  -6239011940.5117226       -375903230.22872543        1053267883.4454851     
  -6012991417.5823126       -153426072.49786115        908074794.68375170     
  -5817882626.0759516       -33988019.510493517        801863675.29107237     
  -5653685565.9926405       -17589071.266620874        734634525.26744843     
  -7190223016.2976093       -479716869.08125544        991261980.22280049     
  -6900282026.5227966       -304432663.52092099        846928978.06099057     
  -6623149847.2626419       -171844493.00943375        723674277.68132532     
  -6358826478.5171404       -81952357.546796322        621497879.08380461     
  -6107311920.2862930       -34756257.133004189        540399782.26842988     
  -7672223154.2279139       -194330640.40848827        672930721.08017468     
  -7400426764.9933491       -184624492.55095959        589559849.28047049     
  -7123336265.3650465       -157271310.04762983        509363611.67599976     
  -6840951655.3430023       -112271092.89849854        432342008.26676583     
  -6553272934.9272194       -49623841.103569746        358495039.05276680     
  -7941944608.6550961        154739193.31521559        282449164.14839768     
  -7739446155.9233742       -16478717.318839073        281160497.10392320     
  -7513550671.8895245       -109706523.61244631        265142796.66777664     
  -7264258156.5535383       -124944225.56560659        234396062.83995348     
  -6991568609.9154177       -62191823.178315639        188920295.62045878     
  -7999387379.5791559        567492632.08985662       -180182690.57253247     
  -7917340199.3128815        200004662.17543507       -78269078.468647987     
  -7793793066.8360796       -29150133.703890800       -8988167.3433459364     
  -7628745982.1487474       -119971755.54811478        27660042.803372469     
  -7422198945.2508869       -72460203.357242584        31675551.971505281     
  -5653685565.9926405       -17589071.266620874        734634525.26744843     
  -5519917146.3935575       -48992306.123011112        721500303.73479331     
  -5380736066.3307619       -62353339.433686733        710234461.68414462     
  -5236142325.8042507       -57672171.198652267        700836999.11550272     
  -5086135924.8140278       -34948801.417907238        693307916.02886927     
  -6107311920.2862930       -34756257.133004189        540399782.26842988     
  -5958919412.7716074       -36400745.610929012        534014045.50749904     
  -5809522912.5511932       -34698591.736415148        530141824.65076268     
  -5659122419.6250458       -29649795.509468555        528783119.69822019     
  -5507717933.9931698       -21254356.930081606        529937930.64987326     
  -6553272934.9272194       -49623841.103569746        358495039.05276680     
  -6388413092.5763950       -20956609.126866579        353714341.34591198     
  -6226957925.2778244       -3638293.9910018444        352092295.96544439     
  -6068907433.0315008        2331104.3040239811        353628902.91135639     
  -5914261615.8374357       -3048414.2417945862        358324162.18364847     
  -6991568609.9154177       -62191823.178315639        188920295.62045878     
  -6808398185.8079147       -2659896.6708207130        180601191.25003710     
  -6633041104.5106544        30827553.802545071        176085875.62818760     
  -6465497366.0236244        38270528.241812706        175374348.75490683     
  -6305766970.3468256        19669026.646959066        178466610.63019687     
  -7422198945.2508869       -72460203.357242584        31675551.971505281     
  -7218874692.4661779        18489391.757194996        14674595.219871351     
  -7027772450.2496843        68698951.644242287        2122563.6389947399     
  -6848892218.6014071        78168476.303900719       -5980542.7711259555     
  -6682233997.5213499        46897965.736169338       -9634724.0104855709     
  -5086135924.8140278       -34948801.417907238        693307916.02886927     
  -4934996387.5688229       -8090269.7085616589        676066007.53089571     
  -4786767167.2364922        9067205.6245334148        665853180.49828887     
  -4641448263.8170319        16523624.581389189        662669434.93104994     
  -4499039677.3104486        14278987.161988258        666514770.82917702     
  -5507717933.9931698       -21254356.930081606        529937930.64987326     
  -5344731744.9780073       -9252509.5732510090        514968375.22166896     
  -5182662583.1109114       -307419.37663698196        505511013.00171858     
  -5021510448.3918791        5580913.6597595215        501565843.99002481     
  -4861275340.8209133        8412489.5359356403        503132868.18658465     
  -5914261615.8374357       -3048414.2417945862        358324162.18364847     
  -5743762741.5012093       -7203441.1721441746        347952464.55082381     
  -5572187604.5482378       -7770926.0466833115        341576071.86913991     
  -5399536204.9785242       -4750868.8654072285        339194984.13860029     
  -5225808542.7920723        1856730.3716726303        340809201.35920620     
  -6305766970.3468256        19669026.646959066        178466610.63019687     
  -6132089377.1384268       -1943064.5052418709        175018275.51835585     
  -5955342231.5484724       -13323314.385599375        174048357.10055602     
  -5775525533.5769701       -14471722.994120598        175556855.37677899     
  -5592639283.2239141       -5388290.3307909966        179543770.34703988     
  -6682233997.5213499        46897965.736169338       -9634724.0104855709     
  -6509711651.8896675        6528620.4274487495       -3834191.8757264139     
  -6332126464.1116180       -16964584.393388987        2927868.6959585473     
  -6149478434.1872082       -23581648.726360798        10651457.704563389     
  -5961767562.1164417       -13322572.571470261        19336575.150085390     
  -4499039677.3104486        14278987.161988258        666514770.82917702     
  -4362624358.8798542        6881820.1598503590        663717636.44250572     
  -4225510514.1913009        1813074.0175702572        663906434.38928366     
  -4087698143.2447839       -927251.26483106613        667081164.66951764     
  -3949187246.0403032       -1339155.6873524189        673241827.28320312     
  -4861275340.8209133        8412489.5359356403        503132868.18658465     
  -4715279679.7971907        5634466.3949737549        500125313.15173775     
  -4569249034.5174694        2973057.4406828880        500435363.81018442     
  -4423183404.9817543        428262.67305064201        504063020.16193110     
  -4277082791.1900258       -1999917.9079041481        511008282.20696932     
  -5225808542.7920723        1856730.3716726303        340809201.35920620     
  -5069284901.0042400        3982142.5431921482        336817093.34056318     
  -4913389816.9623718        4012362.2281723022        336474264.37505692     
  -4758123290.6664658        1947389.4266097546        339780714.46268916     
  -4603485322.1165237       -2212775.8614966869        346736443.60346013     
  -5592639283.2239141       -5388290.3307909966        179543770.34703988     
  -5424640022.5009975        1924848.6044907570        173792977.00897735     
  -5257932861.5260057        4930988.3800370693        172023136.08389193     
  -5092517800.2989407        3630128.9958226681        174234247.57179433     
  -4928394838.8197937       -1977729.5481197834        180426311.47267655     
  -5961767562.1164417       -13322572.571470261        19336575.150085390     
  -5781345044.2874651       -537415.42112064362        11052964.156982314     
  -5602878168.2083645        5728935.8962855339        7081978.9367012735     
  -5426366933.8791523        5476481.3807370663        7423619.4892453896     
  -5251811341.2998314       -1294778.9677731991        12077885.814611061     
  -3949187246.0403032       -1339155.6873524189        673241827.28320312     
  -3797077766.1835790        3224928.8931365013        665132255.09944868     
  -3645075770.2503085        7430733.7287871838        662115233.27717030     
  -3493181258.2404938        11278258.819579840        664190761.81637144     
  -3341394230.1541319        14767504.165528774        671358840.71704912     
  -4277082791.1900258       -1999917.9079041481        511008282.20696932     
  -4112505794.6542859        1361146.5957453251        503274359.34164971     
  -3947801366.8175731        5146982.1026244164        500315903.57798177     
  -3782969507.6798916        9357588.6127464771        502132914.91596544     
  -3618010217.2412372        13992966.126096249        508725393.35560328     
  -4603485322.1165237       -2212775.8614966869        346736443.60346013     
  -4427346761.0726948       -326517.08596491814        339652237.81839865     
  -4250845853.5034676        2767563.4408860207        337026415.87516969     
  -4073982599.4088531        7069465.7190334797        338858977.77376491     
  -3896756998.7888360        12579189.748518944        345149923.51418447     
  -4928394838.8197937       -1977729.5481197834        180426311.47267655     
  -4741600665.4388056       -1838062.1519763470        174265890.52970922     
  -4554209230.3079977        292477.74355888367        172246770.16873801     
  -4366220533.4273767        4413890.1384706497        174368950.38976875     
  -4177634574.7969384        10526175.032785416        180632431.19280419     
  -5251811341.2998314       -1294778.9677731991        12077885.814611061     
  -5055267507.7526178       -3173488.6023116112        7115317.4755619243     
  -4857891497.2311649       -2278274.9893782139        5976966.4586884566     
  -4659683309.7354689        1390861.8710250854        8662832.7639827318     
  -4460642945.2655306        7833921.9789118767        15172916.391457638     
  -3341394230.1541319        14767504.165528774        671358840.71704912     
  -3225158472.0702219        7290501.8796042204        666421294.23588431     
  -3109013603.6658134       -489466.00465130806        664609426.84036362     
  -2992959624.9408956       -8572399.4872083664        665923238.53048551     
  -2876996535.8954759       -16958298.568102002        670362729.30625856     
  -3618010217.2412372        13992966.126096249        508725393.35560328     
  -3492791028.8934212        6900384.0171451569        503274487.82841134     
  -3367571312.9422174       -190439.41383790970        501519521.83927870     
  -3242351069.3876200       -7279504.1668540239        503460495.38820428     
  -3117130298.2296286       -14366810.241888523        509097408.47518981     
  -3896756998.7888360        12579189.748518944        345149923.51418447     
  -3760925064.5987840        6359822.4900453091        339292312.43766892     
  -3625001185.5224586        446938.18580722809        337700901.35162562     
  -3488985361.5598507       -5159463.1641516685        340375690.25606102     
  -3352877592.7109604       -10459381.559835196        347316679.15096909     
  -4177634574.7969384        10526175.032785416        180632431.19280419     
  -4029560579.1863136        5668817.2982909679        174474768.06366324     
  -3881303221.4065323        1422666.7943212986        173153565.37741593     
  -3732862501.4575772       -2212276.4790680408        176668823.13405448     
  -3584238419.3394613       -5236012.5219261646        185020541.33358821     
  -4460642945.2655306        7833921.9789118767        15172916.391457638     
  -4298697572.6560211        4827368.4418632984        8821854.7064012624     
  -4136477420.5944452        2736746.4116704464        7877513.9166418714     
  -3973982489.0808215        1562055.8883185387        12339894.022190673     
  -3811212778.1151414        1303296.8718225956        22208995.023044784     
  -2876996535.8954759       -16958298.568102002        670362729.30625856     
  -2700186374.8331594        1131687.0102458000        661627128.50861490     
  -2517864381.4182711        37594447.097156048        662560981.03917992     
  -2330030555.6508017        92429981.692657590        673164286.89795005     
  -2136684897.5307682        165638290.79673028        693437046.08492744     
  -3117130298.2296286       -14366810.241888523        509097408.47518981     
  -2921157241.3569632        2122474.7871553898        503901781.00850677     
  -2723634664.5780091        23776826.170491457        504146781.73295206     
  -2524562567.8927598        50596243.908151031        509832410.64852309     
  -2323940951.3012276        82580728.000089407        520958667.75523788     
  -3352877592.7109604       -10459381.559835196        347316679.15096909     
  -3149823997.5624428        804495.65955400467        341038327.16123945     
  -2949183194.9539204        4025731.0789760351        335971778.22557271     
  -2750955184.8853874       -795675.30156779289        332117032.34396166     
  -2555139967.3568459       -13659723.482085824        329474089.51640677     
  -3584238419.3394613       -5236012.5219261646        185020541.33358821     
  -3386186643.4495935       -2822250.3725314140        173036766.96682250     
  -3194509972.5459905       -21658838.177364469        158035970.51704830     
  -3009208406.6286707       -61745775.936477900        140018151.98425087     
  -2830281945.6976209       -123083063.64980793        118983311.36843526     
  -3811212778.1151414        1303296.8718225956        22208995.023044784     
  -3630245179.0184145       -8757763.3091309071       -102899.57474301632     
  -3459614997.3542500       -53276881.598614931       -29660641.392630190     
  -3299322233.1226363       -132254057.99659383       -66464230.430609047     
  -3149366886.3235722       -245689292.50309634       -110513666.68867446     
 </DataArray>
 <DataArray  type="Float64" Name="VM" NumberOfComponents="1" format="ascii">
   12935821732.790119     
   11340949406.033491     
   10210477965.779011     
   9273052380.7554226     
   8304227440.3155508     
   10130440346.713703     
   9322203766.1718159     
   8826618061.7972908     
   8443842958.8403625     
   8036068836.6259174     
   7982450774.5833502     
   7735136364.8667183     
   7669390440.3838940     
   7669904864.1230059     
   7666747621.2145271     
   6491766800.3084059     
   6587032732.1254520     
   6757626987.7286453     
   6961469169.3006735     
   7171898804.1061287     
   5657941546.5178709     
   5891051891.7414951     
   6116517042.7423573     
   6331878974.7983522     
   6536917019.0949411     
   8304227440.3155508     
   8021041313.3296785     
   7779949058.7299328     
   7570267316.6354303     
   7387022617.7894869     
   8036068836.6259174     
   7747230153.8651247     
   7474049843.4799747     
   7214571068.8334494     
   6968800246.6944132     
   7666747621.2145271     
   7381496129.2807751     
   7101629542.4784384     
   6827225701.0691776     
   6558487291.5335875     
   7171898804.1061287     
   6911276684.5750122     
   6658552625.8903809     
   6409865489.9660711     
   6162069005.4725752     
   6536917019.0949411     
   6328921234.9367599     
   6143120025.4479380     
   5965599621.7805433     
   5787351685.8190479     
   7387022617.7894869     
   7228718428.8914251     
   7062946838.5253420     
   6889014852.4270887     
   6706731208.0519304     
   6968800246.6944132     
   6814719786.9009199     
   6656062548.8021011     
   6492546954.0498667     
   6324120863.7224026     
   6558487291.5335875     
   6407786125.1440735     
   6255483927.0290670     
   6101549718.0812817     
   5946012812.2737055     
   6162069005.4725752     
   6012918216.1691122     
   5865116537.7564363     
   5718702593.9304667     
   5573732839.1196194     
   5787351685.8190479     
   5636578012.6290398     
   5489994567.1111851     
   5347515300.7997675     
   5209187377.3679981     
   6706731208.0519304     
   6513801087.5280857     
   6324296567.3572216     
   6138105245.3049412     
   5955203888.1494274     
   6324120863.7224026     
   6139703706.7129755     
   5957502612.7507029     
   5777494845.5564718     
   5599703394.4376631     
   5946012812.2737055     
   5772679090.4091473     
   5600707657.8255100     
   5430123198.1343365     
   5260984327.1981134     
   5573732839.1196194     
   5414545248.3492594     
   5256260862.9904222     
   5098921776.5426130     
   4942633527.4432001     
   5209187377.3679981     
   5067710856.7439127     
   4927132605.8740931     
   4787494674.2304993     
   4648984266.6760349     
   5955203888.1494274     
   5780314873.6322803     
   5604075369.6203966     
   5426453538.5129290     
   5247466008.1216297     
   5599703394.4376631     
   5434343048.8229046     
   5268487160.1890450     
   5102161814.2273798     
   4935435429.4981346     
   5260984327.1981134     
   5105149684.5438499     
   4949720924.3135233     
   4794774169.3361855     
   4640424536.9488287     
   4942633527.4432001     
   4796215470.0780325     
   4651130138.6566677     
   4507492289.5026646     
   4365455384.3603115     
   4648984266.6760349     
   4511730279.8621140     
   4376733902.6260653     
   4244133212.8388729     
   4114108271.3127575     
   5247466008.1216297     
   5052084010.4697609     
   4857816215.0219860     
   4664666359.1544333     
   4472674920.0011702     
   4935435429.4981346     
   4749486752.3274012     
   4564686578.7326803     
   4381077253.9482965     
   4198744542.0322523     
   4640424536.9488287     
   4465398377.9004335     
   4291739355.0920677     
   4119549448.0598707     
   3948988669.4760256     
   4365455384.3603115     
   4203087806.6475244     
   4042530255.0153384     
   3883969755.1342058     
   3727674300.4341221     
   4114108271.3127575     
   3966371216.2080202     
   3821144632.1006532     
   3678725335.5509968     
   3539520438.8188996     
   4472674920.0011702     
   4304947538.8378143     
   4135476808.4730387     
   3964241711.1101923     
   3791384323.0337543     
   4198744542.0322523     
   4046418047.7321563     
   3893605905.3069501     
   3740403617.3204079     
   3587035274.9682865     
   3948988669.4760256     
   3810441473.9086337     
   3672546422.7200942     
   3535466569.6210022     
   3399457610.2486072     
   3727674300.4341221     
   3601096522.5794029     
   3476094904.1949692     
   3352851541.5805902     
   3231608921.0040932     
   3539520438.8188996     
   3422898978.9877820     
   3308471094.8225460     
   3196395465.2716889     
   3086869270.3989830     
   3791384323.0337543     
   3607735979.1070180     
   3431022909.3923035     
   3261922286.2227473     
   3102339805.2796731     
   3587035274.9682865     
   3392921632.2695298     
   3202935024.9320827     
   3017473264.0362401     
   2837497225.3618765     
   3399457610.2486072     
   3203463639.3107147     
   3009882935.1419587     
   2818887496.3080883     
   2630792665.8499150     
   3231608921.0040932     
   3044254921.0359225     
   2859069544.8208137     
   2676418018.4173665     
   2496857514.3813310     
   3086869270.3989830     
   2920410298.9281349     
   2757737062.1140800     
   2600118370.5271864     
   2449635585.1972084     
   5657941546.5178709     
   5891051891.7414951     
   6116517042.7423573     
   6331878974.7983522     
   6536917019.0949411     
   5151581991.2112007     
   5311436737.9840860     
   5467922621.6747561     
   5618143017.5866060     
   5760631778.9607239     
   4643570763.8351173     
   4755599117.1643028     
   4868755911.8407955     
   4980403908.2956944     
   5088615618.6670561     
   4134170531.9725890     
   4224375695.9634519     
   4320511614.8952227     
   4420919127.6868372     
   4524141286.6155767     
   3624900155.5068893     
   3719589754.9462981     
   3825547371.8374267     
   3942708239.3113470     
   4070978877.4918761     
   6536917019.0949411     
   6328921234.9367599     
   6143120025.4479380     
   5965599621.7805433     
   5787351685.8190479     
   5760631778.9607239     
   5652282842.4894123     
   5559938913.6834774     
   5474538332.7711830     
   5390541234.9304800     
   5088615618.6670561     
   5054139372.4073563     
   5030174825.6799574     
   5011517977.5892878     
   4994967967.0980959     
   4524141286.6155767     
   4539088060.6477079     
   4558695645.9389839     
   4580487628.9306965     
   4602741421.8834848     
   4070978877.4918761     
   4112459315.5303888     
   4151266409.1242652     
   4186506149.1518364     
   4217449931.7673264     
   5787351685.8190479     
   5636578012.6290398     
   5489994567.1111851     
   5347515300.7997675     
   5209187377.3679981     
   5390541234.9304800     
   5249140821.6051044     
   5110957804.7969589     
   4976034577.5035477     
   4844465408.9673004     
   4994967967.0980959     
   4867455274.0094776     
   4743139453.5816545     
   4621988604.9390326     
   4504044630.4959669     
   4602741421.8834848     
   4494185212.0995426     
   4389876048.9096212     
   4289495628.6453772     
   4192957412.9190302     
   4217449931.7673264     
   4133290165.4394336     
   4055679655.4667072     
   3983764261.5662050     
   3917255996.1254921     
   5209187377.3679981     
   5067710856.7439127     
   4927132605.8740931     
   4787494674.2304993     
   4648984266.6760349     
   4844465408.9673004     
   4720201308.4754391     
   4597723341.0723705     
   4477162221.3439598     
   4358762700.7165804     
   4504044630.4959669     
   4395438637.0588350     
   4289417726.0519009     
   4186166897.9818649     
   4085953959.2689943     
   4192957412.9190302     
   4098334582.3755426     
   4006944221.2967701     
   3918991445.4155188     
   3834736185.4435091     
   3917255996.1254921     
   3834791168.7446427     
   3755983917.7227678     
   3681028502.2995100     
   3610153591.6861615     
   4648984266.6760349     
   4511730279.8621140     
   4376733902.6260653     
   4244133212.8388729     
   4114108271.3127575     
   4358762700.7165804     
   4232006083.3197494     
   4107874100.7531300     
   3986561945.2959175     
   3868317266.7178583     
   4085953959.2689943     
   3971285778.8552771     
   3859827882.2060061     
   3751836275.3865938     
   3647634056.3079987     
   3834736185.4435091     
   3733795582.3764286     
   3636884963.1174965     
   3544318596.2735939     
   3456494904.2435789     
   3610153591.6861615     
   3524518659.8094573     
   3443966751.0682497     
   3368855891.6517415     
   3299645205.4774866     
   4114108271.3127575     
   3966371216.2080202     
   3821144632.1006532     
   3678725335.5509968     
   3539520438.8188996     
   3868317266.7178583     
   3735321999.8418880     
   3605664898.4652219     
   3479705863.4220724     
   3357911584.7703180     
   3647634056.3079987     
   3529286225.2834759     
   3415099969.2831783     
   3305477070.2748065     
   3200916046.1520505     
   3456494904.2435789     
   3352576077.9414449     
   3253592836.4476824     
   3159960299.3381677     
   3072174071.2704024     
   3299645205.4774866     
   3209724431.3956242     
   3125407594.3266306     
   3047090006.1946316     
   2975227188.2809777     
   3539520438.8188996     
   3422898978.9877820     
   3308471094.8225460     
   3196395465.2716889     
   3086869270.3989830     
   3357911584.7703180     
   3250367217.7626266     
   3145587413.4790964     
   3043806759.2097955     
   2945308923.0015798     
   3200916046.1520505     
   3104124386.1663256     
   3010856459.1587257     
   2921425678.4093785     
   2836204196.1016860     
   3072174071.2704024     
   2987744305.7104001     
   2907758118.1629295     
   2832596858.4693880     
   2762705912.9661832     
   2975227188.2809777     
   2904526759.5735517     
   2839296181.0340981     
   2779957801.4301276     
   2726997133.1331553     
   3086869270.3989830     
   2920410298.9281349     
   2757737062.1140800     
   2600118370.5271864     
   2449635585.1972084     
   2945308923.0015798     
   2804542458.5083518     
   2669335052.5788651     
   2540832810.3851008     
   2420620060.2587795     
   2836204196.1016860     
   2716446656.9485846     
   2603165178.6189938     
   2497229083.5751410     
   2399694629.2538652     
   2762705912.9661832     
   2658336733.3716569     
   2560405128.4697390     
   2469487274.6410990     
   2386259207.3967924     
   2726997133.1331553     
   2631670382.8379540     
   2541822788.7449303     
   2457844850.5507307     
   2380312014.7334824     
   3624900155.5068893     
   3719589754.9462981     
   3825547371.8374267     
   3942708239.3113470     
   4070978877.4918761     
   3137768803.7425733     
   3255337290.9715919     
   3382330344.9816780     
   3518279083.4851217     
   3662725863.5065403     
   2694478344.6648998     
   2830288338.3604026     
   2973406880.5294032     
   3122752420.4456611     
   3277414786.8857398     
   2298522905.0482821     
   2449240416.8717194     
   2604663303.8248138     
   2762869537.9714293     
   2922430817.9488249     
   1955119380.5207033     
   2119156142.9587362     
   2284517150.8767619     
   2448241760.4233761     
   2608373937.7173557     
   4070978877.4918761     
   4112459315.5303888     
   4151266409.1242652     
   4186506149.1518364     
   4217449931.7673264     
   3662725863.5065403     
   3702064647.5061221     
   3740007428.5234075     
   3775656061.0744448     
   3808261550.6935282     
   3277414786.8857398     
   3320527731.9622116     
   3363879072.8829918     
   3406644065.8763862     
   3448143245.1237741     
   2922430817.9488249     
   2975235660.2674870     
   3030274865.3628030     
   3086863180.8476419     
   3144466115.2953010     
   2608373937.7173557     
   2676248002.6520638     
   2748661257.7401032     
   2825101932.5544686     
   2905216686.4450264     
   4217449931.7673264     
   4133290165.4394336     
   4055679655.4667072     
   3983764261.5662050     
   3917255996.1254921     
   3808261550.6935282     
   3755734668.7138777     
   3709236476.0618343     
   3668293846.1063061     
   3632814347.4864330     
   3448143245.1237741     
   3422484664.5082664     
   3401938298.9231606     
   3386277030.1804600     
   3375484237.3871007     
   3144466115.2953010     
   3141178007.6563625     
   3141472183.7516866     
   3145251129.6733036     
   3152498467.8287630     
   2905216686.4450264     
   2920146010.2388439     
   2936327788.4474211     
   2953711806.1861467     
   2972259957.2985125     
   3917255996.1254921     
   3834791168.7446427     
   3755983917.7227678     
   3681028502.2995100     
   3610153591.6861615     
   3632814347.4864330     
   3561442523.7209549     
   3494497936.7539415     
   3432205353.3697391     
   3374831841.5764847     
   3375484237.3871007     
   3316795818.8731375     
   3263538105.7828870     
   3215946930.1543894     
   3174311309.0992966     
   3152498467.8287630     
   3107762648.6760840     
   3069682469.0538812     
   3038471762.8830309     
   3014411067.7746873     
   2972259957.2985125     
   2942097620.8228831     
   2920002879.3614497     
   2906122570.0888109     
   2900687641.0749168     
   3610153591.6861615     
   3524518659.8094573     
   3443966751.0682497     
   3368855891.6517415     
   3299645205.4774866     
   3374831841.5764847     
   3305492894.1806283     
   3241788563.9774351     
   3184057958.6765919     
   3132710675.6293845     
   3174311309.0992966     
   3120022626.4268575     
   3071751740.2269859     
   3029787825.3731208     
   2994461913.7593856     
   3014411067.7746873     
   2973576444.2154016     
   2938918744.4001851     
   2910655113.1579938     
   2889022250.0864415     
   2900687641.0749168     
   2871290979.6710820     
   2847966863.0013027     
   2830852974.0859761     
   2820093714.0857368     
   3299645205.4774866     
   3209724431.3956242     
   3125407594.3266306     
   3047090006.1946316     
   2975227188.2809777     
   3132710675.6293845     
   3055888870.8968034     
   2985527390.3165164     
   2922031094.9645739     
   2865857124.1343546     
   2994461913.7593856     
   2931161732.1911635     
   2875213843.9013305     
   2827000226.0775394     
   2786943469.5238514     
   2889022250.0864415     
   2839140404.8138814     
   2797494751.6458063     
   2764410451.8561106     
   2740241117.5456576     
   2820093714.0857368     
   2782836329.2915072     
   2754658934.4527187     
   2735803692.8362646     
   2726532365.6638713     
   2975227188.2809777     
   2904526759.5735517     
   2839296181.0340981     
   2779957801.4301276     
   2726997133.1331553     
   2865857124.1343546     
   2809940853.8219080     
   2760184287.0428209     
   2716979882.6594901     
   2680763670.7966175     
   2786943469.5238514     
   2745438624.8114681     
   2710659190.2970376     
   2682937904.8285818     
   2662632462.5343399     
   2740241117.5456576     
   2712249937.2029099     
   2691401355.0620689     
   2677950349.6537633     
   2672162942.6285834     
   2726532365.6638713     
   2710617083.5187073     
   2702119297.7672648     
   2701213409.7286139     
   2708077010.1037235     
   2726997133.1331553     
   2631670382.8379540     
   2541822788.7449303     
   2457844850.5507307     
   2380312014.7334824     
   2680763670.7966175     
   2594993131.3747058     
   2516953649.5671158     
   2447144330.8383551     
   2386123669.5441260     
   2662632462.5343399     
   2591932131.1484199     
   2531585545.8831525     
   2482214383.0808353     
   2444450504.5773749     
   2672162942.6285834     
   2621023714.4173617     
   2583053872.6327357     
   2558992375.2465467     
   2549608292.3920798     
   2708077010.1037235     
   2679744044.3482728     
   2667513272.8903165     
   2672247203.6593490     
   2694917267.3351321     
   1955119380.5207033     
   2119156142.9587362     
   2284517150.8767619     
   2448241760.4233761     
   2608373937.7173557     
   1653723879.5492480     
   1820095574.8004999     
   1988141790.9841671     
   2155165530.1242056     
   2319409371.9138803     
   1393632602.6669319     
   1570908833.7714374     
   1749180527.5130074     
   1926442584.9559085     
   2101443739.8810582     
   1207165278.6786280     
   1399026882.6021688     
   1590469427.0425086     
   1780714187.2090251     
   1969301124.5453084     
   1137004952.8626556     
   1335294642.7383156     
   1533905595.8106523     
   1732837822.2143590     
   1932091336.4744923     
   2608373937.7173557     
   2676248002.6520638     
   2748661257.7401032     
   2825101932.5544686     
   2905216686.4450264     
   2319409371.9138803     
   2406481375.8922405     
   2496004918.8471127     
   2587590085.2059178     
   2680961846.5033255     
   2101443739.8810582     
   2205243088.2465348     
   2308936081.8027401     
   2412287872.0912266     
   2515132451.7720218     
   1969301124.5453084     
   2086476417.3717835     
   2200753376.6035852     
   2312058463.3813429     
   2420340196.0688610     
   1932091336.4744923     
   2058720678.2481210     
   2179847685.4111867     
   2295472357.4125814     
   2405594725.2104239     
   2905216686.4450264     
   2920146010.2388439     
   2936327788.4474211     
   2953711806.1861467     
   2972259957.2985125     
   2680961846.5033255     
   2702369251.4593358     
   2726056511.4887042     
   2752007530.9276953     
   2780214335.9188657     
   2515132451.7720218     
   2543096575.6570354     
   2574409806.8103571     
   2609073143.8941193     
   2647091962.8905864     
   2420340196.0688610     
   2453497328.1730447     
   2491087028.6690021     
   2533111675.4372153     
   2579575456.4367085     
   2405594725.2104239     
   2441020701.4206400     
   2481964545.7186761     
   2528426580.5644660     
   2580407494.8205261     
   2972259957.2985125     
   2942097620.8228831     
   2920002879.3614497     
   2906122570.0888109     
   2900687641.0749168     
   2780214335.9188657     
   2765113981.6080627     
   2757464219.1757755     
   2757348719.1627226     
   2764888301.5285044     
   2647091962.8905864     
   2643112955.4701195     
   2645594568.0931954     
   2654569526.7420888     
   2670080189.9784718     
   2579575456.4367085     
   2582588083.7829223     
   2590718037.7687159     
   2603972461.8583913     
   2622358694.8693500     
   2580407494.8205261     
   2586562518.2310762     
   2596204881.3154535     
   2609338362.8918734     
   2625972412.7591453     
   2900687641.0749168     
   2871290979.6710820     
   2847966863.0013027     
   2830852974.0859761     
   2820093714.0857368     
   2764888301.5285044     
   2741589570.8160257     
   2725133557.7254004     
   2715622142.5013294     
   2713161233.3661785     
   2670080189.9784718     
   2651525257.8100419     
   2640617081.3818536     
   2637411865.6079378     
   2641968286.0241485     
   2622358694.8693500     
   2606408558.1833305     
   2598922417.4478278     
   2599914030.6838098     
   2609399437.6118612     
   2625972412.7591453     
   2609792640.4129863     
   2602885798.8344526     
   2605243231.2606540     
   2616859374.5052056     
   2820093714.0857368     
   2782836329.2915072     
   2754658934.4527187     
   2735803692.8362646     
   2726532365.6638713     
   2713161233.3661785     
   2686117467.0181484     
   2667927516.8357196     
   2658727697.5979843     
   2658662109.1630025     
   2641968286.0241485     
   2622171191.4536915     
   2610883019.1483812     
   2608161585.0737505     
   2614066749.9206448     
   2609399437.6118612     
   2593643204.5541797     
   2585953858.9387784     
   2586344324.5233135     
   2594827639.3331761     
   2616859374.5052056     
   2601925794.8179841     
   2594539312.0281596     
   2594701030.8837495     
   2602412438.2093859     
   2726532365.6638713     
   2710617083.5187073     
   2702119297.7672648     
   2701213409.7286139     
   2708077010.1037235     
   2658662109.1630025     
   2648363439.5358272     
   2645047183.9483428     
   2648788826.2354927     
   2659662473.0665860     
   2614066749.9206448     
   2606103783.2721252     
   2604632536.9200048     
   2609676605.7171521     
   2621260787.0805655     
   2594827639.3331761     
   2585890940.3434229     
   2582913638.8712916     
   2585914643.7197433     
   2594922705.2394176     
   2602412438.2093859     
   2589356561.8376222     
   2581685566.4020615     
   2579457202.7032156     
   2582754153.6400342     
   2708077010.1037235     
   2679744044.3482728     
   2667513272.8903165     
   2672247203.6593490     
   2694917267.3351321     
   2659662473.0665860     
   2642267863.0446563     
   2638083009.2593298     
   2647394749.5620971     
   2670518466.5949950     
   2621260787.0805655     
   2607174519.3105292     
   2603694262.5736318     
   2610868210.0637674     
   2628742781.1794252     
   2594922705.2394176     
   2577011648.4714589     
   2567381625.3448873     
   2566158358.9611554     
   2573493589.6556668     
   2582754153.6400342     
   2554716350.3119783     
   2532871945.9239340     
   2517740970.5702639     
   2509982421.0128021     
   1137004952.8626556     
   1335294642.7383156     
   1533905595.8106523     
   1732837822.2143590     
   1932091336.4744923     
   1207318497.2359140     
   1399296302.6430314     
   1590864913.7783842     
   1781249273.7114308     
   1969992096.5007408     
   1393938001.6103277     
   1571372088.4179466     
   1749829185.3693752     
   1927306099.2870448     
   2102552746.3629925     
   1654157604.0408852     
   1820656346.8106208     
   1988874172.7845278     
   2156113135.7715564     
   2320613310.9686856     
   1955660086.1887488     
   2119733878.9442289     
   2285186537.5296793     
   2449054547.7944736     
   2609375338.9892025     
   1932091336.4744923     
   2058720678.2481210     
   2179847685.4111867     
   2295472357.4125814     
   2405594725.2104239     
   1969992096.5007408     
   2087096607.7295899     
   2201302522.0572343     
   2312534045.6271868     
   2420738870.9860492     
   2102552746.3629925     
   2206309783.7533479     
   2309962816.4988866     
   2413276496.2042103     
   2516084630.2337027     
   2320613310.9686856     
   2407750511.7216439     
   2497349331.7865181     
   2589024417.1406226     
   2682502547.8117743     
   2609375338.9892025     
   2677469957.1309357     
   2750127972.8711815     
   2826850217.5042415     
   2907288907.0433888     
   2405594725.2104239     
   2441020701.4206400     
   2481964545.7186761     
   2528426580.5644660     
   2580407494.8205261     
   2420738870.9860492     
   2454778695.4637294     
   2493358189.2162781     
   2536482246.4812593     
   2584155879.4802332     
   2516084630.2337027     
   2545351408.2341723     
   2578155623.1044488     
   2614500669.8505144     
   2654393651.9739027     
   2682502547.8117743     
   2705129101.7874565     
   2730274059.3068752     
   2757920848.2625413     
   2788063624.8050423     
   2907288907.0433888     
   2922885285.3231230     
   2939986976.0668335     
   2958536706.5958638     
   2978496641.4348226     
   2580407494.8205261     
   2586562518.2310762     
   2596204881.3154535     
   2609338362.8918734     
   2625972412.7591453     
   2584155879.4802332     
   2585636245.0281696     
   2592336008.6963835     
   2604261435.0512490     
   2621427541.1178503     
   2654393651.9739027     
   2648541723.9547076     
   2649468773.3947973     
   2657205610.8716111     
   2671798105.2714577     
   2788063624.8050423     
   2771715918.3364897     
   2763463640.7858033     
   2763395799.8116565     
   2771629006.9693503     
   2978496641.4348226     
   2948351684.8594465     
   2927348216.3874722     
   2915667326.9937730     
   2913539697.1193676     
   2625972412.7591453     
   2609792640.4129863     
   2602885798.8344526     
   2605243231.2606540     
   2616859374.5052056     
   2621427541.1178503     
   2607915991.6716743     
   2602788726.2068381     
   2606060678.0494609     
   2617747255.8721952     
   2671798105.2714577     
   2657470770.9939485     
   2650549547.7886195     
   2651093013.1373768     
   2659160453.2353888     
   2771629006.9693503     
   2753797197.6987848     
   2742335563.7740016     
   2737347807.3746681     
   2738941190.3841348     
   2913539697.1193676     
   2890454020.2637630     
   2872672201.7187147     
   2860329771.6430583     
   2853570511.5575233     
   2616859374.5052056     
   2601925794.8179841     
   2594539312.0281596     
   2594701030.8837495     
   2602412438.2093859     
   2617747255.8721952     
   2602115419.9238582     
   2594636881.9981151     
   2595326299.8709636     
   2604199329.7874675     
   2659160453.2353888     
   2640010198.5749693     
   2629571306.9973087     
   2627901793.3894644     
   2635062117.8073006     
   2738941190.3841348     
   2713400136.3073597     
   2697070226.4665623     
   2690085515.9940681     
   2692585904.9884858     
   2853570511.5575233     
   2818914924.5156121     
   2793900162.0229254     
   2778766592.7790523     
   2773767616.3330445     
   2602412438.2093859     
   2589356561.8376222     
   2581685566.4020615     
   2579457202.7032156     
   2582754153.6400342     
   2604199329.7874675     
   2591771169.3021841     
   2585625755.2551398     
   2585791533.3534698     
   2592303445.6698527     
   2635062117.8073006     
   2622936800.3105068     
   2618114662.4248252     
   2620624429.9342561     
   2630495374.6438966     
   2692585904.9884858     
   2680019088.7523494     
   2675917055.3656874     
   2680348033.6137276     
   2693385217.8000989     
   2773767616.3330445     
   2759676307.5331564     
   2755379435.5362420     
   2761032441.2840562     
   2776807477.6188216     
   2582754153.6400342     
   2554716350.3119783     
   2532871945.9239340     
   2517740970.5702639     
   2509982421.0128021     
   2592303445.6698527     
   2565799705.8819990     
   2547558642.7476034     
   2537725472.6168866     
   2536475158.5817809     
   2630495374.6438966     
   2607973392.3811769     
   2596432981.6301599     
   2595922957.9651256     
   2606491618.1452632     
   2693385217.8000989     
   2676302648.9948950     
   2673683109.7385468     
   2685758999.0056577     
   2712778477.3380823     
   2776807477.6188216     
   2765831925.8747067     
   2773727072.0807524     
   2801163402.8511877     
   2848840810.0056834     
   1955660086.1887488     
   2119733878.9442289     
   2285186537.5296793     
   2449054547.7944736     
   2609375338.9892025     
   2299102890.2933388     
   2449775559.7183399     
   2605180352.6129212     
   2763392812.6157761     
   2922980795.2289410     
   2694995165.8468146     
   2830725946.8208046     
   2973769866.5032911     
   3123044064.7974448     
   3277636871.1072788     
   3138138737.8837166     
   3255641017.8445773     
   3382555278.4601631     
   3518413186.1911697     
   3662757624.6197424     
   3625050766.6095476     
   3719734202.2319622     
   3825659311.7494502     
   3942764687.8120012     
   4070959472.1451221     
   2609375338.9892025     
   2677469957.1309357     
   2750127972.8711815     
   2826850217.5042415     
   2907288907.0433888     
   2922980795.2289410     
   2976035031.5010962     
   3031354350.0381660     
   3088262792.2726741     
   3146231444.8059521     
   3277636871.1072788     
   3320949109.9435835     
   3364529243.3819566     
   3407556105.2818217     
   3449352825.1490889     
   3662757624.6197424     
   3702185266.0742059     
   3740239845.9669962     
   3776019567.4892912     
   3808772818.7933059     
   4070959472.1451221     
   4112371291.7087679     
   4151124028.2155709     
   4186312364.2279019     
   4217198919.3874221     
   2907288907.0433888     
   2922885285.3231230     
   2939986976.0668335     
   2958536706.5958638     
   2978496641.4348226     
   3146231444.8059521     
   3142756058.2472138     
   3142967064.9125400     
   3146763107.5624313     
   3154135099.3775158     
   3449352825.1490889     
   3422992525.5945740     
   3401743306.1356602     
   3385376025.6283355     
   3373879646.1475391     
   3808772818.7933059     
   3755391178.0631886     
   3707971517.5188012     
   3666041555.0113893     
   3629507202.0386720     
   4217198919.3874221     
   4132386939.7474990     
   4054023842.4369044     
   3981263905.3015547     
   3913810077.9538474     
   2978496641.4348226     
   2948351684.8594465     
   2927348216.3874722     
   2915667326.9937730     
   2913539697.1193676     
   3154135099.3775158     
   3109435050.0749669     
   3072064644.1161280     
   3042269104.4136767     
   3020344001.9968705     
   3373879646.1475391     
   3314875233.8211560     
   3261550940.8365955     
   3214161656.8876257     
   3173009834.7179251     
   3629507202.0386720     
   3557439488.0349984     
   3489615387.7549529     
   3426258569.0316839     
   3367632532.5496101     
   3913810077.9538474     
   3830509100.3768077     
   3750259936.8545218     
   3673233532.0050774     
   3599629751.3998241     
   2913539697.1193676     
   2890454020.2637630     
   2872672201.7187147     
   2860329771.6430583     
   2853570511.5575233     
   3020344001.9968705     
   2982946341.2079172     
   2951282167.5125175     
   2925560311.2703867     
   2906011945.0577798     
   3173009834.7179251     
   3119834880.0218472     
   3072563081.0685277     
   3031472022.7879877     
   2996883146.7158799     
   3367632532.5496101     
   3297446959.4948354     
   3233099292.5606842     
   3174918330.2996168     
   3123303600.6109810     
   3599629751.3998241     
   3511374101.0923042     
   3428702468.4607210     
   3351969032.1225386     
   3281627417.4451389     
   2853570511.5575233     
   2818914924.5156121     
   2793900162.0229254     
   2778766592.7790523     
   2773767616.3330445     
   2906011945.0577798     
   2857862962.9627681     
   2818321653.1082120     
   2787720729.1255336     
   2766417615.3508935     
   2996883146.7158799     
   2934180928.2901664     
   2878965741.4898543     
   2831631462.5459075     
   2792612021.6023331     
   3123303600.6109810     
   3045885971.9203992     
   2974783497.2583752     
   2910407298.5777750     
   2853222194.7600470     
   3281627417.4451389     
   3190062112.9532104     
   3103651377.0424027     
   3022780512.7180820     
   2947895459.0909581     
   2773767616.3330445     
   2759676307.5331564     
   2755379435.5362420     
   2761032441.2840562     
   2776807477.6188216     
   2766417615.3508935     
   2740431925.1060176     
   2723070087.9914436     
   2714560530.7454739     
   2715136545.7618322     
   2792612021.6023331     
   2752105063.0651088     
   2718866874.5615458     
   2693206505.0472550     
   2675443676.1462188     
   2853222194.7600470     
   2796739132.3553123     
   2745964643.8777599     
   2701268289.3668003     
   2663052446.7238374     
   2947895459.0909581     
   2875225374.5323052     
   2806559100.9412489     
   2742288719.7612271     
   2682870610.9923592     
   2776807477.6188216     
   2765831925.8747067     
   2773727072.0807524     
   2801163402.8511877     
   2848840810.0056834     
   2715136545.7618322     
   2685301396.2364511     
   2670309880.9710331     
   2670710698.0570631     
   2687008223.0898933     
   2675443676.1462188     
   2621396949.0260534     
   2577917159.1554303     
   2545624626.1892385     
   2525122712.9812126     
   2663052446.7238374     
   2582022836.1027207     
   2506880887.9431872     
   2438466434.5229578     
   2377775339.1738882     
   2682870610.9923592     
   2575527759.3265238     
   2469312740.4639339     
   2365453165.0799870     
   2265686732.9433427     
   3625050766.6095476     
   3719734202.2319622     
   3825659311.7494502     
   3942764687.8120012     
   4070959472.1451221     
   4134108658.6336093     
   4224350596.7882905     
   4320504788.9747410     
   4420917208.2524223     
   4524135746.2394695     
   4643375207.0632000     
   4755449164.6099005     
   4868640879.6432905     
   4980318135.3973942     
   5088557912.5830669     
   5151328373.8739996     
   5311203792.4046230     
   5467707933.0859270     
   5617947505.1802807     
   5760458297.5199089     
   5657703159.9269629     
   5890775582.2134562     
   6116209447.2168636     
   6331547121.4737835     
   6536565880.2398024     
   4070959472.1451221     
   4112371291.7087679     
   4151124028.2155709     
   4186312364.2279019     
   4217198919.3874221     
   4524135746.2394695     
   4538905736.9460402     
   4558333275.2856236     
   4579934904.8074350     
   4601986445.9049721     
   5088557912.5830669     
   5053864168.1990089     
   5029671962.2788582     
   5010773446.4724798     
   4993967680.9356518     
   5760458297.5199089     
   5651915610.2418690     
   5559367633.6079559     
   5473753068.8112516     
   5389531203.6867914     
   6536565880.2398024     
   6328461755.7004709     
   6142544683.4921341     
   5964908313.5716133     
   5786543910.9495249     
   4217198919.3874221     
   4132386939.7474990     
   4054023842.4369044     
   3981263905.3015547     
   3913810077.9538474     
   4601986445.9049721     
   4493197832.4814625     
   4388615137.2173300     
   4287923679.3900290     
   4191032554.2345157     
   4993967680.9356518     
   4866493829.0456953     
   4742217764.4932690     
   4621108570.9180088     
   4503207073.5791178     
   5389531203.6867914     
   5248283999.6921091     
   5110281352.6257572     
   4975565676.7231464     
   4844232198.2161608     
   5786543910.9495249     
   5635879713.3515253     
   5489444476.7932100     
   5347153479.8210993     
   5209056854.1021385     
   3913810077.9538474     
   3830509100.3768077     
   3750259936.8545218     
   3673233532.0050774     
   3599629751.3998241     
   4191032554.2345157     
   4096279307.5685649     
   4004378309.3717580     
   3915516158.6291943     
   3829931859.4187679     
   4503207073.5791178     
   4394996806.2409487     
   4289192199.2566414     
   4185966515.0475092     
   4085575654.6621871     
   4844232198.2161608     
   4720600788.6203051     
   4598748513.2237368     
   4478802639.4620209     
   4361006168.2560806     
   5209056854.1021385     
   5068088898.7478676     
   4928154431.8002319     
   4789300669.6656885     
   4651723278.1499462     
   3599629751.3998241     
   3511374101.0923042     
   3428702468.4607210     
   3351969032.1225386     
   3281627417.4451389     
   3829931859.4187679     
   3727290770.2041769     
   3628969532.3101130     
   3535283478.0374517     
   3446633436.2710347     
   4085575654.6621871     
   3969926247.3496375     
   3857586456.1088691     
   3748815574.6480188     
   3643941434.1646786     
   4361006168.2560806     
   4233931987.6140227     
   4109408455.0691123     
   3987634597.1219902     
   3868861220.1390901     
   4651723278.1499462     
   4514878155.0754881     
   4380059225.2814751     
   4247408443.6958394     
   4117105390.3288984     
   3281627417.4451389     
   3190062112.9532104     
   3103651377.0424027     
   3022780512.7180820     
   2947895459.0909581     
   3446633436.2710347     
   3341438041.3492351     
   3240881288.7860022     
   3145357924.8786488     
   3055341692.9255657     
   3643941434.1646786     
   3524828807.2685142     
   3409764263.9513321     
   3299128175.0404019     
   3193394105.1361351     
   3868861220.1390901     
   3735619518.4236035     
   3605802270.7194510     
   3479756462.3457589     
   3357931319.6206203     
   4117105390.3288984     
   3969541285.6816001     
   3824775538.5842786     
   3683108416.6265616     
   3544946489.4023294     
   2947895459.0909581     
   2875225374.5323052     
   2806559100.9412489     
   2742288719.7612271     
   2682870610.9923592     
   3055341692.9255657     
   2970841193.9480853     
   2889815968.4534035     
   2812628314.3922439     
   2739706397.5773630     
   3193394105.1361351     
   3097734367.3123980     
   3005043746.7346330     
   2915640763.4093723     
   2829908184.1090641     
   3357931319.6206203     
   3251791408.1739559     
   3148168767.8224878     
   3047332331.0406494     
   2949611248.8860269     
   3544946489.4023294     
   3428930645.1895065     
   3315050699.7064610     
   3203526999.3945775     
   3094635075.6977134     
   2682870610.9923592     
   2575527759.3265238     
   2469312740.4639339     
   2365453165.0799870     
   2265686732.9433427     
   2739706397.5773630     
   2620404979.8944373     
   2504595268.6903954     
   2392999989.2203569     
   2286557954.0107822     
   2829908184.1090641     
   2699168844.5545721     
   2574459438.9106712     
   2456387055.3882270     
   2345728930.8519711     
   2949611248.8860269     
   2805663331.6737046     
   2670357468.4967241     
   2544646959.3650112     
   2429868483.3117337     
   3094635075.6977134     
   2933822570.7993040     
   2784362272.7186918     
   2648093813.4531226     
   2527714390.4644928     
   5657703159.9269629     
   5890775582.2134562     
   6116209447.2168636     
   6331547121.4737835     
   6536565880.2398024     
   6491565513.2607718     
   6586731279.9078693     
   6757230596.4920712     
   6960983073.4096508     
   7171329372.2648401     
   7982257391.7597980     
   7734813134.5246382     
   7668938995.4581594     
   7669328317.8022738     
   7666050596.8376570     
   10130225303.158291     
   9321859581.7591095     
   8826142792.1919918     
   8443239286.1244755     
   8035340134.5540686     
   12935555806.250080     
   11340582566.398170     
   10210006472.220659     
   9272482132.9423199     
   8303567735.6866407     
   6536565880.2398024     
   6328461755.7004709     
   6142544683.4921341     
   5964908313.5716133     
   5786543910.9495249     
   7171329372.2648401     
   6910699395.6784449     
   6657973113.6418114     
   6409293907.5041409     
   6161517293.6230011     
   7666050596.8376570     
   7380843103.5202904     
   7101035928.2828627     
   6826707996.2867937     
   6558064210.5350466     
   8035340134.5540686     
   7746542188.5218515     
   7473425975.0164194     
   7214031817.0702705     
   6968368079.0835018     
   8303567735.6866407     
   8020359143.7274303     
   7779274538.8278303     
   7569624803.6527281     
   7386439171.9421377     
   5786543910.9495249     
   5635879713.3515253     
   5489444476.7932100     
   5347153479.8210993     
   5209056854.1021385     
   6161517293.6230011     
   6012374695.1537285     
   5864582616.2423487     
   5718180533.2819815     
   5573226015.1821957     
   6558064210.5350466     
   6407317929.5682554     
   6254939623.3214245     
   6100897501.5085287     
   5945221547.5684204     
   6968368079.0835018     
   6814252245.6053495     
   6655500264.4814310     
   6491827732.5833073     
   6323184581.1129827     
   7386439171.9421377     
   7228181812.6418152     
   7062373487.2917280     
   6888316899.1038589     
   6705826741.0959444     
   5209056854.1021385     
   5068088898.7478676     
   4928154431.8002319     
   4789300669.6656885     
   4651723278.1499462     
   5573226015.1821957     
   5414089779.0401974     
   5255951145.7758045     
   5098855541.5634623     
   4942913329.8428993     
   5945221547.5684204     
   5771715534.9140368     
   5599647905.7526569     
   5429044208.9726391     
   5259965211.4816809     
   6323184581.1129827     
   6138607582.3266449     
   5956325394.1145973     
   5776312270.1692572     
   5598590565.3271236     
   6705826741.0959444     
   6512981801.9999208     
   6323663272.0347795     
   6137749312.8229485     
   5955211632.1805735     
   4651723278.1499462     
   4514878155.0754881     
   4380059225.2814751     
   4247408443.6958394     
   4117105390.3288984     
   4942913329.8428993     
   4796961358.7545128     
   4652196994.7977562     
   4508734244.4135714     
   4366723689.6041594     
   5259965211.4816809     
   5104722239.5714941     
   4949825722.5840044     
   4795347720.6827583     
   4641397850.8729544     
   5598590565.3271236     
   5433946695.1849899     
   5268831461.9893723     
   5103264635.4865255     
   4937306302.8575735     
   5955211632.1805735     
   5781108053.8241901     
   5605758252.1573086     
   5429122472.4445801     
   5251205740.7959118     
   4117105390.3288984     
   3969541285.6816001     
   3824775538.5842786     
   3683108416.6265616     
   3544946489.4023294     
   4366723689.6041594     
   4204540251.8420200     
   4044308271.6788969     
   3886226669.3560128     
   3730579714.6169062     
   4641397850.8729544     
   4466099503.2574501     
   4292111721.5451193     
   4119546249.0924621     
   3948579086.0031772     
   4937306302.8575735     
   4750281117.3703823     
   4564116634.4984932     
   4378856795.9324694     
   4194591777.4263582     
   5251205740.7959118     
   5053696537.7216825     
   4856763793.8335714     
   4660403050.3149710     
   4464642408.5771055     
   3544946489.4023294     
   3428930645.1895065     
   3315050699.7064610     
   3203526999.3945775     
   3094635075.6977134     
   3730579714.6169062     
   3603275456.6513228     
   3477709124.9944034     
   3354058459.7573071     
   3232563223.7950454     
   3948579086.0031772     
   3809707918.5308399     
   3672108337.5313807     
   3535903139.6996303     
   3401281398.4070249     
   4194591777.4263582     
   4043705945.4923663     
   3893582539.6801405     
   3744281619.2490764     
   3595931471.4545188     
   4464642408.5771055     
   4301140429.8173733     
   4137868967.9934144     
   3974821211.7326965     
   3812058682.4867005     
   3094635075.6977134     
   2933822570.7993040     
   2784362272.7186918     
   2648093813.4531226     
   2527714390.4644928     
   3232563223.7950454     
   3049772980.2292132     
   2871585353.7933331     
   2698795431.9274445     
   2532514098.2603617     
   3401281398.4070249     
   3205128282.0421901     
   3008022847.2614722     
   2810066078.3635550     
   2611452443.0679998     
   3595931471.4545188     
   3398019489.5004125     
   3195481153.0264769     
   2988671463.3770061     
   2778445004.8512249     
   3812058682.4867005     
   3625874234.1589332     
   3433670939.1530156     
   3237270773.6062570     
   3040024523.3490324     
 </DataArray>
 <DataArray  type="Float64" Name="strain" NumberOfComponents="3" format="ascii">
  0.20348977902701432        0.0000000000000000       0.12540457816270612     
  0.18666010620389051       -2.7325431070586555E-002   7.4350211042275072E-002
  0.16983043338076675       -4.4677313206478268E-002   3.5130461549817193E-002
  0.15300076055764295       -5.2055646407675127E-002   7.7453296853324388E-003
  0.13617108773451916       -4.9460430674177130E-002  -7.8051845511791784E-003
  0.15985865047957251        0.0000000000000000        9.6447187822628108E-002
  0.15318181394137786       -2.1845286302235561E-002   6.2688502667328616E-002
  0.14650497740318325       -3.6175994924498134E-002   3.7400872453914290E-002
  0.13982814086498863       -4.2992125866787738E-002   2.0584297182385119E-002
  0.13315130432679395       -4.2293679129104395E-002   1.2238776852741121E-002
  0.12646092193297237        0.0000000000000000        7.4199427878262031E-002
  0.12657335899361888       -1.6365141533884558E-002   5.5277453433372231E-002
  0.12668579605426539       -2.7674676642518017E-002   4.1462971244279577E-002
  0.12679823311491190       -3.3928605325900384E-002   3.2755981310984145E-002
  0.12691067017555846       -3.5126927584031631E-002   2.9156483633485830E-002
  0.10329659338721384        0.0000000000000000        5.8661298329607890E-002
  0.10683474136061354       -1.0884996765533559E-002   5.2117063340405882E-002
  0.11037288933401324       -1.9173358360537893E-002   4.7316757920913069E-002
  0.11391103730741294       -2.4865084785013009E-002   4.4260382071129437E-002
  0.11744918528081263       -2.7960176038958888E-002   4.2947935791055006E-002
   9.0365664842296939E-002   0.0000000000000000        4.9832799176665693E-002
   9.3965961042361837E-002  -5.4048519971825601E-003   5.3207332388429611E-002
   9.7566257242426721E-002  -1.0672040078557772E-002   5.4962232483814724E-002
  0.10116655344249162       -1.5801564244125644E-002   5.5097499462821060E-002
  0.10476684964255653       -2.0793424493886149E-002   5.3613133325448564E-002
  0.13617108773451916       -4.9460430674177130E-002  -7.8051845511791784E-003
  0.13296634257722237       -4.2926434477111183E-002  -3.3892409138110424E-003
  0.12976159741992560       -3.8488426287604252E-002  -3.8893428950779324E-004
  0.12655685226262883       -3.6146406105656240E-002   1.1957353217305761E-003
  0.12335210710533207       -3.5900373931267243E-002   1.3647679199042806E-003
  0.13315130432679395       -4.2293679129104395E-002   1.2238776852741121E-002
  0.12891928008493453       -3.8428532861708310E-002   1.2183644361047789E-002
  0.12468725584307513       -3.5744565214859830E-002   1.1489590713293890E-002
  0.12045523160121573       -3.4241776188558892E-002   1.0156615909479531E-002
  0.11622320735935632       -3.3920165782805628E-002   8.1847199496047629E-003
  0.12691067017555846       -3.5126927584031631E-002   2.9156483633485830E-002
  0.12242808270614070       -3.3930631246305430E-002   2.5545084399742440E-002
  0.11794549523672299       -3.3000704142115429E-002   2.2071479866942859E-002
  0.11346290776730521       -3.2337146271461593E-002   1.8735670035087200E-002
  0.10898032029788747       -3.1939957634343971E-002   1.5537654904175184E-002
  0.11744918528081263       -2.7960176038958888E-002   4.2947935791055006E-002
  0.11349275044084087       -2.9432729630902568E-002   3.6695079202272947E-002
  0.10953631560086911       -3.0256843069371032E-002   3.1356733171439048E-002
  0.10557988076089736       -3.0432516354364277E-002   2.6932897698553272E-002
  0.10162344592092558       -2.9959749485882307E-002   2.3423572783615655E-002
  0.10476684964255653       -2.0793424493886149E-002   5.3613133325448564E-002
  0.10211328328903505       -2.4934828015499691E-002   4.5633628768639307E-002
   9.9459716935513573E-002  -2.7512981996626631E-002   3.9345350626782433E-002
   9.6806150581992101E-002  -2.8527886437266951E-002   3.4748298899878134E-002
   9.4152584228470643E-002  -2.7979541337420685E-002   3.1842473587926204E-002
  0.12335210710533207       -3.5900373931267243E-002   1.3647679199042806E-003
  0.12041804146346446       -3.6396522397058789E-002   6.3307073418511495E-004
  0.11748397582159689       -3.6281044135652564E-002   9.6066176492271005E-005
  0.11454991017972931       -3.5553939147048581E-002  -2.4624575317435532E-004
  0.11161584453786172       -3.4215207431246619E-002  -3.9386505481436851E-004
  0.11622320735935632       -3.3920165782805628E-002   8.1847199496047629E-003
  0.11346926546659376       -3.3993844257108455E-002   7.8255803632877319E-003
  0.11071532357383126       -3.3676921870976179E-002   7.6319956471544298E-003
  0.10796138168106872       -3.2969398624408862E-002   7.6039658012050579E-003
  0.10520743978830621       -3.1871274517406373E-002   7.7414908254394565E-003
  0.10898032029788747       -3.1939957634343971E-002   1.5537654904175184E-002
  0.10637736439638748       -3.1591166117158190E-002   1.5330047050497717E-002
  0.10377440849488745       -3.1072799606299929E-002   1.5258856309161423E-002
  0.10117145259338740       -3.0384858101769194E-002   1.5324082680166285E-002
   9.8568496691887400E-002  -2.9527341603566071E-002   1.5525726163512499E-002
  0.10162344592092558       -2.9959749485882307E-002   2.3423572783615655E-002
   9.9142338252845574E-002  -2.9188487977207862E-002   2.3146470795814979E-002
   9.6661230584765542E-002  -2.8468677341623623E-002   2.2976648162512922E-002
   9.4180122916685483E-002  -2.7800317579129614E-002   2.2914104883709509E-002
   9.1699015248605506E-002  -2.7183408689725796E-002   2.2958840959404932E-002
   9.4152584228470643E-002  -2.7979541337420685E-002   3.1842473587926204E-002
   9.1764187035968059E-002  -2.6785809837257563E-002   3.1274851599239567E-002
   8.9375789843465489E-002  -2.5864555076947311E-002   3.0785371207209110E-002
   8.6987392650962891E-002  -2.5215777056489964E-002   3.0374032411834801E-002
   8.4598995458460308E-002  -2.4839475775885522E-002   3.0040835213116679E-002
  0.11161584453786172       -3.4215207431246619E-002  -3.9386505481436851E-004
  0.10853358751284209       -3.2694947613299052E-002  -1.5004059091486277E-004
  0.10545133048782238       -3.1423258318257791E-002   1.4343844939029848E-004
  0.10236907346280268       -3.0400139546122813E-002   4.8657206610080994E-004
   9.9286816437783032E-002  -2.9625591296894238E-002   8.7936025921664385E-004
  0.10520743978830621       -3.1871274517406373E-002   7.7414908254394565E-003
  0.10220558594218482       -3.0652186574015861E-002   7.5869036896860642E-003
   9.9203732096063452E-002  -2.9581771818284107E-002   7.5434683353240300E-003
   9.6201878249942127E-002  -2.8660030250211431E-002   7.6111847623530071E-003
   9.3200024403820747E-002  -2.7886961869797555E-002   7.7900529707733979E-003
   9.8568496691887400E-002  -2.9527341603566071E-002   1.5525726163512499E-002
   9.5708543229650181E-002  -2.8609425534732447E-002   1.5072624763353644E-002
   9.2848589767412948E-002  -2.7740285318310368E-002   1.4792172349571857E-002
   8.9988636305175701E-002  -2.6919920954299823E-002   1.4684368922166909E-002
   8.7128682842938426E-002  -2.6148332442700761E-002   1.4749214481139250E-002
   9.1699015248605506E-002  -2.7183408689725796E-002   2.2958840959404932E-002
   8.9042459375238137E-002  -2.6566664495449172E-002   2.2307122630087960E-002
   8.6385903501870795E-002  -2.5898798818336601E-002   2.1889550492133730E-002
   8.3729347628503439E-002  -2.5179811658388326E-002   2.1706124545542403E-002
   8.1072791755136139E-002  -2.4409703015604023E-002   2.1756844790313701E-002
   8.4598995458460308E-002  -2.4839475775885522E-002   3.0040835213116679E-002
   8.2207334378948657E-002  -2.4523903456165910E-002   2.9290397289888900E-002
   7.9815673299437034E-002  -2.4057312318362944E-002   2.8835602763009741E-002
   7.7424012219925398E-002  -2.3439702362476847E-002   2.8676451632479352E-002
   7.5032351140413761E-002  -2.2671073588507340E-002   2.8812943898297444E-002
   9.9286816437783032E-002  -2.9625591296894238E-002   8.7936025921664385E-004
   9.6332978089203325E-002  -2.8922121413237079E-002   5.5737198672228816E-004
   9.3379139740623562E-002  -2.8112237737815904E-002   4.2143906908803652E-004
   9.0425301392043855E-002  -2.7195940270631158E-002   4.7156150631373628E-004
   8.7471463043464093E-002  -2.6173229011682841E-002   7.0773929839973437E-004
   9.3200024403820747E-002  -2.7886961869797555E-002   7.7900529707733979E-003
   9.0426244672404038E-002  -2.7154442296556336E-002   7.5645131162005719E-003
   8.7652464940987301E-002  -2.6354347150001456E-002   7.5130351410935964E-003
   8.4878685209570523E-002  -2.5486676430133207E-002   7.6356190454524159E-003
   8.2104905478153856E-002  -2.4551430136951269E-002   7.9322648292771136E-003
   8.7128682842938426E-002  -2.6148332442700761E-002   1.4749214481139250E-002
   8.4522968253290462E-002  -2.5386763179875677E-002   1.4581284826037738E-002
   8.1917253663642470E-002  -2.4596456562187174E-002   1.4575423575007879E-002
   7.9311539073994464E-002  -2.3777412589635033E-002   1.4731630728049595E-002
   7.6705824484346485E-002  -2.2929631262219530E-002   1.5049906285162951E-002
   8.1072791755136139E-002  -2.4409703015604023E-002   2.1756844790313701E-002
   7.8623148831862624E-002  -2.3619084063195198E-002   2.1607687116233634E-002
   7.6173505908589095E-002  -2.2838565974372810E-002   2.1608604370830939E-002
   7.3723862985315608E-002  -2.2068148749137081E-002   2.1759596554105354E-002
   7.1274220062042037E-002  -2.1307832387487874E-002   2.2060663666057356E-002
   7.5032351140413761E-002  -2.2671073588507340E-002   2.8812943898297444E-002
   7.2726786408120470E-002  -2.1851404946514497E-002   2.8643719986788385E-002
   7.0421221675827192E-002  -2.1080675386558445E-002   2.8612577528562583E-002
   6.8115656943533914E-002  -2.0358884908638908E-002   2.8719516523619870E-002
   6.5810092211240651E-002  -1.9686033512756274E-002   2.8964536971960164E-002
   8.7471463043464093E-002  -2.6173229011682841E-002   7.0773929839973437E-004
   8.4229084827124434E-002  -2.5138732425276644E-002   5.4902916849863814E-004
   8.0986706610784720E-002  -2.4187078975720255E-002   5.3071116280756225E-004
   7.7744328394445089E-002  -2.3318268663013036E-002   6.5278528132603486E-004
   7.4501950178105347E-002  -2.2532301487154904E-002   9.1525152405425025E-004
   8.2104905478153856E-002  -2.4551430136951269E-002   7.9322648292771136E-003
   7.9013090911826178E-002  -2.3610056057906725E-002   7.6821212274622019E-003
   7.5921276345498528E-002  -2.2724001980451186E-002   7.5927128014619538E-003
   7.2829461779170879E-002  -2.1893267904584783E-002   7.6640395512758419E-003
   6.9737647212843201E-002  -2.1117853830306954E-002   7.8961014769037274E-003
   7.6705824484346485E-002  -2.2929631262219530E-002   1.5049906285162951E-002
   7.3784916619635460E-002  -2.2081379690536418E-002   1.4735852346694528E-002
   7.0864008754924449E-002  -2.1260924985182006E-002   1.4602876635645093E-002
   6.7943100890213409E-002  -2.0468267146156308E-002   1.4650979152014465E-002
   6.5022193025502356E-002  -1.9703406173459170E-002   1.4880159895802908E-002
   7.1274220062042037E-002  -2.1307832387487874E-002   2.2060663666057356E-002
   6.8544561950552210E-002  -2.0552703323166138E-002   2.1710222526195568E-002
   6.5814903839062369E-002  -1.9797847989912881E-002   2.1561202665357458E-002
   6.3085245727572570E-002  -1.9043266387727832E-002   2.1613604083542640E-002
   6.0355587616082708E-002  -1.8288958516611414E-002   2.1867426780751438E-002
   6.5810092211240651E-002  -1.9686033512756274E-002   2.8964536971960164E-002
   6.3292026904576554E-002  -1.9024026955796025E-002   2.8605231765965522E-002
   6.0773961597912443E-002  -1.8334770994643715E-002   2.8467690890598835E-002
   5.8255896291248312E-002  -1.7618265629299596E-002   2.8551914345860366E-002
   5.5737830984584236E-002  -1.6874510859763492E-002   2.8857902131749602E-002
   7.4501950178105347E-002  -2.2532301487154904E-002   9.1525152405425025E-004
   7.1702591719722708E-002  -2.1718741646509498E-002   4.2345580064417909E-004
   6.8903233261340180E-002  -2.0767153339441208E-002   2.3660791264407122E-004
   6.6103874802957624E-002  -1.9677536565949304E-002   3.5470786005548094E-004
   6.3304516344575013E-002  -1.8449891326034917E-002   7.7775564287652088E-004
   6.9737647212843201E-002  -2.1117853830306954E-002   7.8961014769037274E-003
   6.7218037964939581E-002  -2.0322673142080916E-002   7.5443967544375767E-003
   6.4698428717035877E-002  -1.9432639224369053E-002   7.4472426175190842E-003
   6.2178819469132215E-002  -1.8447752077171406E-002   7.6046390661473340E-003
   5.9659210221228554E-002  -1.7368011700488184E-002   8.0165861003236305E-003
   6.5022193025502356E-002  -1.9703406173459170E-002   1.4880159895802908E-002
   6.2731935738214450E-002  -1.8926604637652306E-002   1.4625370937343424E-002
   6.0441678450926503E-002  -1.8098125109297022E-002   1.4574735314568099E-002
   5.8151421163638521E-002  -1.7217967588393512E-002   1.4728253027476899E-002
   5.5861163876350622E-002  -1.6286132074941340E-002   1.5085924076069956E-002
   6.0355587616082708E-002  -1.8288958516611414E-002   2.1867426780751438E-002
   5.8244285039547303E-002  -1.7530536133223598E-002   2.1666378349361221E-002
   5.6132982463011960E-002  -1.6763610994224819E-002   2.1619086003792098E-002
   5.4021679886476583E-002  -1.5988183099615173E-002   2.1725549744043886E-002
   5.1910377309941150E-002  -1.5204252449394662E-002   2.1985769570116540E-002
   5.5737830984584236E-002  -1.6874510859763492E-002   2.8857902131749602E-002
   5.3755085868938235E-002  -1.6134467628794891E-002   2.8667418990491189E-002
   5.1772340753292262E-002  -1.5429096879152837E-002   2.8580294685190688E-002
   4.9789595637646275E-002  -1.4758398610837165E-002   2.8596529215847863E-002
   4.7806850522000344E-002  -1.4122372823848039E-002   2.8716122582462977E-002
   6.3304516344575013E-002  -1.8449891326034917E-002   7.7775564287652088E-004
   6.0264465866161854E-002  -1.7429208609952118E-002   1.0629356987317262E-003
   5.7224415387748750E-002  -1.6960479407956586E-002   1.0674212095889701E-003
   5.4184364909335592E-002  -1.7043703720048445E-002   7.9121217544747546E-004
   5.1144314430922488E-002  -1.7678881546227210E-002   2.3430859630835243E-004
   5.9659210221228554E-002  -1.7368011700488184E-002   8.0165861003236305E-003
   5.6420398674679462E-002  -1.6418107819548444E-002   7.7777195439791558E-003
   5.3181587128130481E-002  -1.5822730159582354E-002   7.4220253963614424E-003
   4.9942775581581500E-002  -1.5581878720589637E-002   6.9495036574699909E-003
   4.6703964035032408E-002  -1.5695553502570458E-002   6.3601543273050787E-003
   5.5861163876350622E-002  -1.6286132074941340E-002   1.5085924076069956E-002
   5.2587458215390320E-002  -1.5407007029145325E-002   1.4520438200640140E-002
   4.9313752554430018E-002  -1.4684980911208206E-002   1.4001991687661197E-002
   4.6040046893469674E-002  -1.4120053721130933E-002   1.3530584537133558E-002
   4.2766341232509442E-002  -1.3712225458913263E-002   1.3106216749056876E-002
   5.1910377309941150E-002  -1.5204252449394662E-002   2.1985769570116540E-002
   4.8765644488294249E-002  -1.4395906238741485E-002   2.1291091668715068E-002
   4.5620911666647286E-002  -1.3547231662834128E-002   2.0807320083489046E-002
   4.2476178845000268E-002  -1.2658228721672399E-002   2.0534454814438576E-002
   3.9331446023353353E-002  -1.1728897415256401E-002   2.0472495861564022E-002
   4.7806850522000344E-002  -1.4122372823848039E-002   2.8716122582462977E-002
   4.4954957493391290E-002  -1.3384805448337977E-002   2.8089679948203494E-002
   4.2103064464782292E-002  -1.2409482414460063E-002   2.7838010583843803E-002
   3.9251171436173196E-002  -1.1196403722213703E-002   2.7961114489385083E-002
   3.6399278407564295E-002  -9.7455693715995384E-003   2.8458991664826350E-002
   9.0365664842296939E-002   0.0000000000000000        4.9832799176665693E-002
   9.3965961042361837E-002  -5.4048519971825601E-003   5.3207332388429611E-002
   9.7566257242426721E-002  -1.0672040078557772E-002   5.4962232483814724E-002
  0.10116655344249162       -1.5801564244125644E-002   5.5097499462821060E-002
  0.10476684964255653       -2.0793424493886149E-002   5.3613133325448564E-002
   8.2429160818679917E-002   0.0000000000000000        4.4780733360768564E-002
   8.4639091201934913E-002  -4.5748873206238848E-003   4.8264375227847295E-002
   8.6849021585189909E-002  -9.0386539290794980E-003   5.0586918577685033E-002
   8.9058951968444905E-002  -1.3391299825366843E-002   5.1748363410281772E-002
   9.1268882351699915E-002  -1.7632825009485917E-002   5.1748709725637561E-002
   7.4248105836820968E-002   0.0000000000000000        4.0571903823249655E-002
   7.5526205002403896E-002  -3.7449226440652073E-003   4.4138111142004111E-002
   7.6804304167986809E-002  -7.4052677796012222E-003   4.7001754542655393E-002
   7.8082403333569736E-002  -1.0981035406608048E-002   4.9162834025203495E-002
   7.9360502499152663E-002  -1.4472225525085676E-002   5.0621349589648423E-002
   6.5822499896720107E-002   0.0000000000000000        3.7206310564108960E-002
   6.6627302443768757E-002  -2.9149579675065308E-003   4.0828540130900051E-002
   6.7432104990817435E-002  -5.7718816301229490E-003   4.4206740378725802E-002
   6.8236907537866084E-002  -8.5707709878492487E-003   4.7340911307586199E-002
   6.9041710084914748E-002  -1.1311626040685436E-002   5.0231052917481207E-002
   5.7152342998377334E-002   0.0000000000000000        3.4683953583346479E-002
   5.7942383526029546E-002  -2.0849932909478555E-003   3.8335662194535151E-002
   5.8732424053681759E-002  -4.1384954806446723E-003   4.2201876085896275E-002
   5.9522464581333978E-002  -6.1605065690904549E-003   4.6282595257429865E-002
   6.0312505108986197E-002  -8.1510265562851989E-003   5.0577819709135906E-002
  0.10476684964255653       -2.0793424493886149E-002   5.3613133325448564E-002
  0.10211328328903505       -2.4934828015499691E-002   4.5633628768639307E-002
   9.9459716935513573E-002  -2.7512981996626631E-002   3.9345350626782433E-002
   9.6806150581992101E-002  -2.8527886437266951E-002   3.4748298899878134E-002
   9.4152584228470643E-002  -2.7979541337420685E-002   3.1842473587926204E-002
   9.1268882351699915E-002  -1.7632825009485917E-002   5.1748709725637561E-002
   9.0068347921545819E-002  -2.1208439893313738E-002   4.6512572830002957E-002
   8.8867813491391709E-002  -2.3563354888727288E-002   4.2491273366150724E-002
   8.7667279061237627E-002  -2.4697569995726625E-002   3.9684811334080763E-002
   8.6466744631083559E-002  -2.4611085214311684E-002   3.8093186733793083E-002
   7.9360502499152663E-002  -1.4472225525085676E-002   5.0621349589648423E-002
   7.9136611009195792E-002  -1.7482051771127764E-002   4.7786030703116204E-002
   7.8912719519238922E-002  -1.9613727780827962E-002   4.5689160265196115E-002
   7.8688828029282051E-002  -2.0867253554186255E-002   4.4330738275888189E-002
   7.8464936539325181E-002  -2.1242629091202662E-002   4.3710764735192392E-002
   6.9041710084914748E-002  -1.1311626040685436E-002   5.0231052917481207E-002
   6.9318072551984952E-002  -1.3755663648941803E-002   4.9454002387978958E-002
   6.9594435019055143E-002  -1.5664100672928626E-002   4.8939011323918716E-002
   6.9870797486125333E-002  -1.7036937112645902E-002   4.8686079725300466E-002
   7.0147159953195565E-002  -1.7874172968093658E-002   4.8695207592124215E-002
   6.0312505108986197E-002  -8.1510265562851989E-003   5.0577819709135906E-002
   6.0612732549913305E-002  -1.0029275526755834E-002   5.1516487884591303E-002
   6.0912959990840433E-002  -1.1714473565029289E-002   5.2240826542318528E-002
   6.1213187431767527E-002  -1.3206620671105548E-002   5.2750835682317629E-002
   6.1513414872694655E-002  -1.4505716844984640E-002   5.3046515304588523E-002
   9.4152584228470643E-002  -2.7979541337420685E-002   3.1842473587926204E-002
   9.1764187035968059E-002  -2.6785809837257563E-002   3.1274851599239567E-002
   8.9375789843465489E-002  -2.5864555076947311E-002   3.0785371207209110E-002
   8.6987392650962891E-002  -2.5215777056489964E-002   3.0374032411834801E-002
   8.4598995458460308E-002  -2.4839475775885522E-002   3.0040835213116679E-002
   8.6466744631083559E-002  -2.4611085214311684E-002   3.8093186733793083E-002
   8.4203738526081609E-002  -2.3967574390093196E-002   3.7067283470249499E-002
   8.1940732421079687E-002  -2.3430711368682022E-002   3.6214020785051190E-002
   7.9677726316077752E-002  -2.3000496150078029E-002   3.5533398678197881E-002
   7.7414720211075802E-002  -2.2676928734281260E-002   3.5025417149689847E-002
   7.8464936539325181E-002  -2.1242629091202662E-002   4.3710764735192392E-002
   7.6421820503512858E-002  -2.1149338942928905E-002   4.2392409133837725E-002
   7.4378704467700521E-002  -2.0996867660416703E-002   4.1341193092517124E-002
   7.2335588431888170E-002  -2.0785215243666080E-002   4.0557116611230619E-002
   7.0292472396075875E-002  -2.0514381692676997E-002   4.0040179689978223E-002
   7.0147159953195565E-002  -1.7874172968093658E-002   4.8695207592124215E-002
   6.8418432968261778E-002  -1.8331103495764590E-002   4.7250228590004030E-002
   6.6689705983328018E-002  -1.8563023952151422E-002   4.6166888129606863E-002
   6.4960978998394259E-002  -1.8569934337254127E-002   4.5445186210932749E-002
   6.3232252013460485E-002  -1.8351834651072735E-002   4.5085122833981611E-002
   6.1513414872694655E-002  -1.4505716844984640E-002   5.3046515304588523E-002
   6.0193575920328396E-002  -1.5512868048600244E-002   5.1640741838748450E-002
   5.8873736967962151E-002  -1.6129180243886088E-002   5.0691105896320414E-002
   5.7553898015595892E-002  -1.6354653430842182E-002   5.0197607477304382E-002
   5.6234059063229647E-002  -1.6189287609468458E-002   5.0160246581700305E-002
   8.4598995458460308E-002  -2.4839475775885522E-002   3.0040835213116679E-002
   8.2207334378948657E-002  -2.4523903456165910E-002   2.9290397289888900E-002
   7.9815673299437034E-002  -2.4057312318362944E-002   2.8835602763009741E-002
   7.7424012219925398E-002  -2.3439702362476847E-002   2.8676451632479352E-002
   7.5032351140413761E-002  -2.2671073588507340E-002   2.8812943898297444E-002
   7.7414720211075802E-002  -2.2676928734281260E-002   3.5025417149689847E-002
   7.5300374571403733E-002  -2.2352037842760575E-002   3.4448835488506857E-002
   7.3186028931731623E-002  -2.1917852196984763E-002   3.4131241310654252E-002
   7.1071683292059540E-002  -2.1374371796953919E-002   3.4072634616132288E-002
   6.8957337652387443E-002  -2.0721596642667928E-002   3.4273015404940654E-002
   7.0292472396075875E-002  -2.0514381692676997E-002   4.0040179689978223E-002
   6.8418786283225216E-002  -2.0180172229355260E-002   3.9595730227011725E-002
   6.6545100170374599E-002  -1.9778392075606555E-002   3.9373612334357495E-002
   6.4671414057523968E-002  -1.9309041231431019E-002   3.9373826012015854E-002
   6.2797727944673365E-002  -1.8772119696828515E-002   3.9596371259986510E-002
   6.3232252013460485E-002  -1.8351834651072735E-002   4.5085122833981611E-002
   6.1562569514413190E-002  -1.8008306615949907E-002   4.4731081505403489E-002
   5.9892887015365916E-002  -1.7638931954228415E-002   4.4562715834119561E-002
   5.8223204516318634E-002  -1.7243710665908078E-002   4.4580025820130056E-002
   5.6553522017271353E-002  -1.6822642750989131E-002   4.4783011463434698E-002
   5.6234059063229647E-002  -1.6189287609468458E-002   5.0160246581700305E-002
   5.4731724264967613E-002  -1.5836441002544582E-002   4.9854889323682289E-002
   5.3229389466705593E-002  -1.5499471832850154E-002   4.9698551809940421E-002
   5.1727054668443573E-002  -1.5178380100385244E-002   4.9691234040474777E-002
   5.0224719870181539E-002  -1.4873165805149718E-002   4.9832936015285406E-002
   7.5032351140413761E-002  -2.2671073588507340E-002   2.8812943898297444E-002
   7.2726786408120470E-002  -2.1851404946514497E-002   2.8643719986788385E-002
   7.0421221675827192E-002  -2.1080675386558445E-002   2.8612577528562583E-002
   6.8115656943533914E-002  -2.0358884908638908E-002   2.8719516523619870E-002
   6.5810092211240651E-002  -1.9686033512756274E-002   2.8964536971960164E-002
   6.8957337652387443E-002  -2.0721596642667928E-002   3.4273015404940654E-002
   6.6802110350426533E-002  -2.0024373912155793E-002   3.3996781908873480E-002
   6.4646883048465636E-002  -1.9347550783446466E-002   3.3883141820187826E-002
   6.2491655746504726E-002  -1.8691127256539833E-002   3.3932095138883817E-002
   6.0336428444543788E-002  -1.8055103331436007E-002   3.4143641864961466E-002
   6.2797727944673365E-002  -1.8772119696828515E-002   3.9596371259986510E-002
   6.0817350027143308E-002  -1.8197342877796979E-002   3.9241667659594887E-002
   5.8836972109613236E-002  -1.7614426180334375E-002   3.9074069420683241E-002
   5.6856594192083144E-002  -1.7023369604440619E-002   3.9093576543251969E-002
   5.4876216274553129E-002  -1.6424173150115712E-002   3.9300189027300675E-002
   5.6553522017271353E-002  -1.6822642750989131E-002   4.4783011463434698E-002
   5.4772505438270669E-002  -1.6370311843438276E-002   4.4378377238952521E-002
   5.2991488859270013E-002  -1.5881301577222312E-002   4.4185360330049016E-002
   5.1210472280269342E-002  -1.5355611952341419E-002   4.4203960736724168E-002
   4.9429455701268679E-002  -1.4793242968795431E-002   4.4434178458977791E-002
   5.0224719870181539E-002  -1.4873165805149718E-002   4.9832936015285406E-002
   4.8667576583808783E-002  -1.4543280809079434E-002   4.9406910646946522E-002
   4.7110433297435972E-002  -1.4148176974110284E-002   4.9217014548284907E-002
   4.5553290011063174E-002  -1.3687854300242228E-002   4.9263247719300456E-002
   4.3996146724690405E-002  -1.3162312787475150E-002   4.9545610159993148E-002
   6.5810092211240651E-002  -1.9686033512756274E-002   2.8964536971960164E-002
   6.3292026904576554E-002  -1.9024026955796025E-002   2.8605231765965522E-002
   6.0773961597912443E-002  -1.8334770994643715E-002   2.8467690890598835E-002
   5.8255896291248312E-002  -1.7618265629299596E-002   2.8551914345860366E-002
   5.5737830984584236E-002  -1.6874510859763492E-002   2.8857902131749602E-002
   6.0336428444543788E-002  -1.8055103331436007E-002   3.4143641864961466E-002
   5.8034771827015136E-002  -1.7421882509743192E-002   3.3813454013766647E-002
   5.5733115209486470E-002  -1.6773868293069705E-002   3.3694319210214818E-002
   5.3431458591957817E-002  -1.6111060681415559E-002   3.3786237454305909E-002
   5.1129801974429151E-002  -1.5433459674780547E-002   3.4089208746039878E-002
   5.4876216274553129E-002  -1.6424173150115712E-002   3.9300189027300675E-002
   5.2780257063174775E-002  -1.5819738063690553E-002   3.8986662521694582E-002
   5.0684297851796428E-002  -1.5212965591495688E-002   3.8873477780746367E-002
   4.8588338640418061E-002  -1.4603855733531410E-002   3.8960634804455857E-002
   4.6492379429039721E-002  -1.3992408489797464E-002   3.9248133592823170E-002
   4.9429455701268679E-002  -1.4793242968795431E-002   4.4434178458977791E-002
   4.7528482613055492E-002  -1.4217593617637844E-002   4.4124857289749589E-002
   4.5627509524842305E-002  -1.3652062889921730E-002   4.4005166602193800E-002
   4.3726536436629132E-002  -1.3096650785647316E-002   4.4075106396310501E-002
   4.1825563348415931E-002  -1.2551357304814395E-002   4.4334676672100046E-002
   4.3996146724690405E-002  -1.3162312787475150E-002   4.9545610159993148E-002
   4.2279448476657239E-002  -1.2615449171585053E-002   4.9228038317931100E-002
   4.0562750228624087E-002  -1.2091160188347660E-002   4.9089385674556757E-002
   3.8846051980590969E-002  -1.1589445837763196E-002   4.9129652229869675E-002
   3.7129353732557796E-002  -1.1110306119831381E-002   4.9348837983870020E-002
   5.5737830984584236E-002  -1.6874510859763492E-002   2.8857902131749602E-002
   5.3755085868938235E-002  -1.6134467628794891E-002   2.8667418990491189E-002
   5.1772340753292262E-002  -1.5429096879152837E-002   2.8580294685190688E-002
   4.9789595637646275E-002  -1.4758398610837165E-002   2.8596529215847863E-002
   4.7806850522000344E-002  -1.4122372823848039E-002   2.8716122582462977E-002
   5.1129801974429151E-002  -1.5433459674780547E-002   3.4089208746039878E-002
   4.9260010745685937E-002  -1.4756560072802322E-002   3.3853492777681543E-002
   4.7390219516942833E-002  -1.4095856675118590E-002   3.3740325747171340E-002
   4.5520428288199702E-002  -1.3451349481729075E-002   3.3749707654508576E-002
   4.3650637059456543E-002  -1.2823038492633942E-002   3.3881638499694000E-002
   4.6492379429039721E-002  -1.3992408489797464E-002   3.9248133592823170E-002
   4.4754732189089402E-002  -1.3378652516809864E-002   3.8985661074397243E-002
   4.3017084949139063E-002  -1.2762616471084454E-002   3.8864927595709448E-002
   4.1279437709188724E-002  -1.2144300352621096E-002   3.8885933156759381E-002
   3.9541790469238336E-002  -1.1523704161419929E-002   3.9048677757546960E-002
   4.1825563348415931E-002  -1.2551357304814395E-002   4.4334676672100046E-002
   4.0239250199148410E-002  -1.2000744960817461E-002   4.4063923880638803E-002
   3.8652937049880917E-002  -1.1429376267050290E-002   4.3954100230805412E-002
   3.7066623900613396E-002  -1.0837251223513172E-002   4.4005205722599895E-002
   3.5480310751345903E-002  -1.0224369830206040E-002   4.4217240356022050E-002
   3.7129353732557796E-002  -1.1110306119831381E-002   4.9348837983870020E-002
   3.5713564775863099E-002  -1.0622837404824836E-002   4.9088281196405625E-002
   3.4297775819168416E-002  -1.0096136063016126E-002   4.9007843652459249E-002
   3.2881986862473699E-002  -9.5302020944051241E-003   4.9107525352030390E-002
   3.1466197905779009E-002  -8.9250354989918734E-003   4.9387326295119494E-002
   4.7806850522000344E-002  -1.4122372823848039E-002   2.8716122582462977E-002
   4.4954957493391290E-002  -1.3384805448337977E-002   2.8089679948203494E-002
   4.2103064464782292E-002  -1.2409482414460063E-002   2.7838010583843803E-002
   3.9251171436173196E-002  -1.1196403722213703E-002   2.7961114489385083E-002
   3.6399278407564295E-002  -9.7455693715995384E-003   2.8458991664826350E-002
   4.3650637059456543E-002  -1.2823038492633942E-002   3.3881638499694000E-002
   4.1134028685424984E-002  -1.2138029302287162E-002   3.3446748255020253E-002
   3.8617420311393438E-002  -1.1323427505142439E-002   3.3307654049601121E-002
   3.6100811937361955E-002  -1.0379233101200053E-002   3.3464355883437158E-002
   3.3584203563330361E-002  -9.3054460904598013E-003   3.3916853756527088E-002
   3.9541790469238336E-002  -1.1523704161419929E-002   3.9048677757546960E-002
   3.7281489519138844E-002  -1.0891253156236125E-002   3.8697176850888790E-002
   3.5021188569039248E-002  -1.0237372595824808E-002   3.8562494752839731E-002
   3.2760887618939666E-002  -9.5620624801861249E-003   3.8644631463399998E-002
   3.0500586668840146E-002  -8.8653228093198422E-003   3.8943586982569556E-002
   3.5480310751345903E-002  -1.0224369830206040E-002   4.4217240356022050E-002
   3.3397339994532760E-002  -9.6444770101851429E-003   4.3840965735809048E-002
   3.1314369237719665E-002  -9.1513176865071245E-003   4.3602532693559556E-002
   2.9231398480906487E-002  -8.7448918591723906E-003   4.3501941229274317E-002
   2.7148427724093323E-002  -8.4251995281799941E-003   4.3539191342951922E-002
   3.1466197905779009E-002  -8.9250354989918734E-003   4.9387326295119494E-002
   2.9481580111606814E-002  -8.3977008641341611E-003   4.8878114909781278E-002
   2.7496962317434620E-002  -8.0652627771894830E-003   4.8427767871761368E-002
   2.5512344523262440E-002  -7.9277212381583632E-003   4.8036285181059443E-002
   2.3527726729090259E-002  -7.9850762470401460E-003   4.7703666837675796E-002
   5.7152342998377334E-002   0.0000000000000000        3.4683953583346479E-002
   5.7942383526029546E-002  -2.0849932909478555E-003   3.8335662194535151E-002
   5.8732424053681759E-002  -4.1384954806446723E-003   4.2201876085896275E-002
   5.9522464581333978E-002  -6.1605065690904549E-003   4.6282595257429865E-002
   6.0312505108986197E-002  -8.1510265562851989E-003   5.0577819709135906E-002
   4.8650367671816283E-002   0.0000000000000000        3.2782186007066359E-002
   4.9589450754431212E-002  -1.7096580849185576E-003   3.6958229771544462E-002
   5.0528533837046141E-002  -3.4330397177005038E-003   4.1217853365775547E-002
   5.1467616919661070E-002  -5.1701448983458315E-003   4.5561056789759580E-002
   5.2406700002275992E-002  -6.9209736268545478E-003   4.9987840043496594E-002
   4.0729306447060597E-002   0.0000000000000000        3.1278360961372750E-002
   4.1686506634218745E-002  -1.3343228788892610E-003   3.5933525230025874E-002
   4.2643706821376894E-002  -2.7275839547563300E-003   4.0541343878012469E-002
   4.3600907008535049E-002  -4.1797832276012099E-003   4.5101816905332548E-002
   4.4558107195693190E-002  -5.6909206974238959E-003   4.9614944311986077E-002
   3.3389159324110268E-002   0.0000000000000000        3.0172478446265645E-002
   3.4233551165392138E-002  -9.5898767285996513E-004   3.5261548569979366E-002
   3.5077943006674023E-002  -2.0221281918121588E-003   4.0172347622607067E-002
   3.5922334847955900E-002  -3.1894215568565847E-003   4.4904875604148749E-002
   3.6766726689237778E-002  -4.4608677679932405E-003   4.9459132514604397E-002
   2.6629926302965304E-002   0.0000000000000000        2.9464538461745050E-002
   2.7230584347951413E-002  -5.8365246683066748E-004   3.4942299791404938E-002
   2.7831242392937522E-002  -1.3166724288679894E-003   4.0110864599559322E-002
   2.8431900437923631E-002  -2.1990598861119665E-003   4.4970232886208182E-002
   2.9032558482909736E-002  -3.2308148385625938E-003   4.9520404651351539E-002
   6.0312505108986197E-002  -8.1510265562851989E-003   5.0577819709135906E-002
   6.0612732549913305E-002  -1.0029275526755834E-002   5.1516487884591303E-002
   6.0912959990840433E-002  -1.1714473565029289E-002   5.2240826542318528E-002
   6.1213187431767527E-002  -1.3206620671105548E-002   5.2750835682317629E-002
   6.1513414872694655E-002  -1.4505716844984640E-002   5.3046515304588523E-002
   5.2406700002275992E-002  -6.9209736268545478E-003   4.9987840043496594E-002
   5.2531967278557051E-002  -8.5846473938309513E-003   5.1213632073724077E-002
   5.2657234554838117E-002  -1.0060287689879377E-002   5.2303833292387580E-002
   5.2782501831119176E-002  -1.1347894514999818E-002   5.3258443699487110E-002
   5.2907769107400228E-002  -1.2447467869192277E-002   5.4077463295022721E-002
   4.4558107195693190E-002  -5.6909206974238959E-003   4.9614944311986077E-002
   4.4587153013492406E-002  -7.1400192609060911E-003   5.1122842735716441E-002
   4.4616198831291615E-002  -8.4061018147294844E-003   5.2573889054047036E-002
   4.4645244649090823E-002  -9.4891683588940942E-003   5.3968083266977912E-002
   4.4674290466890025E-002  -1.0389218893399901E-002   5.5305425374509026E-002
   3.6766726689237778E-002  -4.4608677679932405E-003   4.9459132514604397E-002
   3.6778289754719334E-002  -5.6953911279812161E-003   5.1244119870568428E-002
   3.6789852820200912E-002  -6.7519159395795850E-003   5.3050993827296895E-002
   3.6801415885682490E-002  -7.6304422027883706E-003   5.4879754384789849E-002
   3.6812978951164053E-002  -8.3309699176075322E-003   5.6730401543047280E-002
   2.9032558482909736E-002  -3.2308148385625938E-003   4.9520404651351539E-002
   2.9105377502237875E-002  -4.2507629950563576E-003   5.1577463478280058E-002
   2.9178196521566023E-002  -5.0977300644296734E-003   5.3735147612137241E-002
   2.9251015540894161E-002  -5.7717160466826392E-003   5.5993457052923114E-002
   2.9323834560222306E-002  -6.2727209418151561E-003   5.8352391800637692E-002
   6.1513414872694655E-002  -1.4505716844984640E-002   5.3046515304588523E-002
   6.0193575920328396E-002  -1.5512868048600244E-002   5.1640741838748450E-002
   5.8873736967962151E-002  -1.6129180243886088E-002   5.0691105896320414E-002
   5.7553898015595892E-002  -1.6354653430842182E-002   5.0197607477304382E-002
   5.6234059063229647E-002  -1.6189287609468458E-002   5.0160246581700305E-002
   5.2907769107400228E-002  -1.2447467869192277E-002   5.4077463295022721E-002
   5.1990899860874136E-002  -1.3299448810505193E-002   5.3339684317975505E-002
   5.1074030614348009E-002  -1.3844278396986959E-002   5.2951707229196510E-002
   5.0157161367821883E-002  -1.4081956628637676E-002   5.2913532028685907E-002
   4.9240292121295784E-002  -1.4012483505457279E-002   5.3225158716443483E-002
   4.4674290466890025E-002  -1.0389218893399901E-002   5.5305425374509026E-002
   4.4054055291060344E-002  -1.1086029572410087E-002   5.5151953232755915E-002
   4.3433820115230663E-002  -1.1559376550087855E-002   5.5241947344127414E-002
   4.2813584939400982E-002  -1.1809259826433169E-002   5.5575407708623424E-002
   4.2193349763571295E-002  -1.1835679401446052E-002   5.6152334326244016E-002
   3.6812978951164053E-002  -8.3309699176075322E-003   5.6730401543047280E-002
   3.6383042210887097E-002  -8.8726103343150231E-003   5.7077548583089679E-002
   3.5953105470610119E-002  -9.2744747031887377E-003   5.7561826241112932E-002
   3.5523168730333149E-002  -9.5365630242286916E-003   5.8183234517116995E-002
   3.5093231990056178E-002  -9.6588752974348345E-003   5.8941773411102016E-002
   2.9323834560222306E-002  -6.2727209418151561E-003   5.8352391800637692E-002
   2.8977860620354335E-002  -6.6591910962199227E-003   5.9116470368976839E-002
   2.8631886680486378E-002  -6.9895728562896133E-003   5.9911343920153182E-002
   2.8285912740618414E-002  -7.2638662220241412E-003   6.0737012454166663E-002
   2.7939938800750450E-002  -7.4820711934236450E-003   6.1593475971017275E-002
   5.6234059063229647E-002  -1.6189287609468458E-002   5.0160246581700305E-002
   5.4731724264967613E-002  -1.5836441002544582E-002   4.9854889323682289E-002
   5.3229389466705593E-002  -1.5499471832850154E-002   4.9698551809940421E-002
   5.1727054668443573E-002  -1.5178380100385244E-002   4.9691234040474777E-002
   5.0224719870181539E-002  -1.4873165805149718E-002   4.9832936015285406E-002
   4.9240292121295784E-002  -1.4012483505457279E-002   5.3225158716443483E-002
   4.7900037276955368E-002  -1.3781463953954250E-002   5.2879718284572490E-002
   4.6559782432614959E-002  -1.3534502900637201E-002   5.2709418016268633E-002
   4.5219527588274536E-002  -1.3271600345506116E-002   5.2714257911531608E-002
   4.3879272743934120E-002  -1.2992756288561003E-002   5.2894237970361718E-002
   4.2193349763571295E-002  -1.1835679401446052E-002   5.6152334326244016E-002
   4.1041295292443290E-002  -1.1726486905363889E-002   5.5798629659563649E-002
   3.9889240821315314E-002  -1.1569533968424245E-002   5.5646185575741101E-002
   3.8737186350187337E-002  -1.1364820590627029E-002   5.5695002074776456E-002
   3.7585131879059333E-002  -1.1112346771972217E-002   5.5945079156669512E-002
   3.5093231990056178E-002  -9.6588752974348345E-003   5.8941773411102016E-002
   3.4155498311431443E-002  -9.6715098567735983E-003   5.8611623448655711E-002
   3.3217764632806700E-002  -9.6045650362112760E-003   5.8508854488358061E-002
   3.2280030954181943E-002  -9.4580408357478954E-003   5.8633466530209066E-002
   3.1342297275557193E-002  -9.2319372553834669E-003   5.8985459574208705E-002
   2.7939938800750450E-002  -7.4820711934236450E-003   6.1593475971017275E-002
   2.7242646333919762E-002  -7.6165328081832448E-003   6.1318699651848552E-002
   2.6545353867089068E-002  -7.6395961039983085E-003   6.1297424754119326E-002
   2.5848061400258384E-002  -7.5512610808688638E-003   6.1529651277829583E-002
   2.5150768933427686E-002  -7.3515277387947164E-003   6.2015379222979283E-002
   5.0224719870181539E-002  -1.4873165805149718E-002   4.9832936015285406E-002
   4.8667576583808783E-002  -1.4543280809079434E-002   4.9406910646946522E-002
   4.7110433297435972E-002  -1.4148176974110284E-002   4.9217014548284907E-002
   4.5553290011063174E-002  -1.3687854300242228E-002   4.9263247719300456E-002
   4.3996146724690405E-002  -1.3162312787475150E-002   4.9545610159993148E-002
   4.3879272743934120E-002  -1.2992756288561003E-002   5.2894237970361718E-002
   4.2548559949665082E-002  -1.2683639498650881E-002   5.2564731487329722E-002
   4.1217847155396031E-002  -1.2329918744624829E-002   5.2451956718827825E-002
   3.9887134361126959E-002  -1.1931594026482938E-002   5.2555913664856339E-002
   3.8556421566857915E-002  -1.1488665344224935E-002   5.2876602325415106E-002
   3.7585131879059333E-002  -1.1112346771972217E-002   5.5945079156669512E-002
   3.6461452021747193E-002  -1.0823998188222259E-002   5.5691476684161023E-002
   3.5337772164435073E-002  -1.0511660515139288E-002   5.5635208371036096E-002
   3.4214092307122954E-002  -1.0175333752723507E-002   5.5776274217294565E-002
   3.3090412449810806E-002  -9.8150179009748317E-003   5.6114674222936700E-002
   3.1342297275557193E-002  -9.2319372553834669E-003   5.8985459574208705E-002
   3.0406252800055180E-002  -8.9643568777935875E-003   5.8787146237440892E-002
   2.9470208324553146E-002  -8.6934022856538177E-003   5.8766769504909659E-002
   2.8534163849051119E-002  -8.4190734789641748E-003   5.8924329376615146E-002
   2.7598119373549092E-002  -8.1413704577247004E-003   5.9259825852557374E-002
   2.5150768933427686E-002  -7.3515277387947164E-003   6.2015379222979283E-002
   2.4382962284588958E-002  -7.1047155673650692E-003   6.1851740147169015E-002
   2.3615155635750208E-002  -6.8751440561682364E-003   6.1846640120448632E-002
   2.2847348986911469E-002  -6.6628132052048289E-003   6.2000079142818104E-002
   2.2079542338072730E-002  -6.4677230144745135E-003   6.2312057214277405E-002
   4.3996146724690405E-002  -1.3162312787475150E-002   4.9545610159993148E-002
   4.2279448476657239E-002  -1.2615449171585053E-002   4.9228038317931100E-002
   4.0562750228624087E-002  -1.2091160188347660E-002   4.9089385674556757E-002
   3.8846051980590969E-002  -1.1589445837763196E-002   4.9129652229869675E-002
   3.7129353732557796E-002  -1.1110306119831381E-002   4.9348837983870020E-002
   3.8556421566857915E-002  -1.1488665344224935E-002   5.2876602325415106E-002
   3.7026627092772130E-002  -1.1028230262675187E-002   5.2524648200306195E-002
   3.5496832618686365E-002  -1.0577386346657419E-002   5.2367582424404382E-002
   3.3967038144600586E-002  -1.0136133596171777E-002   5.2405404997709938E-002
   3.2437243670514829E-002  -9.7044720112181015E-003   5.2638115920222717E-002
   3.3090412449810806E-002  -9.8150179009748317E-003   5.6114674222936700E-002
   3.1763490900192259E-002  -9.4410113537653356E-003   5.5741321281901152E-002
   3.0436569350573709E-002  -9.0636125049671779E-003   5.5578825840592858E-002
   2.9109647800955187E-002  -8.6828213545803584E-003   5.5627187899011679E-002
   2.7782726251336605E-002  -8.2986379026048496E-003   5.5886407457157616E-002
   2.7598119373549092E-002  -8.1413704577247004E-003   5.9259825852557374E-002
   2.6490039898917590E-002  -7.8537924448554772E-003   5.8878057562716336E-002
   2.5381960424286091E-002  -7.5498386632768810E-003   5.8723115923122127E-002
   2.4273880949654610E-002  -7.2295091129889952E-003   5.8795000933775009E-002
   2.3165801475023118E-002  -6.8928037939916115E-003   5.9093712594674816E-002
   2.2079542338072730E-002  -6.4677230144745135E-003   6.2312057214277405E-002
   2.1206274088948152E-002  -6.2665735359456465E-003   6.1934857042751368E-002
   2.0333005839823552E-002  -6.0360648215866813E-003   6.1800452671992107E-002
   1.9459737590698970E-002  -5.7761968713975730E-003   6.1908844101999774E-002
   1.8586469341574374E-002  -5.4869696853783179E-003   6.2260031332774191E-002
   3.7129353732557796E-002  -1.1110306119831381E-002   4.9348837983870020E-002
   3.5713564775863099E-002  -1.0622837404824836E-002   4.9088281196405625E-002
   3.4297775819168416E-002  -1.0096136063016126E-002   4.9007843652459249E-002
   3.2881986862473699E-002  -9.5302020944051241E-003   4.9107525352030390E-002
   3.1466197905779009E-002  -8.9250354989918734E-003   4.9387326295119494E-002
   3.2437243670514829E-002  -9.7044720112181015E-003   5.2638115920222717E-002
   3.1202616686049012E-002  -9.2593962866372170E-003   5.2454020540128710E-002
   2.9967989701583202E-002  -8.7779011172696847E-003   5.2452129860974389E-002
   2.8733362717117367E-002  -8.2599865031156468E-003   5.2632443882760005E-002
   2.7498735732651575E-002  -7.7056524441749819E-003   5.2994962605485696E-002
   2.7782726251336605E-002  -8.2986379026048496E-003   5.5886407457157616E-002
   2.6731346696521815E-002  -7.8959551684495421E-003   5.5775960302418034E-002
   2.5679967141707002E-002  -7.4596661715232992E-003   5.5849803306040474E-002
   2.4628587586892202E-002  -6.9897709118261139E-003   5.6107936468024894E-002
   2.3577208032077371E-002  -6.4862693893580625E-003   5.6550359788371460E-002
   2.3165801475023118E-002  -6.8928037939916115E-003   5.9093712594674816E-002
   2.2299754807281420E-002  -6.5325140502618395E-003   5.9054100483274155E-002
   2.1433708139539757E-002  -6.1414312257768860E-003   5.9200863987657566E-002
   2.0567661471798088E-002  -5.7195553205366088E-003   5.9534003107825112E-002
   1.9701614804056394E-002  -5.2668863345410460E-003   6.0053517843776910E-002
   1.8586469341574374E-002  -5.4869696853783179E-003   6.2260031332774191E-002
   1.7907841018327944E-002  -5.1690729320741924E-003   6.2288441082696711E-002
   1.7229212695081514E-002  -4.8231962800304867E-003   6.2505311905825506E-002
   1.6550584371835084E-002  -4.4493397292470240E-003   6.2910643802160590E-002
   1.5871956048588653E-002  -4.0475032797241961E-003   6.3504436771702089E-002
   3.1466197905779009E-002  -8.9250354989918734E-003   4.9387326295119494E-002
   2.9481580111606814E-002  -8.3977008641341611E-003   4.8878114909781278E-002
   2.7496962317434620E-002  -8.0652627771894830E-003   4.8427767871761368E-002
   2.5512344523262440E-002  -7.9277212381583632E-003   4.8036285181059443E-002
   2.3527726729090259E-002  -7.9850762470401460E-003   4.7703666837675796E-002
   2.7498735732651575E-002  -7.7056524441749819E-003   5.2994962605485696E-002
   2.5615390253630285E-002  -7.1820301887156046E-003   5.2427723860702435E-002
   2.3732044774608954E-002  -6.7562509850048746E-003   5.2004165398902513E-002
   2.1848699295587595E-002  -6.4283148330432360E-003   5.1724287220086318E-002
   1.9965353816566278E-002  -6.1982217328304667E-003   5.1588089324253517E-002
   2.3577208032077371E-002  -6.4862693893580625E-003   5.6550359788371460E-002
   2.1879950803872297E-002  -5.9663595132967706E-003   5.6022147180307430E-002
   2.0182693575667231E-002  -5.4472391928201622E-003   5.5722430790892265E-002
   1.8485436347462188E-002  -4.9289084279282771E-003   5.5651210620125791E-002
   1.6788179119257077E-002  -4.4113672186207875E-003   5.5808486668008750E-002
   1.9701614804056394E-002  -5.2668863345410460E-003   6.0053517843776910E-002
   1.8275261762332986E-002  -4.7506888378781864E-003   5.9661384868596248E-002
   1.6848908720609582E-002  -4.1382274006353907E-003   5.9582564047729790E-002
   1.5422555678886118E-002  -3.4295020228129009E-003   5.9817055381177840E-002
   1.3996202637162742E-002  -2.6245127044111638E-003   6.0364858868940260E-002
   1.5871956048588653E-002  -4.0475032797241961E-003   6.3504436771702089E-002
   1.4801323129012292E-002  -3.5350181624593802E-003   6.3345436925569043E-002
   1.3730690209435931E-002  -2.8292156084507719E-003   6.3584565169415824E-002
   1.2660057289859583E-002  -1.9300956176982291E-003   6.4221821503242113E-002
   1.1589424370283208E-002  -8.3765819020142906E-004   6.5257205927048645E-002
   2.6629926302965304E-002   0.0000000000000000        2.9464538461745050E-002
   2.7230584347951413E-002  -5.8365246683066748E-004   3.4942299791404938E-002
   2.7831242392937522E-002  -1.3166724288679894E-003   4.0110864599559322E-002
   2.8431900437923631E-002  -2.1990598861119665E-003   4.4970232886208182E-002
   2.9032558482909736E-002  -3.2308148385625938E-003   4.9520404651351539E-002
   2.0113741945729496E-002   0.0000000000000000        2.9019163965693998E-002
   2.0444857709773855E-002  -4.3763456419212629E-004   3.4311224723009910E-002
   2.0775973473818220E-002  -9.8697771101898153E-004   3.9373397439947860E-002
   2.1107089237862579E-002  -1.6480294404805701E-003   4.4205682116507820E-002
   2.1438205001906942E-002  -2.4207897525768815E-003   4.8808078752689804E-002
   1.3502740814506635E-002   0.0000000000000000        2.8700977915995528E-002
   1.3643622778736788E-002  -2.9161666155358467E-004   3.3844997013539400E-002
   1.3784504742966944E-002  -6.5728299316997630E-004   3.8838436551832826E-002
   1.3925386707197101E-002  -1.0969989948491745E-003   4.3681296530875810E-002
   1.4066268671427254E-002  -1.6107646665911792E-003   4.8373576950668386E-002
   6.7969229092967199E-003   0.0000000000000000        2.8509980312649636E-002
   6.8268795548402086E-003  -1.4559875891504239E-004   3.3543616662993374E-002
   6.8568362003836973E-003  -3.2758827532096890E-004   3.8505981935214206E-002
   6.8867928459271852E-003  -5.4596854921778190E-004   4.3397076129312158E-002
   6.9167494914706747E-003  -8.0073958060547707E-004   4.8216899245287208E-002
  -3.7117699002442439E-006   0.0000000000000000        2.8446171155656327E-002
  -5.3719619158834261E-006   4.1914372349901446E-007   3.3407083671371865E-002
  -7.0321539315239094E-006   2.1064425280367671E-006   3.8376033590092042E-002
  -8.6923459471637422E-006   5.0618964136141253E-006   4.3353020911816857E-002
  -1.0352537962802708E-005   9.2855053802328238E-006   4.8338045636546312E-002
   2.9032558482909736E-002  -3.2308148385625938E-003   4.9520404651351539E-002
   2.9105377502237875E-002  -4.2507629950563576E-003   5.1577463478280058E-002
   2.9178196521566023E-002  -5.0977300644296734E-003   5.3735147612137241E-002
   2.9251015540894161E-002  -5.7717160466826392E-003   5.5993457052923114E-002
   2.9323834560222306E-002  -6.2727209418151561E-003   5.8352391800637692E-002
   2.1438205001906942E-002  -2.4207897525768815E-003   4.8808078752689804E-002
   2.1581863784497717E-002  -3.1848784199034756E-003   5.1208785666122691E-002
   2.1725522567088491E-002  -3.8199152150558517E-003   5.3650546799152189E-002
   2.1869181349679259E-002  -4.3259001380340579E-003   5.6133362151778249E-002
   2.2012840132270037E-002  -4.7028331888380459E-003   5.8657231724000898E-002
   1.4066268671427254E-002  -1.6107646665911792E-003   4.8373576950668386E-002
   1.4221196129948575E-002  -2.1189938447506002E-003   5.1074002735659402E-002
   1.4376123588469901E-002  -2.5421003656820223E-003   5.3755911652914955E-002
   1.4531051046991221E-002  -2.8800842293854735E-003   5.6419303702434975E-002
   1.4685978505512547E-002  -3.1329454358609253E-003   5.9064178884219588E-002
   6.9167494914706747E-003  -8.0073958060547707E-004   4.8216899245287208E-002
   7.0233745385904619E-003  -1.0531092695977285E-003   5.1173114686890203E-002
   7.1299995857102474E-003  -1.2642855163081898E-003   5.4051242173425613E-002
   7.2366246328300311E-003  -1.4342683207368976E-003   5.6851281704893411E-002
   7.3432496799498174E-003  -1.5630576828838030E-003   5.9573233281293714E-002
  -1.0352537962802708E-005   9.2855053802328238E-006   4.8338045636546312E-002
  -1.1600989576636411E-005   1.2775305555139810E-005   5.1506121519815033E-002
  -1.2849441190470549E-005   1.3529333065633422E-005   5.4536538360684096E-002
  -1.4097892804305770E-005   1.1547587911693330E-005   5.7429296159153501E-002
  -1.5346344418137522E-005   6.8300700933124348E-006   6.0184394915223240E-002
   2.9323834560222306E-002  -6.2727209418151561E-003   5.8352391800637692E-002
   2.8977860620354335E-002  -6.6591910962199227E-003   5.9116470368976839E-002
   2.8631886680486378E-002  -6.9895728562896133E-003   5.9911343920153182E-002
   2.8285912740618414E-002  -7.2638662220241412E-003   6.0737012454166663E-002
   2.7939938800750450E-002  -7.4820711934236450E-003   6.1593475971017275E-002
   2.2012840132270037E-002  -4.7028331888380459E-003   5.8657231724000898E-002
   2.1711067306335242E-002  -4.9929641050644284E-003   5.9469169620288947E-002
   2.1409294480400444E-002  -5.2385426243097347E-003   6.0338714761606141E-002
   2.1107521654465635E-002  -5.4395687465740254E-003   6.1265867147952471E-002
   2.0805748828530844E-002  -5.5960424718572988E-003   6.2250626779328085E-002
   1.4685978505512547E-002  -3.1329454358609253E-003   5.9064178884219588E-002
   1.4455219055702934E-002  -3.3267371139089029E-003   5.9912440111102423E-002
   1.4224459605893322E-002  -3.4875123923298985E-003   6.0845120845206414E-002
   1.3993700156083710E-002  -3.6152712711239382E-003   6.1862221086531638E-002
   1.3762940706274103E-002  -3.7100137502910080E-003   6.2963740835078053E-002
   7.3432496799498174E-003  -1.5630576828838030E-003   5.9573233281293714E-002
   7.2103158684574242E-003  -1.6605101227533930E-003   6.0446281841417211E-002
   7.0773820569650283E-003  -1.7364821603500827E-003   6.1430562170953974E-002
   6.9444482454726316E-003  -1.7909737956738228E-003   6.2526074269903961E-002
   6.8115144339802392E-003  -1.8239850287246617E-003   6.3732818138267144E-002
  -1.5346344418137522E-005   6.8300700933124348E-006   6.0184394915223240E-002
  -2.3642255401292063E-005   5.7168684021308147E-006   6.1070694811233416E-002
  -3.1938166384449206E-005   1.4548071629828449E-005   6.2095038738848862E-002
  -4.0234077367604613E-005   3.3323679776281739E-005   6.3257426698069552E-002
  -4.8529988350760889E-005   6.2043692841615150E-005   6.4557858688895506E-002
   2.7939938800750450E-002  -7.4820711934236450E-003   6.1593475971017275E-002
   2.7242646333919762E-002  -7.6165328081832448E-003   6.1318699651848552E-002
   2.6545353867089068E-002  -7.6395961039983085E-003   6.1297424754119326E-002
   2.5848061400258384E-002  -7.5512610808688638E-003   6.1529651277829583E-002
   2.5150768933427686E-002  -7.3515277387947164E-003   6.2015379222979283E-002
   2.0805748828530844E-002  -5.5960424718572988E-003   6.2250626779328085E-002
   2.0341184944887358E-002  -5.6932484439528724E-003   6.2139150186039452E-002
   1.9876621061243861E-002  -5.7164713066540709E-003   6.2239629337685801E-002
   1.9412057177600375E-002  -5.6657110599608335E-003   6.2552064234267055E-002
   1.8947493293956882E-002  -5.5409677038732452E-003   6.3076454875783242E-002
   1.3762940706274103E-002  -3.7100137502910080E-003   6.2963740835078053E-002
   1.3489559729313295E-002  -3.7699640797225174E-003   6.2978148758119357E-002
   1.3216178752352490E-002  -3.7933465093097779E-003   6.3162966749591071E-002
   1.2942797775391670E-002  -3.7801610390528866E-003   6.3518194809493167E-002
   1.2669416798430869E-002  -3.7304076689518018E-003   6.4043832937825673E-002
   6.8115144339802392E-003  -1.8239850287246617E-003   6.3732818138267144E-002
   6.6877706871975879E-003  -1.8466797154921260E-003   6.3835695368088197E-002
   6.5640269404149357E-003  -1.8702217119655265E-003   6.4067436989835067E-002
   6.4402831936322845E-003  -1.8946110181449257E-003   6.4428043003507809E-002
   6.3165394468496340E-003  -1.9198476340303305E-003   6.4917513409106509E-002
  -4.8529988350760889E-005   6.2043692841615150E-005   6.4557858688895506E-002
  -6.4182181459773724E-005   7.6604648738196057E-005   6.4711790015946014E-002
  -7.9834374568788294E-005   5.2903085378770004E-005   6.4953040058417899E-002
  -9.5486567677799394E-005  -9.0609972369605149E-006   6.5281608816311135E-002
  -1.1113876078681570E-004  -1.0928759910885932E-004   6.5697496289625817E-002
   2.5150768933427686E-002  -7.3515277387947164E-003   6.2015379222979283E-002
   2.4382962284588958E-002  -7.1047155673650692E-003   6.1851740147169015E-002
   2.3615155635750208E-002  -6.8751440561682364E-003   6.1846640120448632E-002
   2.2847348986911469E-002  -6.6628132052048289E-003   6.2000079142818104E-002
   2.2079542338072730E-002  -6.4677230144745135E-003   6.2312057214277405E-002
   1.8947493293956882E-002  -5.5409677038732452E-003   6.3076454875783242E-002
   1.8347397288750344E-002  -5.3822416290947583E-003   6.2835557372337231E-002
   1.7747301283543807E-002  -5.2295332263289779E-003   6.2771542107065731E-002
   1.7147205278337272E-002  -5.0828424955755604E-003   6.2884409079968784E-002
   1.6547109273130751E-002  -4.9421694368348978E-003   6.3174158291046278E-002
   1.2669416798430869E-002  -3.7304076689518018E-003   6.4043832937825673E-002
   1.2255374625941184E-002  -3.6597676908246210E-003   6.3736899994964416E-002
   1.1841332453451489E-002  -3.5839223964894973E-003   6.3625192479362339E-002
   1.1427290280961795E-002  -3.5028717859463473E-003   6.3708710391019455E-002
   1.1013248108472106E-002  -3.4166158591952822E-003   6.3987453729935626E-002
   6.3165394468496340E-003  -1.9198476340303305E-003   6.4917513409106509E-002
   6.1068942961614347E-003  -1.9372937525544663E-003   6.4555768015050627E-002
   5.8972491454732379E-003  -1.9383115666500444E-003   6.4407591237338579E-002
   5.6876039947850402E-003  -1.9229010763171343E-003   6.4472983075970269E-002
   5.4779588440968434E-003  -1.8910622815555833E-003   6.4751943530945946E-002
  -1.1113876078681570E-004  -1.0928759910885932E-004   6.5697496289625817E-002
  -9.8043700588881094E-005  -2.1481981428420061E-004   6.5292161432595808E-002
  -8.4948640390941285E-005  -2.9270073681073733E-004   6.5118738380994370E-002
  -7.1853580193003211E-005  -3.4293036668781897E-004   6.5177227134821297E-002
  -5.8758519995066871E-005  -3.6550870391605095E-004   6.5467627694076769E-002
   2.2079542338072730E-002  -6.4677230144745135E-003   6.2312057214277405E-002
   2.1206274088948152E-002  -6.2665735359456465E-003   6.1934857042751368E-002
   2.0333005839823552E-002  -6.0360648215866813E-003   6.1800452671992107E-002
   1.9459737590698970E-002  -5.7761968713975730E-003   6.1908844101999774E-002
   1.8586469341574374E-002  -5.4869696853783179E-003   6.2260031332774191E-002
   1.6547109273130751E-002  -4.9421694368348978E-003   6.3174158291046278E-002
   1.5909869831138373E-002  -4.7949065707698774E-003   6.2813041287414592E-002
   1.5272630389146020E-002  -4.6284464180437607E-003   6.2681186097280503E-002
   1.4635390947153654E-002  -4.4427889786566137E-003   6.2778592720644205E-002
   1.3998151505161302E-002  -4.2379342526083774E-003   6.3105261157505366E-002
   1.1013248108472106E-002  -3.4166158591952822E-003   6.3987453729935626E-002
   1.0598503486342774E-002  -3.3232396055941221E-003   6.3632257945029427E-002
   1.0183758864213429E-002  -3.2208280145009580E-003   6.3492789986351467E-002
   9.7690142420840918E-003  -3.1093810859157672E-003   6.3569049853902035E-002
   9.3542696199547526E-003  -2.9888988198384925E-003   6.3861037547681007E-002
   5.4779588440968434E-003  -1.8910622815555833E-003   6.4751943530945946E-002
   5.2721750545613212E-003  -1.8515726404184155E-003   6.4392507015595832E-002
   5.0663912650258120E-003  -1.8132096109581518E-003   6.4235264339205025E-002
   4.8606074754902950E-003  -1.7759731931748920E-003   6.4280215501773416E-002
   4.6548236859547815E-003  -1.7398633870684688E-003   6.4527360503300976E-002
  -5.8758519995066871E-005  -3.6550870391605095E-004   6.5467627694076769E-002
  -6.9115464205959931E-005  -3.7990567524265328E-004   6.5093788499113903E-002
  -7.9472408416846052E-005  -4.0559120741524846E-004   6.4908609155841152E-002
  -8.9829352627736510E-005  -4.4256530043399259E-004   6.4912089664258335E-002
  -1.0018629683862523E-004  -4.9082795429866710E-004   6.5104230024365661E-002
   1.8586469341574374E-002  -5.4869696853783179E-003   6.2260031332774191E-002
   1.7907841018327944E-002  -5.1690729320741924E-003   6.2288441082696711E-002
   1.7229212695081514E-002  -4.8231962800304867E-003   6.2505311905825506E-002
   1.6550584371835084E-002  -4.4493397292470240E-003   6.2910643802160590E-002
   1.5871956048588653E-002  -4.0475032797241961E-003   6.3504436771702089E-002
   1.3998151505161302E-002  -4.2379342526083774E-003   6.3105261157505366E-002
   1.3500973666105164E-002  -4.0231532441539208E-003   6.3085413858063655E-002
   1.3003795827049025E-002  -3.8077169575485431E-003   6.3240006453796432E-002
   1.2506617987992883E-002  -3.5916253927919216E-003   6.3569038944703407E-002
   1.2009440148936762E-002  -3.3748785498841638E-003   6.4072511330784843E-002
   9.3542696199547526E-003  -2.9888988198384925E-003   6.3861037547681007E-002
   9.0245210870569109E-003  -2.8772335562338436E-003   6.3765608578286767E-002
   8.6947725541590588E-003  -2.7922376350665926E-003   6.3830598326034937E-002
   8.3650240212612068E-003  -2.7339110563367620E-003   6.4056006790925241E-002
   8.0352754883633720E-003  -2.7022538200441593E-003   6.4441833972957954E-002
   4.6548236859547815E-003  -1.7398633870684688E-003   6.4527360503300976E-002
   4.4784832811831984E-003  -1.7313138683138080E-003   6.4329025243365867E-002
   4.3021428764116222E-003  -1.7767583125847010E-003   6.4277087522540952E-002
   4.1258024716400426E-003  -1.8761967198815200E-003   6.4371547340826216E-002
   3.9494620668684630E-003  -2.0296290902041408E-003   6.4612404698221867E-002
  -1.0018629683862523E-004  -4.9082795429866710E-004   6.5104230024365661E-002
  -1.3713975151595850E-004  -5.8539418039346702E-004   6.4775663853300913E-002
  -1.7409320619328830E-004  -7.6127899010285105E-004   6.4579474043314461E-002
  -2.1104666087061463E-004  -1.0184823834263994E-003   6.4515660594406180E-002
  -2.4800011554795137E-004  -1.3570043603641779E-003   6.4584223506576277E-002
   1.5871956048588653E-002  -4.0475032797241961E-003   6.3504436771702089E-002
   1.4801323129012292E-002  -3.5350181624593802E-003   6.3345436925569043E-002
   1.3730690209435931E-002  -2.8292156084507719E-003   6.3584565169415824E-002
   1.2660057289859583E-002  -1.9300956176982291E-003   6.4221821503242113E-002
   1.1589424370283208E-002  -8.3765819020142906E-004   6.5257205927048645E-002
   1.2009440148936762E-002  -3.3748785498841638E-003   6.4072511330784843E-002
   1.1303610802120070E-002  -3.1087695075683874E-003   6.3914231485214523E-002
   1.0597781455303379E-002  -2.7445913445881542E-003   6.4087430695183856E-002
   9.8919521084866666E-003  -2.2823440609428536E-003   6.4592108960692923E-002
   9.1861227616699681E-003  -1.7220276566329851E-003   6.5428266281741365E-002
   8.0352754883633720E-003  -2.7022538200441593E-003   6.4441833972957954E-002
   7.6276006798661755E-003  -2.6825208526775057E-003   6.4189025811871359E-002
   7.2199258713689790E-003  -2.6599670807254325E-003   6.4201047671883948E-002
   6.8122510628717894E-003  -2.6345925041876463E-003   6.4477899552996348E-002
   6.4045762543745999E-003  -2.6063971230645411E-003   6.5019581455207642E-002
   3.9494620668684630E-003  -2.0296290902041408E-003   6.4612404698221867E-002
   3.7732927622506022E-003  -2.2562721977866240E-003   6.4169819905539410E-002
   3.5971234576327484E-003  -2.5753428168628183E-003   6.3925416099516533E-002
   3.4209541530148928E-003  -2.9868409474324660E-003   6.3879193280152471E-002
   3.2447848483970407E-003  -3.4907665894960971E-003   6.4031151447447976E-002
  -2.4800011554795137E-004  -1.3570043603641779E-003   6.4584223506576277E-002
  -2.5931295072663396E-004  -1.8300235428955203E-003   6.3856613766218984E-002
  -2.7062578590532002E-004  -2.4907185530001624E-003   6.3260535978080706E-002
  -2.8193862108399047E-004  -3.3390893906772474E-003   6.2795990142161764E-002
  -2.9325145626268867E-004  -4.3751360559276531E-003   6.2462976258461644E-002
  -3.7117699002442439E-006   0.0000000000000000        2.8446171155656327E-002
  -5.3719619158834261E-006   4.1914372349901446E-007   3.3407083671371865E-002
  -7.0321539315239094E-006   2.1064425280367671E-006   3.8376033590092042E-002
  -8.6923459471637422E-006   5.0618964136141253E-006   4.3353020911816857E-002
  -1.0352537962802708E-005   9.2855053802328238E-006   4.8338045636546312E-002
  -6.8042942235399979E-003   0.0000000000000000        2.8510261527689807E-002
  -6.8373793760226264E-003   1.4722329279492474E-004   3.3546094597486642E-002
  -6.8704645285052567E-003   3.3210181541172730E-004   3.8511040343344856E-002
  -6.9035496809878851E-003   5.5463556785040769E-004   4.3405098765264459E-002
  -6.9366348334705145E-003   8.1482455011096244E-004   4.8228269863245424E-002
  -1.3509955452078280E-002   0.0000000000000000        2.8702962511424297E-002
  -1.3653390291971160E-002   2.9402744186635263E-004   3.3850103210043267E-002
  -1.3796825131864041E-002   6.6209718829541957E-004   3.8847431857780362E-002
  -1.3940259971756920E-002   1.1042092392872013E-003   4.3694948454635583E-002
  -1.4083694811649802E-002   1.6203635948416986E-003   4.8392653000608903E-002
  -2.0120695455515088E-002   0.0000000000000000        2.9024274106859798E-002
  -2.0453404709761480E-002   4.4083159093777986E-004   3.4319109509041740E-002
  -2.0786113964007872E-002   9.9209256117911183E-004   3.9385208133398547E-002
  -2.1118823218254264E-002   1.6537829107239983E-003   4.4222569979930203E-002
  -2.1451532472500662E-002   2.4259026395724347E-003   4.8831195048636734E-002
  -2.6636514233850418E-002   0.0000000000000000        2.9474196313996306E-002
  -2.7237422629393590E-002   5.8763574000920624E-004   3.4953113494482074E-002
  -2.7838331024936758E-002   1.3220879340628024E-003   4.0124369170199424E-002
  -2.8439239420479930E-002   2.2033565821607867E-003   4.4987963341148379E-002
  -2.9040147816023095E-002   3.2314416843031678E-003   4.9543896007328919E-002
  -1.0352537962802708E-005   9.2855053802328238E-006   4.8338045636546312E-002
  -1.1600989576636411E-005   1.2775305555139810E-005   5.1506121519815033E-002
  -1.2849441190470549E-005   1.3529333065633422E-005   5.4536538360684096E-002
  -1.4097892804305770E-005   1.1547587911693330E-005   5.7429296159153501E-002
  -1.5346344418137522E-005   6.8300700933124348E-006   6.0184394915223240E-002
  -6.9366348334705145E-003   8.1482455011096244E-004   4.8228269863245424E-002
  -7.0457130741490917E-003   1.0717749801229326E-003   5.1181963263685751E-002
  -7.1547913148276689E-003   1.2845930758158576E-003   5.4057656128396241E-002
  -7.2638695555062452E-003   1.4532788371897165E-003   5.6855348457376942E-002
  -7.3729477961848242E-003   1.5778322642445372E-003   5.9575040250627792E-002
  -1.4083694811649802E-002   1.6203635948416986E-003   4.8392653000608903E-002
  -1.4240944334723282E-002   2.1307746546907185E-003   5.1090567356566197E-002
  -1.4398193857796764E-002   2.5556568185660677E-003   5.3770139683463516E-002
  -1.4555443380870250E-002   2.8950100864677535E-003   5.6431369981300869E-002
  -1.4712692903943728E-002   3.1488344583957585E-003   5.9074258250078227E-002
  -2.1451532472500662E-002   2.4259026395724347E-003   4.8831195048636734E-002
  -2.1597294771299208E-002   3.1897743292585079E-003   5.1231933798456405E-002
  -2.1743057070097761E-002   3.8267205613162817E-003   5.3673989025885931E-002
  -2.1888819368896310E-002   4.3367413357457835E-003   5.6157360730925303E-002
  -2.2034581667694859E-002   4.7198366525469816E-003   5.8682048913574536E-002
  -2.9040147816023095E-002   3.2314416843031678E-003   4.9543896007328919E-002
  -2.9114764383876876E-002   4.2487740038262964E-003   5.1606062589356343E-002
  -2.9189380951730657E-002   5.0977843040665065E-003   5.3769204155663448E-002
  -2.9263997519584441E-002   5.7784725850238182E-003   5.6033320706250243E-002
  -2.9338614087438222E-002   6.2908388466982046E-003   5.8398412241116721E-002
  -1.5346344418137522E-005   6.8300700933124348E-006   6.0184394915223240E-002
  -2.3642255401292063E-005   5.7168684021308147E-006   6.1070694811233416E-002
  -3.1938166384449206E-005   1.4548071629828449E-005   6.2095038738848862E-002
  -4.0234077367604613E-005   3.3323679776281739E-005   6.3257426698069552E-002
  -4.8529988350760889E-005   6.2043692841615150E-005   6.4557858688895506E-002
  -7.3729477961848242E-003   1.5778322642445372E-003   5.9575040250627792E-002
  -7.2553703509280545E-003   1.6751536640902294E-003   6.0466832157690248E-002
  -7.1377929056712893E-003   1.7621433438366977E-003   6.1472326745627311E-002
  -7.0202154604145240E-003   1.8388013034840293E-003   6.2591524014438918E-002
  -6.9026380151577579E-003   1.9051275430321535E-003   6.3824423964125146E-002
  -1.4712692903943728E-002   3.1488344583957585E-003   5.9074258250078227E-002
  -1.4493583453177701E-002   3.3445904597783141E-003   5.9951266043174890E-002
  -1.4274474002411669E-002   3.5097386160436650E-003   6.0917635166415539E-002
  -1.4055364551645640E-002   3.6442789271917773E-003   6.1973365619800103E-002
  -1.3836255100879605E-002   3.7482113932226988E-003   6.3118457403328609E-002
  -2.2034581667694859E-002   4.7198366525469816E-003   5.8682048913574536E-002
  -2.1738281562150227E-002   5.0140272554663919E-003   5.9523996467687426E-002
  -2.1441981456605599E-002   5.2573338882505975E-003   6.0430964001213602E-002
  -2.1145681351060961E-002   5.4497565508994971E-003   6.1402951514153065E-002
  -2.0849381245516337E-002   5.5912952434132406E-003   6.2439959006505792E-002
  -2.9338614087438222E-002   6.2908388466982046E-003   5.8398412241116721E-002
  -2.8989464677845640E-002   6.6834640511544904E-003   5.9185023431227814E-002
  -2.8640315268253065E-002   7.0049291604575362E-003   6.0012313250021529E-002
  -2.8291165858660493E-002   7.2552341746072811E-003   6.0880281697497866E-002
  -2.7942016449067904E-002   7.4343790936037824E-003   6.1788928773656798E-002
  -4.8529988350760889E-005   6.2043692841615150E-005   6.4557858688895506E-002
  -6.4182181459773724E-005   7.6604648738196057E-005   6.4711790015946014E-002
  -7.9834374568788294E-005   5.2903085378770004E-005   6.4953040058417899E-002
  -9.5486567677799394E-005  -9.0609972369605149E-006   6.5281608816311135E-002
  -1.1113876078681570E-004  -1.0928759910885932E-004   6.5697496289625817E-002
  -6.9026380151577579E-003   1.9051275430321535E-003   6.3824423964125146E-002
  -6.8076585451496115E-003   1.9447544642551759E-003   6.3881494462052990E-002
  -6.7126790751414695E-003   1.9413144689271883E-003   6.4072509570793773E-002
  -6.6176996051333231E-003   1.8948075570482635E-003   6.4397469290347439E-002
  -6.5227201351251880E-003   1.8052337286182385E-003   6.4856373620714114E-002
  -1.3836255100879605E-002   3.7482113932226988E-003   6.3118457403328609E-002
  -1.3584018072362744E-002   3.8129042797720933E-003   6.3073862674838943E-002
  -1.3331781043845891E-002   3.8297258524756881E-003   6.3209838452553804E-002
  -1.3079544015329037E-002   3.7986761113334732E-003   6.3526384736473152E-002
  -1.2827306986812177E-002   3.7197550563454335E-003   6.4023501526596999E-002
  -2.0849381245516337E-002   5.5912952434132406E-003   6.2439959006505792E-002
  -2.0393260763099195E-002   5.6810540952889725E-003   6.2288894654303886E-002
  -1.9937140280682056E-002   5.7181372360241610E-003   6.2365026703698007E-002
  -1.9481019798264918E-002   5.7025446656187176E-003   6.2668355154688188E-002
  -1.9024899315847780E-002   5.6342763840726076E-003   6.3198880007274416E-002
  -2.7942016449067904E-002   7.4343790936037824E-003   6.1788928773656798E-002
  -2.7235386617358935E-002   7.5492039108059350E-003   6.1526590400447764E-002
  -2.6528756785649962E-002   7.6065486195725923E-003   6.1538074324226325E-002
  -2.5822126953941000E-002   7.6064132199038757E-003   6.1823380544992534E-002
  -2.5115497122232020E-002   7.5487977117997263E-003   6.2382509062746339E-002
  -1.1113876078681570E-004  -1.0928759910885932E-004   6.5697496289625817E-002
  -9.8043700588881094E-005  -2.1481981428420061E-004   6.5292161432595808E-002
  -8.4948640390941285E-005  -2.9270073681073733E-004   6.5118738380994370E-002
  -7.1853580193003211E-005  -3.4293036668781897E-004   6.5177227134821297E-002
  -5.8758519995066871E-005  -3.6550870391605095E-004   6.5467627694076769E-002
  -6.5227201351251880E-003   1.8052337286182385E-003   6.4856373620714114E-002
  -6.2888461616330072E-003   1.7013907787056387E-003   6.4567990377318626E-002
  -6.0549721881408367E-003   1.6120765023784067E-003   6.4489253155083151E-002
  -5.8210982146486637E-003   1.5372908996367854E-003   6.4620161954007743E-002
  -5.5872242411564854E-003   1.4770339704806568E-003   6.4960716774092236E-002
  -1.2827306986812177E-002   3.7197550563454335E-003   6.4023501526596999E-002
  -1.2394919884294201E-002   3.6176013716955197E-003   6.3838947277772451E-002
  -1.1962532781776239E-002   3.5168537415674710E-003   6.3841773265839397E-002
  -1.1530145679258266E-002   3.4175121659614461E-003   6.4031979490797947E-002
  -1.1097758576740301E-002   3.3195766448772535E-003   6.4409565952648143E-002
  -1.9024899315847780E-002   5.6342763840726076E-003   6.3198880007274416E-002
  -1.8416264868572469E-002   5.5338119646853798E-003   6.3105032133957156E-002
  -1.7807630421297148E-002   5.4216309807566029E-003   6.3176298713262954E-002
  -1.7198995974021830E-002   5.2977334322859958E-003   6.3412679745191838E-002
  -1.6590361526746512E-002   5.1621193192739334E-003   6.3814175229744016E-002
  -2.5115497122232020E-002   7.5487977117997263E-003   6.2382509062746339E-002
  -2.4352881114467789E-002   7.4500225576752677E-003   6.2366244945872784E-002
  -2.3590265106703555E-002   7.3264082199456654E-003   6.2492829497353908E-002
  -2.2827649098939331E-002   7.1779546986107078E-003   6.2762262717189751E-002
  -2.2065033091175103E-002   7.0046619936705024E-003   6.3174544605380190E-002
  -5.8758519995066871E-005  -3.6550870391605095E-004   6.5467627694076769E-002
  -6.9115464205959931E-005  -3.7990567524265328E-004   6.5093788499113903E-002
  -7.9472408416846052E-005  -4.0559120741524846E-004   6.4908609155841152E-002
  -8.9829352627736510E-005  -4.4256530043399259E-004   6.4912089664258335E-002
  -1.0018629683862523E-004  -4.9082795429866710E-004   6.5104230024365661E-002
  -5.5872242411564854E-003   1.4770339704806568E-003   6.4960716774092236E-002
  -5.4007666392493579E-003   1.4186751966018679E-003   6.4601953197196763E-002
  -5.2143090373422216E-003   1.3495840596923908E-003   6.4448158860847121E-002
  -5.0278514354350915E-003   1.2697605597520902E-003   6.4499333765043548E-002
  -4.8413938335279579E-003   1.1792046967812331E-003   6.4755477909786058E-002
  -1.1097758576740301E-002   3.3195766448772535E-003   6.4409565952648143E-002
  -1.0698177039859149E-002   3.2172560684463336E-003   6.4066434191635005E-002
  -1.0298595502978007E-002   3.1047593268000370E-003   6.3944581060023875E-002
  -9.8990139660968569E-003   2.9820864199382301E-003   6.4044006557814753E-002
  -9.4994324292157050E-003   2.8492373478610222E-003   6.4364710685007778E-002
  -1.6590361526746512E-002   5.1621193192739334E-003   6.3814175229744016E-002
  -1.5961346666035350E-002   5.0158369402908271E-003   6.3487231482428783E-002
  -1.5332331805324177E-002   4.8599345939077075E-003   6.3397875753371455E-002
  -1.4703316944613014E-002   4.6944122801243415E-003   6.3546108042572200E-002
  -1.4074302083901841E-002   4.5192699989408669E-003   6.3931928350031059E-002
  -2.2065033091175103E-002   7.0046619936705024E-003   6.3174544605380190E-002
  -2.1190275517777930E-002   6.8144178121352927E-003   6.2864345069578054E-002
  -2.0315517944380752E-002   6.6151098610152254E-003   6.2808042940889847E-002
  -1.9440760370983575E-002   6.4067381403104008E-003   6.3005638219315693E-002
  -1.8566002797586405E-002   6.1893026500207116E-003   6.3457130904855552E-002
  -1.0018629683862523E-004  -4.9082795429866710E-004   6.5104230024365661E-002
  -1.3713975151595850E-004  -5.8539418039346702E-004   6.4775663853300913E-002
  -1.7409320619328830E-004  -7.6127899010285105E-004   6.4579474043314461E-002
  -2.1104666087061463E-004  -1.0184823834263994E-003   6.4515660594406180E-002
  -2.4800011554795137E-004  -1.3570043603641779E-003   6.4584223506576277E-002
  -4.8413938335279579E-003   1.1792046967812331E-003   6.4755477909786058E-002
  -4.7330315337617487E-003   1.0636049751061027E-003   6.4462683104092422E-002
  -4.6246692339955448E-003   9.0864989905412030E-004   6.4328143446207728E-002
  -4.5163069342293383E-003   7.1433946862477921E-004   6.4351858936131712E-002
  -4.4079446344631387E-003   4.8067368381826681E-004   6.4533829573864665E-002
  -9.4994324292157050E-003   2.8492373478610222E-003   6.4364710685007778E-002
  -9.2198755882753718E-003   2.7126041306060472E-003   6.4149650473922515E-002
  -8.9403187473350298E-003   2.5785787882109737E-003   6.4118724197376575E-002
  -8.6607619063946914E-003   2.4471613206759561E-003   6.4271931855370112E-002
  -8.3812050654543477E-003   2.3183517280007393E-003   6.4609273447903195E-002
  -1.4074302083901841E-002   4.5192699989408669E-003   6.3931928350031059E-002
  -1.3597671915056781E-002   4.3616032861058321E-003   6.3836565962791109E-002
  -1.3121041746211733E-002   4.2485076773678861E-003   6.3951216296821198E-002
  -1.2644411577366675E-002   4.1799831727270228E-003   6.4275879352121298E-002
  -1.2167781408521627E-002   4.1560297721830869E-003   6.4810555128691591E-002
  -1.8566002797586405E-002   6.1893026500207116E-003   6.3457130904855552E-002
  -1.7866420514106036E-002   6.0106024416055892E-003   6.3523429570698120E-002
  -1.7166838230625665E-002   5.9184365665247707E-003   6.3825619744541401E-002
  -1.6467255947145293E-002   5.9128050247781658E-003   6.4363701426385228E-002
  -1.5767673663664925E-002   5.9937078163656565E-003   6.5137674616229657E-002
  -2.4800011554795137E-004  -1.3570043603641779E-003   6.4584223506576277E-002
  -2.5931295072663396E-004  -1.8300235428955203E-003   6.3856613766218984E-002
  -2.7062578590532002E-004  -2.4907185530001624E-003   6.3260535978080706E-002
  -2.8193862108399047E-004  -3.3390893906772474E-003   6.2795990142161764E-002
  -2.9325145626268867E-004  -4.3751360559276531E-003   6.2462976258461644E-002
  -4.4079446344631387E-003   4.8067368381826681E-004   6.4533829573864665E-002
  -4.2519462168338820E-003   1.8280320847108289E-004   6.3890318294881621E-002
  -4.0959477992046286E-003  -2.0412129358038378E-004   6.3449897569295505E-002
  -3.9399493815753719E-003  -6.8009982233591115E-004   6.3212567397106095E-002
  -3.7839509639461325E-003  -1.2451323777957768E-003   6.3178327778313226E-002
  -8.3812050654543477E-003   2.3183517280007393E-003   6.4609273447903195E-002
  -7.9863367938394735E-003   2.1956299598378526E-003   6.4148482431163167E-002
  -7.5914685222245913E-003   2.0824759658394018E-003   6.3962340568997494E-002
  -7.1966002506097040E-003   1.9788897460054824E-003   6.4050847861406551E-002
  -6.8017319789948349E-003   1.8848713003360995E-003   6.4414004308389838E-002
  -1.2167781408521627E-002   4.1560297721830869E-003   6.4810555128691591E-002
  -1.1462484681743402E-002   4.2084567112044835E-003   6.4631106175063124E-002
  -1.0757187954965197E-002   4.3690732252592394E-003   6.4797864977186787E-002
  -1.0051891228186963E-002   4.6378793143468473E-003   6.5310831535062924E-002
  -9.3465945014087684E-003   5.0148749784680313E-003   6.6170005848691010E-002
  -1.5767673663664925E-002   5.9937078163656565E-003   6.5137674616229657E-002
  -1.4680389880545690E-002   6.2212834625713365E-003   6.5338189526581714E-002
  -1.3593106097426443E-002   6.6556704846789105E-003   6.5956470793863520E-002
  -1.2505822314307181E-002   7.2968688826883094E-003   6.6992518418075547E-002
  -1.1418538531187961E-002   8.1448786565998521E-003   6.8446332399217047E-002
  -2.6636514233850418E-002   0.0000000000000000        2.9474196313996306E-002
  -2.7237422629393590E-002   5.8763574000920624E-004   3.4953113494482074E-002
  -2.7838331024936758E-002   1.3220879340628024E-003   4.0124369170199424E-002
  -2.8439239420479930E-002   2.2033565821607867E-003   4.4987963341148379E-002
  -2.9040147816023095E-002   3.2314416843031678E-003   4.9543896007328919E-002
  -3.3394941604665128E-002   0.0000000000000000        3.0186377713233382E-002
  -3.4238378989202914E-002   9.6140584040121848E-004   3.5274967781368974E-002
  -3.5081816373740700E-002   2.0253527906305977E-003   4.0186161376283745E-002
  -3.5925253758278493E-002   3.1918408506881315E-003   4.4919958497977697E-002
  -3.6768691142816265E-002   4.4608700205738322E-003   4.9476359146450807E-002
  -4.0733507385540067E-002   0.0000000000000000        3.1294466884970590E-002
  -4.1689208727524886E-002   1.3351759407932307E-003   3.5948454496539793E-002
  -4.2644910069509719E-002   2.7286176471983895E-003   4.0555310666435744E-002
  -4.3600611411494544E-002   4.1803251192154755E-003   4.5115035394658443E-002
  -4.4556312753479370E-002   5.6902983568444896E-003   4.9627628681207903E-002
  -4.8652211576475236E-002   0.0000000000000000        3.2798463829207918E-002
  -4.9589911844359527E-002   1.7089460411852443E-003   3.6973573639994491E-002
  -5.0527612112243811E-002   3.4318825037661822E-003   4.1231817040655393E-002
  -5.1465312380128088E-002   5.1688093877428135E-003   4.5573194031190638E-002
  -5.2403012648012372E-002   6.9197266931151505E-003   4.9997704611600198E-002
  -5.7151054177470628E-002   0.0000000000000000        3.4698368545945379E-002
  -5.7940488339706796E-002   2.0827161415772552E-003   3.8350325211733094E-002
  -5.8729922501942963E-002   4.1351473603339767E-003   4.2215680498942719E-002
  -5.9519356664179138E-002   6.1572936562701609E-003   4.6294434407574254E-002
  -6.0308790826415298E-002   8.1491550293858097E-003   5.0586586937627694E-002
  -2.9040147816023095E-002   3.2314416843031678E-003   4.9543896007328919E-002
  -2.9114764383876876E-002   4.2487740038262964E-003   5.1606062589356343E-002
  -2.9189380951730657E-002   5.0977843040665065E-003   5.3769204155663448E-002
  -2.9263997519584441E-002   5.7784725850238182E-003   5.6033320706250243E-002
  -2.9338614087438222E-002   6.2908388466982046E-003   5.8398412241116721E-002
  -3.6768691142816265E-002   4.4608700205738322E-003   4.9476359146450807E-002
  -3.6781552968774944E-002   5.6935351936927454E-003   5.1268431640901412E-002
  -3.6794414794733624E-002   6.7509312634499163E-003   5.3083038634862550E-002
  -3.6807276620692296E-002   7.6330582298454012E-003   5.4920180128334217E-002
  -3.6820138446650982E-002   8.3399160928791446E-003   5.6779856121316412E-002
  -4.4556312753479370E-002   5.6902983568444896E-003   4.9627628681207903E-002
  -4.4585860322312099E-002   7.1382963835591937E-003   5.1142660004002881E-002
  -4.4615407891144813E-002   8.4040782228333669E-003   5.2601785341539239E-002
  -4.4644955459977549E-002   9.4876438746669973E-003   5.4005004693816971E-002
  -4.4674503028810271E-002   1.0388993339060099E-002   5.5352318060836035E-002
  -5.2403012648012372E-002   6.9197266931151505E-003   4.9997704611600198E-002
  -5.2527686444488318E-002   8.5830575734256592E-003   5.1228747678660730E-002
  -5.2652360240964251E-002   1.0057225182216792E-002   5.2325444275693481E-002
  -5.2777034037440176E-002   1.1342229519488595E-002   5.3287794402698450E-002
  -5.2901707833916130E-002   1.2438070585241053E-002   5.4115798059675611E-002
  -6.0308790826415298E-002   8.1491550293858097E-003   5.0586586937627694E-002
  -6.0607031335303603E-002   1.0027818763292094E-002   5.1526694664874979E-002
  -6.0905271844191922E-002   1.1710372141600235E-002   5.2254015437325316E-002
  -6.1203512353080226E-002   1.3196815164310182E-002   5.2768549254978717E-002
  -6.1501752861968531E-002   1.4487147831422000E-002   5.3070296117835140E-002
  -2.9338614087438222E-002   6.2908388466982046E-003   5.8398412241116721E-002
  -2.8989464677845640E-002   6.6834640511544904E-003   5.9185023431227814E-002
  -2.8640315268253065E-002   7.0049291604575362E-003   6.0012313250021529E-002
  -2.8291165858660493E-002   7.2552341746072811E-003   6.0880281697497866E-002
  -2.7942016449067904E-002   7.4343790936037824E-003   6.1788928773656798E-002
  -3.6820138446650982E-002   8.3399160928791446E-003   5.6779856121316412E-002
  -3.6379330957413143E-002   8.8842282726948087E-003   5.7134115360329696E-002
  -3.5938523468175304E-002   9.2787181894359565E-003   5.7631012129950906E-002
  -3.5497715978937465E-002   9.5233858431026316E-003   5.8270546430180002E-002
  -3.5056908489699640E-002   9.6182312336948600E-003   5.9052718261016976E-002
  -4.4674503028810271E-002   1.0388993339060099E-002   5.5352318060836035E-002
  -4.4040078558001905E-002   1.1084992494235096E-002   5.5195563180830354E-002
  -4.3405654087193539E-002   1.1552507218414391E-002   5.5283404733357827E-002
  -4.2771229616385187E-002   1.1791537511598008E-002   5.5615842718418469E-002
  -4.2136805145576821E-002   1.1802083373785965E-002   5.6192877136012287E-002
  -5.2901707833916130E-002   1.2438070585241053E-002   5.4115798059675611E-002
  -5.1971707479611946E-002   1.3285756715775377E-002   5.3369366892729704E-002
  -5.1041707125307784E-002   1.3826296247392818E-002   5.2969491060242270E-002
  -5.0111706771003614E-002   1.4059689180093373E-002   5.2916170562213267E-002
  -4.9181706416699444E-002   1.3985935513877057E-002   5.3209405398642676E-002
  -6.1501752861968531E-002   1.4487147831422000E-002   5.3070296117835140E-002
  -6.0174217722243274E-002   1.5486520937315701E-002   5.1655526496027837E-002
  -5.8846682582518031E-002   1.6100085276371266E-002   5.0689271110604242E-002
  -5.7519147442792788E-002   1.6327840848588727E-002   5.0171529961564404E-002
  -5.6191612303067538E-002   1.6169787653968162E-002   5.0102303048908267E-002
  -2.7942016449067904E-002   7.4343790936037824E-003   6.1788928773656798E-002
  -2.7235386617358935E-002   7.5492039108059350E-003   6.1526590400447764E-002
  -2.6528756785649962E-002   7.6065486195725923E-003   6.1538074324226325E-002
  -2.5822126953941000E-002   7.6064132199038757E-003   6.1823380544992534E-002
  -2.5115497122232020E-002   7.5487977117997263E-003   6.2382509062746339E-002
  -3.5056908489699640E-002   9.6182312336948600E-003   5.9052718261016976E-002
  -3.4094395456162219E-002   9.6161579189624827E-003   5.8756688549398271E-002
  -3.3131882422624770E-002   9.5700694566553841E-003   5.8698602944448855E-002
  -3.2169369389087349E-002   9.4799658467736823E-003   5.8878461446168755E-002
  -3.1206856355549914E-002   9.3458470893171275E-003   5.9296264054557929E-002
  -4.2136805145576821E-002   1.1802083373785965E-002   5.6192877136012287E-002
  -4.0954287100529257E-002   1.1683111927119044E-002   5.5876621046844641E-002
  -3.9771769055481687E-002   1.1533590293738176E-002   5.5762430874027956E-002
  -3.8589251010434124E-002   1.1353518473643366E-002   5.5850306617562254E-002
  -3.7406732965386554E-002   1.1142896466834584E-002   5.6140248277447555E-002
  -4.9181706416699444E-002   1.3985935513877057E-002   5.3209405398642676E-002
  -4.7815061550460058E-002   1.3750065935275585E-002   5.2886387892786817E-002
  -4.6448416684220672E-002   1.3497111130821023E-002   5.2729558112963634E-002
  -4.5081771817981300E-002   1.3227071100513167E-002   5.2738916059173149E-002
  -4.3715126951741907E-002   1.2939945844352027E-002   5.2914461731415258E-002
  -5.6191612303067538E-002   1.6169787653968162E-002   5.0102303048908267E-002
  -5.4676718805954642E-002   1.5817019943432188E-002   4.9785989087224924E-002
  -5.3161825308841754E-002   1.5460631967903770E-002   4.9599984661255946E-002
  -5.1646931811728886E-002   1.5100623727382873E-002   4.9544289771001240E-002
  -5.0132038314615976E-002   1.4736995221869414E-002   4.9618904416460968E-002
  -2.5115497122232020E-002   7.5487977117997263E-003   6.2382509062746339E-002
  -2.4352881114467789E-002   7.4500225576752677E-003   6.2366244945872784E-002
  -2.3590265106703555E-002   7.3264082199456654E-003   6.2492829497353908E-002
  -2.2827649098939331E-002   7.1779546986107078E-003   6.2762262717189751E-002
  -2.2065033091175103E-002   7.0046619936705024E-003   6.3174544605380190E-002
  -3.1206856355549914E-002   9.3458470893171275E-003   5.9296264054557929E-002
  -3.0287889002699880E-002   9.1752260242273648E-003   5.9158070912248131E-002
  -2.9368921649849847E-002   8.9756154914454184E-003   5.9189731791755212E-002
  -2.8449954296999841E-002   8.7470154909716318E-003   5.9391246693079304E-002
  -2.7530986944149804E-002   8.4894260228056129E-003   5.9762615616220122E-002
  -3.7406732965386554E-002   1.1142896466834584E-002   5.6140248277447555E-002
  -3.6304408913988472E-002   1.0900429490779365E-002   5.5875975825614710E-002
  -3.5202084862590417E-002   1.0624822762945345E-002   5.5808562749061007E-002
  -3.4099760811192363E-002   1.0316076283332363E-002   5.5938009047786424E-002
  -3.2997436759794288E-002   9.9741900519406401E-003   5.6264314721791039E-002
  -4.3715126951741907E-002   1.2939945844352027E-002   5.2914461731415258E-002
  -4.2402440848333556E-002   1.2625632957331455E-002   5.2519959685972464E-002
  -4.1089754744925239E-002   1.2274030034445129E-002   5.2349322369271117E-002
  -3.9777068641516922E-002   1.1885137075693247E-002   5.2402549781311147E-002
  -3.8464382538108591E-002   1.1458954081075653E-002   5.2679641922092485E-002
  -5.0132038314615976E-002   1.4736995221869414E-002   4.9618904416460968E-002
  -4.8581984805735140E-002   1.4350836423883490E-002   4.9090022493321533E-002
  -4.7031931296854325E-002   1.3923237305945045E-002   4.8812010652385732E-002
  -4.5481877787973524E-002   1.3454197868054065E-002   4.8784868893653473E-002
  -4.3931824279092674E-002   1.2943718110210722E-002   4.9008597217124805E-002
  -2.2065033091175103E-002   7.0046619936705024E-003   6.3174544605380190E-002
  -2.1190275517777930E-002   6.8144178121352927E-003   6.2864345069578054E-002
  -2.0315517944380752E-002   6.6151098610152254E-003   6.2808042940889847E-002
  -1.9440760370983575E-002   6.4067381403104008E-003   6.3005638219315693E-002
  -1.8566002797586405E-002   6.1893026500207116E-003   6.3457130904855552E-002
  -2.7530986944149804E-002   8.4894260228056129E-003   5.9762615616220122E-002
  -2.6412555676327124E-002   8.2143062917598569E-003   5.9434128991233556E-002
  -2.5294124408504502E-002   7.9331155026468175E-003   5.9339092347983916E-002
  -2.4175693140681850E-002   7.6458536554664287E-003   5.9477505686471137E-002
  -2.3057261872859194E-002   7.3525207502184720E-003   5.9849369006695324E-002
  -3.2997436759794288E-002   9.9741900519406401E-003   5.6264314721791039E-002
  -3.1655779222923237E-002   9.6141947713844073E-003   5.5920533719137341E-002
  -3.0314121686052169E-002   9.2511211442782917E-003   5.5789755272843543E-002
  -2.8972464149181122E-002   8.8849691706222884E-003   5.5871979382909692E-002
  -2.7630806612310078E-002   8.5157388504163434E-003   5.6167206049335616E-002
  -3.8464382538108591E-002   1.1458954081075653E-002   5.2679641922092485E-002
  -3.6919946157566184E-002   1.1014083251008909E-002   5.2323559253289326E-002
  -3.5375509777023813E-002   1.0569126785909880E-002   5.2160031715469055E-002
  -3.3831073396481427E-002   1.0124084685778231E-002   5.2189059308631471E-002
  -3.2286637015939049E-002   9.6789569506141593E-003   5.2410642032776782E-002
  -4.3931824279092674E-002   1.2943718110210722E-002   4.9008597217124805E-002
  -4.2205056480256020E-002   1.2413971730633522E-002   4.8643205593689620E-002
  -4.0478288681419367E-002   1.1887132427541247E-002   4.8449921675860125E-002
  -3.8751520882582706E-002   1.1363200200934176E-002   4.8428745463636333E-002
  -3.7024753083746059E-002   1.0842175050811975E-002   4.8579676957018370E-002
  -1.8566002797586405E-002   6.1893026500207116E-003   6.3457130904855552E-002
  -1.7866420514106036E-002   6.0106024416055892E-003   6.3523429570698120E-002
  -1.7166838230625665E-002   5.9184365665247707E-003   6.3825619744541401E-002
  -1.6467255947145293E-002   5.9128050247781658E-003   6.4363701426385228E-002
  -1.5767673663664925E-002   5.9937078163656565E-003   6.5137674616229657E-002
  -2.3057261872859194E-002   7.3525207502184720E-003   5.9849369006695324E-002
  -2.2134637327401511E-002   7.0806715652188545E-003   5.9888319178285576E-002
  -2.1212012781943825E-002   6.8578608787830397E-003   6.0137462365829911E-002
  -2.0289388236486128E-002   6.6840886909111663E-003   6.0596798569328182E-002
  -1.9366763691028421E-002   6.5593550016030955E-003   6.1266327788780606E-002
  -2.7630806612310078E-002   8.5157388504163434E-003   5.6167206049335616E-002
  -2.6510838296921604E-002   8.1507406888321060E-003   5.6141311891903176E-002
  -2.5390869981533167E-002   7.7972851910414892E-003   5.6299912258378298E-002
  -2.4270901666144727E-002   7.4553723570442258E-003   5.6643007148760881E-002
  -2.3150933350756287E-002   7.1250021868405344E-003   5.7170596563050874E-002
  -3.2286637015939049E-002   9.6789569506141593E-003   5.2410642032776782E-002
  -3.0995023422666367E-002   9.2208098124454754E-003   5.2282407711551168E-002
  -2.9703409829393759E-002   8.7367095032999595E-003   5.2312969422186634E-002
  -2.8411796236121112E-002   8.2266560231773114E-003   5.2502327164682977E-002
  -2.7120182642848465E-002   7.6906493720779734E-003   5.2850480939040143E-002
  -3.7024753083746059E-002   1.0842175050811975E-002   4.8579676957018370E-002
  -3.5587192704635784E-002   1.0290878936058623E-002   4.8311606637229443E-002
  -3.4149632325525522E-002   9.6761338155583604E-003   4.8176633857254875E-002
  -3.2712071946415247E-002   8.9979396893103240E-003   4.8174758617094679E-002
  -3.1274511567304986E-002   8.2562965573154679E-003   4.8305980916748814E-002
  -1.5767673663664925E-002   5.9937078163656565E-003   6.5137674616229657E-002
  -1.4680389880545690E-002   6.2212834625713365E-003   6.5338189526581714E-002
  -1.3593106097426443E-002   6.6556704846789105E-003   6.5956470793863520E-002
  -1.2505822314307181E-002   7.2968688826883094E-003   6.6992518418075547E-002
  -1.1418538531187961E-002   8.1448786565998521E-003   6.8446332399217047E-002
  -1.9366763691028421E-002   6.5593550016030955E-003   6.1266327788780606E-002
  -1.7910948398583353E-002   6.5051726759811634E-003   6.1381966021519407E-002
  -1.6455133106138296E-002   6.5430545791674427E-003   6.1816900915979994E-002
  -1.4999317813693215E-002   6.6730007111619645E-003   6.2571132472162477E-002
  -1.3543502521248141E-002   6.8950110719648849E-003   6.3644660690066468E-002
  -2.3150933350756287E-002   7.1250021868405344E-003   5.7170596563050874E-002
  -2.1425056244193455E-002   6.7890618893909349E-003   5.7086610971082793E-002
  -1.9699179137630619E-002   6.4304386736559749E-003   5.7223452345628353E-002
  -1.7973302031067843E-002   6.0491325396355086E-003   5.7581120686687498E-002
  -1.6247424924504983E-002   5.6451434873299178E-003   5.8159615994260672E-002
  -2.7120182642848465E-002   7.6906493720779734E-003   5.2850480939040143E-002
  -2.5222713417375985E-002   7.0729511028006231E-003   5.2452124375271469E-002
  -2.3325244191903492E-002   6.3178227681445626E-003   5.2176125082808590E-002
  -2.1427774966431022E-002   5.4252643681091638E-003   5.2022483061651137E-002
  -1.9530305740958542E-002   4.3952759026949506E-003   5.1991198311799297E-002
  -3.1274511567304986E-002   8.2562965573154679E-003   4.8305980916748814E-002
  -2.9303919918130958E-002   7.3568403162105334E-003   4.7478506234086060E-002
  -2.7333328268956916E-002   6.2052068626331086E-003   4.6674919127520670E-002
  -2.5362736619782812E-002   4.8013961965826697E-003   4.5895219597052908E-002
  -2.3392144970608819E-002   3.1454083180599834E-003   4.5139407642682539E-002
  -5.7151054177470628E-002   0.0000000000000000        3.4698368545945379E-002
  -5.7940488339706796E-002   2.0827161415772552E-003   3.8350325211733094E-002
  -5.8729922501942963E-002   4.1351473603339767E-003   4.2215680498942719E-002
  -5.9519356664179138E-002   6.1572936562701609E-003   4.6294434407574254E-002
  -6.0308790826415298E-002   8.1491550293858097E-003   5.0586586937627694E-002
  -6.5818272082069654E-002   0.0000000000000000        3.7218083373666062E-002
  -6.6623302645268473E-002   2.9130042453418522E-003   4.0840723551399935E-002
  -6.7428333208467278E-002   5.7688748764597036E-003   4.4218772305786601E-002
  -6.8233363771666097E-002   8.5676118933535501E-003   4.7352229636826081E-002
  -6.9038394334864903E-002   1.1309215296023389E-002   5.0241095544518367E-002
  -7.4242102183815717E-002   0.0000000000000000        4.0581510650853088E-002
  -7.5520719192746277E-002   3.7432923491064517E-003   4.4147985649129626E-002
  -7.6799336201676824E-002   7.4026023925854298E-003   4.7011879179289888E-002
  -7.8077953210607370E-002   1.0977930130436941E-002   4.9173191241333847E-002
  -7.9356570219537931E-002   1.4469275562660974E-002   5.0631921835261516E-002
  -8.2422544482708804E-002   0.0000000000000000        4.4788650377506442E-002
  -8.4632737982140202E-002   4.5735804528710469E-003   4.8272111504922194E-002
  -8.6842931481571600E-002   9.0363299087111593E-003   5.0595001119452553E-002
  -8.9053124981002985E-002   1.3388248367520322E-002   5.1757319221097525E-002
  -9.1263318480434369E-002   1.7629335829298556E-002   5.1759065809857119E-002
  -9.0359598978748942E-002   0.0000000000000000        4.9839502553626125E-002
  -9.3959359013450275E-002   5.4038685566356482E-003   5.3213101118777625E-002
  -9.7559119048151594E-002   1.0670057424836881E-002   5.4968138126274622E-002
 -0.10115887908285294        1.5798566604603721E-002   5.5104613576117151E-002
 -0.10475863911755426        2.0789396095936139E-002   5.3622527468305176E-002
  -6.0308790826415298E-002   8.1491550293858097E-003   5.0586586937627694E-002
  -6.0607031335303603E-002   1.0027818763292094E-002   5.1526694664874979E-002
  -6.0905271844191922E-002   1.1710372141600235E-002   5.2254015437325316E-002
  -6.1203512353080226E-002   1.3196815164310182E-002   5.2768549254978717E-002
  -6.1501752861968531E-002   1.4487147831422000E-002   5.3070296117835140E-002
  -6.9038394334864903E-002   1.1309215296023389E-002   5.0241095544518367E-002
  -6.9311671095118182E-002   1.3753365538822365E-002   4.9463440068416291E-002
  -6.9584947855371435E-002   1.5659743076103641E-002   4.8948499044381262E-002
  -6.9858224615624687E-002   1.7028347907867180E-002   4.8696272472413246E-002
  -7.0131501375877939E-002   1.7859180034113048E-002   4.8706760352512340E-002
  -7.9356570219537931E-002   1.4469275562660974E-002   5.0631921835261516E-002
  -7.9129381824292161E-002   1.7478912314352644E-002   4.7794840805890512E-002
  -7.8902193429046377E-002   1.9609114010607057E-002   4.5695975635450546E-002
  -7.8675005033800580E-002   2.0859880651424193E-002   4.4335326323941604E-002
  -7.8447816638554796E-002   2.1231212236804093E-002   4.3712892871363748E-002
  -9.1263318480434369E-002   1.7629335829298556E-002   5.1759065809857119E-002
  -9.0060163522825545E-002   2.1204459089882926E-002   4.6520896877297650E-002
  -8.8857008565216750E-002   2.3558484945110470E-002   4.2496445210533244E-002
  -8.7653853607607954E-002   2.4691413394981224E-002   3.9685710809563790E-002
  -8.6450698649999130E-002   2.4603244439495124E-002   3.8088693674389454E-002
 -0.10475863911755426        2.0789396095936139E-002   5.3622527468305176E-002
 -0.10210401619071842        2.4930005865413191E-002   4.5641608282637691E-002
  -9.9449393263882579E-002   2.7507855879613879E-002   3.9349907769629239E-002
  -9.6794770337046726E-002   2.8522946138538199E-002   3.4747425929279804E-002
  -9.4140147410210900E-002   2.7975276642186186E-002   3.1834162761589430E-002
  -6.1501752861968531E-002   1.4487147831422000E-002   5.3070296117835140E-002
  -6.0174217722243274E-002   1.5486520937315701E-002   5.1655526496027837E-002
  -5.8846682582518031E-002   1.6100085276371266E-002   5.0689271110604242E-002
  -5.7519147442792788E-002   1.6327840848588727E-002   5.0171529961564404E-002
  -5.6191612303067538E-002   1.6169787653968162E-002   5.0102303048908267E-002
  -7.0131501375877939E-002   1.7859180034113048E-002   4.8706760352512340E-002
  -6.8401395890456074E-002   1.8310652527132827E-002   4.7256102427364215E-002
  -6.6671290405034195E-002   1.8541178459218169E-002   4.6162070957225611E-002
  -6.4941184919612316E-002   1.8550757830369143E-002   4.5424665942096577E-002
  -6.3211079434190451E-002   1.8339390640585679E-002   4.5043887381977100E-002
  -7.8447816638554796E-002   2.1231212236804093E-002   4.3712892871363748E-002
  -7.6407028588810488E-002   2.1134784116949981E-002   4.2391208848778526E-002
  -7.4366240539066167E-002   2.0982271642065144E-002   4.1334263499828654E-002
  -7.2325452489321845E-002   2.0773674812149558E-002   4.0542056824514172E-002
  -7.0284664439577496E-002   2.0508993627203244E-002   4.0014588822834957E-002
  -8.6450698649999130E-002   2.4603244439495124E-002   3.8088693674389454E-002
  -8.4191115817306553E-002   2.3958915706767156E-002   3.7060845760270834E-002
  -8.1931532984613961E-002   2.3423364824912061E-002   3.6205848738413308E-002
  -7.9671950151921397E-002   2.2996591793929971E-002   3.5523702608816980E-002
  -7.7412367319228792E-002   2.2678596613820799E-002   3.5014407371481773E-002
  -9.4140147410210900E-002   2.7975276642186186E-002   3.1834162761589430E-002
  -9.1753657575944225E-002   2.6783047296584268E-002   3.1265013161841042E-002
  -8.9367167741677592E-002   2.5864458007759029E-002   3.0776826672979603E-002
  -8.6980677907410917E-002   2.5219508775710379E-002   3.0369603295005120E-002
  -8.4594188073144269E-002   2.4848199600438353E-002   3.0043343027917668E-002
  -5.6191612303067538E-002   1.6169787653968162E-002   5.0102303048908267E-002
  -5.4676718805954642E-002   1.5817019943432188E-002   4.9785989087224924E-002
  -5.3161825308841754E-002   1.5460631967903770E-002   4.9599984661255946E-002
  -5.1646931811728886E-002   1.5100623727382873E-002   4.9544289771001240E-002
  -5.0132038314615976E-002   1.4736995221869414E-002   4.9618904416460968E-002
  -6.3211079434190451E-002   1.8339390640585679E-002   4.5043887381977100E-002
  -6.1544090902056758E-002   1.7997800984916178E-002   4.4673681727420943E-002
  -5.9877102369923087E-002   1.7616712958408963E-002   4.4477356607192015E-002
  -5.8210113837789380E-002   1.7196126561064264E-002   4.4454912021290358E-002
  -5.6543125305655730E-002   1.6736041792881795E-002   4.4606347969715882E-002
  -7.0284664439577496E-002   2.0508993627203244E-002   4.0014588822834957E-002
  -6.8422009873810183E-002   2.0178582026400150E-002   3.9554613369560829E-002
  -6.6559355308042800E-002   1.9772793948914243E-002   3.9312089449226824E-002
  -6.4696700742275473E-002   1.9291629394745581E-002   3.9287017061832928E-002
  -6.2834046176508132E-002   1.8735088363894079E-002   3.9479396207379135E-002
  -7.7412367319228792E-002   2.2678596613820799E-002   3.5014407371481773E-002
  -7.5310475721214867E-002   2.2359363067884115E-002   3.4428784013644534E-002
  -7.3208584123200943E-002   2.1928874939419533E-002   3.4104183187360339E-002
  -7.1106692525187046E-002   2.1387132228426978E-002   3.4040604892629125E-002
  -6.9004800927173121E-002   2.0734134934906411E-002   3.4238049129450880E-002
  -8.4594188073144269E-002   2.4848199600438353E-002   3.0043343027917668E-002
  -8.2209488444270895E-002   2.4540144109368084E-002   2.9296193659672148E-002
  -7.9824788815397535E-002   2.4084955929924684E-002   2.8853637821592518E-002
  -7.7440089186524147E-002   2.3482635062108313E-002   2.8715675513678832E-002
  -7.5055389557650759E-002   2.2733181505918715E-002   2.8882306735931007E-002
  -5.0132038314615976E-002   1.4736995221869414E-002   4.9618904416460968E-002
  -4.8581984805735140E-002   1.4350836423883490E-002   4.9090022493321533E-002
  -4.7031931296854325E-002   1.3923237305945045E-002   4.8812010652385732E-002
  -4.5481877787973524E-002   1.3454197868054065E-002   4.8784868893653473E-002
  -4.3931824279092674E-002   1.2943718110210722E-002   4.9008597217124805E-002
  -5.6543125305655730E-002   1.6736041792881795E-002   4.4606347969715882E-002
  -5.4757386674707198E-002   1.6245082017178489E-002   4.4150601224549654E-002
  -5.2971648043758687E-002   1.5731870597271075E-002   4.3915354641315171E-002
  -5.1185909412810170E-002   1.5196407533159741E-002   4.3900608220012426E-002
  -4.9400170781861680E-002   1.4638692824844424E-002   4.4106361960641521E-002
  -6.2834046176508132E-002   1.8735088363894079E-002   3.9479396207379135E-002
  -6.0842992343763745E-002   1.8139327610473419E-002   3.9115973315934568E-002
  -5.8851938511019365E-002   1.7540503888597191E-002   3.8942680666149962E-002
  -5.6860884678274937E-002   1.6938617198265418E-002   3.8959518258025294E-002
  -5.4869830845530577E-002   1.6333667539478153E-002   3.9166486091560593E-002
  -6.9004800927173121E-002   2.0734134934906411E-002   3.4238049129450880E-002
  -6.6838801812904705E-002   2.0033573203768328E-002   3.3986138767476484E-002
  -6.4672802698636317E-002   1.9349137179923336E-002   3.3893988726890215E-002
  -6.2506803584367859E-002   1.8680826863371146E-002   3.3961599007691974E-002
  -6.0340804470099443E-002   1.8028642254111896E-002   3.4188969609881784E-002
  -7.5055389557650759E-002   2.2733181505918715E-002   2.8882306735931007E-002
  -7.2744815082130154E-002   2.1927818797063445E-002   2.8761097579175249E-002
  -7.0434240606609536E-002   2.1157770471249344E-002   2.8769278823535624E-002
  -6.8123666131088917E-002   2.0423036528476740E-002   2.8906850469012431E-002
  -6.5813091655568284E-002   1.9723616968745639E-002   2.9173812515605468E-002
  -4.3931824279092674E-002   1.2943718110210722E-002   4.9008597217124805E-002
  -4.2205056480256020E-002   1.2413971730633522E-002   4.8643205593689620E-002
  -4.0478288681419367E-002   1.1887132427541247E-002   4.8449921675860125E-002
  -3.8751520882582706E-002   1.1363200200934176E-002   4.8428745463636333E-002
  -3.7024753083746059E-002   1.0842175050811975E-002   4.8579676957018370E-002
  -4.9400170781861680E-002   1.4638692824844424E-002   4.4106361960641521E-002
  -4.7495224092828629E-002   1.4070263209425921E-002   4.3747592414138448E-002
  -4.5590277403795634E-002   1.3502655424005527E-002   4.3573072942422353E-002
  -4.3685330714762612E-002   1.2935869468582800E-002   4.3582803545493209E-002
  -4.1780384025729575E-002   1.2369905343158072E-002   4.3776784223351073E-002
  -5.4869830845530577E-002   1.6333667539478153E-002   3.9166486091560593E-002
  -5.2774562897119966E-002   1.5726554688218541E-002   3.8812253375502467E-002
  -5.0679294948709333E-002   1.5118178420469641E-002   3.8654413103412638E-002
  -4.8584027000298687E-002   1.4508538736231480E-002   3.8692965275291022E-002
  -4.6488759051888026E-002   1.3897635635504058E-002   3.8927909891137633E-002
  -6.0340804470099443E-002   1.8028642254111896E-002   3.4188969609881784E-002
  -5.8043072893129960E-002   1.7382846167011107E-002   3.3837188477781659E-002
  -5.5745341316160484E-002   1.6733701416933644E-002   3.3693942158830918E-002
  -5.3447609739190972E-002   1.6081208003880049E-002   3.3759230653029645E-002
  -5.1149878162221482E-002   1.5425365927850099E-002   3.4033053960377896E-002
  -6.5813091655568284E-002   1.9723616968745639E-002   2.9173812515605468E-002
  -6.3300754080858668E-002   1.9039137645803506E-002   2.8822397720976112E-002
  -6.0788416506149079E-002   1.8349224413397994E-002   2.8691660108677380E-002
  -5.8276078931439462E-002   1.7653877271528801E-002   2.8781599678709427E-002
  -5.5763741356729846E-002   1.6953096220196140E-002   2.9092216431072127E-002
  -3.7024753083746059E-002   1.0842175050811975E-002   4.8579676957018370E-002
  -3.5587192704635784E-002   1.0290878936058623E-002   4.8311606637229443E-002
  -3.4149632325525522E-002   9.6761338155583604E-003   4.8176633857254875E-002
  -3.2712071946415247E-002   8.9979396893103240E-003   4.8174758617094679E-002
  -3.1274511567304986E-002   8.2562965573154679E-003   4.8305980916748814E-002
  -4.1780384025729575E-002   1.2369905343158072E-002   4.3776784223351073E-002
  -4.0209432537567869E-002   1.1779984383296777E-002   4.3500171136315352E-002
  -3.8638481049406148E-002   1.1141327924565014E-002   4.3357242727568218E-002
  -3.7067529561244449E-002   1.0453935966962341E-002   4.3347998997109546E-002
  -3.5496578073082707E-002   9.7178085104889234E-003   4.3472439944939600E-002
  -4.6488759051888026E-002   1.3897635635504058E-002   3.8927909891137633E-002
  -4.4783829316200688E-002   1.3269089830534930E-002   3.8657467543731561E-002
  -4.3078899580513259E-002   1.2606522033571564E-002   3.8521297013088283E-002
  -4.1373969844825859E-002   1.1909932244614027E-002   3.8519398299207849E-002
  -3.9669040109138444E-002   1.1179320463662240E-002   3.8651771402090154E-002
  -5.1149878162221482E-002   1.5425365927850099E-002   3.4033053960377896E-002
  -4.9310383040534179E-002   1.4758195277773112E-002   3.3783495859478152E-002
  -4.7470887918846884E-002   1.4071716142578277E-002   3.3668796713815334E-002
  -4.5631392797159588E-002   1.3365928522265768E-002   3.3688956523389539E-002
  -4.3791897675472237E-002   1.2640832416835515E-002   3.3843975288200781E-002
  -5.5763741356729846E-002   1.6953096220196140E-002   2.9092216431072127E-002
  -5.3789093710568392E-002   1.6247300725011182E-002   2.8878256083554987E-002
  -5.1814446064406966E-002   1.5536910251584879E-002   2.8799741829749093E-002
  -4.9839798418245554E-002   1.4821924799917674E-002   2.8856673669654373E-002
  -4.7865150772084086E-002   1.4102344370009012E-002   2.9049051603271203E-002
  -3.1274511567304986E-002   8.2562965573154679E-003   4.8305980916748814E-002
  -2.9303919918130958E-002   7.3568403162105334E-003   4.7478506234086060E-002
  -2.7333328268956916E-002   6.2052068626331086E-003   4.6674919127520670E-002
  -2.5362736619782812E-002   4.8013961965826697E-003   4.5895219597052908E-002
  -2.3392144970608819E-002   3.1454083180599834E-003   4.5139407642682539E-002
  -3.5496578073082707E-002   9.7178085104889234E-003   4.3472439944939600E-002
  -3.3452708589295561E-002   8.8975785682421371E-003   4.2558136647939976E-002
  -3.1408839105508381E-002   7.9578791533190252E-003   4.1766501444069015E-002
  -2.9364969621721238E-002   6.8987102657200317E-003   4.1097534333326732E-002
  -2.7321100137934096E-002   5.7200719054447680E-003   4.0551235315713252E-002
  -3.9669040109138444E-002   1.1179320463662240E-002   3.8651771402090154E-002
  -3.7453112273706984E-002   1.0438316820273519E-002   3.7783347230550240E-002
  -3.5237184438275573E-002   9.7105514440051569E-003   3.7136371669170241E-002
  -3.3021256602844044E-002   8.9960243348572253E-003   3.6710844717949845E-002
  -3.0805328767412696E-002   8.2947354928296635E-003   3.6506766376889765E-002
  -4.3791897675472237E-002   1.2640832416835515E-002   3.3843975288200781E-002
  -4.1305130971365359E-002   1.1979055072304901E-002   3.3154137981916881E-002
  -3.8818364267258439E-002   1.1463223734691236E-002   3.2784529802824265E-002
  -3.6331597563151519E-002   1.1093338403994502E-002   3.2735150750922558E-002
  -3.3844830859044578E-002   1.0869399080214615E-002   3.3006000826211884E-002
  -4.7865150772084086E-002   1.4102344370009012E-002   2.9049051603271203E-002
  -4.5008764682270552E-002   1.3519793324336560E-002   2.8670508902039982E-002
  -4.2152378592456963E-002   1.3215896025377288E-002   2.8710975845031128E-002
  -3.9295992502643318E-002   1.3190652473131635E-002   2.9170452432244504E-002
  -3.6439606412829784E-002   1.3444062667599344E-002   3.0048938663680191E-002
  -9.0359598978748942E-002   0.0000000000000000        4.9839502553626125E-002
  -9.3959359013450275E-002   5.4038685566356482E-003   5.3213101118777625E-002
  -9.7559119048151594E-002   1.0670057424836881E-002   5.4968138126274622E-002
 -0.10115887908285294        1.5798566604603721E-002   5.5104613576117151E-002
 -0.10475863911755426        2.0789396095936139E-002   5.3622527468305176E-002
 -0.10329138330334478        0.0000000000000000        5.8667076865126691E-002
 -0.10682815395906373        1.0884069787244571E-002   5.2122168627829771E-002
 -0.11036492461478264        1.9171398704681722E-002   4.7321800706152134E-002
 -0.11390169527050158        2.4861986752311462E-002   4.4265973100093774E-002
 -0.11743846592622054        2.7955833930133785E-002   4.2954685809654690E-002
 -0.12645601508790499        0.0000000000000000        7.4204382997922674E-002
 -0.12656669449136776        1.6364271017853496E-002   5.5281906776804342E-002
 -0.12667737389483055        2.7672739984526566E-002   4.1467072744579052E-002
 -0.12678805329829332        3.3925406900019210E-002   3.2759880901246805E-002
 -0.12689873270175611        3.5122271764331428E-002   2.9160331246807572E-002
 -0.15985349433242960        0.0000000000000000        9.6451420952014089E-002
 -0.15317498061036247        2.1844472248462421E-002   6.2692315565701345E-002
 -0.14649646688829526        3.6174081264371390E-002   3.7403954241555390E-002
 -0.13981795316622811        4.2988827047726955E-002   2.0586336979576236E-002
 -0.13313943944416101        4.2288709598529074E-002   1.2239463779763900E-002
 -0.20348382103691859        0.0000000000000000       0.12540819072740095     
 -0.18665301231604775        2.7324673479071342E-002   7.4353394994520747E-002
 -0.16982220359517691        4.4675422544216241E-002   3.5132445197081134E-002
 -0.15299139487430605        5.2052247195434699E-002   7.7453413350820760E-003
 -0.13616058615343521        4.9455147432726720E-002  -7.8079165914764076E-003
 -0.10475863911755426        2.0789396095936139E-002   5.3622527468305176E-002
 -0.10210401619071842        2.4930005865413191E-002   4.5641608282637691E-002
  -9.9449393263882579E-002   2.7507855879613879E-002   3.9349907769629239E-002
  -9.6794770337046726E-002   2.8522946138538199E-002   3.4747425929279804E-002
  -9.4140147410210900E-002   2.7975276642186186E-002   3.1834162761589430E-002
 -0.11743846592622054        2.7955833930133785E-002   4.2954685809654690E-002
 -0.11348253712444201        2.9427532407265304E-002   3.6700255715976259E-002
 -0.10952660832266352        3.0251674352822642E-002   3.1359218699524100E-002
 -0.10557067952088503        3.0428259766805767E-002   2.6931574760298199E-002
 -0.10161475071910653        2.9957288649214729E-002   2.3417323898298627E-002
 -0.12689873270175611        3.5122271764331428E-002   2.9160331246807572E-002
 -0.12241732362046769        3.3925058949117418E-002   2.5547593468820389E-002
 -0.11793591453917929        3.2995492826031397E-002   2.2072423172626657E-002
 -0.11345450545789088        3.2333573395073367E-002   1.8734820358226521E-002
 -0.10897309637660248        3.1939300656243272E-002   1.5534785025619894E-002
 -0.13313943944416101        4.2288709598529074E-002   1.2239463779763900E-002
 -0.12890837567879537        3.8422585490969552E-002   1.2183621541170005E-002
 -0.12467731191342984        3.5739311299240184E-002   1.1489521188936988E-002
 -0.12044624814806427        3.4238887023340915E-002   1.0157162723064651E-002
 -0.11621518438269872        3.3921312663271828E-002   8.1865461435532139E-003
 -0.13616058615343521        4.9455147432726720E-002  -7.8079165914764076E-003
 -0.13295569329942519        4.2920112032821658E-002  -3.3916600669747464E-003
 -0.12975080044541520        3.8483129772448887E-002  -3.8948725154499056E-004
 -0.12654590759140522        3.6144200651608491E-002   1.1986018548128070E-003
 -0.12334101473739523        3.5903324670300385E-002   1.3726072520985622E-003
  -9.4140147410210900E-002   2.7975276642186186E-002   3.1834162761589430E-002
  -9.1753657575944225E-002   2.6783047296584268E-002   3.1265013161841042E-002
  -8.9367167741677592E-002   2.5864458007759029E-002   3.0776826672979603E-002
  -8.6980677907410917E-002   2.5219508775710379E-002   3.0369603295005120E-002
  -8.4594188073144269E-002   2.4848199600438353E-002   3.0043343027917668E-002
 -0.10161475071910653        2.9957288649214729E-002   2.3417323898298627E-002
  -9.9133319818138818E-002   2.9187917970342557E-002   2.3140608638658293E-002
  -9.6651888917171150E-002   2.8469304700482381E-002   2.2972812401533049E-002
  -9.4170458016203426E-002   2.7801448839634087E-002   2.2913935186922876E-002
  -9.1689027115235744E-002   2.7184350387797818E-002   2.2963976994827842E-002
 -0.10897309637660248        3.1939300656243272E-002   1.5534785025619894E-002
 -0.10636876849730559        3.1592788644100867E-002   1.5327621458322853E-002
 -0.10376444061800873        3.1074151393205757E-002   1.5257332825169258E-002
 -0.10116011273871180        3.0383388903557903E-002   1.5323919126158778E-002
  -9.8555784859414949E-002   2.9520501175157268E-002   1.5527380361291435E-002
 -0.11621518438269872        3.3921312663271828E-002   8.1865461435532139E-003
 -0.11346000361344448        3.3997659317859225E-002   7.8260516208349413E-003
 -0.11070482284419030        3.3678998085929022E-002   7.6303879438881289E-003
 -0.10794964207493614        3.2965328967481666E-002   7.5995551127126301E-003
 -0.10519446130568190        3.1856651962516781E-002   7.7335531273085307E-003
 -0.12334101473739523        3.5903324670300385E-002   1.3726072520985622E-003
 -0.12040702516655560        3.6402529991617472E-002   6.3589912619442523E-004
 -0.11747303559571595        3.6283844778652458E-002   9.1977757689772066E-005
 -0.11453904602487629        3.5547269031405378E-002  -2.5915685341545806E-004
 -0.11160505645403668        3.4192802749876239E-002  -4.1750470712104137E-004
  -8.4594188073144269E-002   2.4848199600438353E-002   3.0043343027917668E-002
  -8.2209488444270895E-002   2.4540144109368084E-002   2.9296193659672148E-002
  -7.9824788815397535E-002   2.4084955929924684E-002   2.8853637821592518E-002
  -7.7440089186524147E-002   2.3482635062108313E-002   2.8715675513678832E-002
  -7.5055389557650759E-002   2.2733181505918715E-002   2.8882306735931007E-002
  -9.1689027115235744E-002   2.7184350387797818E-002   2.2963976994827842E-002
  -8.9032599868433870E-002   2.6569450232002523E-002   2.2315296259605655E-002
  -8.6376172621631997E-002   2.5908189259277271E-002   2.1905477230074473E-002
  -8.3719745374830123E-002   2.5200567469622057E-002   2.1734519906234408E-002
  -8.1063318128028236E-002   2.4446584863036830E-002   2.1802424288085334E-002
  -9.8555784859414949E-002   2.9520501175157268E-002   1.5527380361291435E-002
  -9.5693361819159439E-002   2.8598756354636976E-002   1.5077940130535698E-002
  -9.2830938778903888E-002   2.7731422588629803E-002   1.4801629780996063E-002
  -8.9968515738648364E-002   2.6918499877135831E-002   1.4698449312672678E-002
  -8.7106092698392895E-002   2.6159988220154903E-002   1.4768398725565603E-002
 -0.10519446130568190        3.1856651962516781E-002   7.7335531273085307E-003
 -0.10219177429644757        3.0628062477271435E-002   7.5841252724620865E-003
  -9.9189087287213221E-002   2.9554655917982377E-002   7.5420954743574270E-003
  -9.6186400277978895E-002   2.8636432284649509E-002   7.6074637329937560E-003
  -9.3183713268744611E-002   2.7873391577273053E-002   7.7802300483717276E-003
 -0.11160505645403668        3.4192802749876239E-002  -4.1750470712104137E-004
 -0.10852783730029836        3.2657368599905812E-002  -1.6614831461481128E-004
 -0.10545061814656001        3.1377889247334936E-002   1.2687431015820372E-004
 -0.10237339899282168        3.0354364692163367E-002   4.6156316719774687E-004
  -9.9296179839083343E-002   2.9586794934391036E-002   8.3791825650370022E-004
  -7.5055389557650759E-002   2.2733181505918715E-002   2.8882306735931007E-002
  -7.2744815082130154E-002   2.1927818797063445E-002   2.8761097579175249E-002
  -7.0434240606609536E-002   2.1157770471249344E-002   2.8769278823535624E-002
  -6.8123666131088917E-002   2.0423036528476740E-002   2.8906850469012431E-002
  -6.5813091655568284E-002   1.9723616968745639E-002   2.9173812515605468E-002
  -8.1063318128028236E-002   2.4446584863036830E-002   2.1802424288085334E-002
  -7.8616166995261388E-002   2.3670306172235520E-002   2.1672096903241969E-002
  -7.6169015862494582E-002   2.2895796129932068E-002   2.1685532431774658E-002
  -7.3721864729727818E-002   2.2123054736126281E-002   2.1842730873683682E-002
  -7.1274713596960915E-002   2.1352081990818395E-002   2.2143692228968670E-002
  -8.7106092698392895E-002   2.6159988220154903E-002   1.4768398725565603E-002
  -8.4507992396119974E-002   2.5412793547407740E-002   1.4595407378091070E-002
  -8.1909892093847067E-002   2.4633821788614733E-002   1.4580551456252467E-002
  -7.9311791791574146E-002   2.3823072943775822E-002   1.4723830960049865E-002
  -7.6713691489301253E-002   2.2980547012891012E-002   1.5025245889483271E-002
  -9.3183713268744611E-002   2.7873391577273053E-002   7.7802300483717276E-003
  -9.0420291284705745E-002   2.7155280922579832E-002   7.5310290037223521E-003
  -8.7656869300666948E-002   2.6371847447297314E-002   7.4543358969686507E-003
  -8.4893447316628137E-002   2.5523091151425085E-002   7.5501507281110873E-003
  -8.2130025332589299E-002   2.4609012034963643E-002   7.8184734971493176E-003
  -9.9296179839083343E-002   2.9586794934391036E-002   8.3791825650370022E-004
  -9.6353063661018812E-002   2.8897768297751980E-002   4.7896178013590029E-004
  -9.3409947482954170E-002   2.8109873105979913E-002   3.0688575392372186E-004
  -9.0466831304889556E-002   2.7223109359074713E-002   3.2169017786730023E-004
  -8.7523715126824997E-002   2.6237477057036274E-002   5.2337505196647927E-004
  -6.5813091655568284E-002   1.9723616968745639E-002   2.9173812515605468E-002
  -6.3300754080858668E-002   1.9039137645803506E-002   2.8822397720976112E-002
  -6.0788416506149079E-002   1.8349224413397994E-002   2.8691660108677380E-002
  -5.8276078931439462E-002   1.7653877271528801E-002   2.8781599678709427E-002
  -5.5763741356729846E-002   1.6953096220196140E-002   2.9092216431072127E-002
  -7.1274713596960915E-002   2.1352081990818395E-002   2.2143692228968670E-002
  -6.8548568977216826E-002   2.0585214749867187E-002   2.1808555571471488E-002
  -6.5822424357472681E-002   1.9824789869131609E-002   2.1680355821712544E-002
  -6.3096279737728592E-002   1.9070807348611898E-002   2.1759092979691835E-002
  -6.0370135117984433E-002   1.8323267188307790E-002   2.2044767045409475E-002
  -7.6713691489301253E-002   2.2980547012891012E-002   1.5025245889483271E-002
  -7.3787480099115094E-002   2.2131291853930729E-002   1.4718263638797274E-002
  -7.0861268708928893E-002   2.1300355324865440E-002   1.4604478021257354E-002
  -6.7935057318742720E-002   2.0487737425694826E-002   1.4683889036863147E-002
  -6.5008845928556533E-002   1.9693438156419496E-002   1.4956496685614662E-002
  -8.2130025332589299E-002   2.4609012034963643E-002   7.8184734971493176E-003
  -7.9017487446553542E-002   2.3677368957994424E-002   7.5515219229540659E-003
  -7.5904949560517757E-002   2.2775920780599302E-002   7.4640267073119802E-003
  -7.2792411674481972E-002   2.1904667502778061E-002   7.5559878502233129E-003
  -6.9679873788446242E-002   2.1063609124531119E-002   7.8274053516881811E-003
  -8.7523715126824997E-002   2.6237477057036274E-002   5.2337505196647927E-004
  -8.4238591019532072E-002   2.5223446062057897E-002   3.0833042394101673E-004
  -8.0953466912239203E-002   2.4251486236332859E-002   2.5900187987649981E-004
  -7.7668342804946278E-002   2.3321597579861096E-002   3.7538941977258503E-004
  -7.4383218697653408E-002   2.2433780092642852E-002   6.5749304362983096E-004
  -5.5763741356729846E-002   1.6953096220196140E-002   2.9092216431072127E-002
  -5.3789093710568392E-002   1.6247300725011182E-002   2.8878256083554987E-002
  -5.1814446064406966E-002   1.5536910251584879E-002   2.8799741829749093E-002
  -4.9839798418245554E-002   1.4821924799917674E-002   2.8856673669654373E-002
  -4.7865150772084086E-002   1.4102344370009012E-002   2.9049051603271203E-002
  -6.0370135117984433E-002   1.8323267188307790E-002   2.2044767045409475E-002
  -5.8247685734976073E-002   1.7578961544752858E-002   2.1808561139231158E-002
  -5.6125236351967762E-002   1.6834682574480453E-002   2.1732512613035410E-002
  -5.4002786968959396E-002   1.6090430277490533E-002   2.1816621466822186E-002
  -5.1880337585951036E-002   1.5346204653783335E-002   2.2060887700591558E-002
  -6.5008845928556533E-002   1.9693438156419496E-002   1.4956496685614662E-002
  -6.2713883522429958E-002   1.8910622364494672E-002   1.4702666872298986E-002
  -6.0418921116303349E-002   1.8132454897375749E-002   1.4633705725237110E-002
  -5.8123958710176754E-002   1.7358935755063393E-002   1.4749613244429312E-002
  -5.5828996304050166E-002   1.6590064937557547E-002   1.5050389429875327E-002
  -6.9679873788446242E-002   2.1063609124531119E-002   7.8274053516881811E-003
  -6.7187687072930019E-002   2.0242283184236418E-002   7.5605732827587410E-003
  -6.4695500357413810E-002   1.9430227220271351E-002   7.5033211663546907E-003
  -6.2203313641897615E-002   1.8627441232636752E-002   7.6556490024756937E-003
  -5.9711126926381392E-002   1.7833925221331870E-002   8.0175567911221560E-003
  -7.4383218697653408E-002   2.2433780092642852E-002   6.5749304362983096E-004
  -7.1669096386476339E-002   2.1573944003977830E-002   3.8228037061072140E-004
  -6.8954974075299102E-002   2.0727999543166731E-002   3.4135893638781445E-004
  -6.6240851764121950E-002   1.9895946710209417E-002   5.3472874096159584E-004
  -6.3526729452944797E-002   1.9077785505106082E-002   9.6238978433194067E-004
  -4.7865150772084086E-002   1.4102344370009012E-002   2.9049051603271203E-002
  -4.5008764682270552E-002   1.3519793324336560E-002   2.8670508902039982E-002
  -4.2152378592456963E-002   1.3215896025377288E-002   2.8710975845031128E-002
  -3.9295992502643318E-002   1.3190652473131635E-002   2.9170452432244504E-002
  -3.6439606412829784E-002   1.3444062667599344E-002   3.0048938663680191E-002
  -5.1880337585951036E-002   1.5346204653783335E-002   2.2060887700591558E-002
  -4.8696566396551830E-002   1.4641160786570739E-002   2.1835743843701960E-002
  -4.5512795207152609E-002   1.4014453759064904E-002   2.1846360541761256E-002
  -4.2329024017753417E-002   1.3466083571266316E-002   2.2092737794769335E-002
  -3.9145252828354238E-002   1.2996050223174294E-002   2.2574875602726974E-002
  -5.5828996304050166E-002   1.6590064937557547E-002   1.5050389429875327E-002
  -5.2501089104338483E-002   1.5762528248804780E-002   1.4778327510320377E-002
  -4.9173181904626884E-002   1.4813011492752534E-002   1.4558777056441485E-002
  -4.5845274704915284E-002   1.3741514669400805E-002   1.4391738068238340E-002
  -4.2517367505203671E-002   1.2548037778749466E-002   1.4277210545710961E-002
  -5.9711126926381392E-002   1.7833925221331870E-002   8.0175567911221560E-003
  -5.6422332805630568E-002   1.6883895711039112E-002   7.4982599018956417E-003
  -5.3133538684879689E-002   1.5611569226440546E-002   6.8482253890720934E-003
  -4.9844744564128796E-002   1.4016945767535391E-002   6.0674532526508711E-003
  -4.6555950443377972E-002   1.2100025334324638E-002   5.1559434926321951E-003
  -6.3526729452944797E-002   1.9077785505106082E-002   9.6238978433194067E-004
  -6.0460297500427918E-002   1.8005263173273223E-002  -4.4589815721973736E-006
  -5.7393865547911094E-002   1.6410126960127669E-002  -1.2852944603473082E-003
  -5.4327433595394298E-002   1.4292376865669948E-002  -2.8801166519930588E-003
  -5.1261001642877391E-002   1.1652012889899588E-002  -4.7889255565092270E-003
 </DataArray>
 </PointData>
 </Piece>
 <Piece  NumberOfPoints="          1600 "  NumberOfCells="         1024 ">
 <Points>
 <DataArray  type="Float64" NumberOfComponents="3"  format="ascii" >
  0.50000000000000000        0.0000000000000000        0.0000000000000000     
  0.53125000000000000        0.0000000000000000        0.0000000000000000     
  0.56250000000000000        0.0000000000000000        0.0000000000000000     
  0.59375000000000000        0.0000000000000000        0.0000000000000000     
  0.62500000000000000        0.0000000000000000        0.0000000000000000     
  0.50000000000000000        3.1250000000000000E-002   0.0000000000000000     
  0.53125000000000000        3.1250000000000000E-002   0.0000000000000000     
  0.56250000000000000        3.1250000000000000E-002   0.0000000000000000     
  0.59375000000000000        3.1250000000000000E-002   0.0000000000000000     
  0.62500000000000000        3.1250000000000000E-002   0.0000000000000000     
  0.50000000000000000        6.2500000000000000E-002   0.0000000000000000     
  0.53125000000000000        6.2500000000000000E-002   0.0000000000000000     
  0.56250000000000000        6.2500000000000000E-002   0.0000000000000000     
  0.59375000000000000        6.2500000000000000E-002   0.0000000000000000     
  0.62500000000000000        6.2500000000000000E-002   0.0000000000000000     
  0.50000000000000000        9.3750000000000000E-002   0.0000000000000000     
  0.53125000000000000        9.3750000000000000E-002   0.0000000000000000     
  0.56250000000000000        9.3750000000000000E-002   0.0000000000000000     
  0.59375000000000000        9.3750000000000000E-002   0.0000000000000000     
  0.62500000000000000        9.3750000000000000E-002   0.0000000000000000     
  0.50000000000000000       0.12500000000000000        0.0000000000000000     
  0.53125000000000000       0.12500000000000000        0.0000000000000000     
  0.56250000000000000       0.12500000000000000        0.0000000000000000     
  0.59375000000000000       0.12500000000000000        0.0000000000000000     
  0.62500000000000000       0.12500000000000000        0.0000000000000000     
  0.62500000000000000        0.0000000000000000        0.0000000000000000     
  0.65625000000000000        0.0000000000000000        0.0000000000000000     
  0.68750000000000000        0.0000000000000000        0.0000000000000000     
  0.71875000000000000        0.0000000000000000        0.0000000000000000     
  0.75000000000000000        0.0000000000000000        0.0000000000000000     
  0.62500000000000000        3.1250000000000000E-002   0.0000000000000000     
  0.65625000000000000        3.1250000000000000E-002   0.0000000000000000     
  0.68750000000000000        3.1250000000000000E-002   0.0000000000000000     
  0.71875000000000000        3.1250000000000000E-002   0.0000000000000000     
  0.75000000000000000        3.1250000000000000E-002   0.0000000000000000     
  0.62500000000000000        6.2500000000000000E-002   0.0000000000000000     
  0.65625000000000000        6.2500000000000000E-002   0.0000000000000000     
  0.68750000000000000        6.2500000000000000E-002   0.0000000000000000     
  0.71875000000000000        6.2500000000000000E-002   0.0000000000000000     
  0.75000000000000000        6.2500000000000000E-002   0.0000000000000000     
  0.62500000000000000        9.3750000000000000E-002   0.0000000000000000     
  0.65625000000000000        9.3750000000000000E-002   0.0000000000000000     
  0.68750000000000000        9.3750000000000000E-002   0.0000000000000000     
  0.71875000000000000        9.3750000000000000E-002   0.0000000000000000     
  0.75000000000000000        9.3750000000000000E-002   0.0000000000000000     
  0.62500000000000000       0.12500000000000000        0.0000000000000000     
  0.65625000000000000       0.12500000000000000        0.0000000000000000     
  0.68750000000000000       0.12500000000000000        0.0000000000000000     
  0.71875000000000000       0.12500000000000000        0.0000000000000000     
  0.75000000000000000       0.12500000000000000        0.0000000000000000     
  0.75000000000000000        0.0000000000000000        0.0000000000000000     
  0.78125000000000000        0.0000000000000000        0.0000000000000000     
  0.81250000000000000        0.0000000000000000        0.0000000000000000     
  0.84375000000000000        0.0000000000000000        0.0000000000000000     
  0.87500000000000000        0.0000000000000000        0.0000000000000000     
  0.75000000000000000        3.1250000000000000E-002   0.0000000000000000     
  0.78125000000000000        3.1250000000000000E-002   0.0000000000000000     
  0.81250000000000000        3.1250000000000000E-002   0.0000000000000000     
  0.84375000000000000        3.1250000000000000E-002   0.0000000000000000     
  0.87500000000000000        3.1250000000000000E-002   0.0000000000000000     
  0.75000000000000000        6.2500000000000000E-002   0.0000000000000000     
  0.78125000000000000        6.2500000000000000E-002   0.0000000000000000     
  0.81250000000000000        6.2500000000000000E-002   0.0000000000000000     
  0.84375000000000000        6.2500000000000000E-002   0.0000000000000000     
  0.87500000000000000        6.2500000000000000E-002   0.0000000000000000     
  0.75000000000000000        9.3750000000000000E-002   0.0000000000000000     
  0.78125000000000000        9.3750000000000000E-002   0.0000000000000000     
  0.81250000000000000        9.3750000000000000E-002   0.0000000000000000     
  0.84375000000000000        9.3750000000000000E-002   0.0000000000000000     
  0.87500000000000000        9.3750000000000000E-002   0.0000000000000000     
  0.75000000000000000       0.12500000000000000        0.0000000000000000     
  0.78125000000000000       0.12500000000000000        0.0000000000000000     
  0.81250000000000000       0.12500000000000000        0.0000000000000000     
  0.84375000000000000       0.12500000000000000        0.0000000000000000     
  0.87500000000000000       0.12500000000000000        0.0000000000000000     
  0.87500000000000000        0.0000000000000000        0.0000000000000000     
  0.90625000000000000        0.0000000000000000        0.0000000000000000     
  0.93750000000000000        0.0000000000000000        0.0000000000000000     
  0.96875000000000000        0.0000000000000000        0.0000000000000000     
   1.0000000000000000        0.0000000000000000        0.0000000000000000     
  0.87500000000000000        3.1250000000000000E-002   0.0000000000000000     
  0.90625000000000000        3.1250000000000000E-002   0.0000000000000000     
  0.93750000000000000        3.1250000000000000E-002   0.0000000000000000     
  0.96875000000000000        3.1250000000000000E-002   0.0000000000000000     
   1.0000000000000000        3.1250000000000000E-002   0.0000000000000000     
  0.87500000000000000        6.2500000000000000E-002   0.0000000000000000     
  0.90625000000000000        6.2500000000000000E-002   0.0000000000000000     
  0.93750000000000000        6.2500000000000000E-002   0.0000000000000000     
  0.96875000000000000        6.2500000000000000E-002   0.0000000000000000     
   1.0000000000000000        6.2500000000000000E-002   0.0000000000000000     
  0.87500000000000000        9.3750000000000000E-002   0.0000000000000000     
  0.90625000000000000        9.3750000000000000E-002   0.0000000000000000     
  0.93750000000000000        9.3750000000000000E-002   0.0000000000000000     
  0.96875000000000000        9.3750000000000000E-002   0.0000000000000000     
   1.0000000000000000        9.3750000000000000E-002   0.0000000000000000     
  0.87500000000000000       0.12500000000000000        0.0000000000000000     
  0.90625000000000000       0.12500000000000000        0.0000000000000000     
  0.93750000000000000       0.12500000000000000        0.0000000000000000     
  0.96875000000000000       0.12500000000000000        0.0000000000000000     
   1.0000000000000000       0.12500000000000000        0.0000000000000000     
   1.0000000000000000        0.0000000000000000        0.0000000000000000     
   1.0312500000000000        0.0000000000000000        0.0000000000000000     
   1.0625000000000000        0.0000000000000000        0.0000000000000000     
   1.0937500000000000        0.0000000000000000        0.0000000000000000     
   1.1250000000000000        0.0000000000000000        0.0000000000000000     
   1.0000000000000000        3.1250000000000000E-002   0.0000000000000000     
   1.0312500000000000        3.1250000000000000E-002   0.0000000000000000     
   1.0625000000000000        3.1250000000000000E-002   0.0000000000000000     
   1.0937500000000000        3.1250000000000000E-002   0.0000000000000000     
   1.1250000000000000        3.1250000000000000E-002   0.0000000000000000     
   1.0000000000000000        6.2500000000000000E-002   0.0000000000000000     
   1.0312500000000000        6.2500000000000000E-002   0.0000000000000000     
   1.0625000000000000        6.2500000000000000E-002   0.0000000000000000     
   1.0937500000000000        6.2500000000000000E-002   0.0000000000000000     
   1.1250000000000000        6.2500000000000000E-002   0.0000000000000000     
   1.0000000000000000        9.3750000000000000E-002   0.0000000000000000     
   1.0312500000000000        9.3750000000000000E-002   0.0000000000000000     
   1.0625000000000000        9.3750000000000000E-002   0.0000000000000000     
   1.0937500000000000        9.3750000000000000E-002   0.0000000000000000     
   1.1250000000000000        9.3750000000000000E-002   0.0000000000000000     
   1.0000000000000000       0.12500000000000000        0.0000000000000000     
   1.0312500000000000       0.12500000000000000        0.0000000000000000     
   1.0625000000000000       0.12500000000000000        0.0000000000000000     
   1.0937500000000000       0.12500000000000000        0.0000000000000000     
   1.1250000000000000       0.12500000000000000        0.0000000000000000     
   1.1250000000000000        0.0000000000000000        0.0000000000000000     
   1.1562500000000000        0.0000000000000000        0.0000000000000000     
   1.1875000000000000        0.0000000000000000        0.0000000000000000     
   1.2187500000000000        0.0000000000000000        0.0000000000000000     
   1.2500000000000000        0.0000000000000000        0.0000000000000000     
   1.1250000000000000        3.1250000000000000E-002   0.0000000000000000     
   1.1562500000000000        3.1250000000000000E-002   0.0000000000000000     
   1.1875000000000000        3.1250000000000000E-002   0.0000000000000000     
   1.2187500000000000        3.1250000000000000E-002   0.0000000000000000     
   1.2500000000000000        3.1250000000000000E-002   0.0000000000000000     
   1.1250000000000000        6.2500000000000000E-002   0.0000000000000000     
   1.1562500000000000        6.2500000000000000E-002   0.0000000000000000     
   1.1875000000000000        6.2500000000000000E-002   0.0000000000000000     
   1.2187500000000000        6.2500000000000000E-002   0.0000000000000000     
   1.2500000000000000        6.2500000000000000E-002   0.0000000000000000     
   1.1250000000000000        9.3750000000000000E-002   0.0000000000000000     
   1.1562500000000000        9.3750000000000000E-002   0.0000000000000000     
   1.1875000000000000        9.3750000000000000E-002   0.0000000000000000     
   1.2187500000000000        9.3750000000000000E-002   0.0000000000000000     
   1.2500000000000000        9.3750000000000000E-002   0.0000000000000000     
   1.1250000000000000       0.12500000000000000        0.0000000000000000     
   1.1562500000000000       0.12500000000000000        0.0000000000000000     
   1.1875000000000000       0.12500000000000000        0.0000000000000000     
   1.2187500000000000       0.12500000000000000        0.0000000000000000     
   1.2500000000000000       0.12500000000000000        0.0000000000000000     
   1.2500000000000000        0.0000000000000000        0.0000000000000000     
   1.2812500000000000        0.0000000000000000        0.0000000000000000     
   1.3125000000000000        0.0000000000000000        0.0000000000000000     
   1.3437500000000000        0.0000000000000000        0.0000000000000000     
   1.3750000000000000        0.0000000000000000        0.0000000000000000     
   1.2500000000000000        3.1250000000000000E-002   0.0000000000000000     
   1.2812500000000000        3.1250000000000000E-002   0.0000000000000000     
   1.3125000000000000        3.1250000000000000E-002   0.0000000000000000     
   1.3437500000000000        3.1250000000000000E-002   0.0000000000000000     
   1.3750000000000000        3.1250000000000000E-002   0.0000000000000000     
   1.2500000000000000        6.2500000000000000E-002   0.0000000000000000     
   1.2812500000000000        6.2500000000000000E-002   0.0000000000000000     
   1.3125000000000000        6.2500000000000000E-002   0.0000000000000000     
   1.3437500000000000        6.2500000000000000E-002   0.0000000000000000     
   1.3750000000000000        6.2500000000000000E-002   0.0000000000000000     
   1.2500000000000000        9.3750000000000000E-002   0.0000000000000000     
   1.2812500000000000        9.3750000000000000E-002   0.0000000000000000     
   1.3125000000000000        9.3750000000000000E-002   0.0000000000000000     
   1.3437500000000000        9.3750000000000000E-002   0.0000000000000000     
   1.3750000000000000        9.3750000000000000E-002   0.0000000000000000     
   1.2500000000000000       0.12500000000000000        0.0000000000000000     
   1.2812500000000000       0.12500000000000000        0.0000000000000000     
   1.3125000000000000       0.12500000000000000        0.0000000000000000     
   1.3437500000000000       0.12500000000000000        0.0000000000000000     
   1.3750000000000000       0.12500000000000000        0.0000000000000000     
   1.3750000000000000        0.0000000000000000        0.0000000000000000     
   1.4062500000000000        0.0000000000000000        0.0000000000000000     
   1.4375000000000000        0.0000000000000000        0.0000000000000000     
   1.4687500000000000        0.0000000000000000        0.0000000000000000     
   1.5000000000000000        0.0000000000000000        0.0000000000000000     
   1.3750000000000000        3.1250000000000000E-002   0.0000000000000000     
   1.4062500000000000        3.1250000000000000E-002   0.0000000000000000     
   1.4375000000000000        3.1250000000000000E-002   0.0000000000000000     
   1.4687500000000000        3.1250000000000000E-002   0.0000000000000000     
   1.5000000000000000        3.1250000000000000E-002   0.0000000000000000     
   1.3750000000000000        6.2500000000000000E-002   0.0000000000000000     
   1.4062500000000000        6.2500000000000000E-002   0.0000000000000000     
   1.4375000000000000        6.2500000000000000E-002   0.0000000000000000     
   1.4687500000000000        6.2500000000000000E-002   0.0000000000000000     
   1.5000000000000000        6.2500000000000000E-002   0.0000000000000000     
   1.3750000000000000        9.3750000000000000E-002   0.0000000000000000     
   1.4062500000000000        9.3750000000000000E-002   0.0000000000000000     
   1.4375000000000000        9.3750000000000000E-002   0.0000000000000000     
   1.4687500000000000        9.3750000000000000E-002   0.0000000000000000     
   1.5000000000000000        9.3750000000000000E-002   0.0000000000000000     
   1.3750000000000000       0.12500000000000000        0.0000000000000000     
   1.4062500000000000       0.12500000000000000        0.0000000000000000     
   1.4375000000000000       0.12500000000000000        0.0000000000000000     
   1.4687500000000000       0.12500000000000000        0.0000000000000000     
   1.5000000000000000       0.12500000000000000        0.0000000000000000     
  0.50000000000000000       0.12500000000000000        0.0000000000000000     
  0.53125000000000000       0.12500000000000000        0.0000000000000000     
  0.56250000000000000       0.12500000000000000        0.0000000000000000     
  0.59375000000000000       0.12500000000000000        0.0000000000000000     
  0.62500000000000000       0.12500000000000000        0.0000000000000000     
  0.50000000000000000       0.15625000000000000        0.0000000000000000     
  0.53125000000000000       0.15625000000000000        0.0000000000000000     
  0.56250000000000000       0.15625000000000000        0.0000000000000000     
  0.59375000000000000       0.15625000000000000        0.0000000000000000     
  0.62500000000000000       0.15625000000000000        0.0000000000000000     
  0.50000000000000000       0.18750000000000000        0.0000000000000000     
  0.53125000000000000       0.18750000000000000        0.0000000000000000     
  0.56250000000000000       0.18750000000000000        0.0000000000000000     
  0.59375000000000000       0.18750000000000000        0.0000000000000000     
  0.62500000000000000       0.18750000000000000        0.0000000000000000     
  0.50000000000000000       0.21875000000000000        0.0000000000000000     
  0.53125000000000000       0.21875000000000000        0.0000000000000000     
  0.56250000000000000       0.21875000000000000        0.0000000000000000     
  0.59375000000000000       0.21875000000000000        0.0000000000000000     
  0.62500000000000000       0.21875000000000000        0.0000000000000000     
  0.50000000000000000       0.25000000000000000        0.0000000000000000     
  0.53125000000000000       0.25000000000000000        0.0000000000000000     
  0.56250000000000000       0.25000000000000000        0.0000000000000000     
  0.59375000000000000       0.25000000000000000        0.0000000000000000     
  0.62500000000000000       0.25000000000000000        0.0000000000000000     
  0.62500000000000000       0.12500000000000000        0.0000000000000000     
  0.65625000000000000       0.12500000000000000        0.0000000000000000     
  0.68750000000000000       0.12500000000000000        0.0000000000000000     
  0.71875000000000000       0.12500000000000000        0.0000000000000000     
  0.75000000000000000       0.12500000000000000        0.0000000000000000     
  0.62500000000000000       0.15625000000000000        0.0000000000000000     
  0.65625000000000000       0.15625000000000000        0.0000000000000000     
  0.68750000000000000       0.15625000000000000        0.0000000000000000     
  0.71875000000000000       0.15625000000000000        0.0000000000000000     
  0.75000000000000000       0.15625000000000000        0.0000000000000000     
  0.62500000000000000       0.18750000000000000        0.0000000000000000     
  0.65625000000000000       0.18750000000000000        0.0000000000000000     
  0.68750000000000000       0.18750000000000000        0.0000000000000000     
  0.71875000000000000       0.18750000000000000        0.0000000000000000     
  0.75000000000000000       0.18750000000000000        0.0000000000000000     
  0.62500000000000000       0.21875000000000000        0.0000000000000000     
  0.65625000000000000       0.21875000000000000        0.0000000000000000     
  0.68750000000000000       0.21875000000000000        0.0000000000000000     
  0.71875000000000000       0.21875000000000000        0.0000000000000000     
  0.75000000000000000       0.21875000000000000        0.0000000000000000     
  0.62500000000000000       0.25000000000000000        0.0000000000000000     
  0.65625000000000000       0.25000000000000000        0.0000000000000000     
  0.68750000000000000       0.25000000000000000        0.0000000000000000     
  0.71875000000000000       0.25000000000000000        0.0000000000000000     
  0.75000000000000000       0.25000000000000000        0.0000000000000000     
  0.75000000000000000       0.12500000000000000        0.0000000000000000     
  0.78125000000000000       0.12500000000000000        0.0000000000000000     
  0.81250000000000000       0.12500000000000000        0.0000000000000000     
  0.84375000000000000       0.12500000000000000        0.0000000000000000     
  0.87500000000000000       0.12500000000000000        0.0000000000000000     
  0.75000000000000000       0.15625000000000000        0.0000000000000000     
  0.78125000000000000       0.15625000000000000        0.0000000000000000     
  0.81250000000000000       0.15625000000000000        0.0000000000000000     
  0.84375000000000000       0.15625000000000000        0.0000000000000000     
  0.87500000000000000       0.15625000000000000        0.0000000000000000     
  0.75000000000000000       0.18750000000000000        0.0000000000000000     
  0.78125000000000000       0.18750000000000000        0.0000000000000000     
  0.81250000000000000       0.18750000000000000        0.0000000000000000     
  0.84375000000000000       0.18750000000000000        0.0000000000000000     
  0.87500000000000000       0.18750000000000000        0.0000000000000000     
  0.75000000000000000       0.21875000000000000        0.0000000000000000     
  0.78125000000000000       0.21875000000000000        0.0000000000000000     
  0.81250000000000000       0.21875000000000000        0.0000000000000000     
  0.84375000000000000       0.21875000000000000        0.0000000000000000     
  0.87500000000000000       0.21875000000000000        0.0000000000000000     
  0.75000000000000000       0.25000000000000000        0.0000000000000000     
  0.78125000000000000       0.25000000000000000        0.0000000000000000     
  0.81250000000000000       0.25000000000000000        0.0000000000000000     
  0.84375000000000000       0.25000000000000000        0.0000000000000000     
  0.87500000000000000       0.25000000000000000        0.0000000000000000     
  0.87500000000000000       0.12500000000000000        0.0000000000000000     
  0.90625000000000000       0.12500000000000000        0.0000000000000000     
  0.93750000000000000       0.12500000000000000        0.0000000000000000     
  0.96875000000000000       0.12500000000000000        0.0000000000000000     
   1.0000000000000000       0.12500000000000000        0.0000000000000000     
  0.87500000000000000       0.15625000000000000        0.0000000000000000     
  0.90625000000000000       0.15625000000000000        0.0000000000000000     
  0.93750000000000000       0.15625000000000000        0.0000000000000000     
  0.96875000000000000       0.15625000000000000        0.0000000000000000     
   1.0000000000000000       0.15625000000000000        0.0000000000000000     
  0.87500000000000000       0.18750000000000000        0.0000000000000000     
  0.90625000000000000       0.18750000000000000        0.0000000000000000     
  0.93750000000000000       0.18750000000000000        0.0000000000000000     
  0.96875000000000000       0.18750000000000000        0.0000000000000000     
   1.0000000000000000       0.18750000000000000        0.0000000000000000     
  0.87500000000000000       0.21875000000000000        0.0000000000000000     
  0.90625000000000000       0.21875000000000000        0.0000000000000000     
  0.93750000000000000       0.21875000000000000        0.0000000000000000     
  0.96875000000000000       0.21875000000000000        0.0000000000000000     
   1.0000000000000000       0.21875000000000000        0.0000000000000000     
  0.87500000000000000       0.25000000000000000        0.0000000000000000     
  0.90625000000000000       0.25000000000000000        0.0000000000000000     
  0.93750000000000000       0.25000000000000000        0.0000000000000000     
  0.96875000000000000       0.25000000000000000        0.0000000000000000     
   1.0000000000000000       0.25000000000000000        0.0000000000000000     
   1.0000000000000000       0.12500000000000000        0.0000000000000000     
   1.0312500000000000       0.12500000000000000        0.0000000000000000     
   1.0625000000000000       0.12500000000000000        0.0000000000000000     
   1.0937500000000000       0.12500000000000000        0.0000000000000000     
   1.1250000000000000       0.12500000000000000        0.0000000000000000     
   1.0000000000000000       0.15625000000000000        0.0000000000000000     
   1.0312500000000000       0.15625000000000000        0.0000000000000000     
   1.0625000000000000       0.15625000000000000        0.0000000000000000     
   1.0937500000000000       0.15625000000000000        0.0000000000000000     
   1.1250000000000000       0.15625000000000000        0.0000000000000000     
   1.0000000000000000       0.18750000000000000        0.0000000000000000     
   1.0312500000000000       0.18750000000000000        0.0000000000000000     
   1.0625000000000000       0.18750000000000000        0.0000000000000000     
   1.0937500000000000       0.18750000000000000        0.0000000000000000     
   1.1250000000000000       0.18750000000000000        0.0000000000000000     
   1.0000000000000000       0.21875000000000000        0.0000000000000000     
   1.0312500000000000       0.21875000000000000        0.0000000000000000     
   1.0625000000000000       0.21875000000000000        0.0000000000000000     
   1.0937500000000000       0.21875000000000000        0.0000000000000000     
   1.1250000000000000       0.21875000000000000        0.0000000000000000     
   1.0000000000000000       0.25000000000000000        0.0000000000000000     
   1.0312500000000000       0.25000000000000000        0.0000000000000000     
   1.0625000000000000       0.25000000000000000        0.0000000000000000     
   1.0937500000000000       0.25000000000000000        0.0000000000000000     
   1.1250000000000000       0.25000000000000000        0.0000000000000000     
   1.1250000000000000       0.12500000000000000        0.0000000000000000     
   1.1562500000000000       0.12500000000000000        0.0000000000000000     
   1.1875000000000000       0.12500000000000000        0.0000000000000000     
   1.2187500000000000       0.12500000000000000        0.0000000000000000     
   1.2500000000000000       0.12500000000000000        0.0000000000000000     
   1.1250000000000000       0.15625000000000000        0.0000000000000000     
   1.1562500000000000       0.15625000000000000        0.0000000000000000     
   1.1875000000000000       0.15625000000000000        0.0000000000000000     
   1.2187500000000000       0.15625000000000000        0.0000000000000000     
   1.2500000000000000       0.15625000000000000        0.0000000000000000     
   1.1250000000000000       0.18750000000000000        0.0000000000000000     
   1.1562500000000000       0.18750000000000000        0.0000000000000000     
   1.1875000000000000       0.18750000000000000        0.0000000000000000     
   1.2187500000000000       0.18750000000000000        0.0000000000000000     
   1.2500000000000000       0.18750000000000000        0.0000000000000000     
   1.1250000000000000       0.21875000000000000        0.0000000000000000     
   1.1562500000000000       0.21875000000000000        0.0000000000000000     
   1.1875000000000000       0.21875000000000000        0.0000000000000000     
   1.2187500000000000       0.21875000000000000        0.0000000000000000     
   1.2500000000000000       0.21875000000000000        0.0000000000000000     
   1.1250000000000000       0.25000000000000000        0.0000000000000000     
   1.1562500000000000       0.25000000000000000        0.0000000000000000     
   1.1875000000000000       0.25000000000000000        0.0000000000000000     
   1.2187500000000000       0.25000000000000000        0.0000000000000000     
   1.2500000000000000       0.25000000000000000        0.0000000000000000     
   1.2500000000000000       0.12500000000000000        0.0000000000000000     
   1.2812500000000000       0.12500000000000000        0.0000000000000000     
   1.3125000000000000       0.12500000000000000        0.0000000000000000     
   1.3437500000000000       0.12500000000000000        0.0000000000000000     
   1.3750000000000000       0.12500000000000000        0.0000000000000000     
   1.2500000000000000       0.15625000000000000        0.0000000000000000     
   1.2812500000000000       0.15625000000000000        0.0000000000000000     
   1.3125000000000000       0.15625000000000000        0.0000000000000000     
   1.3437500000000000       0.15625000000000000        0.0000000000000000     
   1.3750000000000000       0.15625000000000000        0.0000000000000000     
   1.2500000000000000       0.18750000000000000        0.0000000000000000     
   1.2812500000000000       0.18750000000000000        0.0000000000000000     
   1.3125000000000000       0.18750000000000000        0.0000000000000000     
   1.3437500000000000       0.18750000000000000        0.0000000000000000     
   1.3750000000000000       0.18750000000000000        0.0000000000000000     
   1.2500000000000000       0.21875000000000000        0.0000000000000000     
   1.2812500000000000       0.21875000000000000        0.0000000000000000     
   1.3125000000000000       0.21875000000000000        0.0000000000000000     
   1.3437500000000000       0.21875000000000000        0.0000000000000000     
   1.3750000000000000       0.21875000000000000        0.0000000000000000     
   1.2500000000000000       0.25000000000000000        0.0000000000000000     
   1.2812500000000000       0.25000000000000000        0.0000000000000000     
   1.3125000000000000       0.25000000000000000        0.0000000000000000     
   1.3437500000000000       0.25000000000000000        0.0000000000000000     
   1.3750000000000000       0.25000000000000000        0.0000000000000000     
   1.3750000000000000       0.12500000000000000        0.0000000000000000     
   1.4062500000000000       0.12500000000000000        0.0000000000000000     
   1.4375000000000000       0.12500000000000000        0.0000000000000000     
   1.4687500000000000       0.12500000000000000        0.0000000000000000     
   1.5000000000000000       0.12500000000000000        0.0000000000000000     
   1.3750000000000000       0.15625000000000000        0.0000000000000000     
   1.4062500000000000       0.15625000000000000        0.0000000000000000     
   1.4375000000000000       0.15625000000000000        0.0000000000000000     
   1.4687500000000000       0.15625000000000000        0.0000000000000000     
   1.5000000000000000       0.15625000000000000        0.0000000000000000     
   1.3750000000000000       0.18750000000000000        0.0000000000000000     
   1.4062500000000000       0.18750000000000000        0.0000000000000000     
   1.4375000000000000       0.18750000000000000        0.0000000000000000     
   1.4687500000000000       0.18750000000000000        0.0000000000000000     
   1.5000000000000000       0.18750000000000000        0.0000000000000000     
   1.3750000000000000       0.21875000000000000        0.0000000000000000     
   1.4062500000000000       0.21875000000000000        0.0000000000000000     
   1.4375000000000000       0.21875000000000000        0.0000000000000000     
   1.4687500000000000       0.21875000000000000        0.0000000000000000     
   1.5000000000000000       0.21875000000000000        0.0000000000000000     
   1.3750000000000000       0.25000000000000000        0.0000000000000000     
   1.4062500000000000       0.25000000000000000        0.0000000000000000     
   1.4375000000000000       0.25000000000000000        0.0000000000000000     
   1.4687500000000000       0.25000000000000000        0.0000000000000000     
   1.5000000000000000       0.25000000000000000        0.0000000000000000     
  0.50000000000000000       0.25000000000000000        0.0000000000000000     
  0.53125000000000000       0.25000000000000000        0.0000000000000000     
  0.56250000000000000       0.25000000000000000        0.0000000000000000     
  0.59375000000000000       0.25000000000000000        0.0000000000000000     
  0.62500000000000000       0.25000000000000000        0.0000000000000000     
  0.50000000000000000       0.28125000000000000        0.0000000000000000     
  0.53125000000000000       0.28125000000000000        0.0000000000000000     
  0.56250000000000000       0.28125000000000000        0.0000000000000000     
  0.59375000000000000       0.28125000000000000        0.0000000000000000     
  0.62500000000000000       0.28125000000000000        0.0000000000000000     
  0.50000000000000000       0.31250000000000000        0.0000000000000000     
  0.53125000000000000       0.31250000000000000        0.0000000000000000     
  0.56250000000000000       0.31250000000000000        0.0000000000000000     
  0.59375000000000000       0.31250000000000000        0.0000000000000000     
  0.62500000000000000       0.31250000000000000        0.0000000000000000     
  0.50000000000000000       0.34375000000000000        0.0000000000000000     
  0.53125000000000000       0.34375000000000000        0.0000000000000000     
  0.56250000000000000       0.34375000000000000        0.0000000000000000     
  0.59375000000000000       0.34375000000000000        0.0000000000000000     
  0.62500000000000000       0.34375000000000000        0.0000000000000000     
  0.50000000000000000       0.37500000000000000        0.0000000000000000     
  0.53125000000000000       0.37500000000000000        0.0000000000000000     
  0.56250000000000000       0.37500000000000000        0.0000000000000000     
  0.59375000000000000       0.37500000000000000        0.0000000000000000     
  0.62500000000000000       0.37500000000000000        0.0000000000000000     
  0.62500000000000000       0.25000000000000000        0.0000000000000000     
  0.65625000000000000       0.25000000000000000        0.0000000000000000     
  0.68750000000000000       0.25000000000000000        0.0000000000000000     
  0.71875000000000000       0.25000000000000000        0.0000000000000000     
  0.75000000000000000       0.25000000000000000        0.0000000000000000     
  0.62500000000000000       0.28125000000000000        0.0000000000000000     
  0.65625000000000000       0.28125000000000000        0.0000000000000000     
  0.68750000000000000       0.28125000000000000        0.0000000000000000     
  0.71875000000000000       0.28125000000000000        0.0000000000000000     
  0.75000000000000000       0.28125000000000000        0.0000000000000000     
  0.62500000000000000       0.31250000000000000        0.0000000000000000     
  0.65625000000000000       0.31250000000000000        0.0000000000000000     
  0.68750000000000000       0.31250000000000000        0.0000000000000000     
  0.71875000000000000       0.31250000000000000        0.0000000000000000     
  0.75000000000000000       0.31250000000000000        0.0000000000000000     
  0.62500000000000000       0.34375000000000000        0.0000000000000000     
  0.65625000000000000       0.34375000000000000        0.0000000000000000     
  0.68750000000000000       0.34375000000000000        0.0000000000000000     
  0.71875000000000000       0.34375000000000000        0.0000000000000000     
  0.75000000000000000       0.34375000000000000        0.0000000000000000     
  0.62500000000000000       0.37500000000000000        0.0000000000000000     
  0.65625000000000000       0.37500000000000000        0.0000000000000000     
  0.68750000000000000       0.37500000000000000        0.0000000000000000     
  0.71875000000000000       0.37500000000000000        0.0000000000000000     
  0.75000000000000000       0.37500000000000000        0.0000000000000000     
  0.75000000000000000       0.25000000000000000        0.0000000000000000     
  0.78125000000000000       0.25000000000000000        0.0000000000000000     
  0.81250000000000000       0.25000000000000000        0.0000000000000000     
  0.84375000000000000       0.25000000000000000        0.0000000000000000     
  0.87500000000000000       0.25000000000000000        0.0000000000000000     
  0.75000000000000000       0.28125000000000000        0.0000000000000000     
  0.78125000000000000       0.28125000000000000        0.0000000000000000     
  0.81250000000000000       0.28125000000000000        0.0000000000000000     
  0.84375000000000000       0.28125000000000000        0.0000000000000000     
  0.87500000000000000       0.28125000000000000        0.0000000000000000     
  0.75000000000000000       0.31250000000000000        0.0000000000000000     
  0.78125000000000000       0.31250000000000000        0.0000000000000000     
  0.81250000000000000       0.31250000000000000        0.0000000000000000     
  0.84375000000000000       0.31250000000000000        0.0000000000000000     
  0.87500000000000000       0.31250000000000000        0.0000000000000000     
  0.75000000000000000       0.34375000000000000        0.0000000000000000     
  0.78125000000000000       0.34375000000000000        0.0000000000000000     
  0.81250000000000000       0.34375000000000000        0.0000000000000000     
  0.84375000000000000       0.34375000000000000        0.0000000000000000     
  0.87500000000000000       0.34375000000000000        0.0000000000000000     
  0.75000000000000000       0.37500000000000000        0.0000000000000000     
  0.78125000000000000       0.37500000000000000        0.0000000000000000     
  0.81250000000000000       0.37500000000000000        0.0000000000000000     
  0.84375000000000000       0.37500000000000000        0.0000000000000000     
  0.87500000000000000       0.37500000000000000        0.0000000000000000     
  0.87500000000000000       0.25000000000000000        0.0000000000000000     
  0.90625000000000000       0.25000000000000000        0.0000000000000000     
  0.93750000000000000       0.25000000000000000        0.0000000000000000     
  0.96875000000000000       0.25000000000000000        0.0000000000000000     
   1.0000000000000000       0.25000000000000000        0.0000000000000000     
  0.87500000000000000       0.28125000000000000        0.0000000000000000     
  0.90625000000000000       0.28125000000000000        0.0000000000000000     
  0.93750000000000000       0.28125000000000000        0.0000000000000000     
  0.96875000000000000       0.28125000000000000        0.0000000000000000     
   1.0000000000000000       0.28125000000000000        0.0000000000000000     
  0.87500000000000000       0.31250000000000000        0.0000000000000000     
  0.90625000000000000       0.31250000000000000        0.0000000000000000     
  0.93750000000000000       0.31250000000000000        0.0000000000000000     
  0.96875000000000000       0.31250000000000000        0.0000000000000000     
   1.0000000000000000       0.31250000000000000        0.0000000000000000     
  0.87500000000000000       0.34375000000000000        0.0000000000000000     
  0.90625000000000000       0.34375000000000000        0.0000000000000000     
  0.93750000000000000       0.34375000000000000        0.0000000000000000     
  0.96875000000000000       0.34375000000000000        0.0000000000000000     
   1.0000000000000000       0.34375000000000000        0.0000000000000000     
  0.87500000000000000       0.37500000000000000        0.0000000000000000     
  0.90625000000000000       0.37500000000000000        0.0000000000000000     
  0.93750000000000000       0.37500000000000000        0.0000000000000000     
  0.96875000000000000       0.37500000000000000        0.0000000000000000     
   1.0000000000000000       0.37500000000000000        0.0000000000000000     
   1.0000000000000000       0.25000000000000000        0.0000000000000000     
   1.0312500000000000       0.25000000000000000        0.0000000000000000     
   1.0625000000000000       0.25000000000000000        0.0000000000000000     
   1.0937500000000000       0.25000000000000000        0.0000000000000000     
   1.1250000000000000       0.25000000000000000        0.0000000000000000     
   1.0000000000000000       0.28125000000000000        0.0000000000000000     
   1.0312500000000000       0.28125000000000000        0.0000000000000000     
   1.0625000000000000       0.28125000000000000        0.0000000000000000     
   1.0937500000000000       0.28125000000000000        0.0000000000000000     
   1.1250000000000000       0.28125000000000000        0.0000000000000000     
   1.0000000000000000       0.31250000000000000        0.0000000000000000     
   1.0312500000000000       0.31250000000000000        0.0000000000000000     
   1.0625000000000000       0.31250000000000000        0.0000000000000000     
   1.0937500000000000       0.31250000000000000        0.0000000000000000     
   1.1250000000000000       0.31250000000000000        0.0000000000000000     
   1.0000000000000000       0.34375000000000000        0.0000000000000000     
   1.0312500000000000       0.34375000000000000        0.0000000000000000     
   1.0625000000000000       0.34375000000000000        0.0000000000000000     
   1.0937500000000000       0.34375000000000000        0.0000000000000000     
   1.1250000000000000       0.34375000000000000        0.0000000000000000     
   1.0000000000000000       0.37500000000000000        0.0000000000000000     
   1.0312500000000000       0.37500000000000000        0.0000000000000000     
   1.0625000000000000       0.37500000000000000        0.0000000000000000     
   1.0937500000000000       0.37500000000000000        0.0000000000000000     
   1.1250000000000000       0.37500000000000000        0.0000000000000000     
   1.1250000000000000       0.25000000000000000        0.0000000000000000     
   1.1562500000000000       0.25000000000000000        0.0000000000000000     
   1.1875000000000000       0.25000000000000000        0.0000000000000000     
   1.2187500000000000       0.25000000000000000        0.0000000000000000     
   1.2500000000000000       0.25000000000000000        0.0000000000000000     
   1.1250000000000000       0.28125000000000000        0.0000000000000000     
   1.1562500000000000       0.28125000000000000        0.0000000000000000     
   1.1875000000000000       0.28125000000000000        0.0000000000000000     
   1.2187500000000000       0.28125000000000000        0.0000000000000000     
   1.2500000000000000       0.28125000000000000        0.0000000000000000     
   1.1250000000000000       0.31250000000000000        0.0000000000000000     
   1.1562500000000000       0.31250000000000000        0.0000000000000000     
   1.1875000000000000       0.31250000000000000        0.0000000000000000     
   1.2187500000000000       0.31250000000000000        0.0000000000000000     
   1.2500000000000000       0.31250000000000000        0.0000000000000000     
   1.1250000000000000       0.34375000000000000        0.0000000000000000     
   1.1562500000000000       0.34375000000000000        0.0000000000000000     
   1.1875000000000000       0.34375000000000000        0.0000000000000000     
   1.2187500000000000       0.34375000000000000        0.0000000000000000     
   1.2500000000000000       0.34375000000000000        0.0000000000000000     
   1.1250000000000000       0.37500000000000000        0.0000000000000000     
   1.1562500000000000       0.37500000000000000        0.0000000000000000     
   1.1875000000000000       0.37500000000000000        0.0000000000000000     
   1.2187500000000000       0.37500000000000000        0.0000000000000000     
   1.2500000000000000       0.37500000000000000        0.0000000000000000     
   1.2500000000000000       0.25000000000000000        0.0000000000000000     
   1.2812500000000000       0.25000000000000000        0.0000000000000000     
   1.3125000000000000       0.25000000000000000        0.0000000000000000     
   1.3437500000000000       0.25000000000000000        0.0000000000000000     
   1.3750000000000000       0.25000000000000000        0.0000000000000000     
   1.2500000000000000       0.28125000000000000        0.0000000000000000     
   1.2812500000000000       0.28125000000000000        0.0000000000000000     
   1.3125000000000000       0.28125000000000000        0.0000000000000000     
   1.3437500000000000       0.28125000000000000        0.0000000000000000     
   1.3750000000000000       0.28125000000000000        0.0000000000000000     
   1.2500000000000000       0.31250000000000000        0.0000000000000000     
   1.2812500000000000       0.31250000000000000        0.0000000000000000     
   1.3125000000000000       0.31250000000000000        0.0000000000000000     
   1.3437500000000000       0.31250000000000000        0.0000000000000000     
   1.3750000000000000       0.31250000000000000        0.0000000000000000     
   1.2500000000000000       0.34375000000000000        0.0000000000000000     
   1.2812500000000000       0.34375000000000000        0.0000000000000000     
   1.3125000000000000       0.34375000000000000        0.0000000000000000     
   1.3437500000000000       0.34375000000000000        0.0000000000000000     
   1.3750000000000000       0.34375000000000000        0.0000000000000000     
   1.2500000000000000       0.37500000000000000        0.0000000000000000     
   1.2812500000000000       0.37500000000000000        0.0000000000000000     
   1.3125000000000000       0.37500000000000000        0.0000000000000000     
   1.3437500000000000       0.37500000000000000        0.0000000000000000     
   1.3750000000000000       0.37500000000000000        0.0000000000000000     
   1.3750000000000000       0.25000000000000000        0.0000000000000000     
   1.4062500000000000       0.25000000000000000        0.0000000000000000     
   1.4375000000000000       0.25000000000000000        0.0000000000000000     
   1.4687500000000000       0.25000000000000000        0.0000000000000000     
   1.5000000000000000       0.25000000000000000        0.0000000000000000     
   1.3750000000000000       0.28125000000000000        0.0000000000000000     
   1.4062500000000000       0.28125000000000000        0.0000000000000000     
   1.4375000000000000       0.28125000000000000        0.0000000000000000     
   1.4687500000000000       0.28125000000000000        0.0000000000000000     
   1.5000000000000000       0.28125000000000000        0.0000000000000000     
   1.3750000000000000       0.31250000000000000        0.0000000000000000     
   1.4062500000000000       0.31250000000000000        0.0000000000000000     
   1.4375000000000000       0.31250000000000000        0.0000000000000000     
   1.4687500000000000       0.31250000000000000        0.0000000000000000     
   1.5000000000000000       0.31250000000000000        0.0000000000000000     
   1.3750000000000000       0.34375000000000000        0.0000000000000000     
   1.4062500000000000       0.34375000000000000        0.0000000000000000     
   1.4375000000000000       0.34375000000000000        0.0000000000000000     
   1.4687500000000000       0.34375000000000000        0.0000000000000000     
   1.5000000000000000       0.34375000000000000        0.0000000000000000     
   1.3750000000000000       0.37500000000000000        0.0000000000000000     
   1.4062500000000000       0.37500000000000000        0.0000000000000000     
   1.4375000000000000       0.37500000000000000        0.0000000000000000     
   1.4687500000000000       0.37500000000000000        0.0000000000000000     
   1.5000000000000000       0.37500000000000000        0.0000000000000000     
  0.50000000000000000       0.37500000000000000        0.0000000000000000     
  0.53125000000000000       0.37500000000000000        0.0000000000000000     
  0.56250000000000000       0.37500000000000000        0.0000000000000000     
  0.59375000000000000       0.37500000000000000        0.0000000000000000     
  0.62500000000000000       0.37500000000000000        0.0000000000000000     
  0.50000000000000000       0.40625000000000000        0.0000000000000000     
  0.53125000000000000       0.40625000000000000        0.0000000000000000     
  0.56250000000000000       0.40625000000000000        0.0000000000000000     
  0.59375000000000000       0.40625000000000000        0.0000000000000000     
  0.62500000000000000       0.40625000000000000        0.0000000000000000     
  0.50000000000000000       0.43750000000000000        0.0000000000000000     
  0.53125000000000000       0.43750000000000000        0.0000000000000000     
  0.56250000000000000       0.43750000000000000        0.0000000000000000     
  0.59375000000000000       0.43750000000000000        0.0000000000000000     
  0.62500000000000000       0.43750000000000000        0.0000000000000000     
  0.50000000000000000       0.46875000000000000        0.0000000000000000     
  0.53125000000000000       0.46875000000000000        0.0000000000000000     
  0.56250000000000000       0.46875000000000000        0.0000000000000000     
  0.59375000000000000       0.46875000000000000        0.0000000000000000     
  0.62500000000000000       0.46875000000000000        0.0000000000000000     
  0.50000000000000000       0.50000000000000000        0.0000000000000000     
  0.53125000000000000       0.50000000000000000        0.0000000000000000     
  0.56250000000000000       0.50000000000000000        0.0000000000000000     
  0.59375000000000000       0.50000000000000000        0.0000000000000000     
  0.62500000000000000       0.50000000000000000        0.0000000000000000     
  0.62500000000000000       0.37500000000000000        0.0000000000000000     
  0.65625000000000000       0.37500000000000000        0.0000000000000000     
  0.68750000000000000       0.37500000000000000        0.0000000000000000     
  0.71875000000000000       0.37500000000000000        0.0000000000000000     
  0.75000000000000000       0.37500000000000000        0.0000000000000000     
  0.62500000000000000       0.40625000000000000        0.0000000000000000     
  0.65625000000000000       0.40625000000000000        0.0000000000000000     
  0.68750000000000000       0.40625000000000000        0.0000000000000000     
  0.71875000000000000       0.40625000000000000        0.0000000000000000     
  0.75000000000000000       0.40625000000000000        0.0000000000000000     
  0.62500000000000000       0.43750000000000000        0.0000000000000000     
  0.65625000000000000       0.43750000000000000        0.0000000000000000     
  0.68750000000000000       0.43750000000000000        0.0000000000000000     
  0.71875000000000000       0.43750000000000000        0.0000000000000000     
  0.75000000000000000       0.43750000000000000        0.0000000000000000     
  0.62500000000000000       0.46875000000000000        0.0000000000000000     
  0.65625000000000000       0.46875000000000000        0.0000000000000000     
  0.68750000000000000       0.46875000000000000        0.0000000000000000     
  0.71875000000000000       0.46875000000000000        0.0000000000000000     
  0.75000000000000000       0.46875000000000000        0.0000000000000000     
  0.62500000000000000       0.50000000000000000        0.0000000000000000     
  0.65625000000000000       0.50000000000000000        0.0000000000000000     
  0.68750000000000000       0.50000000000000000        0.0000000000000000     
  0.71875000000000000       0.50000000000000000        0.0000000000000000     
  0.75000000000000000       0.50000000000000000        0.0000000000000000     
  0.75000000000000000       0.37500000000000000        0.0000000000000000     
  0.78125000000000000       0.37500000000000000        0.0000000000000000     
  0.81250000000000000       0.37500000000000000        0.0000000000000000     
  0.84375000000000000       0.37500000000000000        0.0000000000000000     
  0.87500000000000000       0.37500000000000000        0.0000000000000000     
  0.75000000000000000       0.40625000000000000        0.0000000000000000     
  0.78125000000000000       0.40625000000000000        0.0000000000000000     
  0.81250000000000000       0.40625000000000000        0.0000000000000000     
  0.84375000000000000       0.40625000000000000        0.0000000000000000     
  0.87500000000000000       0.40625000000000000        0.0000000000000000     
  0.75000000000000000       0.43750000000000000        0.0000000000000000     
  0.78125000000000000       0.43750000000000000        0.0000000000000000     
  0.81250000000000000       0.43750000000000000        0.0000000000000000     
  0.84375000000000000       0.43750000000000000        0.0000000000000000     
  0.87500000000000000       0.43750000000000000        0.0000000000000000     
  0.75000000000000000       0.46875000000000000        0.0000000000000000     
  0.78125000000000000       0.46875000000000000        0.0000000000000000     
  0.81250000000000000       0.46875000000000000        0.0000000000000000     
  0.84375000000000000       0.46875000000000000        0.0000000000000000     
  0.87500000000000000       0.46875000000000000        0.0000000000000000     
  0.75000000000000000       0.50000000000000000        0.0000000000000000     
  0.78125000000000000       0.50000000000000000        0.0000000000000000     
  0.81250000000000000       0.50000000000000000        0.0000000000000000     
  0.84375000000000000       0.50000000000000000        0.0000000000000000     
  0.87500000000000000       0.50000000000000000        0.0000000000000000     
  0.87500000000000000       0.37500000000000000        0.0000000000000000     
  0.90625000000000000       0.37500000000000000        0.0000000000000000     
  0.93750000000000000       0.37500000000000000        0.0000000000000000     
  0.96875000000000000       0.37500000000000000        0.0000000000000000     
   1.0000000000000000       0.37500000000000000        0.0000000000000000     
  0.87500000000000000       0.40625000000000000        0.0000000000000000     
  0.90625000000000000       0.40625000000000000        0.0000000000000000     
  0.93750000000000000       0.40625000000000000        0.0000000000000000     
  0.96875000000000000       0.40625000000000000        0.0000000000000000     
   1.0000000000000000       0.40625000000000000        0.0000000000000000     
  0.87500000000000000       0.43750000000000000        0.0000000000000000     
  0.90625000000000000       0.43750000000000000        0.0000000000000000     
  0.93750000000000000       0.43750000000000000        0.0000000000000000     
  0.96875000000000000       0.43750000000000000        0.0000000000000000     
   1.0000000000000000       0.43750000000000000        0.0000000000000000     
  0.87500000000000000       0.46875000000000000        0.0000000000000000     
  0.90625000000000000       0.46875000000000000        0.0000000000000000     
  0.93750000000000000       0.46875000000000000        0.0000000000000000     
  0.96875000000000000       0.46875000000000000        0.0000000000000000     
   1.0000000000000000       0.46875000000000000        0.0000000000000000     
  0.87500000000000000       0.50000000000000000        0.0000000000000000     
  0.90625000000000000       0.50000000000000000        0.0000000000000000     
  0.93750000000000000       0.50000000000000000        0.0000000000000000     
  0.96875000000000000       0.50000000000000000        0.0000000000000000     
   1.0000000000000000       0.50000000000000000        0.0000000000000000     
   1.0000000000000000       0.37500000000000000        0.0000000000000000     
   1.0312500000000000       0.37500000000000000        0.0000000000000000     
   1.0625000000000000       0.37500000000000000        0.0000000000000000     
   1.0937500000000000       0.37500000000000000        0.0000000000000000     
   1.1250000000000000       0.37500000000000000        0.0000000000000000     
   1.0000000000000000       0.40625000000000000        0.0000000000000000     
   1.0312500000000000       0.40625000000000000        0.0000000000000000     
   1.0625000000000000       0.40625000000000000        0.0000000000000000     
   1.0937500000000000       0.40625000000000000        0.0000000000000000     
   1.1250000000000000       0.40625000000000000        0.0000000000000000     
   1.0000000000000000       0.43750000000000000        0.0000000000000000     
   1.0312500000000000       0.43750000000000000        0.0000000000000000     
   1.0625000000000000       0.43750000000000000        0.0000000000000000     
   1.0937500000000000       0.43750000000000000        0.0000000000000000     
   1.1250000000000000       0.43750000000000000        0.0000000000000000     
   1.0000000000000000       0.46875000000000000        0.0000000000000000     
   1.0312500000000000       0.46875000000000000        0.0000000000000000     
   1.0625000000000000       0.46875000000000000        0.0000000000000000     
   1.0937500000000000       0.46875000000000000        0.0000000000000000     
   1.1250000000000000       0.46875000000000000        0.0000000000000000     
   1.0000000000000000       0.50000000000000000        0.0000000000000000     
   1.0312500000000000       0.50000000000000000        0.0000000000000000     
   1.0625000000000000       0.50000000000000000        0.0000000000000000     
   1.0937500000000000       0.50000000000000000        0.0000000000000000     
   1.1250000000000000       0.50000000000000000        0.0000000000000000     
   1.1250000000000000       0.37500000000000000        0.0000000000000000     
   1.1562500000000000       0.37500000000000000        0.0000000000000000     
   1.1875000000000000       0.37500000000000000        0.0000000000000000     
   1.2187500000000000       0.37500000000000000        0.0000000000000000     
   1.2500000000000000       0.37500000000000000        0.0000000000000000     
   1.1250000000000000       0.40625000000000000        0.0000000000000000     
   1.1562500000000000       0.40625000000000000        0.0000000000000000     
   1.1875000000000000       0.40625000000000000        0.0000000000000000     
   1.2187500000000000       0.40625000000000000        0.0000000000000000     
   1.2500000000000000       0.40625000000000000        0.0000000000000000     
   1.1250000000000000       0.43750000000000000        0.0000000000000000     
   1.1562500000000000       0.43750000000000000        0.0000000000000000     
   1.1875000000000000       0.43750000000000000        0.0000000000000000     
   1.2187500000000000       0.43750000000000000        0.0000000000000000     
   1.2500000000000000       0.43750000000000000        0.0000000000000000     
   1.1250000000000000       0.46875000000000000        0.0000000000000000     
   1.1562500000000000       0.46875000000000000        0.0000000000000000     
   1.1875000000000000       0.46875000000000000        0.0000000000000000     
   1.2187500000000000       0.46875000000000000        0.0000000000000000     
   1.2500000000000000       0.46875000000000000        0.0000000000000000     
   1.1250000000000000       0.50000000000000000        0.0000000000000000     
   1.1562500000000000       0.50000000000000000        0.0000000000000000     
   1.1875000000000000       0.50000000000000000        0.0000000000000000     
   1.2187500000000000       0.50000000000000000        0.0000000000000000     
   1.2500000000000000       0.50000000000000000        0.0000000000000000     
   1.2500000000000000       0.37500000000000000        0.0000000000000000     
   1.2812500000000000       0.37500000000000000        0.0000000000000000     
   1.3125000000000000       0.37500000000000000        0.0000000000000000     
   1.3437500000000000       0.37500000000000000        0.0000000000000000     
   1.3750000000000000       0.37500000000000000        0.0000000000000000     
   1.2500000000000000       0.40625000000000000        0.0000000000000000     
   1.2812500000000000       0.40625000000000000        0.0000000000000000     
   1.3125000000000000       0.40625000000000000        0.0000000000000000     
   1.3437500000000000       0.40625000000000000        0.0000000000000000     
   1.3750000000000000       0.40625000000000000        0.0000000000000000     
   1.2500000000000000       0.43750000000000000        0.0000000000000000     
   1.2812500000000000       0.43750000000000000        0.0000000000000000     
   1.3125000000000000       0.43750000000000000        0.0000000000000000     
   1.3437500000000000       0.43750000000000000        0.0000000000000000     
   1.3750000000000000       0.43750000000000000        0.0000000000000000     
   1.2500000000000000       0.46875000000000000        0.0000000000000000     
   1.2812500000000000       0.46875000000000000        0.0000000000000000     
   1.3125000000000000       0.46875000000000000        0.0000000000000000     
   1.3437500000000000       0.46875000000000000        0.0000000000000000     
   1.3750000000000000       0.46875000000000000        0.0000000000000000     
   1.2500000000000000       0.50000000000000000        0.0000000000000000     
   1.2812500000000000       0.50000000000000000        0.0000000000000000     
   1.3125000000000000       0.50000000000000000        0.0000000000000000     
   1.3437500000000000       0.50000000000000000        0.0000000000000000     
   1.3750000000000000       0.50000000000000000        0.0000000000000000     
   1.3750000000000000       0.37500000000000000        0.0000000000000000     
   1.4062500000000000       0.37500000000000000        0.0000000000000000     
   1.4375000000000000       0.37500000000000000        0.0000000000000000     
   1.4687500000000000       0.37500000000000000        0.0000000000000000     
   1.5000000000000000       0.37500000000000000        0.0000000000000000     
   1.3750000000000000       0.40625000000000000        0.0000000000000000     
   1.4062500000000000       0.40625000000000000        0.0000000000000000     
   1.4375000000000000       0.40625000000000000        0.0000000000000000     
   1.4687500000000000       0.40625000000000000        0.0000000000000000     
   1.5000000000000000       0.40625000000000000        0.0000000000000000     
   1.3750000000000000       0.43750000000000000        0.0000000000000000     
   1.4062500000000000       0.43750000000000000        0.0000000000000000     
   1.4375000000000000       0.43750000000000000        0.0000000000000000     
   1.4687500000000000       0.43750000000000000        0.0000000000000000     
   1.5000000000000000       0.43750000000000000        0.0000000000000000     
   1.3750000000000000       0.46875000000000000        0.0000000000000000     
   1.4062500000000000       0.46875000000000000        0.0000000000000000     
   1.4375000000000000       0.46875000000000000        0.0000000000000000     
   1.4687500000000000       0.46875000000000000        0.0000000000000000     
   1.5000000000000000       0.46875000000000000        0.0000000000000000     
   1.3750000000000000       0.50000000000000000        0.0000000000000000     
   1.4062500000000000       0.50000000000000000        0.0000000000000000     
   1.4375000000000000       0.50000000000000000        0.0000000000000000     
   1.4687500000000000       0.50000000000000000        0.0000000000000000     
   1.5000000000000000       0.50000000000000000        0.0000000000000000     
  0.50000000000000000       0.50000000000000000        0.0000000000000000     
  0.53125000000000000       0.50000000000000000        0.0000000000000000     
  0.56250000000000000       0.50000000000000000        0.0000000000000000     
  0.59375000000000000       0.50000000000000000        0.0000000000000000     
  0.62500000000000000       0.50000000000000000        0.0000000000000000     
  0.50000000000000000       0.53125000000000000        0.0000000000000000     
  0.53125000000000000       0.53125000000000000        0.0000000000000000     
  0.56250000000000000       0.53125000000000000        0.0000000000000000     
  0.59375000000000000       0.53125000000000000        0.0000000000000000     
  0.62500000000000000       0.53125000000000000        0.0000000000000000     
  0.50000000000000000       0.56250000000000000        0.0000000000000000     
  0.53125000000000000       0.56250000000000000        0.0000000000000000     
  0.56250000000000000       0.56250000000000000        0.0000000000000000     
  0.59375000000000000       0.56250000000000000        0.0000000000000000     
  0.62500000000000000       0.56250000000000000        0.0000000000000000     
  0.50000000000000000       0.59375000000000000        0.0000000000000000     
  0.53125000000000000       0.59375000000000000        0.0000000000000000     
  0.56250000000000000       0.59375000000000000        0.0000000000000000     
  0.59375000000000000       0.59375000000000000        0.0000000000000000     
  0.62500000000000000       0.59375000000000000        0.0000000000000000     
  0.50000000000000000       0.62500000000000000        0.0000000000000000     
  0.53125000000000000       0.62500000000000000        0.0000000000000000     
  0.56250000000000000       0.62500000000000000        0.0000000000000000     
  0.59375000000000000       0.62500000000000000        0.0000000000000000     
  0.62500000000000000       0.62500000000000000        0.0000000000000000     
  0.62500000000000000       0.50000000000000000        0.0000000000000000     
  0.65625000000000000       0.50000000000000000        0.0000000000000000     
  0.68750000000000000       0.50000000000000000        0.0000000000000000     
  0.71875000000000000       0.50000000000000000        0.0000000000000000     
  0.75000000000000000       0.50000000000000000        0.0000000000000000     
  0.62500000000000000       0.53125000000000000        0.0000000000000000     
  0.65625000000000000       0.53125000000000000        0.0000000000000000     
  0.68750000000000000       0.53125000000000000        0.0000000000000000     
  0.71875000000000000       0.53125000000000000        0.0000000000000000     
  0.75000000000000000       0.53125000000000000        0.0000000000000000     
  0.62500000000000000       0.56250000000000000        0.0000000000000000     
  0.65625000000000000       0.56250000000000000        0.0000000000000000     
  0.68750000000000000       0.56250000000000000        0.0000000000000000     
  0.71875000000000000       0.56250000000000000        0.0000000000000000     
  0.75000000000000000       0.56250000000000000        0.0000000000000000     
  0.62500000000000000       0.59375000000000000        0.0000000000000000     
  0.65625000000000000       0.59375000000000000        0.0000000000000000     
  0.68750000000000000       0.59375000000000000        0.0000000000000000     
  0.71875000000000000       0.59375000000000000        0.0000000000000000     
  0.75000000000000000       0.59375000000000000        0.0000000000000000     
  0.62500000000000000       0.62500000000000000        0.0000000000000000     
  0.65625000000000000       0.62500000000000000        0.0000000000000000     
  0.68750000000000000       0.62500000000000000        0.0000000000000000     
  0.71875000000000000       0.62500000000000000        0.0000000000000000     
  0.75000000000000000       0.62500000000000000        0.0000000000000000     
  0.75000000000000000       0.50000000000000000        0.0000000000000000     
  0.78125000000000000       0.50000000000000000        0.0000000000000000     
  0.81250000000000000       0.50000000000000000        0.0000000000000000     
  0.84375000000000000       0.50000000000000000        0.0000000000000000     
  0.87500000000000000       0.50000000000000000        0.0000000000000000     
  0.75000000000000000       0.53125000000000000        0.0000000000000000     
  0.78125000000000000       0.53125000000000000        0.0000000000000000     
  0.81250000000000000       0.53125000000000000        0.0000000000000000     
  0.84375000000000000       0.53125000000000000        0.0000000000000000     
  0.87500000000000000       0.53125000000000000        0.0000000000000000     
  0.75000000000000000       0.56250000000000000        0.0000000000000000     
  0.78125000000000000       0.56250000000000000        0.0000000000000000     
  0.81250000000000000       0.56250000000000000        0.0000000000000000     
  0.84375000000000000       0.56250000000000000        0.0000000000000000     
  0.87500000000000000       0.56250000000000000        0.0000000000000000     
  0.75000000000000000       0.59375000000000000        0.0000000000000000     
  0.78125000000000000       0.59375000000000000        0.0000000000000000     
  0.81250000000000000       0.59375000000000000        0.0000000000000000     
  0.84375000000000000       0.59375000000000000        0.0000000000000000     
  0.87500000000000000       0.59375000000000000        0.0000000000000000     
  0.75000000000000000       0.62500000000000000        0.0000000000000000     
  0.78125000000000000       0.62500000000000000        0.0000000000000000     
  0.81250000000000000       0.62500000000000000        0.0000000000000000     
  0.84375000000000000       0.62500000000000000        0.0000000000000000     
  0.87500000000000000       0.62500000000000000        0.0000000000000000     
  0.87500000000000000       0.50000000000000000        0.0000000000000000     
  0.90625000000000000       0.50000000000000000        0.0000000000000000     
  0.93750000000000000       0.50000000000000000        0.0000000000000000     
  0.96875000000000000       0.50000000000000000        0.0000000000000000     
   1.0000000000000000       0.50000000000000000        0.0000000000000000     
  0.87500000000000000       0.53125000000000000        0.0000000000000000     
  0.90625000000000000       0.53125000000000000        0.0000000000000000     
  0.93750000000000000       0.53125000000000000        0.0000000000000000     
  0.96875000000000000       0.53125000000000000        0.0000000000000000     
   1.0000000000000000       0.53125000000000000        0.0000000000000000     
  0.87500000000000000       0.56250000000000000        0.0000000000000000     
  0.90625000000000000       0.56250000000000000        0.0000000000000000     
  0.93750000000000000       0.56250000000000000        0.0000000000000000     
  0.96875000000000000       0.56250000000000000        0.0000000000000000     
   1.0000000000000000       0.56250000000000000        0.0000000000000000     
  0.87500000000000000       0.59375000000000000        0.0000000000000000     
  0.90625000000000000       0.59375000000000000        0.0000000000000000     
  0.93750000000000000       0.59375000000000000        0.0000000000000000     
  0.96875000000000000       0.59375000000000000        0.0000000000000000     
   1.0000000000000000       0.59375000000000000        0.0000000000000000     
  0.87500000000000000       0.62500000000000000        0.0000000000000000     
  0.90625000000000000       0.62500000000000000        0.0000000000000000     
  0.93750000000000000       0.62500000000000000        0.0000000000000000     
  0.96875000000000000       0.62500000000000000        0.0000000000000000     
   1.0000000000000000       0.62500000000000000        0.0000000000000000     
   1.0000000000000000       0.50000000000000000        0.0000000000000000     
   1.0312500000000000       0.50000000000000000        0.0000000000000000     
   1.0625000000000000       0.50000000000000000        0.0000000000000000     
   1.0937500000000000       0.50000000000000000        0.0000000000000000     
   1.1250000000000000       0.50000000000000000        0.0000000000000000     
   1.0000000000000000       0.53125000000000000        0.0000000000000000     
   1.0312500000000000       0.53125000000000000        0.0000000000000000     
   1.0625000000000000       0.53125000000000000        0.0000000000000000     
   1.0937500000000000       0.53125000000000000        0.0000000000000000     
   1.1250000000000000       0.53125000000000000        0.0000000000000000     
   1.0000000000000000       0.56250000000000000        0.0000000000000000     
   1.0312500000000000       0.56250000000000000        0.0000000000000000     
   1.0625000000000000       0.56250000000000000        0.0000000000000000     
   1.0937500000000000       0.56250000000000000        0.0000000000000000     
   1.1250000000000000       0.56250000000000000        0.0000000000000000     
   1.0000000000000000       0.59375000000000000        0.0000000000000000     
   1.0312500000000000       0.59375000000000000        0.0000000000000000     
   1.0625000000000000       0.59375000000000000        0.0000000000000000     
   1.0937500000000000       0.59375000000000000        0.0000000000000000     
   1.1250000000000000       0.59375000000000000        0.0000000000000000     
   1.0000000000000000       0.62500000000000000        0.0000000000000000     
   1.0312500000000000       0.62500000000000000        0.0000000000000000     
   1.0625000000000000       0.62500000000000000        0.0000000000000000     
   1.0937500000000000       0.62500000000000000        0.0000000000000000     
   1.1250000000000000       0.62500000000000000        0.0000000000000000     
   1.1250000000000000       0.50000000000000000        0.0000000000000000     
   1.1562500000000000       0.50000000000000000        0.0000000000000000     
   1.1875000000000000       0.50000000000000000        0.0000000000000000     
   1.2187500000000000       0.50000000000000000        0.0000000000000000     
   1.2500000000000000       0.50000000000000000        0.0000000000000000     
   1.1250000000000000       0.53125000000000000        0.0000000000000000     
   1.1562500000000000       0.53125000000000000        0.0000000000000000     
   1.1875000000000000       0.53125000000000000        0.0000000000000000     
   1.2187500000000000       0.53125000000000000        0.0000000000000000     
   1.2500000000000000       0.53125000000000000        0.0000000000000000     
   1.1250000000000000       0.56250000000000000        0.0000000000000000     
   1.1562500000000000       0.56250000000000000        0.0000000000000000     
   1.1875000000000000       0.56250000000000000        0.0000000000000000     
   1.2187500000000000       0.56250000000000000        0.0000000000000000     
   1.2500000000000000       0.56250000000000000        0.0000000000000000     
   1.1250000000000000       0.59375000000000000        0.0000000000000000     
   1.1562500000000000       0.59375000000000000        0.0000000000000000     
   1.1875000000000000       0.59375000000000000        0.0000000000000000     
   1.2187500000000000       0.59375000000000000        0.0000000000000000     
   1.2500000000000000       0.59375000000000000        0.0000000000000000     
   1.1250000000000000       0.62500000000000000        0.0000000000000000     
   1.1562500000000000       0.62500000000000000        0.0000000000000000     
   1.1875000000000000       0.62500000000000000        0.0000000000000000     
   1.2187500000000000       0.62500000000000000        0.0000000000000000     
   1.2500000000000000       0.62500000000000000        0.0000000000000000     
   1.2500000000000000       0.50000000000000000        0.0000000000000000     
   1.2812500000000000       0.50000000000000000        0.0000000000000000     
   1.3125000000000000       0.50000000000000000        0.0000000000000000     
   1.3437500000000000       0.50000000000000000        0.0000000000000000     
   1.3750000000000000       0.50000000000000000        0.0000000000000000     
   1.2500000000000000       0.53125000000000000        0.0000000000000000     
   1.2812500000000000       0.53125000000000000        0.0000000000000000     
   1.3125000000000000       0.53125000000000000        0.0000000000000000     
   1.3437500000000000       0.53125000000000000        0.0000000000000000     
   1.3750000000000000       0.53125000000000000        0.0000000000000000     
   1.2500000000000000       0.56250000000000000        0.0000000000000000     
   1.2812500000000000       0.56250000000000000        0.0000000000000000     
   1.3125000000000000       0.56250000000000000        0.0000000000000000     
   1.3437500000000000       0.56250000000000000        0.0000000000000000     
   1.3750000000000000       0.56250000000000000        0.0000000000000000     
   1.2500000000000000       0.59375000000000000        0.0000000000000000     
   1.2812500000000000       0.59375000000000000        0.0000000000000000     
   1.3125000000000000       0.59375000000000000        0.0000000000000000     
   1.3437500000000000       0.59375000000000000        0.0000000000000000     
   1.3750000000000000       0.59375000000000000        0.0000000000000000     
   1.2500000000000000       0.62500000000000000        0.0000000000000000     
   1.2812500000000000       0.62500000000000000        0.0000000000000000     
   1.3125000000000000       0.62500000000000000        0.0000000000000000     
   1.3437500000000000       0.62500000000000000        0.0000000000000000     
   1.3750000000000000       0.62500000000000000        0.0000000000000000     
   1.3750000000000000       0.50000000000000000        0.0000000000000000     
   1.4062500000000000       0.50000000000000000        0.0000000000000000     
   1.4375000000000000       0.50000000000000000        0.0000000000000000     
   1.4687500000000000       0.50000000000000000        0.0000000000000000     
   1.5000000000000000       0.50000000000000000        0.0000000000000000     
   1.3750000000000000       0.53125000000000000        0.0000000000000000     
   1.4062500000000000       0.53125000000000000        0.0000000000000000     
   1.4375000000000000       0.53125000000000000        0.0000000000000000     
   1.4687500000000000       0.53125000000000000        0.0000000000000000     
   1.5000000000000000       0.53125000000000000        0.0000000000000000     
   1.3750000000000000       0.56250000000000000        0.0000000000000000     
   1.4062500000000000       0.56250000000000000        0.0000000000000000     
   1.4375000000000000       0.56250000000000000        0.0000000000000000     
   1.4687500000000000       0.56250000000000000        0.0000000000000000     
   1.5000000000000000       0.56250000000000000        0.0000000000000000     
   1.3750000000000000       0.59375000000000000        0.0000000000000000     
   1.4062500000000000       0.59375000000000000        0.0000000000000000     
   1.4375000000000000       0.59375000000000000        0.0000000000000000     
   1.4687500000000000       0.59375000000000000        0.0000000000000000     
   1.5000000000000000       0.59375000000000000        0.0000000000000000     
   1.3750000000000000       0.62500000000000000        0.0000000000000000     
   1.4062500000000000       0.62500000000000000        0.0000000000000000     
   1.4375000000000000       0.62500000000000000        0.0000000000000000     
   1.4687500000000000       0.62500000000000000        0.0000000000000000     
   1.5000000000000000       0.62500000000000000        0.0000000000000000     
  0.50000000000000000       0.62500000000000000        0.0000000000000000     
  0.53125000000000000       0.62500000000000000        0.0000000000000000     
  0.56250000000000000       0.62500000000000000        0.0000000000000000     
  0.59375000000000000       0.62500000000000000        0.0000000000000000     
  0.62500000000000000       0.62500000000000000        0.0000000000000000     
  0.50000000000000000       0.65625000000000000        0.0000000000000000     
  0.53125000000000000       0.65625000000000000        0.0000000000000000     
  0.56250000000000000       0.65625000000000000        0.0000000000000000     
  0.59375000000000000       0.65625000000000000        0.0000000000000000     
  0.62500000000000000       0.65625000000000000        0.0000000000000000     
  0.50000000000000000       0.68750000000000000        0.0000000000000000     
  0.53125000000000000       0.68750000000000000        0.0000000000000000     
  0.56250000000000000       0.68750000000000000        0.0000000000000000     
  0.59375000000000000       0.68750000000000000        0.0000000000000000     
  0.62500000000000000       0.68750000000000000        0.0000000000000000     
  0.50000000000000000       0.71875000000000000        0.0000000000000000     
  0.53125000000000000       0.71875000000000000        0.0000000000000000     
  0.56250000000000000       0.71875000000000000        0.0000000000000000     
  0.59375000000000000       0.71875000000000000        0.0000000000000000     
  0.62500000000000000       0.71875000000000000        0.0000000000000000     
  0.50000000000000000       0.75000000000000000        0.0000000000000000     
  0.53125000000000000       0.75000000000000000        0.0000000000000000     
  0.56250000000000000       0.75000000000000000        0.0000000000000000     
  0.59375000000000000       0.75000000000000000        0.0000000000000000     
  0.62500000000000000       0.75000000000000000        0.0000000000000000     
  0.62500000000000000       0.62500000000000000        0.0000000000000000     
  0.65625000000000000       0.62500000000000000        0.0000000000000000     
  0.68750000000000000       0.62500000000000000        0.0000000000000000     
  0.71875000000000000       0.62500000000000000        0.0000000000000000     
  0.75000000000000000       0.62500000000000000        0.0000000000000000     
  0.62500000000000000       0.65625000000000000        0.0000000000000000     
  0.65625000000000000       0.65625000000000000        0.0000000000000000     
  0.68750000000000000       0.65625000000000000        0.0000000000000000     
  0.71875000000000000       0.65625000000000000        0.0000000000000000     
  0.75000000000000000       0.65625000000000000        0.0000000000000000     
  0.62500000000000000       0.68750000000000000        0.0000000000000000     
  0.65625000000000000       0.68750000000000000        0.0000000000000000     
  0.68750000000000000       0.68750000000000000        0.0000000000000000     
  0.71875000000000000       0.68750000000000000        0.0000000000000000     
  0.75000000000000000       0.68750000000000000        0.0000000000000000     
  0.62500000000000000       0.71875000000000000        0.0000000000000000     
  0.65625000000000000       0.71875000000000000        0.0000000000000000     
  0.68750000000000000       0.71875000000000000        0.0000000000000000     
  0.71875000000000000       0.71875000000000000        0.0000000000000000     
  0.75000000000000000       0.71875000000000000        0.0000000000000000     
  0.62500000000000000       0.75000000000000000        0.0000000000000000     
  0.65625000000000000       0.75000000000000000        0.0000000000000000     
  0.68750000000000000       0.75000000000000000        0.0000000000000000     
  0.71875000000000000       0.75000000000000000        0.0000000000000000     
  0.75000000000000000       0.75000000000000000        0.0000000000000000     
  0.75000000000000000       0.62500000000000000        0.0000000000000000     
  0.78125000000000000       0.62500000000000000        0.0000000000000000     
  0.81250000000000000       0.62500000000000000        0.0000000000000000     
  0.84375000000000000       0.62500000000000000        0.0000000000000000     
  0.87500000000000000       0.62500000000000000        0.0000000000000000     
  0.75000000000000000       0.65625000000000000        0.0000000000000000     
  0.78125000000000000       0.65625000000000000        0.0000000000000000     
  0.81250000000000000       0.65625000000000000        0.0000000000000000     
  0.84375000000000000       0.65625000000000000        0.0000000000000000     
  0.87500000000000000       0.65625000000000000        0.0000000000000000     
  0.75000000000000000       0.68750000000000000        0.0000000000000000     
  0.78125000000000000       0.68750000000000000        0.0000000000000000     
  0.81250000000000000       0.68750000000000000        0.0000000000000000     
  0.84375000000000000       0.68750000000000000        0.0000000000000000     
  0.87500000000000000       0.68750000000000000        0.0000000000000000     
  0.75000000000000000       0.71875000000000000        0.0000000000000000     
  0.78125000000000000       0.71875000000000000        0.0000000000000000     
  0.81250000000000000       0.71875000000000000        0.0000000000000000     
  0.84375000000000000       0.71875000000000000        0.0000000000000000     
  0.87500000000000000       0.71875000000000000        0.0000000000000000     
  0.75000000000000000       0.75000000000000000        0.0000000000000000     
  0.78125000000000000       0.75000000000000000        0.0000000000000000     
  0.81250000000000000       0.75000000000000000        0.0000000000000000     
  0.84375000000000000       0.75000000000000000        0.0000000000000000     
  0.87500000000000000       0.75000000000000000        0.0000000000000000     
  0.87500000000000000       0.62500000000000000        0.0000000000000000     
  0.90625000000000000       0.62500000000000000        0.0000000000000000     
  0.93750000000000000       0.62500000000000000        0.0000000000000000     
  0.96875000000000000       0.62500000000000000        0.0000000000000000     
   1.0000000000000000       0.62500000000000000        0.0000000000000000     
  0.87500000000000000       0.65625000000000000        0.0000000000000000     
  0.90625000000000000       0.65625000000000000        0.0000000000000000     
  0.93750000000000000       0.65625000000000000        0.0000000000000000     
  0.96875000000000000       0.65625000000000000        0.0000000000000000     
   1.0000000000000000       0.65625000000000000        0.0000000000000000     
  0.87500000000000000       0.68750000000000000        0.0000000000000000     
  0.90625000000000000       0.68750000000000000        0.0000000000000000     
  0.93750000000000000       0.68750000000000000        0.0000000000000000     
  0.96875000000000000       0.68750000000000000        0.0000000000000000     
   1.0000000000000000       0.68750000000000000        0.0000000000000000     
  0.87500000000000000       0.71875000000000000        0.0000000000000000     
  0.90625000000000000       0.71875000000000000        0.0000000000000000     
  0.93750000000000000       0.71875000000000000        0.0000000000000000     
  0.96875000000000000       0.71875000000000000        0.0000000000000000     
   1.0000000000000000       0.71875000000000000        0.0000000000000000     
  0.87500000000000000       0.75000000000000000        0.0000000000000000     
  0.90625000000000000       0.75000000000000000        0.0000000000000000     
  0.93750000000000000       0.75000000000000000        0.0000000000000000     
  0.96875000000000000       0.75000000000000000        0.0000000000000000     
   1.0000000000000000       0.75000000000000000        0.0000000000000000     
   1.0000000000000000       0.62500000000000000        0.0000000000000000     
   1.0312500000000000       0.62500000000000000        0.0000000000000000     
   1.0625000000000000       0.62500000000000000        0.0000000000000000     
   1.0937500000000000       0.62500000000000000        0.0000000000000000     
   1.1250000000000000       0.62500000000000000        0.0000000000000000     
   1.0000000000000000       0.65625000000000000        0.0000000000000000     
   1.0312500000000000       0.65625000000000000        0.0000000000000000     
   1.0625000000000000       0.65625000000000000        0.0000000000000000     
   1.0937500000000000       0.65625000000000000        0.0000000000000000     
   1.1250000000000000       0.65625000000000000        0.0000000000000000     
   1.0000000000000000       0.68750000000000000        0.0000000000000000     
   1.0312500000000000       0.68750000000000000        0.0000000000000000     
   1.0625000000000000       0.68750000000000000        0.0000000000000000     
   1.0937500000000000       0.68750000000000000        0.0000000000000000     
   1.1250000000000000       0.68750000000000000        0.0000000000000000     
   1.0000000000000000       0.71875000000000000        0.0000000000000000     
   1.0312500000000000       0.71875000000000000        0.0000000000000000     
   1.0625000000000000       0.71875000000000000        0.0000000000000000     
   1.0937500000000000       0.71875000000000000        0.0000000000000000     
   1.1250000000000000       0.71875000000000000        0.0000000000000000     
   1.0000000000000000       0.75000000000000000        0.0000000000000000     
   1.0312500000000000       0.75000000000000000        0.0000000000000000     
   1.0625000000000000       0.75000000000000000        0.0000000000000000     
   1.0937500000000000       0.75000000000000000        0.0000000000000000     
   1.1250000000000000       0.75000000000000000        0.0000000000000000     
   1.1250000000000000       0.62500000000000000        0.0000000000000000     
   1.1562500000000000       0.62500000000000000        0.0000000000000000     
   1.1875000000000000       0.62500000000000000        0.0000000000000000     
   1.2187500000000000       0.62500000000000000        0.0000000000000000     
   1.2500000000000000       0.62500000000000000        0.0000000000000000     
   1.1250000000000000       0.65625000000000000        0.0000000000000000     
   1.1562500000000000       0.65625000000000000        0.0000000000000000     
   1.1875000000000000       0.65625000000000000        0.0000000000000000     
   1.2187500000000000       0.65625000000000000        0.0000000000000000     
   1.2500000000000000       0.65625000000000000        0.0000000000000000     
   1.1250000000000000       0.68750000000000000        0.0000000000000000     
   1.1562500000000000       0.68750000000000000        0.0000000000000000     
   1.1875000000000000       0.68750000000000000        0.0000000000000000     
   1.2187500000000000       0.68750000000000000        0.0000000000000000     
   1.2500000000000000       0.68750000000000000        0.0000000000000000     
   1.1250000000000000       0.71875000000000000        0.0000000000000000     
   1.1562500000000000       0.71875000000000000        0.0000000000000000     
   1.1875000000000000       0.71875000000000000        0.0000000000000000     
   1.2187500000000000       0.71875000000000000        0.0000000000000000     
   1.2500000000000000       0.71875000000000000        0.0000000000000000     
   1.1250000000000000       0.75000000000000000        0.0000000000000000     
   1.1562500000000000       0.75000000000000000        0.0000000000000000     
   1.1875000000000000       0.75000000000000000        0.0000000000000000     
   1.2187500000000000       0.75000000000000000        0.0000000000000000     
   1.2500000000000000       0.75000000000000000        0.0000000000000000     
   1.2500000000000000       0.62500000000000000        0.0000000000000000     
   1.2812500000000000       0.62500000000000000        0.0000000000000000     
   1.3125000000000000       0.62500000000000000        0.0000000000000000     
   1.3437500000000000       0.62500000000000000        0.0000000000000000     
   1.3750000000000000       0.62500000000000000        0.0000000000000000     
   1.2500000000000000       0.65625000000000000        0.0000000000000000     
   1.2812500000000000       0.65625000000000000        0.0000000000000000     
   1.3125000000000000       0.65625000000000000        0.0000000000000000     
   1.3437500000000000       0.65625000000000000        0.0000000000000000     
   1.3750000000000000       0.65625000000000000        0.0000000000000000     
   1.2500000000000000       0.68750000000000000        0.0000000000000000     
   1.2812500000000000       0.68750000000000000        0.0000000000000000     
   1.3125000000000000       0.68750000000000000        0.0000000000000000     
   1.3437500000000000       0.68750000000000000        0.0000000000000000     
   1.3750000000000000       0.68750000000000000        0.0000000000000000     
   1.2500000000000000       0.71875000000000000        0.0000000000000000     
   1.2812500000000000       0.71875000000000000        0.0000000000000000     
   1.3125000000000000       0.71875000000000000        0.0000000000000000     
   1.3437500000000000       0.71875000000000000        0.0000000000000000     
   1.3750000000000000       0.71875000000000000        0.0000000000000000     
   1.2500000000000000       0.75000000000000000        0.0000000000000000     
   1.2812500000000000       0.75000000000000000        0.0000000000000000     
   1.3125000000000000       0.75000000000000000        0.0000000000000000     
   1.3437500000000000       0.75000000000000000        0.0000000000000000     
   1.3750000000000000       0.75000000000000000        0.0000000000000000     
   1.3750000000000000       0.62500000000000000        0.0000000000000000     
   1.4062500000000000       0.62500000000000000        0.0000000000000000     
   1.4375000000000000       0.62500000000000000        0.0000000000000000     
   1.4687500000000000       0.62500000000000000        0.0000000000000000     
   1.5000000000000000       0.62500000000000000        0.0000000000000000     
   1.3750000000000000       0.65625000000000000        0.0000000000000000     
   1.4062500000000000       0.65625000000000000        0.0000000000000000     
   1.4375000000000000       0.65625000000000000        0.0000000000000000     
   1.4687500000000000       0.65625000000000000        0.0000000000000000     
   1.5000000000000000       0.65625000000000000        0.0000000000000000     
   1.3750000000000000       0.68750000000000000        0.0000000000000000     
   1.4062500000000000       0.68750000000000000        0.0000000000000000     
   1.4375000000000000       0.68750000000000000        0.0000000000000000     
   1.4687500000000000       0.68750000000000000        0.0000000000000000     
   1.5000000000000000       0.68750000000000000        0.0000000000000000     
   1.3750000000000000       0.71875000000000000        0.0000000000000000     
   1.4062500000000000       0.71875000000000000        0.0000000000000000     
   1.4375000000000000       0.71875000000000000        0.0000000000000000     
   1.4687500000000000       0.71875000000000000        0.0000000000000000     
   1.5000000000000000       0.71875000000000000        0.0000000000000000     
   1.3750000000000000       0.75000000000000000        0.0000000000000000     
   1.4062500000000000       0.75000000000000000        0.0000000000000000     
   1.4375000000000000       0.75000000000000000        0.0000000000000000     
   1.4687500000000000       0.75000000000000000        0.0000000000000000     
   1.5000000000000000       0.75000000000000000        0.0000000000000000     
  0.50000000000000000       0.75000000000000000        0.0000000000000000     
  0.53125000000000000       0.75000000000000000        0.0000000000000000     
  0.56250000000000000       0.75000000000000000        0.0000000000000000     
  0.59375000000000000       0.75000000000000000        0.0000000000000000     
  0.62500000000000000       0.75000000000000000        0.0000000000000000     
  0.50000000000000000       0.78125000000000000        0.0000000000000000     
  0.53125000000000000       0.78125000000000000        0.0000000000000000     
  0.56250000000000000       0.78125000000000000        0.0000000000000000     
  0.59375000000000000       0.78125000000000000        0.0000000000000000     
  0.62500000000000000       0.78125000000000000        0.0000000000000000     
  0.50000000000000000       0.81250000000000000        0.0000000000000000     
  0.53125000000000000       0.81250000000000000        0.0000000000000000     
  0.56250000000000000       0.81250000000000000        0.0000000000000000     
  0.59375000000000000       0.81250000000000000        0.0000000000000000     
  0.62500000000000000       0.81250000000000000        0.0000000000000000     
  0.50000000000000000       0.84375000000000000        0.0000000000000000     
  0.53125000000000000       0.84375000000000000        0.0000000000000000     
  0.56250000000000000       0.84375000000000000        0.0000000000000000     
  0.59375000000000000       0.84375000000000000        0.0000000000000000     
  0.62500000000000000       0.84375000000000000        0.0000000000000000     
  0.50000000000000000       0.87500000000000000        0.0000000000000000     
  0.53125000000000000       0.87500000000000000        0.0000000000000000     
  0.56250000000000000       0.87500000000000000        0.0000000000000000     
  0.59375000000000000       0.87500000000000000        0.0000000000000000     
  0.62500000000000000       0.87500000000000000        0.0000000000000000     
  0.62500000000000000       0.75000000000000000        0.0000000000000000     
  0.65625000000000000       0.75000000000000000        0.0000000000000000     
  0.68750000000000000       0.75000000000000000        0.0000000000000000     
  0.71875000000000000       0.75000000000000000        0.0000000000000000     
  0.75000000000000000       0.75000000000000000        0.0000000000000000     
  0.62500000000000000       0.78125000000000000        0.0000000000000000     
  0.65625000000000000       0.78125000000000000        0.0000000000000000     
  0.68750000000000000       0.78125000000000000        0.0000000000000000     
  0.71875000000000000       0.78125000000000000        0.0000000000000000     
  0.75000000000000000       0.78125000000000000        0.0000000000000000     
  0.62500000000000000       0.81250000000000000        0.0000000000000000     
  0.65625000000000000       0.81250000000000000        0.0000000000000000     
  0.68750000000000000       0.81250000000000000        0.0000000000000000     
  0.71875000000000000       0.81250000000000000        0.0000000000000000     
  0.75000000000000000       0.81250000000000000        0.0000000000000000     
  0.62500000000000000       0.84375000000000000        0.0000000000000000     
  0.65625000000000000       0.84375000000000000        0.0000000000000000     
  0.68750000000000000       0.84375000000000000        0.0000000000000000     
  0.71875000000000000       0.84375000000000000        0.0000000000000000     
  0.75000000000000000       0.84375000000000000        0.0000000000000000     
  0.62500000000000000       0.87500000000000000        0.0000000000000000     
  0.65625000000000000       0.87500000000000000        0.0000000000000000     
  0.68750000000000000       0.87500000000000000        0.0000000000000000     
  0.71875000000000000       0.87500000000000000        0.0000000000000000     
  0.75000000000000000       0.87500000000000000        0.0000000000000000     
  0.75000000000000000       0.75000000000000000        0.0000000000000000     
  0.78125000000000000       0.75000000000000000        0.0000000000000000     
  0.81250000000000000       0.75000000000000000        0.0000000000000000     
  0.84375000000000000       0.75000000000000000        0.0000000000000000     
  0.87500000000000000       0.75000000000000000        0.0000000000000000     
  0.75000000000000000       0.78125000000000000        0.0000000000000000     
  0.78125000000000000       0.78125000000000000        0.0000000000000000     
  0.81250000000000000       0.78125000000000000        0.0000000000000000     
  0.84375000000000000       0.78125000000000000        0.0000000000000000     
  0.87500000000000000       0.78125000000000000        0.0000000000000000     
  0.75000000000000000       0.81250000000000000        0.0000000000000000     
  0.78125000000000000       0.81250000000000000        0.0000000000000000     
  0.81250000000000000       0.81250000000000000        0.0000000000000000     
  0.84375000000000000       0.81250000000000000        0.0000000000000000     
  0.87500000000000000       0.81250000000000000        0.0000000000000000     
  0.75000000000000000       0.84375000000000000        0.0000000000000000     
  0.78125000000000000       0.84375000000000000        0.0000000000000000     
  0.81250000000000000       0.84375000000000000        0.0000000000000000     
  0.84375000000000000       0.84375000000000000        0.0000000000000000     
  0.87500000000000000       0.84375000000000000        0.0000000000000000     
  0.75000000000000000       0.87500000000000000        0.0000000000000000     
  0.78125000000000000       0.87500000000000000        0.0000000000000000     
  0.81250000000000000       0.87500000000000000        0.0000000000000000     
  0.84375000000000000       0.87500000000000000        0.0000000000000000     
  0.87500000000000000       0.87500000000000000        0.0000000000000000     
  0.87500000000000000       0.75000000000000000        0.0000000000000000     
  0.90625000000000000       0.75000000000000000        0.0000000000000000     
  0.93750000000000000       0.75000000000000000        0.0000000000000000     
  0.96875000000000000       0.75000000000000000        0.0000000000000000     
   1.0000000000000000       0.75000000000000000        0.0000000000000000     
  0.87500000000000000       0.78125000000000000        0.0000000000000000     
  0.90625000000000000       0.78125000000000000        0.0000000000000000     
  0.93750000000000000       0.78125000000000000        0.0000000000000000     
  0.96875000000000000       0.78125000000000000        0.0000000000000000     
   1.0000000000000000       0.78125000000000000        0.0000000000000000     
  0.87500000000000000       0.81250000000000000        0.0000000000000000     
  0.90625000000000000       0.81250000000000000        0.0000000000000000     
  0.93750000000000000       0.81250000000000000        0.0000000000000000     
  0.96875000000000000       0.81250000000000000        0.0000000000000000     
   1.0000000000000000       0.81250000000000000        0.0000000000000000     
  0.87500000000000000       0.84375000000000000        0.0000000000000000     
  0.90625000000000000       0.84375000000000000        0.0000000000000000     
  0.93750000000000000       0.84375000000000000        0.0000000000000000     
  0.96875000000000000       0.84375000000000000        0.0000000000000000     
   1.0000000000000000       0.84375000000000000        0.0000000000000000     
  0.87500000000000000       0.87500000000000000        0.0000000000000000     
  0.90625000000000000       0.87500000000000000        0.0000000000000000     
  0.93750000000000000       0.87500000000000000        0.0000000000000000     
  0.96875000000000000       0.87500000000000000        0.0000000000000000     
   1.0000000000000000       0.87500000000000000        0.0000000000000000     
   1.0000000000000000       0.75000000000000000        0.0000000000000000     
   1.0312500000000000       0.75000000000000000        0.0000000000000000     
   1.0625000000000000       0.75000000000000000        0.0000000000000000     
   1.0937500000000000       0.75000000000000000        0.0000000000000000     
   1.1250000000000000       0.75000000000000000        0.0000000000000000     
   1.0000000000000000       0.78125000000000000        0.0000000000000000     
   1.0312500000000000       0.78125000000000000        0.0000000000000000     
   1.0625000000000000       0.78125000000000000        0.0000000000000000     
   1.0937500000000000       0.78125000000000000        0.0000000000000000     
   1.1250000000000000       0.78125000000000000        0.0000000000000000     
   1.0000000000000000       0.81250000000000000        0.0000000000000000     
   1.0312500000000000       0.81250000000000000        0.0000000000000000     
   1.0625000000000000       0.81250000000000000        0.0000000000000000     
   1.0937500000000000       0.81250000000000000        0.0000000000000000     
   1.1250000000000000       0.81250000000000000        0.0000000000000000     
   1.0000000000000000       0.84375000000000000        0.0000000000000000     
   1.0312500000000000       0.84375000000000000        0.0000000000000000     
   1.0625000000000000       0.84375000000000000        0.0000000000000000     
   1.0937500000000000       0.84375000000000000        0.0000000000000000     
   1.1250000000000000       0.84375000000000000        0.0000000000000000     
   1.0000000000000000       0.87500000000000000        0.0000000000000000     
   1.0312500000000000       0.87500000000000000        0.0000000000000000     
   1.0625000000000000       0.87500000000000000        0.0000000000000000     
   1.0937500000000000       0.87500000000000000        0.0000000000000000     
   1.1250000000000000       0.87500000000000000        0.0000000000000000     
   1.1250000000000000       0.75000000000000000        0.0000000000000000     
   1.1562500000000000       0.75000000000000000        0.0000000000000000     
   1.1875000000000000       0.75000000000000000        0.0000000000000000     
   1.2187500000000000       0.75000000000000000        0.0000000000000000     
   1.2500000000000000       0.75000000000000000        0.0000000000000000     
   1.1250000000000000       0.78125000000000000        0.0000000000000000     
   1.1562500000000000       0.78125000000000000        0.0000000000000000     
   1.1875000000000000       0.78125000000000000        0.0000000000000000     
   1.2187500000000000       0.78125000000000000        0.0000000000000000     
   1.2500000000000000       0.78125000000000000        0.0000000000000000     
   1.1250000000000000       0.81250000000000000        0.0000000000000000     
   1.1562500000000000       0.81250000000000000        0.0000000000000000     
   1.1875000000000000       0.81250000000000000        0.0000000000000000     
   1.2187500000000000       0.81250000000000000        0.0000000000000000     
   1.2500000000000000       0.81250000000000000        0.0000000000000000     
   1.1250000000000000       0.84375000000000000        0.0000000000000000     
   1.1562500000000000       0.84375000000000000        0.0000000000000000     
   1.1875000000000000       0.84375000000000000        0.0000000000000000     
   1.2187500000000000       0.84375000000000000        0.0000000000000000     
   1.2500000000000000       0.84375000000000000        0.0000000000000000     
   1.1250000000000000       0.87500000000000000        0.0000000000000000     
   1.1562500000000000       0.87500000000000000        0.0000000000000000     
   1.1875000000000000       0.87500000000000000        0.0000000000000000     
   1.2187500000000000       0.87500000000000000        0.0000000000000000     
   1.2500000000000000       0.87500000000000000        0.0000000000000000     
   1.2500000000000000       0.75000000000000000        0.0000000000000000     
   1.2812500000000000       0.75000000000000000        0.0000000000000000     
   1.3125000000000000       0.75000000000000000        0.0000000000000000     
   1.3437500000000000       0.75000000000000000        0.0000000000000000     
   1.3750000000000000       0.75000000000000000        0.0000000000000000     
   1.2500000000000000       0.78125000000000000        0.0000000000000000     
   1.2812500000000000       0.78125000000000000        0.0000000000000000     
   1.3125000000000000       0.78125000000000000        0.0000000000000000     
   1.3437500000000000       0.78125000000000000        0.0000000000000000     
   1.3750000000000000       0.78125000000000000        0.0000000000000000     
   1.2500000000000000       0.81250000000000000        0.0000000000000000     
   1.2812500000000000       0.81250000000000000        0.0000000000000000     
   1.3125000000000000       0.81250000000000000        0.0000000000000000     
   1.3437500000000000       0.81250000000000000        0.0000000000000000     
   1.3750000000000000       0.81250000000000000        0.0000000000000000     
   1.2500000000000000       0.84375000000000000        0.0000000000000000     
   1.2812500000000000       0.84375000000000000        0.0000000000000000     
   1.3125000000000000       0.84375000000000000        0.0000000000000000     
   1.3437500000000000       0.84375000000000000        0.0000000000000000     
   1.3750000000000000       0.84375000000000000        0.0000000000000000     
   1.2500000000000000       0.87500000000000000        0.0000000000000000     
   1.2812500000000000       0.87500000000000000        0.0000000000000000     
   1.3125000000000000       0.87500000000000000        0.0000000000000000     
   1.3437500000000000       0.87500000000000000        0.0000000000000000     
   1.3750000000000000       0.87500000000000000        0.0000000000000000     
   1.3750000000000000       0.75000000000000000        0.0000000000000000     
   1.4062500000000000       0.75000000000000000        0.0000000000000000     
   1.4375000000000000       0.75000000000000000        0.0000000000000000     
   1.4687500000000000       0.75000000000000000        0.0000000000000000     
   1.5000000000000000       0.75000000000000000        0.0000000000000000     
   1.3750000000000000       0.78125000000000000        0.0000000000000000     
   1.4062500000000000       0.78125000000000000        0.0000000000000000     
   1.4375000000000000       0.78125000000000000        0.0000000000000000     
   1.4687500000000000       0.78125000000000000        0.0000000000000000     
   1.5000000000000000       0.78125000000000000        0.0000000000000000     
   1.3750000000000000       0.81250000000000000        0.0000000000000000     
   1.4062500000000000       0.81250000000000000        0.0000000000000000     
   1.4375000000000000       0.81250000000000000        0.0000000000000000     
   1.4687500000000000       0.81250000000000000        0.0000000000000000     
   1.5000000000000000       0.81250000000000000        0.0000000000000000     
   1.3750000000000000       0.84375000000000000        0.0000000000000000     
   1.4062500000000000       0.84375000000000000        0.0000000000000000     
   1.4375000000000000       0.84375000000000000        0.0000000000000000     
   1.4687500000000000       0.84375000000000000        0.0000000000000000     
   1.5000000000000000       0.84375000000000000        0.0000000000000000     
   1.3750000000000000       0.87500000000000000        0.0000000000000000     
   1.4062500000000000       0.87500000000000000        0.0000000000000000     
   1.4375000000000000       0.87500000000000000        0.0000000000000000     
   1.4687500000000000       0.87500000000000000        0.0000000000000000     
   1.5000000000000000       0.87500000000000000        0.0000000000000000     
  0.50000000000000000       0.87500000000000000        0.0000000000000000     
  0.53125000000000000       0.87500000000000000        0.0000000000000000     
  0.56250000000000000       0.87500000000000000        0.0000000000000000     
  0.59375000000000000       0.87500000000000000        0.0000000000000000     
  0.62500000000000000       0.87500000000000000        0.0000000000000000     
  0.50000000000000000       0.90625000000000000        0.0000000000000000     
  0.53125000000000000       0.90625000000000000        0.0000000000000000     
  0.56250000000000000       0.90625000000000000        0.0000000000000000     
  0.59375000000000000       0.90625000000000000        0.0000000000000000     
  0.62500000000000000       0.90625000000000000        0.0000000000000000     
  0.50000000000000000       0.93750000000000000        0.0000000000000000     
  0.53125000000000000       0.93750000000000000        0.0000000000000000     
  0.56250000000000000       0.93750000000000000        0.0000000000000000     
  0.59375000000000000       0.93750000000000000        0.0000000000000000     
  0.62500000000000000       0.93750000000000000        0.0000000000000000     
  0.50000000000000000       0.96875000000000000        0.0000000000000000     
  0.53125000000000000       0.96875000000000000        0.0000000000000000     
  0.56250000000000000       0.96875000000000000        0.0000000000000000     
  0.59375000000000000       0.96875000000000000        0.0000000000000000     
  0.62500000000000000       0.96875000000000000        0.0000000000000000     
  0.50000000000000000        1.0000000000000000        0.0000000000000000     
  0.53125000000000000        1.0000000000000000        0.0000000000000000     
  0.56250000000000000        1.0000000000000000        0.0000000000000000     
  0.59375000000000000        1.0000000000000000        0.0000000000000000     
  0.62500000000000000        1.0000000000000000        0.0000000000000000     
  0.62500000000000000       0.87500000000000000        0.0000000000000000     
  0.65625000000000000       0.87500000000000000        0.0000000000000000     
  0.68750000000000000       0.87500000000000000        0.0000000000000000     
  0.71875000000000000       0.87500000000000000        0.0000000000000000     
  0.75000000000000000       0.87500000000000000        0.0000000000000000     
  0.62500000000000000       0.90625000000000000        0.0000000000000000     
  0.65625000000000000       0.90625000000000000        0.0000000000000000     
  0.68750000000000000       0.90625000000000000        0.0000000000000000     
  0.71875000000000000       0.90625000000000000        0.0000000000000000     
  0.75000000000000000       0.90625000000000000        0.0000000000000000     
  0.62500000000000000       0.93750000000000000        0.0000000000000000     
  0.65625000000000000       0.93750000000000000        0.0000000000000000     
  0.68750000000000000       0.93750000000000000        0.0000000000000000     
  0.71875000000000000       0.93750000000000000        0.0000000000000000     
  0.75000000000000000       0.93750000000000000        0.0000000000000000     
  0.62500000000000000       0.96875000000000000        0.0000000000000000     
  0.65625000000000000       0.96875000000000000        0.0000000000000000     
  0.68750000000000000       0.96875000000000000        0.0000000000000000     
  0.71875000000000000       0.96875000000000000        0.0000000000000000     
  0.75000000000000000       0.96875000000000000        0.0000000000000000     
  0.62500000000000000        1.0000000000000000        0.0000000000000000     
  0.65625000000000000        1.0000000000000000        0.0000000000000000     
  0.68750000000000000        1.0000000000000000        0.0000000000000000     
  0.71875000000000000        1.0000000000000000        0.0000000000000000     
  0.75000000000000000        1.0000000000000000        0.0000000000000000     
  0.75000000000000000       0.87500000000000000        0.0000000000000000     
  0.78125000000000000       0.87500000000000000        0.0000000000000000     
  0.81250000000000000       0.87500000000000000        0.0000000000000000     
  0.84375000000000000       0.87500000000000000        0.0000000000000000     
  0.87500000000000000       0.87500000000000000        0.0000000000000000     
  0.75000000000000000       0.90625000000000000        0.0000000000000000     
  0.78125000000000000       0.90625000000000000        0.0000000000000000     
  0.81250000000000000       0.90625000000000000        0.0000000000000000     
  0.84375000000000000       0.90625000000000000        0.0000000000000000     
  0.87500000000000000       0.90625000000000000        0.0000000000000000     
  0.75000000000000000       0.93750000000000000        0.0000000000000000     
  0.78125000000000000       0.93750000000000000        0.0000000000000000     
  0.81250000000000000       0.93750000000000000        0.0000000000000000     
  0.84375000000000000       0.93750000000000000        0.0000000000000000     
  0.87500000000000000       0.93750000000000000        0.0000000000000000     
  0.75000000000000000       0.96875000000000000        0.0000000000000000     
  0.78125000000000000       0.96875000000000000        0.0000000000000000     
  0.81250000000000000       0.96875000000000000        0.0000000000000000     
  0.84375000000000000       0.96875000000000000        0.0000000000000000     
  0.87500000000000000       0.96875000000000000        0.0000000000000000     
  0.75000000000000000        1.0000000000000000        0.0000000000000000     
  0.78125000000000000        1.0000000000000000        0.0000000000000000     
  0.81250000000000000        1.0000000000000000        0.0000000000000000     
  0.84375000000000000        1.0000000000000000        0.0000000000000000     
  0.87500000000000000        1.0000000000000000        0.0000000000000000     
  0.87500000000000000       0.87500000000000000        0.0000000000000000     
  0.90625000000000000       0.87500000000000000        0.0000000000000000     
  0.93750000000000000       0.87500000000000000        0.0000000000000000     
  0.96875000000000000       0.87500000000000000        0.0000000000000000     
   1.0000000000000000       0.87500000000000000        0.0000000000000000     
  0.87500000000000000       0.90625000000000000        0.0000000000000000     
  0.90625000000000000       0.90625000000000000        0.0000000000000000     
  0.93750000000000000       0.90625000000000000        0.0000000000000000     
  0.96875000000000000       0.90625000000000000        0.0000000000000000     
   1.0000000000000000       0.90625000000000000        0.0000000000000000     
  0.87500000000000000       0.93750000000000000        0.0000000000000000     
  0.90625000000000000       0.93750000000000000        0.0000000000000000     
  0.93750000000000000       0.93750000000000000        0.0000000000000000     
  0.96875000000000000       0.93750000000000000        0.0000000000000000     
   1.0000000000000000       0.93750000000000000        0.0000000000000000     
  0.87500000000000000       0.96875000000000000        0.0000000000000000     
  0.90625000000000000       0.96875000000000000        0.0000000000000000     
  0.93750000000000000       0.96875000000000000        0.0000000000000000     
  0.96875000000000000       0.96875000000000000        0.0000000000000000     
   1.0000000000000000       0.96875000000000000        0.0000000000000000     
  0.87500000000000000        1.0000000000000000        0.0000000000000000     
  0.90625000000000000        1.0000000000000000        0.0000000000000000     
  0.93750000000000000        1.0000000000000000        0.0000000000000000     
  0.96875000000000000        1.0000000000000000        0.0000000000000000     
   1.0000000000000000        1.0000000000000000        0.0000000000000000     
   1.0000000000000000       0.87500000000000000        0.0000000000000000     
   1.0312500000000000       0.87500000000000000        0.0000000000000000     
   1.0625000000000000       0.87500000000000000        0.0000000000000000     
   1.0937500000000000       0.87500000000000000        0.0000000000000000     
   1.1250000000000000       0.87500000000000000        0.0000000000000000     
   1.0000000000000000       0.90625000000000000        0.0000000000000000     
   1.0312500000000000       0.90625000000000000        0.0000000000000000     
   1.0625000000000000       0.90625000000000000        0.0000000000000000     
   1.0937500000000000       0.90625000000000000        0.0000000000000000     
   1.1250000000000000       0.90625000000000000        0.0000000000000000     
   1.0000000000000000       0.93750000000000000        0.0000000000000000     
   1.0312500000000000       0.93750000000000000        0.0000000000000000     
   1.0625000000000000       0.93750000000000000        0.0000000000000000     
   1.0937500000000000       0.93750000000000000        0.0000000000000000     
   1.1250000000000000       0.93750000000000000        0.0000000000000000     
   1.0000000000000000       0.96875000000000000        0.0000000000000000     
   1.0312500000000000       0.96875000000000000        0.0000000000000000     
   1.0625000000000000       0.96875000000000000        0.0000000000000000     
   1.0937500000000000       0.96875000000000000        0.0000000000000000     
   1.1250000000000000       0.96875000000000000        0.0000000000000000     
   1.0000000000000000        1.0000000000000000        0.0000000000000000     
   1.0312500000000000        1.0000000000000000        0.0000000000000000     
   1.0625000000000000        1.0000000000000000        0.0000000000000000     
   1.0937500000000000        1.0000000000000000        0.0000000000000000     
   1.1250000000000000        1.0000000000000000        0.0000000000000000     
   1.1250000000000000       0.87500000000000000        0.0000000000000000     
   1.1562500000000000       0.87500000000000000        0.0000000000000000     
   1.1875000000000000       0.87500000000000000        0.0000000000000000     
   1.2187500000000000       0.87500000000000000        0.0000000000000000     
   1.2500000000000000       0.87500000000000000        0.0000000000000000     
   1.1250000000000000       0.90625000000000000        0.0000000000000000     
   1.1562500000000000       0.90625000000000000        0.0000000000000000     
   1.1875000000000000       0.90625000000000000        0.0000000000000000     
   1.2187500000000000       0.90625000000000000        0.0000000000000000     
   1.2500000000000000       0.90625000000000000        0.0000000000000000     
   1.1250000000000000       0.93750000000000000        0.0000000000000000     
   1.1562500000000000       0.93750000000000000        0.0000000000000000     
   1.1875000000000000       0.93750000000000000        0.0000000000000000     
   1.2187500000000000       0.93750000000000000        0.0000000000000000     
   1.2500000000000000       0.93750000000000000        0.0000000000000000     
   1.1250000000000000       0.96875000000000000        0.0000000000000000     
   1.1562500000000000       0.96875000000000000        0.0000000000000000     
   1.1875000000000000       0.96875000000000000        0.0000000000000000     
   1.2187500000000000       0.96875000000000000        0.0000000000000000     
   1.2500000000000000       0.96875000000000000        0.0000000000000000     
   1.1250000000000000        1.0000000000000000        0.0000000000000000     
   1.1562500000000000        1.0000000000000000        0.0000000000000000     
   1.1875000000000000        1.0000000000000000        0.0000000000000000     
   1.2187500000000000        1.0000000000000000        0.0000000000000000     
   1.2500000000000000        1.0000000000000000        0.0000000000000000     
   1.2500000000000000       0.87500000000000000        0.0000000000000000     
   1.2812500000000000       0.87500000000000000        0.0000000000000000     
   1.3125000000000000       0.87500000000000000        0.0000000000000000     
   1.3437500000000000       0.87500000000000000        0.0000000000000000     
   1.3750000000000000       0.87500000000000000        0.0000000000000000     
   1.2500000000000000       0.90625000000000000        0.0000000000000000     
   1.2812500000000000       0.90625000000000000        0.0000000000000000     
   1.3125000000000000       0.90625000000000000        0.0000000000000000     
   1.3437500000000000       0.90625000000000000        0.0000000000000000     
   1.3750000000000000       0.90625000000000000        0.0000000000000000     
   1.2500000000000000       0.93750000000000000        0.0000000000000000     
   1.2812500000000000       0.93750000000000000        0.0000000000000000     
   1.3125000000000000       0.93750000000000000        0.0000000000000000     
   1.3437500000000000       0.93750000000000000        0.0000000000000000     
   1.3750000000000000       0.93750000000000000        0.0000000000000000     
   1.2500000000000000       0.96875000000000000        0.0000000000000000     
   1.2812500000000000       0.96875000000000000        0.0000000000000000     
   1.3125000000000000       0.96875000000000000        0.0000000000000000     
   1.3437500000000000       0.96875000000000000        0.0000000000000000     
   1.3750000000000000       0.96875000000000000        0.0000000000000000     
   1.2500000000000000        1.0000000000000000        0.0000000000000000     
   1.2812500000000000        1.0000000000000000        0.0000000000000000     
   1.3125000000000000        1.0000000000000000        0.0000000000000000     
   1.3437500000000000        1.0000000000000000        0.0000000000000000     
   1.3750000000000000        1.0000000000000000        0.0000000000000000     
   1.3750000000000000       0.87500000000000000        0.0000000000000000     
   1.4062500000000000       0.87500000000000000        0.0000000000000000     
   1.4375000000000000       0.87500000000000000        0.0000000000000000     
   1.4687500000000000       0.87500000000000000        0.0000000000000000     
   1.5000000000000000       0.87500000000000000        0.0000000000000000     
   1.3750000000000000       0.90625000000000000        0.0000000000000000     
   1.4062500000000000       0.90625000000000000        0.0000000000000000     
   1.4375000000000000       0.90625000000000000        0.0000000000000000     
   1.4687500000000000       0.90625000000000000        0.0000000000000000     
   1.5000000000000000       0.90625000000000000        0.0000000000000000     
   1.3750000000000000       0.93750000000000000        0.0000000000000000     
   1.4062500000000000       0.93750000000000000        0.0000000000000000     
   1.4375000000000000       0.93750000000000000        0.0000000000000000     
   1.4687500000000000       0.93750000000000000        0.0000000000000000     
   1.5000000000000000       0.93750000000000000        0.0000000000000000     
   1.3750000000000000       0.96875000000000000        0.0000000000000000     
   1.4062500000000000       0.96875000000000000        0.0000000000000000     
   1.4375000000000000       0.96875000000000000        0.0000000000000000     
   1.4687500000000000       0.96875000000000000        0.0000000000000000     
   1.5000000000000000       0.96875000000000000        0.0000000000000000     
   1.3750000000000000        1.0000000000000000        0.0000000000000000     
   1.4062500000000000        1.0000000000000000        0.0000000000000000     
   1.4375000000000000        1.0000000000000000        0.0000000000000000     
   1.4687500000000000        1.0000000000000000        0.0000000000000000     
   1.5000000000000000        1.0000000000000000        0.0000000000000000     
 </DataArray>
 </Points>
 <Cells>
 <DataArray  type="Int32"  Name="connectivity"  format="ascii">
           0           1           6           5
           1           2           7           6
           2           3           8           7
           3           4           9           8
           5           6          11          10
           6           7          12          11
           7           8          13          12
           8           9          14          13
          10          11          16          15
          11          12          17          16
          12          13          18          17
          13          14          19          18
          15          16          21          20
          16          17          22          21
          17          18          23          22
          18          19          24          23
          25          26          31          30
          26          27          32          31
          27          28          33          32
          28          29          34          33
          30          31          36          35
          31          32          37          36
          32          33          38          37
          33          34          39          38
          35          36          41          40
          36          37          42          41
          37          38          43          42
          38          39          44          43
          40          41          46          45
          41          42          47          46
          42          43          48          47
          43          44          49          48
          50          51          56          55
          51          52          57          56
          52          53          58          57
          53          54          59          58
          55          56          61          60
          56          57          62          61
          57          58          63          62
          58          59          64          63
          60          61          66          65
          61          62          67          66
          62          63          68          67
          63          64          69          68
          65          66          71          70
          66          67          72          71
          67          68          73          72
          68          69          74          73
          75          76          81          80
          76          77          82          81
          77          78          83          82
          78          79          84          83
          80          81          86          85
          81          82          87          86
          82          83          88          87
          83          84          89          88
          85          86          91          90
          86          87          92          91
          87          88          93          92
          88          89          94          93
          90          91          96          95
          91          92          97          96
          92          93          98          97
          93          94          99          98
         100         101         106         105
         101         102         107         106
         102         103         108         107
         103         104         109         108
         105         106         111         110
         106         107         112         111
         107         108         113         112
         108         109         114         113
         110         111         116         115
         111         112         117         116
         112         113         118         117
         113         114         119         118
         115         116         121         120
         116         117         122         121
         117         118         123         122
         118         119         124         123
         125         126         131         130
         126         127         132         131
         127         128         133         132
         128         129         134         133
         130         131         136         135
         131         132         137         136
         132         133         138         137
         133         134         139         138
         135         136         141         140
         136         137         142         141
         137         138         143         142
         138         139         144         143
         140         141         146         145
         141         142         147         146
         142         143         148         147
         143         144         149         148
         150         151         156         155
         151         152         157         156
         152         153         158         157
         153         154         159         158
         155         156         161         160
         156         157         162         161
         157         158         163         162
         158         159         164         163
         160         161         166         165
         161         162         167         166
         162         163         168         167
         163         164         169         168
         165         166         171         170
         166         167         172         171
         167         168         173         172
         168         169         174         173
         175         176         181         180
         176         177         182         181
         177         178         183         182
         178         179         184         183
         180         181         186         185
         181         182         187         186
         182         183         188         187
         183         184         189         188
         185         186         191         190
         186         187         192         191
         187         188         193         192
         188         189         194         193
         190         191         196         195
         191         192         197         196
         192         193         198         197
         193         194         199         198
         200         201         206         205
         201         202         207         206
         202         203         208         207
         203         204         209         208
         205         206         211         210
         206         207         212         211
         207         208         213         212
         208         209         214         213
         210         211         216         215
         211         212         217         216
         212         213         218         217
         213         214         219         218
         215         216         221         220
         216         217         222         221
         217         218         223         222
         218         219         224         223
         225         226         231         230
         226         227         232         231
         227         228         233         232
         228         229         234         233
         230         231         236         235
         231         232         237         236
         232         233         238         237
         233         234         239         238
         235         236         241         240
         236         237         242         241
         237         238         243         242
         238         239         244         243
         240         241         246         245
         241         242         247         246
         242         243         248         247
         243         244         249         248
         250         251         256         255
         251         252         257         256
         252         253         258         257
         253         254         259         258
         255         256         261         260
         256         257         262         261
         257         258         263         262
         258         259         264         263
         260         261         266         265
         261         262         267         266
         262         263         268         267
         263         264         269         268
         265         266         271         270
         266         267         272         271
         267         268         273         272
         268         269         274         273
         275         276         281         280
         276         277         282         281
         277         278         283         282
         278         279         284         283
         280         281         286         285
         281         282         287         286
         282         283         288         287
         283         284         289         288
         285         286         291         290
         286         287         292         291
         287         288         293         292
         288         289         294         293
         290         291         296         295
         291         292         297         296
         292         293         298         297
         293         294         299         298
         300         301         306         305
         301         302         307         306
         302         303         308         307
         303         304         309         308
         305         306         311         310
         306         307         312         311
         307         308         313         312
         308         309         314         313
         310         311         316         315
         311         312         317         316
         312         313         318         317
         313         314         319         318
         315         316         321         320
         316         317         322         321
         317         318         323         322
         318         319         324         323
         325         326         331         330
         326         327         332         331
         327         328         333         332
         328         329         334         333
         330         331         336         335
         331         332         337         336
         332         333         338         337
         333         334         339         338
         335         336         341         340
         336         337         342         341
         337         338         343         342
         338         339         344         343
         340         341         346         345
         341         342         347         346
         342         343         348         347
         343         344         349         348
         350         351         356         355
         351         352         357         356
         352         353         358         357
         353         354         359         358
         355         356         361         360
         356         357         362         361
         357         358         363         362
         358         359         364         363
         360         361         366         365
         361         362         367         366
         362         363         368         367
         363         364         369         368
         365         366         371         370
         366         367         372         371
         367         368         373         372
         368         369         374         373
         375         376         381         380
         376         377         382         381
         377         378         383         382
         378         379         384         383
         380         381         386         385
         381         382         387         386
         382         383         388         387
         383         384         389         388
         385         386         391         390
         386         387         392         391
         387         388         393         392
         388         389         394         393
         390         391         396         395
         391         392         397         396
         392         393         398         397
         393         394         399         398
         400         401         406         405
         401         402         407         406
         402         403         408         407
         403         404         409         408
         405         406         411         410
         406         407         412         411
         407         408         413         412
         408         409         414         413
         410         411         416         415
         411         412         417         416
         412         413         418         417
         413         414         419         418
         415         416         421         420
         416         417         422         421
         417         418         423         422
         418         419         424         423
         425         426         431         430
         426         427         432         431
         427         428         433         432
         428         429         434         433
         430         431         436         435
         431         432         437         436
         432         433         438         437
         433         434         439         438
         435         436         441         440
         436         437         442         441
         437         438         443         442
         438         439         444         443
         440         441         446         445
         441         442         447         446
         442         443         448         447
         443         444         449         448
         450         451         456         455
         451         452         457         456
         452         453         458         457
         453         454         459         458
         455         456         461         460
         456         457         462         461
         457         458         463         462
         458         459         464         463
         460         461         466         465
         461         462         467         466
         462         463         468         467
         463         464         469         468
         465         466         471         470
         466         467         472         471
         467         468         473         472
         468         469         474         473
         475         476         481         480
         476         477         482         481
         477         478         483         482
         478         479         484         483
         480         481         486         485
         481         482         487         486
         482         483         488         487
         483         484         489         488
         485         486         491         490
         486         487         492         491
         487         488         493         492
         488         489         494         493
         490         491         496         495
         491         492         497         496
         492         493         498         497
         493         494         499         498
         500         501         506         505
         501         502         507         506
         502         503         508         507
         503         504         509         508
         505         506         511         510
         506         507         512         511
         507         508         513         512
         508         509         514         513
         510         511         516         515
         511         512         517         516
         512         513         518         517
         513         514         519         518
         515         516         521         520
         516         517         522         521
         517         518         523         522
         518         519         524         523
         525         526         531         530
         526         527         532         531
         527         528         533         532
         528         529         534         533
         530         531         536         535
         531         532         537         536
         532         533         538         537
         533         534         539         538
         535         536         541         540
         536         537         542         541
         537         538         543         542
         538         539         544         543
         540         541         546         545
         541         542         547         546
         542         543         548         547
         543         544         549         548
         550         551         556         555
         551         552         557         556
         552         553         558         557
         553         554         559         558
         555         556         561         560
         556         557         562         561
         557         558         563         562
         558         559         564         563
         560         561         566         565
         561         562         567         566
         562         563         568         567
         563         564         569         568
         565         566         571         570
         566         567         572         571
         567         568         573         572
         568         569         574         573
         575         576         581         580
         576         577         582         581
         577         578         583         582
         578         579         584         583
         580         581         586         585
         581         582         587         586
         582         583         588         587
         583         584         589         588
         585         586         591         590
         586         587         592         591
         587         588         593         592
         588         589         594         593
         590         591         596         595
         591         592         597         596
         592         593         598         597
         593         594         599         598
         600         601         606         605
         601         602         607         606
         602         603         608         607
         603         604         609         608
         605         606         611         610
         606         607         612         611
         607         608         613         612
         608         609         614         613
         610         611         616         615
         611         612         617         616
         612         613         618         617
         613         614         619         618
         615         616         621         620
         616         617         622         621
         617         618         623         622
         618         619         624         623
         625         626         631         630
         626         627         632         631
         627         628         633         632
         628         629         634         633
         630         631         636         635
         631         632         637         636
         632         633         638         637
         633         634         639         638
         635         636         641         640
         636         637         642         641
         637         638         643         642
         638         639         644         643
         640         641         646         645
         641         642         647         646
         642         643         648         647
         643         644         649         648
         650         651         656         655
         651         652         657         656
         652         653         658         657
         653         654         659         658
         655         656         661         660
         656         657         662         661
         657         658         663         662
         658         659         664         663
         660         661         666         665
         661         662         667         666
         662         663         668         667
         663         664         669         668
         665         666         671         670
         666         667         672         671
         667         668         673         672
         668         669         674         673
         675         676         681         680
         676         677         682         681
         677         678         683         682
         678         679         684         683
         680         681         686         685
         681         682         687         686
         682         683         688         687
         683         684         689         688
         685         686         691         690
         686         687         692         691
         687         688         693         692
         688         689         694         693
         690         691         696         695
         691         692         697         696
         692         693         698         697
         693         694         699         698
         700         701         706         705
         701         702         707         706
         702         703         708         707
         703         704         709         708
         705         706         711         710
         706         707         712         711
         707         708         713         712
         708         709         714         713
         710         711         716         715
         711         712         717         716
         712         713         718         717
         713         714         719         718
         715         716         721         720
         716         717         722         721
         717         718         723         722
         718         719         724         723
         725         726         731         730
         726         727         732         731
         727         728         733         732
         728         729         734         733
         730         731         736         735
         731         732         737         736
         732         733         738         737
         733         734         739         738
         735         736         741         740
         736         737         742         741
         737         738         743         742
         738         739         744         743
         740         741         746         745
         741         742         747         746
         742         743         748         747
         743         744         749         748
         750         751         756         755
         751         752         757         756
         752         753         758         757
         753         754         759         758
         755         756         761         760
         756         757         762         761
         757         758         763         762
         758         759         764         763
         760         761         766         765
         761         762         767         766
         762         763         768         767
         763         764         769         768
         765         766         771         770
         766         767         772         771
         767         768         773         772
         768         769         774         773
         775         776         781         780
         776         777         782         781
         777         778         783         782
         778         779         784         783
         780         781         786         785
         781         782         787         786
         782         783         788         787
         783         784         789         788
         785         786         791         790
         786         787         792         791
         787         788         793         792
         788         789         794         793
         790         791         796         795
         791         792         797         796
         792         793         798         797
         793         794         799         798
         800         801         806         805
         801         802         807         806
         802         803         808         807
         803         804         809         808
         805         806         811         810
         806         807         812         811
         807         808         813         812
         808         809         814         813
         810         811         816         815
         811         812         817         816
         812         813         818         817
         813         814         819         818
         815         816         821         820
         816         817         822         821
         817         818         823         822
         818         819         824         823
         825         826         831         830
         826         827         832         831
         827         828         833         832
         828         829         834         833
         830         831         836         835
         831         832         837         836
         832         833         838         837
         833         834         839         838
         835         836         841         840
         836         837         842         841
         837         838         843         842
         838         839         844         843
         840         841         846         845
         841         842         847         846
         842         843         848         847
         843         844         849         848
         850         851         856         855
         851         852         857         856
         852         853         858         857
         853         854         859         858
         855         856         861         860
         856         857         862         861
         857         858         863         862
         858         859         864         863
         860         861         866         865
         861         862         867         866
         862         863         868         867
         863         864         869         868
         865         866         871         870
         866         867         872         871
         867         868         873         872
         868         869         874         873
         875         876         881         880
         876         877         882         881
         877         878         883         882
         878         879         884         883
         880         881         886         885
         881         882         887         886
         882         883         888         887
         883         884         889         888
         885         886         891         890
         886         887         892         891
         887         888         893         892
         888         889         894         893
         890         891         896         895
         891         892         897         896
         892         893         898         897
         893         894         899         898
         900         901         906         905
         901         902         907         906
         902         903         908         907
         903         904         909         908
         905         906         911         910
         906         907         912         911
         907         908         913         912
         908         909         914         913
         910         911         916         915
         911         912         917         916
         912         913         918         917
         913         914         919         918
         915         916         921         920
         916         917         922         921
         917         918         923         922
         918         919         924         923
         925         926         931         930
         926         927         932         931
         927         928         933         932
         928         929         934         933
         930         931         936         935
         931         932         937         936
         932         933         938         937
         933         934         939         938
         935         936         941         940
         936         937         942         941
         937         938         943         942
         938         939         944         943
         940         941         946         945
         941         942         947         946
         942         943         948         947
         943         944         949         948
         950         951         956         955
         951         952         957         956
         952         953         958         957
         953         954         959         958
         955         956         961         960
         956         957         962         961
         957         958         963         962
         958         959         964         963
         960         961         966         965
         961         962         967         966
         962         963         968         967
         963         964         969         968
         965         966         971         970
         966         967         972         971
         967         968         973         972
         968         969         974         973
         975         976         981         980
         976         977         982         981
         977         978         983         982
         978         979         984         983
         980         981         986         985
         981         982         987         986
         982         983         988         987
         983         984         989         988
         985         986         991         990
         986         987         992         991
         987         988         993         992
         988         989         994         993
         990         991         996         995
         991         992         997         996
         992         993         998         997
         993         994         999         998
        1000        1001        1006        1005
        1001        1002        1007        1006
        1002        1003        1008        1007
        1003        1004        1009        1008
        1005        1006        1011        1010
        1006        1007        1012        1011
        1007        1008        1013        1012
        1008        1009        1014        1013
        1010        1011        1016        1015
        1011        1012        1017        1016
        1012        1013        1018        1017
        1013        1014        1019        1018
        1015        1016        1021        1020
        1016        1017        1022        1021
        1017        1018        1023        1022
        1018        1019        1024        1023
        1025        1026        1031        1030
        1026        1027        1032        1031
        1027        1028        1033        1032
        1028        1029        1034        1033
        1030        1031        1036        1035
        1031        1032        1037        1036
        1032        1033        1038        1037
        1033        1034        1039        1038
        1035        1036        1041        1040
        1036        1037        1042        1041
        1037        1038        1043        1042
        1038        1039        1044        1043
        1040        1041        1046        1045
        1041        1042        1047        1046
        1042        1043        1048        1047
        1043        1044        1049        1048
        1050        1051        1056        1055
        1051        1052        1057        1056
        1052        1053        1058        1057
        1053        1054        1059        1058
        1055        1056        1061        1060
        1056        1057        1062        1061
        1057        1058        1063        1062
        1058        1059        1064        1063
        1060        1061        1066        1065
        1061        1062        1067        1066
        1062        1063        1068        1067
        1063        1064        1069        1068
        1065        1066        1071        1070
        1066        1067        1072        1071
        1067        1068        1073        1072
        1068        1069        1074        1073
        1075        1076        1081        1080
        1076        1077        1082        1081
        1077        1078        1083        1082
        1078        1079        1084        1083
        1080        1081        1086        1085
        1081        1082        1087        1086
        1082        1083        1088        1087
        1083        1084        1089        1088
        1085        1086        1091        1090
        1086        1087        1092        1091
        1087        1088        1093        1092
        1088        1089        1094        1093
        1090        1091        1096        1095
        1091        1092        1097        1096
        1092        1093        1098        1097
        1093        1094        1099        1098
        1100        1101        1106        1105
        1101        1102        1107        1106
        1102        1103        1108        1107
        1103        1104        1109        1108
        1105        1106        1111        1110
        1106        1107        1112        1111
        1107        1108        1113        1112
        1108        1109        1114        1113
        1110        1111        1116        1115
        1111        1112        1117        1116
        1112        1113        1118        1117
        1113        1114        1119        1118
        1115        1116        1121        1120
        1116        1117        1122        1121
        1117        1118        1123        1122
        1118        1119        1124        1123
        1125        1126        1131        1130
        1126        1127        1132        1131
        1127        1128        1133        1132
        1128        1129        1134        1133
        1130        1131        1136        1135
        1131        1132        1137        1136
        1132        1133        1138        1137
        1133        1134        1139        1138
        1135        1136        1141        1140
        1136        1137        1142        1141
        1137        1138        1143        1142
        1138        1139        1144        1143
        1140        1141        1146        1145
        1141        1142        1147        1146
        1142        1143        1148        1147
        1143        1144        1149        1148
        1150        1151        1156        1155
        1151        1152        1157        1156
        1152        1153        1158        1157
        1153        1154        1159        1158
        1155        1156        1161        1160
        1156        1157        1162        1161
        1157        1158        1163        1162
        1158        1159        1164        1163
        1160        1161        1166        1165
        1161        1162        1167        1166
        1162        1163        1168        1167
        1163        1164        1169        1168
        1165        1166        1171        1170
        1166        1167        1172        1171
        1167        1168        1173        1172
        1168        1169        1174        1173
        1175        1176        1181        1180
        1176        1177        1182        1181
        1177        1178        1183        1182
        1178        1179        1184        1183
        1180        1181        1186        1185
        1181        1182        1187        1186
        1182        1183        1188        1187
        1183        1184        1189        1188
        1185        1186        1191        1190
        1186        1187        1192        1191
        1187        1188        1193        1192
        1188        1189        1194        1193
        1190        1191        1196        1195
        1191        1192        1197        1196
        1192        1193        1198        1197
        1193        1194        1199        1198
        1200        1201        1206        1205
        1201        1202        1207        1206
        1202        1203        1208        1207
        1203        1204        1209        1208
        1205        1206        1211        1210
        1206        1207        1212        1211
        1207        1208        1213        1212
        1208        1209        1214        1213
        1210        1211        1216        1215
        1211        1212        1217        1216
        1212        1213        1218        1217
        1213        1214        1219        1218
        1215        1216        1221        1220
        1216        1217        1222        1221
        1217        1218        1223        1222
        1218        1219        1224        1223
        1225        1226        1231        1230
        1226        1227        1232        1231
        1227        1228        1233        1232
        1228        1229        1234        1233
        1230        1231        1236        1235
        1231        1232        1237        1236
        1232        1233        1238        1237
        1233        1234        1239        1238
        1235        1236        1241        1240
        1236        1237        1242        1241
        1237        1238        1243        1242
        1238        1239        1244        1243
        1240        1241        1246        1245
        1241        1242        1247        1246
        1242        1243        1248        1247
        1243        1244        1249        1248
        1250        1251        1256        1255
        1251        1252        1257        1256
        1252        1253        1258        1257
        1253        1254        1259        1258
        1255        1256        1261        1260
        1256        1257        1262        1261
        1257        1258        1263        1262
        1258        1259        1264        1263
        1260        1261        1266        1265
        1261        1262        1267        1266
        1262        1263        1268        1267
        1263        1264        1269        1268
        1265        1266        1271        1270
        1266        1267        1272        1271
        1267        1268        1273        1272
        1268        1269        1274        1273
        1275        1276        1281        1280
        1276        1277        1282        1281
        1277        1278        1283        1282
        1278        1279        1284        1283
        1280        1281        1286        1285
        1281        1282        1287        1286
        1282        1283        1288        1287
        1283        1284        1289        1288
        1285        1286        1291        1290
        1286        1287        1292        1291
        1287        1288        1293        1292
        1288        1289        1294        1293
        1290        1291        1296        1295
        1291        1292        1297        1296
        1292        1293        1298        1297
        1293        1294        1299        1298
        1300        1301        1306        1305
        1301        1302        1307        1306
        1302        1303        1308        1307
        1303        1304        1309        1308
        1305        1306        1311        1310
        1306        1307        1312        1311
        1307        1308        1313        1312
        1308        1309        1314        1313
        1310        1311        1316        1315
        1311        1312        1317        1316
        1312        1313        1318        1317
        1313        1314        1319        1318
        1315        1316        1321        1320
        1316        1317        1322        1321
        1317        1318        1323        1322
        1318        1319        1324        1323
        1325        1326        1331        1330
        1326        1327        1332        1331
        1327        1328        1333        1332
        1328        1329        1334        1333
        1330        1331        1336        1335
        1331        1332        1337        1336
        1332        1333        1338        1337
        1333        1334        1339        1338
        1335        1336        1341        1340
        1336        1337        1342        1341
        1337        1338        1343        1342
        1338        1339        1344        1343
        1340        1341        1346        1345
        1341        1342        1347        1346
        1342        1343        1348        1347
        1343        1344        1349        1348
        1350        1351        1356        1355
        1351        1352        1357        1356
        1352        1353        1358        1357
        1353        1354        1359        1358
        1355        1356        1361        1360
        1356        1357        1362        1361
        1357        1358        1363        1362
        1358        1359        1364        1363
        1360        1361        1366        1365
        1361        1362        1367        1366
        1362        1363        1368        1367
        1363        1364        1369        1368
        1365        1366        1371        1370
        1366        1367        1372        1371
        1367        1368        1373        1372
        1368        1369        1374        1373
        1375        1376        1381        1380
        1376        1377        1382        1381
        1377        1378        1383        1382
        1378        1379        1384        1383
        1380        1381        1386        1385
        1381        1382        1387        1386
        1382        1383        1388        1387
        1383        1384        1389        1388
        1385        1386        1391        1390
        1386        1387        1392        1391
        1387        1388        1393        1392
        1388        1389        1394        1393
        1390        1391        1396        1395
        1391        1392        1397        1396
        1392        1393        1398        1397
        1393        1394        1399        1398
        1400        1401        1406        1405
        1401        1402        1407        1406
        1402        1403        1408        1407
        1403        1404        1409        1408
        1405        1406        1411        1410
        1406        1407        1412        1411
        1407        1408        1413        1412
        1408        1409        1414        1413
        1410        1411        1416        1415
        1411        1412        1417        1416
        1412        1413        1418        1417
        1413        1414        1419        1418
        1415        1416        1421        1420
        1416        1417        1422        1421
        1417        1418        1423        1422
        1418        1419        1424        1423
        1425        1426        1431        1430
        1426        1427        1432        1431
        1427        1428        1433        1432
        1428        1429        1434        1433
        1430        1431        1436        1435
        1431        1432        1437        1436
        1432        1433        1438        1437
        1433        1434        1439        1438
        1435        1436        1441        1440
        1436        1437        1442        1441
        1437        1438        1443        1442
        1438        1439        1444        1443
        1440        1441        1446        1445
        1441        1442        1447        1446
        1442        1443        1448        1447
        1443        1444        1449        1448
        1450        1451        1456        1455
        1451        1452        1457        1456
        1452        1453        1458        1457
        1453        1454        1459        1458
        1455        1456        1461        1460
        1456        1457        1462        1461
        1457        1458        1463        1462
        1458        1459        1464        1463
        1460        1461        1466        1465
        1461        1462        1467        1466
        1462        1463        1468        1467
        1463        1464        1469        1468
        1465        1466        1471        1470
        1466        1467        1472        1471
        1467        1468        1473        1472
        1468        1469        1474        1473
        1475        1476        1481        1480
        1476        1477        1482        1481
        1477        1478        1483        1482
        1478        1479        1484        1483
        1480        1481        1486        1485
        1481        1482        1487        1486
        1482        1483        1488        1487
        1483        1484        1489        1488
        1485        1486        1491        1490
        1486        1487        1492        1491
        1487        1488        1493        1492
        1488        1489        1494        1493
        1490        1491        1496        1495
        1491        1492        1497        1496
        1492        1493        1498        1497
        1493        1494        1499        1498
        1500        1501        1506        1505
        1501        1502        1507        1506
        1502        1503        1508        1507
        1503        1504        1509        1508
        1505        1506        1511        1510
        1506        1507        1512        1511
        1507        1508        1513        1512
        1508        1509        1514        1513
        1510        1511        1516        1515
        1511        1512        1517        1516
        1512        1513        1518        1517
        1513        1514        1519        1518
        1515        1516        1521        1520
        1516        1517        1522        1521
        1517        1518        1523        1522
        1518        1519        1524        1523
        1525        1526        1531        1530
        1526        1527        1532        1531
        1527        1528        1533        1532
        1528        1529        1534        1533
        1530        1531        1536        1535
        1531        1532        1537        1536
        1532        1533        1538        1537
        1533        1534        1539        1538
        1535        1536        1541        1540
        1536        1537        1542        1541
        1537        1538        1543        1542
        1538        1539        1544        1543
        1540        1541        1546        1545
        1541        1542        1547        1546
        1542        1543        1548        1547
        1543        1544        1549        1548
        1550        1551        1556        1555
        1551        1552        1557        1556
        1552        1553        1558        1557
        1553        1554        1559        1558
        1555        1556        1561        1560
        1556        1557        1562        1561
        1557        1558        1563        1562
        1558        1559        1564        1563
        1560        1561        1566        1565
        1561        1562        1567        1566
        1562        1563        1568        1567
        1563        1564        1569        1568
        1565        1566        1571        1570
        1566        1567        1572        1571
        1567        1568        1573        1572
        1568        1569        1574        1573
        1575        1576        1581        1580
        1576        1577        1582        1581
        1577        1578        1583        1582
        1578        1579        1584        1583
        1580        1581        1586        1585
        1581        1582        1587        1586
        1582        1583        1588        1587
        1583        1584        1589        1588
        1585        1586        1591        1590
        1586        1587        1592        1591
        1587        1588        1593        1592
        1588        1589        1594        1593
        1590        1591        1596        1595
        1591        1592        1597        1596
        1592        1593        1598        1597
        1593        1594        1599        1598
 </DataArray>
 <DataArray  type="Int32"  Name="offsets"  format="ascii"> 
           4
           8
          12
          16
          20
          24
          28
          32
          36
          40
          44
          48
          52
          56
          60
          64
          68
          72
          76
          80
          84
          88
          92
          96
         100
         104
         108
         112
         116
         120
         124
         128
         132
         136
         140
         144
         148
         152
         156
         160
         164
         168
         172
         176
         180
         184
         188
         192
         196
         200
         204
         208
         212
         216
         220
         224
         228
         232
         236
         240
         244
         248
         252
         256
         260
         264
         268
         272
         276
         280
         284
         288
         292
         296
         300
         304
         308
         312
         316
         320
         324
         328
         332
         336
         340
         344
         348
         352
         356
         360
         364
         368
         372
         376
         380
         384
         388
         392
         396
         400
         404
         408
         412
         416
         420
         424
         428
         432
         436
         440
         444
         448
         452
         456
         460
         464
         468
         472
         476
         480
         484
         488
         492
         496
         500
         504
         508
         512
         516
         520
         524
         528
         532
         536
         540
         544
         548
         552
         556
         560
         564
         568
         572
         576
         580
         584
         588
         592
         596
         600
         604
         608
         612
         616
         620
         624
         628
         632
         636
         640
         644
         648
         652
         656
         660
         664
         668
         672
         676
         680
         684
         688
         692
         696
         700
         704
         708
         712
         716
         720
         724
         728
         732
         736
         740
         744
         748
         752
         756
         760
         764
         768
         772
         776
         780
         784
         788
         792
         796
         800
         804
         808
         812
         816
         820
         824
         828
         832
         836
         840
         844
         848
         852
         856
         860
         864
         868
         872
         876
         880
         884
         888
         892
         896
         900
         904
         908
         912
         916
         920
         924
         928
         932
         936
         940
         944
         948
         952
         956
         960
         964
         968
         972
         976
         980
         984
         988
         992
         996
        1000
        1004
        1008
        1012
        1016
        1020
        1024
        1028
        1032
        1036
        1040
        1044
        1048
        1052
        1056
        1060
        1064
        1068
        1072
        1076
        1080
        1084
        1088
        1092
        1096
        1100
        1104
        1108
        1112
        1116
        1120
        1124
        1128
        1132
        1136
        1140
        1144
        1148
        1152
        1156
        1160
        1164
        1168
        1172
        1176
        1180
        1184
        1188
        1192
        1196
        1200
        1204
        1208
        1212
        1216
        1220
        1224
        1228
        1232
        1236
        1240
        1244
        1248
        1252
        1256
        1260
        1264
        1268
        1272
        1276
        1280
        1284
        1288
        1292
        1296
        1300
        1304
        1308
        1312
        1316
        1320
        1324
        1328
        1332
        1336
        1340
        1344
        1348
        1352
        1356
        1360
        1364
        1368
        1372
        1376
        1380
        1384
        1388
        1392
        1396
        1400
        1404
        1408
        1412
        1416
        1420
        1424
        1428
        1432
        1436
        1440
        1444
        1448
        1452
        1456
        1460
        1464
        1468
        1472
        1476
        1480
        1484
        1488
        1492
        1496
        1500
        1504
        1508
        1512
        1516
        1520
        1524
        1528
        1532
        1536
        1540
        1544
        1548
        1552
        1556
        1560
        1564
        1568
        1572
        1576
        1580
        1584
        1588
        1592
        1596
        1600
        1604
        1608
        1612
        1616
        1620
        1624
        1628
        1632
        1636
        1640
        1644
        1648
        1652
        1656
        1660
        1664
        1668
        1672
        1676
        1680
        1684
        1688
        1692
        1696
        1700
        1704
        1708
        1712
        1716
        1720
        1724
        1728
        1732
        1736
        1740
        1744
        1748
        1752
        1756
        1760
        1764
        1768
        1772
        1776
        1780
        1784
        1788
        1792
        1796
        1800
        1804
        1808
        1812
        1816
        1820
        1824
        1828
        1832
        1836
        1840
        1844
        1848
        1852
        1856
        1860
        1864
        1868
        1872
        1876
        1880
        1884
        1888
        1892
        1896
        1900
        1904
        1908
        1912
        1916
        1920
        1924
        1928
        1932
        1936
        1940
        1944
        1948
        1952
        1956
        1960
        1964
        1968
        1972
        1976
        1980
        1984
        1988
        1992
        1996
        2000
        2004
        2008
        2012
        2016
        2020
        2024
        2028
        2032
        2036
        2040
        2044
        2048
        2052
        2056
        2060
        2064
        2068
        2072
        2076
        2080
        2084
        2088
        2092
        2096
        2100
        2104
        2108
        2112
        2116
        2120
        2124
        2128
        2132
        2136
        2140
        2144
        2148
        2152
        2156
        2160
        2164
        2168
        2172
        2176
        2180
        2184
        2188
        2192
        2196
        2200
        2204
        2208
        2212
        2216
        2220
        2224
        2228
        2232
        2236
        2240
        2244
        2248
        2252
        2256
        2260
        2264
        2268
        2272
        2276
        2280
        2284
        2288
        2292
        2296
        2300
        2304
        2308
        2312
        2316
        2320
        2324
        2328
        2332
        2336
        2340
        2344
        2348
        2352
        2356
        2360
        2364
        2368
        2372
        2376
        2380
        2384
        2388
        2392
        2396
        2400
        2404
        2408
        2412
        2416
        2420
        2424
        2428
        2432
        2436
        2440
        2444
        2448
        2452
        2456
        2460
        2464
        2468
        2472
        2476
        2480
        2484
        2488
        2492
        2496
        2500
        2504
        2508
        2512
        2516
        2520
        2524
        2528
        2532
        2536
        2540
        2544
        2548
        2552
        2556
        2560
        2564
        2568
        2572
        2576
        2580
        2584
        2588
        2592
        2596
        2600
        2604
        2608
        2612
        2616
        2620
        2624
        2628
        2632
        2636
        2640
        2644
        2648
        2652
        2656
        2660
        2664
        2668
        2672
        2676
        2680
        2684
        2688
        2692
        2696
        2700
        2704
        2708
        2712
        2716
        2720
        2724
        2728
        2732
        2736
        2740
        2744
        2748
        2752
        2756
        2760
        2764
        2768
        2772
        2776
        2780
        2784
        2788
        2792
        2796
        2800
        2804
        2808
        2812
        2816
        2820
        2824
        2828
        2832
        2836
        2840
        2844
        2848
        2852
        2856
        2860
        2864
        2868
        2872
        2876
        2880
        2884
        2888
        2892
        2896
        2900
        2904
        2908
        2912
        2916
        2920
        2924
        2928
        2932
        2936
        2940
        2944
        2948
        2952
        2956
        2960
        2964
        2968
        2972
        2976
        2980
        2984
        2988
        2992
        2996
        3000
        3004
        3008
        3012
        3016
        3020
        3024
        3028
        3032
        3036
        3040
        3044
        3048
        3052
        3056
        3060
        3064
        3068
        3072
        3076
        3080
        3084
        3088
        3092
        3096
        3100
        3104
        3108
        3112
        3116
        3120
        3124
        3128
        3132
        3136
        3140
        3144
        3148
        3152
        3156
        3160
        3164
        3168
        3172
        3176
        3180
        3184
        3188
        3192
        3196
        3200
        3204
        3208
        3212
        3216
        3220
        3224
        3228
        3232
        3236
        3240
        3244
        3248
        3252
        3256
        3260
        3264
        3268
        3272
        3276
        3280
        3284
        3288
        3292
        3296
        3300
        3304
        3308
        3312
        3316
        3320
        3324
        3328
        3332
        3336
        3340
        3344
        3348
        3352
        3356
        3360
        3364
        3368
        3372
        3376
        3380
        3384
        3388
        3392
        3396
        3400
        3404
        3408
        3412
        3416
        3420
        3424
        3428
        3432
        3436
        3440
        3444
        3448
        3452
        3456
        3460
        3464
        3468
        3472
        3476
        3480
        3484
        3488
        3492
        3496
        3500
        3504
        3508
        3512
        3516
        3520
        3524
        3528
        3532
        3536
        3540
        3544
        3548
        3552
        3556
        3560
        3564
        3568
        3572
        3576
        3580
        3584
        3588
        3592
        3596
        3600
        3604
        3608
        3612
        3616
        3620
        3624
        3628
        3632
        3636
        3640
        3644
        3648
        3652
        3656
        3660
        3664
        3668
        3672
        3676
        3680
        3684
        3688
        3692
        3696
        3700
        3704
        3708
        3712
        3716
        3720
        3724
        3728
        3732
        3736
        3740
        3744
        3748
        3752
        3756
        3760
        3764
        3768
        3772
        3776
        3780
        3784
        3788
        3792
        3796
        3800
        3804
        3808
        3812
        3816
        3820
        3824
        3828
        3832
        3836
        3840
        3844
        3848
        3852
        3856
        3860
        3864
        3868
        3872
        3876
        3880
        3884
        3888
        3892
        3896
        3900
        3904
        3908
        3912
        3916
        3920
        3924
        3928
        3932
        3936
        3940
        3944
        3948
        3952
        3956
        3960
        3964
        3968
        3972
        3976
        3980
        3984
        3988
        3992
        3996
        4000
        4004
        4008
        4012
        4016
        4020
        4024
        4028
        4032
        4036
        4040
        4044
        4048
        4052
        4056
        4060
        4064
        4068
        4072
        4076
        4080
        4084
        4088
        4092
        4096
 </DataArray>
 <DataArray  type="UInt8"  Name="types"  format="ascii">
 9
 9
 9
 9
 9
 9
 9
 9
 9
 9
 9
 9
 9
 9
 9
 9
 9
 9
 9
 9
 9
 9
 9
 9
 9
 9
 9
 9
 9
 9
 9
 9
 9
 9
 9
 9
 9
 9
 9
 9
 9
 9
 9
 9
 9
 9
 9
 9
 9
 9
 9
 9
 9
 9
 9
 9
 9
 9
 9
 9
 9
 9
 9
 9
 9
 9
 9
 9
 9
 9
 9
 9
 9
 9
 9
 9
 9
 9
 9
 9
 9
 9
 9
 9
 9
 9
 9
 9
 9
 9
 9
 9
 9
 9
 9
 9
 9
 9
 9
 9
 9
 9
 9
 9
 9
 9
 9
 9
 9
 9
 9
 9
 9
 9
 9
 9
 9
 9
 9
 9
 9
 9
 9
 9
 9
 9
 9
 9
 9
 9
 9
 9
 9
 9
 9
 9
 9
 9
 9
 9
 9
 9
 9
 9
 9
 9
 9
 9
 9
 9
 9
 9
 9
 9
 9
 9
 9
 9
 9
 9
 9
 9
 9
 9
 9
 9
 9
 9
 9
 9
 9
 9
 9
 9
 9
 9
 9
 9
 9
 9
 9
 9
 9
 9
 9
 9
 9
 9
 9
 9
 9
 9
 9
 9
 9
 9
 9
 9
 9
 9
 9
 9
 9
 9
 9
 9
 9
 9
 9
 9
 9
 9
 9
 9
 9
 9
 9
 9
 9
 9
 9
 9
 9
 9
 9
 9
 9
 9
 9
 9
 9
 9
 9
 9
 9
 9
 9
 9
 9
 9
 9
 9
 9
 9
 9
 9
 9
 9
 9
 9
 9
 9
 9
 9
 9
 9
 9
 9
 9
 9
 9
 9
 9
 9
 9
 9
 9
 9
 9
 9
 9
 9
 9
 9
 9
 9
 9
 9
 9
 9
 9
 9
 9
 9
 9
 9
 9
 9
 9
 9
 9
 9
 9
 9
 9
 9
 9
 9
 9
 9
 9
 9
 9
 9
 9
 9
 9
 9
 9
 9
 9
 9
 9
 9
 9
 9
 9
 9
 9
 9
 9
 9
 9
 9
 9
 9
 9
 9
 9
 9
 9
 9
 9
 9
 9
 9
 9
 9
 9
 9
 9
 9
 9
 9
 9
 9
 9
 9
 9
 9
 9
 9
 9
 9
 9
 9
 9
 9
 9
 9
 9
 9
 9
 9
 9
 9
 9
 9
 9
 9
 9
 9
 9
 9
 9
 9
 9
 9
 9
 9
 9
 9
 9
 9
 9
 9
 9
 9
 9
 9
 9
 9
 9
 9
 9
 9
 9
 9
 9
 9
 9
 9
 9
 9
 9
 9
 9
 9
 9
 9
 9
 9
 9
 9
 9
 9
 9
 9
 9
 9
 9
 9
 9
 9
 9
 9
 9
 9
 9
 9
 9
 9
 9
 9
 9
 9
 9
 9
 9
 9
 9
 9
 9
 9
 9
 9
 9
 9
 9
 9
 9
 9
 9
 9
 9
 9
 9
 9
 9
 9
 9
 9
 9
 9
 9
 9
 9
 9
 9
 9
 9
 9
 9
 9
 9
 9
 9
 9
 9
 9
 9
 9
 9
 9
 9
 9
 9
 9
 9
 9
 9
 9
 9
 9
 9
 9
 9
 9
 9
 9
 9
 9
 9
 9
 9
 9
 9
 9
 9
 9
 9
 9
 9
 9
 9
 9
 9
 9
 9
 9
 9
 9
 9
 9
 9
 9
 9
 9
 9
 9
 9
 9
 9
 9
 9
 9
 9
 9
 9
 9
 9
 9
 9
 9
 9
 9
 9
 9
 9
 9
 9
 9
 9
 9
 9
 9
 9
 9
 9
 9
 9
 9
 9
 9
 9
 9
 9
 9
 9
 9
 9
 9
 9
 9
 9
 9
 9
 9
 9
 9
 9
 9
 9
 9
 9
 9
 9
 9
 9
 9
 9
 9
 9
 9
 9
 9
 9
 9
 9
 9
 9
 9
 9
 9
 9
 9
 9
 9
 9
 9
 9
 9
 9
 9
 9
 9
 9
 9
 9
 9
 9
 9
 9
 9
 9
 9
 9
 9
 9
 9
 9
 9
 9
 9
 9
 9
 9
 9
 9
 9
 9
 9
 9
 9
 9
 9
 9
 9
 9
 9
 9
 9
 9
 9
 9
 9
 9
 9
 9
 9
 9
 9
 9
 9
 9
 9
 9
 9
 9
 9
 9
 9
 9
 9
 9
 9
 9
 9
 9
 9
 9
 9
 9
 9
 9
 9
 9
 9
 9
 9
 9
 9
 9
 9
 9
 9
 9
 9
 9
 9
 9
 9
 9
 9
 9
 9
 9
 9
 9
 9
 9
 9
 9
 9
 9
 9
 9
 9
 9
 9
 9
 9
 9
 9
 9
 9
 9
 9
 9
 9
 9
 9
 9
 9
 9
 9
 9
 9
 9
 9
 9
 9
 9
 9
 9
 9
 9
 9
 9
 9
 9
 9
 9
 9
 9
 9
 9
 9
 9
 9
 9
 9
 9
 9
 9
 9
 9
 9
 9
 9
 9
 9
 9
 9
 9
 9
 9
 9
 9
 9
 9
 9
 9
 9
 9
 9
 9
 9
 9
 9
 9
 9
 9
 9
 9
 9
 9
 9
 9
 9
 9
 9
 9
 9
 9
 9
 9
 9
 9
 9
 9
 9
 9
 9
 9
 9
 9
 9
 9
 9
 9
 9
 9
 9
 9
 9
 9
 9
 9
 9
 9
 9
 9
 9
 9
 9
 9
 9
 9
 9
 9
 9
 9
 9
 9
 9
 9
 9
 9
 9
 9
 9
 9
 9
 9
 9
 9
 9
 9
 9
 9
 9
 9
 9
 9
 9
 9
 9
 9
 9
 9
 9
 9
 9
 9
 9
 9
 9
 9
 9
 9
 9
 9
 9
 9
 9
 9
 9
 9
 9
 9
 9
 9
 9
 9
 9
 9
 9
 9
 9
 9
 9
 9
 9
 9
 9
 9
 9
 9
 9
 9
 9
 9
 9
 9
 9
 9
 9
 9
 9
 9
 9
 9
 9
 9
 9
 9
 9
 9
 9
 9
 9
 9
 9
 9
 9
 9
 9
 9
 9
 9
 9
 9
 9
 9
 9
 9
 9
 9
 9
 9
 9
 9
 9
 9
 9
 9
 9
 9
 9
 9
 9
 9
 9
 9
 9
 9
 9
 9
 9
 9
 9
 9
 9
 9
 9
 9
 9
 9
 9
 9
 9
 9
 9
 9
 9
 9
 9
 9
 9
 9
 9
 9
 9
 9
 9
 9
 9
 9
 9
 9
 9
 9
 9
 9
 9
 9
 9
 9
 9
 9
 9
 9
 9
 9
 9
 9
 9
 9
 9
 9
 9
 9
 9
 </DataArray>
 </Cells> 
 <PointData>
 <DataArray  type="Float64" Name="disp" NumberOfComponents="3" format="ascii">
   6.5288126696658677E-002   6.2732955133056503E-002   0.0000000000000000     
   6.8366382595053565E-002   6.8158390820611231E-002   0.0000000000000000     
   7.1341089620003850E-002   7.3749189429834230E-002   0.0000000000000000     
   7.4212247771509560E-002   7.9505350960725529E-002   0.0000000000000000     
   7.6979857049570680E-002   8.5426875413285114E-002   0.0000000000000000     
   6.0136187214560474E-002   6.1884346427813652E-002   0.0000000000000000     
   6.3017981815045185E-002   6.7302494983155742E-002   0.0000000000000000     
   6.5803327587599714E-002   7.2898368076877162E-002   0.0000000000000000     
   6.8492224532224047E-002   7.8671965708977887E-002   0.0000000000000000     
   7.1084672648918198E-002   8.4623287879457929E-002   0.0000000000000000     
   5.5164779808719894E-002   6.1065387600188495E-002   0.0000000000000000     
   5.7855001586569088E-002   6.6491109636439144E-002   0.0000000000000000     
   6.0454895943096609E-002   7.2101256281892914E-002   0.0000000000000000     
   6.2964462878302485E-002   7.7895827536549792E-002   0.0000000000000000     
   6.5383702392186729E-002   8.3874823400409748E-002   0.0000000000000000     
   5.0373904479136949E-002   6.0276078650181031E-002   0.0000000000000000     
   5.2877441909625247E-002   6.5724234780461438E-002   0.0000000000000000     
   5.5295794686494558E-002   7.1357854044881514E-002   0.0000000000000000     
   5.7628962809744909E-002   7.7176936443441230E-002   0.0000000000000000     
   5.9876946279376266E-002   8.3181481976140600E-002   0.0000000000000000     
   4.5763561225811641E-002   5.9516419577791274E-002   0.0000000000000000     
   4.8085302784213663E-002   6.5001870415222610E-002   0.0000000000000000     
   5.0326023817793546E-002   7.0668161365842919E-002   0.0000000000000000     
   5.2485724326551270E-002   7.6515292429652187E-002   0.0000000000000000     
   5.4564404310486828E-002   8.2543263606650430E-002   0.0000000000000000     
   7.6979857049570680E-002   8.5426875413285114E-002   0.0000000000000000     
   7.9650820650332604E-002   9.1512135032327815E-002   0.0000000000000000     
   8.2232041769940700E-002   9.7759502062668438E-002   0.0000000000000000     
   8.4723520408394967E-002  0.10416897650430702        0.0000000000000000     
   8.7125256565695391E-002  0.11074055835724353        0.0000000000000000     
   7.1084672648918198E-002   8.4623287879457929E-002   0.0000000000000000     
   7.3587537178437634E-002   9.0743245789334237E-002   0.0000000000000000     
   7.6007683361537778E-002   9.7022750639623734E-002   0.0000000000000000     
   7.8345111198218631E-002  0.10346180243032642        0.0000000000000000     
   8.0599820688480248E-002  0.11006040116144231        0.0000000000000000     
   6.5383702392186729E-002   8.3874823400409748E-002   0.0000000000000000     
   6.7719554288658182E-002   9.0025049191658935E-002   0.0000000000000000     
   6.9978958371625696E-002   9.6333310228483446E-002   0.0000000000000000     
   7.2161914641089286E-002  0.10279960651088325        0.0000000000000000     
   7.4268423097048966E-002  0.10942393803885839        0.0000000000000000     
   5.9876946279376266E-002   8.3181481976140600E-002   0.0000000000000000     
   6.2046871980994268E-002   8.9357545239301936E-002   0.0000000000000000     
   6.4145866800204482E-002   9.5691180829247588E-002   0.0000000000000000     
   6.6173930737006892E-002  0.10218238874597754        0.0000000000000000     
   6.8131063791401533E-002  0.10883116898949179        0.0000000000000000     
   5.4564404310486828E-002   8.2543263606650430E-002   0.0000000000000000     
   5.6569490255445887E-002   8.8740733932263227E-002   0.0000000000000000     
   5.8508408647274093E-002   9.5096362441916160E-002   0.0000000000000000     
   6.0381159485971454E-002  0.10161014913560923        0.0000000000000000     
   6.2187742771537963E-002  0.10828209401334245        0.0000000000000000     
   8.7125256565695391E-002  0.11074055835724353        0.0000000000000000     
   8.9431424349545041E-002  0.11745888678369446        0.0000000000000000     
   9.1636197867646901E-002  0.12430860094587630        0.0000000000000000     
   9.3739577120000972E-002  0.13128970084378905        0.0000000000000000     
   9.5741562106607267E-002  0.13840218647743271        0.0000000000000000     
   8.0599820688480248E-002  0.11006040116144231        0.0000000000000000     
   8.2764966395270409E-002  0.11680483762353450        0.0000000000000000     
   8.4833702881536979E-002  0.12368140260716605        0.0000000000000000     
   8.6806030147279931E-002  0.13069009611233695        0.0000000000000000     
   8.8681948192499319E-002  0.13783091813904724        0.0000000000000000     
   7.4268423097048966E-002  0.10942393803885839        0.0000000000000000     
   7.6291180940329051E-002  0.11619358480814673        0.0000000000000000     
   7.8222885371753953E-002  0.12309582681448614        0.0000000000000000     
   8.0063536391323631E-002  0.13013066405787665        0.0000000000000000     
   8.1813133999038140E-002  0.13729809653831823        0.0000000000000000     
   6.8131063791401533E-002  0.10883116898949179        0.0000000000000000     
   7.0010067984720981E-002  0.11562512833753119        0.0000000000000000     
   7.1803745338297809E-002  0.12255187356783663        0.0000000000000000     
   7.3512095852132101E-002  0.12961140468040813        0.0000000000000000     
   7.5135119526223745E-002  0.13680372167524563        0.0000000000000000     
   6.2187742771537963E-002  0.10828209401334245        0.0000000000000000     
   6.3921627528446157E-002  0.11509946821168784        0.0000000000000000     
   6.5576282781168588E-002  0.12204954286721750        0.0000000000000000     
   6.7151708529705242E-002  0.12913231797993141        0.0000000000000000     
   6.8647904774056120E-002  0.13634779354982951        0.0000000000000000     
   9.5741562106607267E-002  0.13840218647743271        0.0000000000000000     
   9.7647624293609459E-002  0.14563574192070389        0.0000000000000000     
   9.9463235147151205E-002  0.15298005124749917        0.0000000000000000     
  0.10118839466723252       0.16043511445781861        0.0000000000000000     
  0.10282310285385340       0.16800093155166215        0.0000000000000000     
   8.8681948192499319E-002  0.13783091813904724        0.0000000000000000     
   9.0467484643102780E-002  0.14509273240812134        0.0000000000000000     
   9.2168667124997994E-002  0.15246440264038366        0.0000000000000000     
   9.3785495638185001E-002  0.15994592883583431        0.0000000000000000     
   9.5317970182663747E-002  0.16753731099447317        0.0000000000000000     
   8.1813133999038140E-002  0.13729809653831823        0.0000000000000000     
   8.3477748817484307E-002  0.14458651799154951        0.0000000000000000     
   8.5063451469248971E-002  0.15198432215330912        0.0000000000000000     
   8.6570241954332189E-002  0.15949150902359718        0.0000000000000000     
   8.7998120272733918E-002  0.16710807860241350        0.0000000000000000     
   7.5135119526223745E-002  0.13680372167524563        0.0000000000000000     
   7.6678416816754025E-002  0.14411709867098838        0.0000000000000000     
   7.8147588179904151E-002  0.15153980978627557        0.0000000000000000     
   7.9542633615674097E-002  0.15907185502110716        0.0000000000000000     
   8.0863553124063917E-002  0.16671323437548319        0.0000000000000000     
   6.8647904774056120E-002  0.13634779354982951        0.0000000000000000     
   7.0069488640911962E-002  0.14368447444643798        0.0000000000000000     
   7.1421077256963506E-002  0.15113086553928293        0.0000000000000000     
   7.2702670622210766E-002  0.15868696682836433        0.0000000000000000     
   7.3914268736653715E-002  0.16635277831368220        0.0000000000000000     
  0.10282310285385340       0.16800093155166215        0.0000000000000000     
  0.10436964051698526       0.17566681438733966        0.0000000000000000     
  0.10583028846659956       0.18342207482316092        0.0000000000000000     
  0.10720504670269625       0.19126671285912600        0.0000000000000000     
  0.10849391522527538       0.19920072849523482        0.0000000000000000     
   9.5317970182663747E-002  0.16753731099447317        0.0000000000000000     
   9.6766177135805931E-002  0.17522860923473460        0.0000000000000000     
   9.8130202874983169E-002  0.18300988367505303        0.0000000000000000     
   9.9410047400195489E-002  0.19088113431542839        0.0000000000000000     
  0.10060571071144288       0.19884236115586065        0.0000000000000000     
   8.7998120272733918E-002  0.16710807860241350        0.0000000000000000     
   8.9345640715291746E-002  0.17482443567975717        0.0000000000000000     
   9.0611357572843276E-002  0.18263098504562711        0.0000000000000000     
   9.1795270845388480E-002  0.19052772670002330        0.0000000000000000     
   9.2897380532927384E-002  0.19851466064294573        0.0000000000000000     
   8.0863553124063917E-002  0.16671323437548319        0.0000000000000000     
   8.2108031255442734E-002  0.17445429372240731        0.0000000000000000     
   8.3273752560179867E-002  0.18228537893488311        0.0000000000000000     
   8.4360717038275246E-002  0.19020649001291071        0.0000000000000000     
   8.5368924689728856E-002  0.19821762695649001        0.0000000000000000     
   7.3914268736653715E-002  0.16635277831368220        0.0000000000000000     
   7.5053348756258909E-002  0.17411818336268500        0.0000000000000000     
   7.6117387836992928E-002  0.18197306534282118        0.0000000000000000     
   7.7106385978855690E-002  0.18991742425409064        0.0000000000000000     
   7.8020343181847293E-002  0.19795126009649350        0.0000000000000000     
  0.10849391522527538       0.19920072849523482        0.0000000000000000     
  0.10970212614112067       0.20722028543962445        0.0000000000000000     
  0.11083491155701593       0.21532154740043191        0.0000000000000000     
  0.11189227147296113       0.22350451437765720        0.0000000000000000     
  0.11287420588895627       0.23176918637130031        0.0000000000000000     
  0.10060571071144288       0.19884236115586065        0.0000000000000000     
  0.10172271465618096       0.20688735884248244        0.0000000000000000     
  0.10276658108186526       0.21500992202142605        0.0000000000000000     
  0.10373730998849584       0.22321005069269170        0.0000000000000000     
  0.10463490137607266       0.23148774485627932        0.0000000000000000     
   9.2897380532927384E-002  0.19851466064294573        0.0000000000000000     
   9.3922588330557388E-002  0.20658425206795519        0.0000000000000000     
   9.4875795933375945E-002  0.21472896616861245        0.0000000000000000     
   9.5757003341383068E-002  0.22294880294491753        0.0000000000000000     
   9.6566210554578744E-002  0.23124376239687044        0.0000000000000000     
   8.5368924689728856E-002  0.19821762695649001        0.0000000000000000     
   8.6301747164250001E-002  0.20631096511604288        0.0000000000000000     
   8.7162556111547995E-002  0.21447867984199112        0.0000000000000000     
   8.7951351531622840E-002  0.22272077113433475        0.0000000000000000     
   8.8668133424474480E-002  0.23103723899307371        0.0000000000000000     
   7.8020343181847293E-002  0.19795126009649350        0.0000000000000000     
   7.8860191157258813E-002  0.20606749798674540        0.0000000000000000     
   7.9626861616381425E-002  0.21425906304156198        0.0000000000000000     
   8.0320354559215129E-002  0.22252595526094321        0.0000000000000000     
   8.0940669985759911E-002  0.23086817464488915        0.0000000000000000     
  0.11287420588895627       0.23176918637130031        0.0000000000000000     
  0.11380891203364842       0.24013214570557523        0.0000000000000000     
  0.11472458713568458       0.24860997470469587        0.0000000000000000     
  0.11562123119506479       0.25720267336866237        0.0000000000000000     
  0.11649884421178901       0.26591024169747457        0.0000000000000000     
  0.10463490137607266       0.23148774485627932        0.0000000000000000     
  0.10546434559262469       0.23986645994618316        0.0000000000000000     
  0.10623063298618091       0.24836965139639761        0.0000000000000000     
  0.10693376355674128       0.25699731920692259        0.0000000000000000     
  0.10757373730430579       0.26574946337775818        0.0000000000000000     
   9.6566210554578744E-002  0.23124376239687044        0.0000000000000000     
   9.7294197034729760E-002  0.23964025925241411        0.0000000000000000     
   9.7931742243602973E-002  0.24816470823949147        0.0000000000000000     
   9.8478846181198343E-002  0.25681710935810265        0.0000000000000000     
   9.8935508847515896E-002  0.26559746260824751        0.0000000000000000     
   8.8668133424474480E-002  0.23103723899307371        0.0000000000000000     
   8.9298466359963594E-002  0.23945354362426804        0.0000000000000000     
   8.9827914907950765E-002  0.24799514523397764        0.0000000000000000     
   9.0256479068436007E-002  0.25666204382220242        0.0000000000000000     
   9.0584158841419307E-002  0.26545423938894241        0.0000000000000000     
   8.0940669985759911E-002  0.23086817464488915        0.0000000000000000     
   8.1477153568326161E-002  0.23930631306174499        0.0000000000000000     
   8.1919150979224281E-002  0.24786096237985589        0.0000000000000000     
   8.2266662218454245E-002  0.25653212259922192        0.0000000000000000     
   8.2519687286016052E-002  0.26531979371984304        0.0000000000000000     
  0.11649884421178901       0.26591024169747457        0.0000000000000000     
  0.11729778329747008       0.27489726080776511        0.0000000000000000     
  0.11795840556372079       0.28432831181616630        0.0000000000000000     
  0.11848071101054115       0.29420339472267831        0.0000000000000000     
  0.11886469963793117       0.30452250952730109        0.0000000000000000     
  0.10757373730430579       0.26574946337775818        0.0000000000000000     
  0.10813159574765102       0.27475823334144639        0.0000000000000000     
  0.10858838040555349       0.28415577853052931        0.0000000000000000     
  0.10894409127801323       0.29394209894500672        0.0000000000000000     
  0.10919872836503025       0.30411719458487896        0.0000000000000000     
   9.8935508847515896E-002  0.26559746260824751        0.0000000000000000     
   9.9312771811736367E-002  0.27460407861683239        0.0000000000000000     
   9.9621676643040571E-002  0.28393526801076352        0.0000000000000000     
   9.9862223341428497E-002  0.29359103079004095        0.0000000000000000     
  0.10003441190690011       0.30357136695466475        0.0000000000000000     
   9.0584158841419307E-002  0.26545423938894241        0.0000000000000000     
   9.0841311489726156E-002  0.27443479663392290        0.0000000000000000     
   9.1058294276182006E-002  0.28366678025686909        0.0000000000000000     
   9.1235107200786911E-002  0.29315019025778088        0.0000000000000000     
   9.1371750263540802E-002  0.30288502663665839        0.0000000000000000     
   8.2519687286016052E-002  0.26531979371984304        0.0000000000000000     
   8.2717214781620377E-002  0.27425038739271812        0.0000000000000000     
   8.2898233304977864E-002  0.28335031526884596        0.0000000000000000     
   8.3062742856088487E-002  0.29261957734822658        0.0000000000000000     
   8.3210743434952300E-002  0.30205817363085996        0.0000000000000000     
   4.5763561225811641E-002   5.9516419577791274E-002   0.0000000000000000     
   4.8085302784213663E-002   6.5001870415222610E-002   0.0000000000000000     
   5.0326023817793546E-002   7.0668161365842919E-002   0.0000000000000000     
   5.2485724326551270E-002   7.6515292429652187E-002   0.0000000000000000     
   5.4564404310486828E-002   8.2543263606650430E-002   0.0000000000000000     
   4.1324135441318563E-002   5.8811573562276689E-002   0.0000000000000000     
   4.3463173385416123E-002   6.4335174681971974E-002   0.0000000000000000     
   4.5525616576000447E-002   7.0033969766781598E-002   0.0000000000000000     
   4.7511465013071554E-002   7.5907958816705576E-002   0.0000000000000000     
   4.9420718696629430E-002   8.1957141831743907E-002   0.0000000000000000     
   3.7046012518232342E-002   5.8186703782894783E-002   0.0000000000000000     
   3.8995642888314350E-002   6.3735305721958846E-002   0.0000000000000000     
   4.0874606200122149E-002   6.9457070769701992E-002   0.0000000000000000     
   4.2682902453655733E-002   7.5351998926124250E-002   0.0000000000000000     
   4.4420531648915129E-002   8.1420090191225619E-002   0.0000000000000000     
   3.2929192456552972E-002   5.7641810239645541E-002   0.0000000000000000     
   3.4682711292908355E-002   6.3202263535183198E-002   0.0000000000000000     
   3.6372992690158631E-002   6.8937464374604102E-002   0.0000000000000000     
   3.8000036648303814E-002   7.4847412757908224E-002   0.0000000000000000     
   3.9563843167343918E-002   8.0932108685095580E-002   0.0000000000000000     
   2.8973675256280453E-002   5.7176892932528964E-002   0.0000000000000000     
   3.0524378599198126E-002   6.2736048121645072E-002   0.0000000000000000     
   3.2020776046109908E-002   6.8475150581487898E-002   0.0000000000000000     
   3.3462867597015798E-002   7.4394200312057485E-002   0.0000000000000000     
   3.4850653251915796E-002   8.0493197313353804E-002   0.0000000000000000     
   5.4564404310486828E-002   8.2543263606650430E-002   0.0000000000000000     
   5.6569490255445887E-002   8.8740733932263227E-002   0.0000000000000000     
   5.8508408647274093E-002   9.5096362441916160E-002   0.0000000000000000     
   6.0381159485971454E-002  0.10161014913560923        0.0000000000000000     
   6.2187742771537963E-002  0.10828209401334245        0.0000000000000000     
   4.9420718696629430E-002   8.1957141831743907E-002   0.0000000000000000     
   5.1260900273633357E-002   8.8173477587537116E-002   0.0000000000000000     
   5.3039532391042608E-002   9.4548924859725741E-002   0.0000000000000000     
   5.4756615048857184E-002  0.10108348364830978        0.0000000000000000     
   5.6412148247077083E-002  0.10777715395328924        0.0000000000000000     
   4.4420531648915129E-002   8.1420090191225619E-002   0.0000000000000000     
   4.6094593197177000E-002   8.7654638522117898E-002   0.0000000000000000     
   4.7712186509718056E-002   9.4048937875912869E-002   0.0000000000000000     
   4.9273311586538283E-002  0.10060298825261060        0.0000000000000000     
   5.0777968427637696E-002  0.10731678965221102        0.0000000000000000     
   3.9563843167343918E-002   8.0932108685095580E-002   0.0000000000000000     
   4.1070569026076816E-002   8.7184216736005599E-002   0.0000000000000000     
   4.2526371003300437E-002   9.3596401490477613E-002   0.0000000000000000     
   4.3931249099014746E-002  0.10016866294851166        0.0000000000000000     
   4.5285203313219786E-002  0.10690100111010775        0.0000000000000000     
   3.4850653251915796E-002   8.0493197313353804E-002   0.0000000000000000     
   3.6188827760332803E-002   8.6762212229200192E-002   0.0000000000000000     
   3.7482085871789736E-002   9.3191315703419916E-002   0.0000000000000000     
   3.8730427586286600E-002   9.9780507736012991E-002   0.0000000000000000     
   3.9933852903823383E-002  0.10652978832697943        0.0000000000000000     
   6.2187742771537963E-002  0.10828209401334245        0.0000000000000000     
   6.3921627528446157E-002  0.11509946821168784        0.0000000000000000     
   6.5576282781168588E-002  0.12204954286721750        0.0000000000000000     
   6.7151708529705242E-002  0.12913231797993141        0.0000000000000000     
   6.8647904774056120E-002  0.13634779354982951        0.0000000000000000     
   5.6412148247077083E-002  0.10777715395328924        0.0000000000000000     
   5.8000410695489939E-002  0.11461666055321720        0.0000000000000000     
   5.9515681103883410E-002  0.12158872822664667        0.0000000000000000     
   6.0957959472257468E-002  0.12869335697357764        0.0000000000000000     
   6.2327245800612135E-002  0.13593054679401018        0.0000000000000000     
   5.0777968427637696E-002  0.10731678965221102        0.0000000000000000     
   5.2220968609837617E-002  0.11417676148471967        0.0000000000000000     
   5.3597123709959428E-002  0.12116932316014203        0.0000000000000000     
   5.4906433728003107E-002  0.12829447467847815        0.0000000000000000     
   5.6148898663968654E-002  0.13555221603972800        0.0000000000000000     
   4.5285203313219786E-002  0.10690100111010775        0.0000000000000000     
   4.6583301271489200E-002  0.11377977100619528        0.0000000000000000     
   4.7820610599396657E-002  0.12079132766770366        0.0000000000000000     
   4.8997131296942144E-002  0.12793567109463289        0.0000000000000000     
   5.0112863364125688E-002  0.13521280128698299        0.0000000000000000     
   3.9933852903823383E-002  0.10652978832697943        0.0000000000000000     
   4.1087408680444679E-002  0.11342568911764402        0.0000000000000000     
   4.2186141772195089E-002  0.12045474174933149        0.0000000000000000     
   4.3230052179074600E-002  0.12761694622204187        0.0000000000000000     
   4.4219139901083226E-002  0.13491230253577513        0.0000000000000000     
   6.8647904774056120E-002  0.13634779354982951        0.0000000000000000     
   7.0069488640911962E-002  0.14368447444643798        0.0000000000000000     
   7.1421077256963506E-002  0.15113086553928293        0.0000000000000000     
   7.2702670622210766E-002  0.15868696682836433        0.0000000000000000     
   7.3914268736653715E-002  0.16635277831368220        0.0000000000000000     
   6.2327245800612135E-002  0.13593054679401018        0.0000000000000000     
   6.3627054776454875E-002  0.14328913754238976        0.0000000000000000     
   6.4860901087293171E-002  0.15075796907316200        0.0000000000000000     
   6.6028784733127052E-002  0.15833704138632682        0.0000000000000000     
   6.7130705713956476E-002  0.16602635448188430        0.0000000000000000     
   5.6148898663968654E-002  0.13555221603972800        0.0000000000000000     
   5.7327205709879564E-002  0.14293158018333524        0.0000000000000000     
   5.8444042057759320E-002  0.15042160004874353        0.0000000000000000     
   5.9499407707607907E-002  0.15802227563595281        0.0000000000000000     
   6.0493302659425360E-002  0.16573360694496322        0.0000000000000000     
   5.0112863364125688E-002  0.13521280128698299        0.0000000000000000     
   5.1169941441186029E-002  0.14261180236927437        0.0000000000000000     
   5.2170500168361909E-002  0.15012175846602746        0.0000000000000000     
   5.3114539545653344E-002  0.15774266957724231        0.0000000000000000     
   5.4002059573060347E-002  0.16547453570291887        0.0000000000000000     
   4.4219139901083226E-002  0.13491230253577513        0.0000000000000000     
   4.5155261970374255E-002  0.14232980410020718        0.0000000000000000     
   4.6040275419100968E-002  0.14985844432501391        0.0000000000000000     
   4.6874180247263364E-002  0.15749822321019530        0.0000000000000000     
   4.7656976454861437E-002  0.16524914075575137        0.0000000000000000     
   7.3914268736653715E-002  0.16635277831368220        0.0000000000000000     
   7.5053348756258909E-002  0.17411818336268500        0.0000000000000000     
   7.6117387836992928E-002  0.18197306534282118        0.0000000000000000     
   7.7106385978855690E-002  0.18991742425409064        0.0000000000000000     
   7.8020343181847293E-002  0.19795126009649350        0.0000000000000000     
   6.7130705713956476E-002  0.16602635448188430        0.0000000000000000     
   6.8164236220771279E-002  0.17381521797761579        0.0000000000000000     
   6.9126948444561229E-002  0.18169294149130275        0.0000000000000000     
   7.0018842385326366E-002  0.18965952502294517        0.0000000000000000     
   7.0839918043066635E-002  0.19771496857254303        0.0000000000000000     
   6.0493302659425360E-002  0.16573360694496322        0.0000000000000000     
   6.1423336652010850E-002  0.17354451094422524        0.0000000000000000     
   6.2287119424163588E-002  0.18144390460218959        0.0000000000000000     
   6.3084650975883574E-002  0.18943178791885626        0.0000000000000000     
   6.3815931307170809E-002  0.19750816089422529        0.0000000000000000     
   5.4002059573060347E-002  0.16547453570291887        0.0000000000000000     
   5.4830650049977642E-002  0.17330606226251330        0.0000000000000000     
   5.5597900775799979E-002  0.18122595467548167        0.0000000000000000     
   5.6303811750527372E-002  0.18923421294182399        0.0000000000000000     
   5.6948382974159821E-002  0.19733083706154025        0.0000000000000000     
   4.7656976454861437E-002  0.16524914075575137        0.0000000000000000     
   4.8386176414671640E-002  0.17309987193247997        0.0000000000000000     
   4.9059292499470414E-002  0.18103909171117893        0.0000000000000000     
   4.9676324709257744E-002  0.18906680009184829        0.0000000000000000     
   5.0237273044033651E-002  0.19718299707448803        0.0000000000000000     
   7.8020343181847293E-002  0.19795126009649350        0.0000000000000000     
   7.8860191157258813E-002  0.20606749798674540        0.0000000000000000     
   7.9626861616381425E-002  0.21425906304156198        0.0000000000000000     
   8.0320354559215129E-002  0.22252595526094321        0.0000000000000000     
   8.0940669985759911E-002  0.23086817464488915        0.0000000000000000     
   7.0839918043066635E-002  0.19771496857254303        0.0000000000000000     
   7.1588736824900676E-002  0.20585306587065005        0.0000000000000000     
   7.2263860137947070E-002  0.21406761064782004        0.0000000000000000     
   7.2865287982205776E-002  0.22235860290405296        0.0000000000000000     
   7.3393020357676836E-002  0.23072604263934884        0.0000000000000000     
   6.3815931307170809E-002  0.19750816089422529        0.0000000000000000     
   6.4478200682492479E-002  0.20566688395834409        0.0000000000000000     
   6.5068699366315735E-002  0.21390181754126034        0.0000000000000000     
   6.5587427358640607E-002  0.22221296164297394        0.0000000000000000     
   6.6034384659467066E-002  0.23060031626348493        0.0000000000000000     
   5.6948382974159821E-002  0.19733083706154025        0.0000000000000000     
   5.7528582730034215E-002  0.20550895224982754        0.0000000000000000     
   5.8041379301487492E-002  0.21376168372188281        0.0000000000000000     
   5.8486772688519609E-002  0.22208903147770609        0.0000000000000000     
   5.8864762891130601E-002  0.23049099551729743        0.0000000000000000     
   5.0237273044033651E-002  0.19718299707448803        0.0000000000000000     
   5.0739882967525893E-002  0.20537927074510037        0.0000000000000000     
   5.1181899943462270E-002  0.21364720918968755        0.0000000000000000     
   5.1563323971842788E-002  0.22198681240824952        0.0000000000000000     
   5.1884155052667427E-002  0.23039808040078633        0.0000000000000000     
   8.0940669985759911E-002  0.23086817464488915        0.0000000000000000     
   8.1477153568326161E-002  0.23930631306174499        0.0000000000000000     
   8.1919150979224281E-002  0.24786096237985589        0.0000000000000000     
   8.2266662218454245E-002  0.25653212259922192        0.0000000000000000     
   8.2519687286016052E-002  0.26531979371984304        0.0000000000000000     
   7.3393020357676836E-002  0.23072604263934884        0.0000000000000000     
   7.3843781750760534E-002  0.23918359173474280        0.0000000000000000     
   7.4214296647857156E-002  0.24774491207127011        0.0000000000000000     
   7.4504565048966687E-002  0.25641000364893080        0.0000000000000000     
   7.4714586954089127E-002  0.26517886646772465        0.0000000000000000     
   6.6034384659467066E-002  0.23060031626348493        0.0000000000000000     
   6.6411873998209678E-002  0.23907040381315955        0.0000000000000000     
   6.6722198104282954E-002  0.24762974670236407        0.0000000000000000     
   6.6965356977686907E-002  0.25627834493109841        0.0000000000000000     
   6.7141350618421511E-002  0.26501619849936259        0.0000000000000000     
   5.8864762891130601E-002  0.23049099551729743        0.0000000000000000     
   5.9181430310673570E-002  0.23896674929699513        0.0000000000000000     
   5.9442855348501675E-002  0.24751546627313759        0.0000000000000000     
   5.9649038004614879E-002  0.25613714644572483        0.0000000000000000     
   5.9799978279013219E-002  0.26483178981475686        0.0000000000000000     
   5.1884155052667427E-002  0.23039808040078633        0.0000000000000000     
   5.2152450688152260E-002  0.23887262818624957        0.0000000000000000     
   5.2376268380513340E-002  0.24740207078359086        0.0000000000000000     
   5.2555608129750672E-002  0.25598640819281016        0.0000000000000000     
   5.2690469935864237E-002  0.26462564041390740        0.0000000000000000     
   8.2519687286016052E-002  0.26531979371984304        0.0000000000000000     
   8.2717214781620377E-002  0.27425038739271812        0.0000000000000000     
   8.2898233304977864E-002  0.28335031526884596        0.0000000000000000     
   8.3062742856088487E-002  0.29261957734822658        0.0000000000000000     
   8.3210743434952300E-002  0.30205817363085996        0.0000000000000000     
   7.4714586954089127E-002  0.26517886646772465        0.0000000000000000     
   7.4885309392539789E-002  0.27404516658610145        0.0000000000000000     
   7.5057679393633947E-002  0.28300257006251084        0.0000000000000000     
   7.5231696957371599E-002  0.29205107689695281        0.0000000000000000     
   7.5407362083752788E-002  0.30119068708942737        0.0000000000000000     
   6.7141350618421511E-002  0.26501619849936259        0.0000000000000000     
   6.7290423027605156E-002  0.27381344990695666        0.0000000000000000     
   6.7452818206356180E-002  0.28264024165368073        0.0000000000000000     
   6.7628536154674623E-002  0.29149657373953469        0.0000000000000000     
   6.7817576872560431E-002  0.30038244616451859        0.0000000000000000     
   5.9799978279013219E-002  0.26483178981475686        0.0000000000000000     
   5.9932555686816512E-002  0.27355523735528364        0.0000000000000000     
   6.0083649743144618E-002  0.28226333004235543        0.0000000000000000     
   6.0253260447997552E-002  0.29095606787597211        0.0000000000000000     
   6.0441387801375292E-002  0.29963345085613369        0.0000000000000000     
   5.2690469935864237E-002  0.26462564041390740        0.0000000000000000     
   5.2811707370173835E-002  0.27327052893108250        0.0000000000000000     
   5.2950174003999199E-002  0.28187183522853509        0.0000000000000000     
   5.3105869837340378E-002  0.29042955930626507        0.0000000000000000     
   5.3278794870197321E-002  0.29894370116427260        0.0000000000000000     
   2.8973675256280453E-002   5.7176892932528964E-002   0.0000000000000000     
   3.0524378599198126E-002   6.2736048121645072E-002   0.0000000000000000     
   3.2020776046109908E-002   6.8475150581487898E-002   0.0000000000000000     
   3.3462867597015798E-002   7.4394200312057485E-002   0.0000000000000000     
   3.4850653251915796E-002   8.0493197313353804E-002   0.0000000000000000     
   2.5127216804171359E-002   5.6767272497560174E-002   0.0000000000000000     
   2.6475429254436599E-002   6.2323308366471680E-002   0.0000000000000000     
   2.7778316167189968E-002   6.8064717967371513E-002   0.0000000000000000     
   2.9035877542431476E-002   7.3991501300259652E-002   0.0000000000000000     
   3.0248113380161118E-002   8.0103658365136082E-002   0.0000000000000000     
   2.1337572986982280E-002   5.6388269570754289E-002   0.0000000000000000     
   2.2490647705876683E-002   6.1950693154790321E-002   0.0000000000000000     
   2.3605972952612811E-002   6.7700755109273009E-002   0.0000000000000000     
   2.4683548727190665E-002   7.3638455434202305E-002   0.0000000000000000     
   2.5723375029610248E-002   7.9763794129578222E-002   0.0000000000000000     
   1.7604743804713205E-002   5.6039884152111301E-002   0.0000000000000000     
   1.8570033953518379E-002   6.1618202486600979E-002   0.0000000000000000     
   1.9503746402378432E-002   6.7383262007192357E-002   0.0000000000000000     
   2.0405881151293360E-002   7.3335062713885443E-002   0.0000000000000000     
   2.1276438200263172E-002   7.9473604606680209E-002   0.0000000000000000     
   1.3928729257364143E-002   5.5722116241631231E-002   0.0000000000000000     
   1.4713587997361690E-002   6.1325836361903668E-002   0.0000000000000000     
   1.5471636516486829E-002   6.7112238661129614E-002   0.0000000000000000     
   1.6202874814739570E-002   7.3081323139309096E-002   0.0000000000000000     
   1.6907302892119898E-002   7.9233089796442085E-002   0.0000000000000000     
   3.4850653251915796E-002   8.0493197313353804E-002   0.0000000000000000     
   3.6188827760332803E-002   8.6762212229200192E-002   0.0000000000000000     
   3.7482085871789736E-002   9.3191315703419916E-002   0.0000000000000000     
   3.8730427586286600E-002   9.9780507736012991E-002   0.0000000000000000     
   3.9933852903823383E-002  0.10652978832697943        0.0000000000000000     
   3.0248113380161118E-002   8.0103658365136082E-002   0.0000000000000000     
   3.1418207433822794E-002   8.6388451815018627E-002   0.0000000000000000     
   3.2549343456860384E-002   9.2833144302925025E-002   0.0000000000000000     
   3.3641521449273910E-002   9.9437735828855317E-002   0.0000000000000000     
   3.4694741411063344E-002  0.10620222639280945        0.0000000000000000     
   2.5723375029610248E-002   7.9763794129578222E-002   0.0000000000000000     
   2.6727546080424602E-002   8.6062762306777840E-002   0.0000000000000000     
   2.7698156100186767E-002   9.2521351077178182E-002   0.0000000000000000     
   2.8635205088896755E-002   9.9139560440779276E-002   0.0000000000000000     
   2.9538693046554553E-002  0.10591739039758111        0.0000000000000000     
   2.1276438200263172E-002   7.9473604606680209E-002   0.0000000000000000     
   2.2116843700138226E-002   8.5785143704477831E-002   0.0000000000000000     
   2.2928523801768883E-002   9.2255936026179403E-002   0.0000000000000000     
   2.3711478505155138E-002   9.8885981571784923E-002   0.0000000000000000     
   2.4465707810297010E-002  0.10567528034129442        0.0000000000000000     
   1.6907302892119898E-002   7.9233089796442085E-002   0.0000000000000000     
   1.7586100292963674E-002   8.5555596008118601E-002   0.0000000000000000     
   1.8240446561606734E-002   9.2036899149928658E-002   0.0000000000000000     
   1.8870341698049083E-002   9.8676999221872244E-002   0.0000000000000000     
   1.9475785702290714E-002  0.10547589622394937        0.0000000000000000     
   3.9933852903823383E-002  0.10652978832697943        0.0000000000000000     
   4.1087408680444679E-002  0.11342568911764402        0.0000000000000000     
   4.2186141772195089E-002  0.12045474174933149        0.0000000000000000     
   4.3230052179074600E-002  0.12761694622204187        0.0000000000000000     
   4.4219139901083226E-002  0.13491230253577513        0.0000000000000000     
   3.4694741411063344E-002  0.10620222639280945        0.0000000000000000     
   3.5704100750668544E-002  0.11311345969366966        0.0000000000000000     
   3.6664696876529360E-002  0.12015827943031807        0.0000000000000000     
   3.7576529788645785E-002  0.12733668560275474        0.0000000000000000     
   3.8439599487017820E-002  0.13464867821097962        0.0000000000000000     
   2.9538693046554553E-002  0.10591739039758111        0.0000000000000000     
   3.0404187396125298E-002  0.11284202660887591        0.0000000000000000     
   3.1227255560574124E-002  0.11990065473595596        0.0000000000000000     
   3.2007897539901013E-002  0.12709327477882118        0.0000000000000000     
   3.2746113334105986E-002  0.13441988673747166        0.0000000000000000     
   2.4465707810297010E-002  0.10567528034129442        0.0000000000000000     
   2.5187668616814932E-002  0.11261138986326283        0.0000000000000000     
   2.5873817824329366E-002  0.11968186766624508        0.0000000000000000     
   2.6524155432840306E-002  0.12688671375024121        0.0000000000000000     
   2.7138681442347747E-002  0.13422592811525122        0.0000000000000000     
   1.9475785702290714E-002  0.10547589622394937        0.0000000000000000     
   2.0054544412737445E-002  0.11242154945683036        0.0000000000000000     
   2.0604383667795087E-002  0.11950191822118551        0.0000000000000000     
   2.1125303467463635E-002  0.12671700251701484        0.0000000000000000     
   2.1617303811743094E-002  0.13406680234431831        0.0000000000000000     
   4.4219139901083226E-002  0.13491230253577513        0.0000000000000000     
   4.5155261970374255E-002  0.14232980410020718        0.0000000000000000     
   4.6040275419100968E-002  0.14985844432501391        0.0000000000000000     
   4.6874180247263364E-002  0.15749822321019530        0.0000000000000000     
   4.7656976454861437E-002  0.16524914075575137        0.0000000000000000     
   3.8439599487017820E-002  0.13464867821097962        0.0000000000000000     
   3.9255610361205839E-002  0.14208311523583120        0.0000000000000000     
   4.0026266800770247E-002  0.14962885465814804        0.0000000000000000     
   4.0751568805711021E-002  0.15728589647793007        0.0000000000000000     
   4.1431516376028182E-002  0.16505424069517727        0.0000000000000000     
   3.2746113334105986E-002  0.13441988673747166        0.0000000000000000     
   3.3443429677442377E-002  0.14186926563584407        0.0000000000000000     
   3.4101373304163532E-002  0.14943018649787509        0.0000000000000000     
   3.4719944214269445E-002  0.15710264932356482        0.0000000000000000     
   3.5299142407760123E-002  0.16488665411291320        0.0000000000000000     
   2.7138681442347747E-002  0.13422592811525122        0.0000000000000000     
   2.7718719919083871E-002  0.14168825530024570        0.0000000000000000     
   2.8265594929280824E-002  0.14926243984419513        0.0000000000000000     
   2.8779306472938623E-002  0.15694848174709966        0.0000000000000000     
   2.9259854550057265E-002  0.16474638100895919        0.0000000000000000     
   2.1617303811743094E-002  0.13406680234431831        0.0000000000000000     
   2.2081481086130311E-002  0.14154008422903608        0.0000000000000000     
   2.2518931676122136E-002  0.14912561469710814        0.0000000000000000     
   2.2929655581718562E-002  0.15682339374853452        0.0000000000000000     
   2.3313652802919600E-002  0.16463342138331524        0.0000000000000000     
   4.7656976454861437E-002  0.16524914075575137        0.0000000000000000     
   4.8386176414671640E-002  0.17309987193247997        0.0000000000000000     
   4.9059292499470414E-002  0.18103909171117893        0.0000000000000000     
   4.9676324709257744E-002  0.18906680009184829        0.0000000000000000     
   5.0237273044033651E-002  0.19718299707448803        0.0000000000000000     
   4.1431516376028182E-002  0.16505424069517727        0.0000000000000000     
   4.2063567441951728E-002  0.17292253946153524        0.0000000000000000     
   4.2645179933711662E-002  0.18087944492864952        0.0000000000000000     
   4.3176353851307997E-002  0.18892495709652016        0.0000000000000000     
   4.3657089194740720E-002  0.19705907596514707        0.0000000000000000     
   3.5299142407760123E-002  0.16488665411291320        0.0000000000000000     
   3.5836474827676747E-002  0.17277066435708918        0.0000000000000000     
   3.6329448417060518E-002  0.18074314354726159        0.0000000000000000     
   3.6778063175911431E-002  0.18880409168343049        0.0000000000000000     
   3.7182319104229478E-002  0.19695350876559584        0.0000000000000000     
   2.9259854550057265E-002  0.16474638100895919        0.0000000000000000     
   2.9704898571846716E-002  0.17264424661914168        0.0000000000000000     
   3.0112097949516976E-002  0.18063018756701504        0.0000000000000000     
   3.0481452683068039E-002  0.18870420385257930        0.0000000000000000     
   3.0812962772499904E-002  0.19686629547583442        0.0000000000000000     
   2.3313652802919600E-002  0.16463342138331524        0.0000000000000000     
   2.3668838674461633E-002  0.17254328624769286        0.0000000000000000     
   2.3993128531081043E-002  0.18054057698790996        0.0000000000000000     
   2.4286522372777831E-002  0.18862529360396660        0.0000000000000000     
   2.4549020199552005E-002  0.19679743609586273        0.0000000000000000     
   5.0237273044033651E-002  0.19718299707448803        0.0000000000000000     
   5.0739882967525893E-002  0.20537927074510037        0.0000000000000000     
   5.1181899943462270E-002  0.21364720918968755        0.0000000000000000     
   5.1563323971842788E-002  0.22198681240824952        0.0000000000000000     
   5.1884155052667427E-002  0.23039808040078633        0.0000000000000000     
   4.3657089194740720E-002  0.19705907596514707        0.0000000000000000     
   4.4086300636922718E-002  0.20527152846092761        0.0000000000000000     
   4.4462902850766844E-002  0.21355204151025903        0.0000000000000000     
   4.4786895836273086E-002  0.22190061511314141        0.0000000000000000     
   4.5058279593441469E-002  0.23031724926957470        0.0000000000000000     
   3.7182319104229478E-002  0.19695350876559584        0.0000000000000000     
   3.7542034980179897E-002  0.20517941441407414        0.0000000000000000     
   3.7857029581927888E-002  0.21346982824918187        0.0000000000000000     
   3.8127302909473464E-002  0.22182475027091900        0.0000000000000000     
   3.8352854962816631E-002  0.23024418047928558        0.0000000000000000     
   3.0812962772499904E-002  0.19686629547583442        0.0000000000000000     
   3.1107085997297414E-002  0.20510292860454010        0.0000000000000000     
   3.1364280136945422E-002  0.21340056940645608        0.0000000000000000     
   3.1584545191443915E-002  0.22175921788158237        0.0000000000000000     
   3.1767881160792905E-002  0.23017887402991893        0.0000000000000000     
   2.4549020199552005E-002  0.19679743609586273        0.0000000000000000     
   2.4781453688275293E-002  0.20504207103232536        0.0000000000000000     
   2.4984654515819445E-002  0.21334426498208159        0.0000000000000000     
   2.5158622682184446E-002  0.22170401794513139        0.0000000000000000     
   2.5303358187370312E-002  0.23012132992147477        0.0000000000000000     
   5.1884155052667427E-002  0.23039808040078633        0.0000000000000000     
   5.2152450688152260E-002  0.23887262818624957        0.0000000000000000     
   5.2376268380513340E-002  0.24740207078359086        0.0000000000000000     
   5.2555608129750672E-002  0.25598640819281016        0.0000000000000000     
   5.2690469935864237E-002  0.26462564041390740        0.0000000000000000     
   4.5058279593441469E-002  0.23031724926957470        0.0000000000000000     
   4.5285809842277307E-002  0.23878661072351839        0.0000000000000000     
   4.5478242302785937E-002  0.24729336621893197        0.0000000000000000     
   4.5635576974967354E-002  0.25583751575581554        0.0000000000000000     
   4.5757813858821564E-002  0.26441905933416887        0.0000000000000000     
   3.8352854962816631E-002  0.23024418047928558        0.0000000000000000     
   3.8542382484680324E-002  0.23870726715139715        0.0000000000000000     
   3.8704582217787470E-002  0.24719315856436935        0.0000000000000000     
   3.8839454162138090E-002  0.25570185471820223        0.0000000000000000     
   3.8946998317732191E-002  0.26423335561289574        0.0000000000000000     
   3.1767881160792905E-002  0.23017887402991893        0.0000000000000000     
   3.1922168615361284E-002  0.23863459746988575        0.0000000000000000     
   3.2055288125517944E-002  0.24710144781990287        0.0000000000000000     
   3.2167239691262887E-002  0.25557942507997028        0.0000000000000000     
   3.2258023312596119E-002  0.26406852925008795        0.0000000000000000     
   2.5303358187370312E-002  0.23012132992147477        0.0000000000000000     
   2.5425168234320221E-002  0.23856860167898430        0.0000000000000000     
   2.5530360025977361E-002  0.24701823398553260        0.0000000000000000     
   2.5618933562341732E-002  0.25547022684111975        0.0000000000000000     
   2.5690888843413334E-002  0.26392458024574561        0.0000000000000000     
   5.2690469935864237E-002  0.26462564041390740        0.0000000000000000     
   5.2811707370173835E-002  0.27327052893108250        0.0000000000000000     
   5.2950174003999199E-002  0.28187183522853509        0.0000000000000000     
   5.3105869837340378E-002  0.29042955930626507        0.0000000000000000     
   5.3278794870197321E-002  0.29894370116427260        0.0000000000000000     
   4.5757813858821564E-002  0.26441905933416887        0.0000000000000000     
   4.5869123704842814E-002  0.27298803908512481        0.0000000000000000     
   4.5993677263525344E-002  0.28149449713981567        0.0000000000000000     
   4.6131474534869162E-002  0.28993843349824155        0.0000000000000000     
   4.6282515518874259E-002  0.29831984816040258        0.0000000000000000     
   3.8946998317732191E-002  0.26423335561289574        0.0000000000000000     
   3.9046050317989169E-002  0.27273648226818203        0.0000000000000000     
   3.9155445796328438E-002  0.28116005570379327        0.0000000000000000     
   3.9275184752749992E-002  0.28950407591972949        0.0000000000000000     
   3.9405267187253838E-002  0.29776854291599059        0.0000000000000000     
   3.2258023312596119E-002  0.26406852925008795        0.0000000000000000     
   3.2342487209612893E-002  0.27251585848025445        0.0000000000000000     
   3.2435479602408467E-002  0.28086851092046800        0.0000000000000000     
   3.2537000490982855E-002  0.28912648657072870        0.0000000000000000     
   3.2647049875336058E-002  0.29728978543103668        0.0000000000000000     
   2.5690888843413334E-002  0.26392458024574561        0.0000000000000000     
   2.5758434379713972E-002  0.27232616772134177        0.0000000000000000     
   2.5833778681765444E-002  0.28061986278983975        0.0000000000000000     
   2.5916921749567761E-002  0.28880566545123942        0.0000000000000000     
   2.6007863583120908E-002  0.29688357570554091        0.0000000000000000     
   1.3928729257364143E-002   5.5722116241631231E-002   0.0000000000000000     
   1.4713587997361690E-002   6.1325836361903668E-002   0.0000000000000000     
   1.5471636516486829E-002   6.7112238661129614E-002   0.0000000000000000     
   1.6202874814739570E-002   7.3081323139309096E-002   0.0000000000000000     
   1.6907302892119898E-002   7.9233089796442085E-002   0.0000000000000000     
   1.0329040196669356E-002   5.5474732757727539E-002   0.0000000000000000     
   1.0931662115273431E-002   6.1100599163824612E-002   0.0000000000000000     
   1.1512170086954498E-002   6.6905033997020788E-002   0.0000000000000000     
   1.2070564111712557E-002   7.2888037257316116E-002   0.0000000000000000     
   1.2606844189547609E-002   7.9049608944710567E-002   0.0000000000000000     
   6.8251874743631077E-003   5.5337500618813720E-002   0.0000000000000000     
   7.2346085851204243E-003   6.0969495275490046E-002   0.0000000000000000     
   7.6278739057979248E-003   6.6778996940801957E-002   0.0000000000000000     
   8.0049834363956126E-003   7.2766005614749427E-002   0.0000000000000000     
   8.3659371769134860E-003   7.8930521297332468E-002   0.0000000000000000     
   3.4171710904454030E-003   5.5310419824889753E-002   0.0000000000000000     
   3.6224274069026705E-003   6.0932524696899991E-002   0.0000000000000000     
   3.8187479730171139E-003   6.6734127492473080E-002   0.0000000000000000     
   4.0061327887887339E-003   7.2715228211609001E-002   0.0000000000000000     
   4.1845818542175306E-003   7.8875826854307773E-002   0.0000000000000000     
   1.0499104491624046E-004   5.5393490375955659E-002   0.0000000000000000     
   9.5118580620169721E-005   6.0989687428054454E-002   0.0000000000000000     
   8.4792288612062293E-005   6.6770425652034185E-002   0.0000000000000000     
   7.4012168891920640E-005   7.2735705047894866E-002   0.0000000000000000     
   6.2778221459741483E-005   7.8885525615636498E-002   0.0000000000000000     
   1.6907302892119898E-002   7.9233089796442085E-002   0.0000000000000000     
   1.7586100292963674E-002   8.5555596008118601E-002   0.0000000000000000     
   1.8240446561606734E-002   9.2036899149928658E-002   0.0000000000000000     
   1.8870341698049083E-002   9.8676999221872244E-002   0.0000000000000000     
   1.9475785702290714E-002  0.10547589622394937        0.0000000000000000     
   1.2606844189547609E-002   7.9049608944710567E-002   0.0000000000000000     
   1.3122160315572508E-002   8.5379801397694230E-002   0.0000000000000000     
   1.3617662484900109E-002   9.1868666954757205E-002   0.0000000000000000     
   1.4093350697530409E-002   9.8516205615899438E-002   0.0000000000000000     
   1.4549224953463412E-002  0.10532241738112098        0.0000000000000000     
   8.3659371769134860E-003   7.8930521297332468E-002   0.0000000000000000     
   8.7118682246362968E-003   8.5263442053198843E-002   0.0000000000000000     
   9.0439096768487933E-003   9.1755665946996232E-002   0.0000000000000000     
   9.3620615335509774E-003   9.8407192978724717E-002   0.0000000000000000     
   9.6663237947428472E-003  0.10521802314838422        0.0000000000000000     
   4.1845818542175306E-003   7.8875826854307773E-002   0.0000000000000000     
   4.3552240201550360E-003   8.5206517974632384E-002   0.0000000000000000     
   4.5191881374527882E-003   9.1697896126645820E-002   0.0000000000000000     
   4.6764742061107811E-003   9.8349961310348052E-002   0.0000000000000000     
   4.8270822261290182E-003  0.10516271352573911        0.0000000000000000     
   6.2778221459741483E-005   7.8885525615636498E-002   0.0000000000000000     
   5.2227702128731200E-005   8.5209029161994895E-002   0.0000000000000000     
   4.3497866712092484E-005   9.1695357493705887E-002   0.0000000000000000     
   3.6588715209824737E-005   9.8344510610769473E-002   0.0000000000000000     
   3.1500247621928015E-005  0.10515648851318565        0.0000000000000000     
   1.9475785702290714E-002  0.10547589622394937        0.0000000000000000     
   2.0054544412737445E-002  0.11242154945683036        0.0000000000000000     
   2.0604383667795087E-002  0.11950191822118551        0.0000000000000000     
   2.1125303467463635E-002  0.12671700251701484        0.0000000000000000     
   2.1617303811743094E-002  0.13406680234431831        0.0000000000000000     
   1.4549224953463412E-002  0.10532241738112098        0.0000000000000000     
   1.4984289304984414E-002  0.11227546199052248        0.0000000000000000     
   1.5397547804378710E-002  0.11936349918420461        0.0000000000000000     
   1.5789000451646305E-002  0.12658652896216732        0.0000000000000000     
   1.6158647246787193E-002  0.13394455132441069        0.0000000000000000     
   9.6663237947428472E-003  0.10521802314838422        0.0000000000000000     
   9.9563778146474040E-003  0.11217608406528312        0.0000000000000000     
   1.0231904947487653E-002  0.11926930333872975        0.0000000000000000     
   1.0492905193263588E-002  0.12649768096872405        0.0000000000000000     
   1.0739378551975211E-002  0.13386121695526607        0.0000000000000000     
   4.8270822261290182E-003  0.10516271352573911        0.0000000000000000     
   4.9708099417264213E-003  0.11212341568111231        0.0000000000000000     
   5.1074550971219124E-003  0.11921933068476094        0.0000000000000000     
   5.2370176923154897E-003  0.12645045853668496        0.0000000000000000     
   5.3594977273071567E-003  0.13381679923688442        0.0000000000000000     
   3.1500247621928015E-005  0.10515648851318565        0.0000000000000000     
   2.7585686221462576E-005  0.11211745683801001        0.0000000000000000     
   2.4198253281490414E-005  0.11921358122229817        0.0000000000000000     
   2.1337948802009252E-005  0.12644486166605007        0.0000000000000000     
   1.9004772783020717E-005  0.13381129816926576        0.0000000000000000     
   2.1617303811743094E-002  0.13406680234431831        0.0000000000000000     
   2.2081481086130311E-002  0.14154008422903608        0.0000000000000000     
   2.2518931676122136E-002  0.14912561469710814        0.0000000000000000     
   2.2929655581718562E-002  0.15682339374853452        0.0000000000000000     
   2.3313652802919600E-002  0.16463342138331524        0.0000000000000000     
   1.6158647246787193E-002  0.13394455132441069        0.0000000000000000     
   1.6507317917888668E-002  0.14142635474149687        0.0000000000000000     
   1.6835842193038016E-002  0.14902072768398802        0.0000000000000000     
   1.7144220072235251E-002  0.15672767015188421        0.0000000000000000     
   1.7432451555480361E-002  0.16454718214518538        0.0000000000000000     
   1.0739378551975211E-002  0.13386121695526607        0.0000000000000000     
   1.0971835153665913E-002  0.14134866915690969        0.0000000000000000     
   1.1190785128379068E-002  0.14894879543220885        0.0000000000000000     
   1.1396228476114687E-002  0.15666159578116354        0.0000000000000000     
   1.1588165196872766E-002  0.16448707020377371        0.0000000000000000     
   5.3594977273071567E-003  0.13381679923688442        0.0000000000000000     
   5.4750327934620412E-003  0.14130702747527454        0.0000000000000000     
   5.5837604821452795E-003  0.14890981794177058        0.0000000000000000     
   5.6856807933568709E-003  0.15662517063637249        0.0000000000000000     
   5.7807937270968144E-003  0.16445308555908031        0.0000000000000000     
   1.9004772783020717E-005  0.13381129816926576        0.0000000000000000     
   1.6910837277058421E-005  0.14130142969659143        0.0000000000000000     
   1.4768254336651097E-005  0.14890379521267316        0.0000000000000000     
   1.2577023961801969E-005  0.15661839471751102        0.0000000000000000     
   1.0337146152509819E-005  0.16444522821110505        0.0000000000000000     
   2.3313652802919600E-002  0.16463342138331524        0.0000000000000000     
   2.3668838674461633E-002  0.17254328624769286        0.0000000000000000     
   2.3993128531081043E-002  0.18054057698790996        0.0000000000000000     
   2.4286522372777831E-002  0.18862529360396660        0.0000000000000000     
   2.4549020199552005E-002  0.19679743609586273        0.0000000000000000     
   1.7432451555480361E-002  0.16454718214518538        0.0000000000000000     
   1.7698828320044147E-002  0.17246640684227563        0.0000000000000000     
   1.7941642043197412E-002  0.18047248742153896        0.0000000000000000     
   1.8160892724940154E-002  0.18856542388297529        0.0000000000000000     
   1.8356580365272379E-002  0.19674521622658483        0.0000000000000000     
   1.1588165196872766E-002  0.16448707020377371        0.0000000000000000     
   1.1765400693116924E-002  0.17241223200242292        0.0000000000000000     
   1.1926740367310786E-002  0.18042409447949448        0.0000000000000000     
   1.2072184219454348E-002  0.18852265763498846        0.0000000000000000     
   1.2201732249547615E-002  0.19670792146890481        0.0000000000000000     
   5.7807937270968144E-003  0.16445308555908031        0.0000000000000000     
   5.8685557936799613E-003  0.17238076172813477        0.0000000000000000     
   5.9484235034211620E-003  0.18039539816177666        0.0000000000000000     
   6.0203968563204155E-003  0.18849699486000593        0.0000000000000000     
   6.0844758523777229E-003  0.19668555182282269        0.0000000000000000     
   1.0337146152509819E-005  0.16444522821110505        0.0000000000000000     
   8.2936217332611577E-006  0.17237199601941117        0.0000000000000000     
   6.6914515285429292E-006  0.18038639846838544        0.0000000000000000     
   5.5306355383552422E-006  0.18848843555802786        0.0000000000000000     
   4.8111737626986388E-006  0.19667810728833837        0.0000000000000000     
   2.4549020199552005E-002  0.19679743609586273        0.0000000000000000     
   2.4781453688275293E-002  0.20504207103232536        0.0000000000000000     
   2.4984654515819445E-002  0.21334426498208159        0.0000000000000000     
   2.5158622682184446E-002  0.22170401794513139        0.0000000000000000     
   2.5303358187370312E-002  0.23012132992147477        0.0000000000000000     
   1.8356580365272379E-002  0.19674521622658483        0.0000000000000000     
   1.8529653051662959E-002  0.20499570757582858        0.0000000000000000     
   1.8681058871580784E-002  0.21330074105416771        0.0000000000000000     
   1.8810797825025857E-002  0.22166031666160224        0.0000000000000000     
   1.8918869911998166E-002  0.23007443439813213        0.0000000000000000     
   1.2201732249547615E-002  0.19670792146890481        0.0000000000000000     
   1.2316199086009842E-002  0.20496270411344833        0.0000000000000000     
   1.2416399357260280E-002  0.21326982370082367        0.0000000000000000     
   1.2502333063298936E-002  0.22162928023103093        0.0000000000000000     
   1.2574000204125805E-002  0.23004107370407001        0.0000000000000000     
   6.0844758523777229E-003  0.19668555182282269        0.0000000000000000     
   6.1410917913159412E-003  0.20494306064518458        0.0000000000000000     
   6.1906759728579328E-003  0.21325151292204952        0.0000000000000000     
   6.2332283970036942E-003  0.22161090865341748        0.0000000000000000     
   6.2687490637532255E-003  0.23002124783928843        0.0000000000000000     
   4.8111737626986388E-006  0.19667810728833837        0.0000000000000000     
   4.3311675812639661E-006  0.20493677717103737        0.0000000000000000     
   3.8887183737391440E-006  0.21324580871784518        0.0000000000000000     
   3.4838261401278858E-006  0.22160520192876185        0.0000000000000000     
   3.1164908804279419E-006  0.23001495680378736        0.0000000000000000     
   2.5303358187370312E-002  0.23012132992147477        0.0000000000000000     
   2.5425168234320221E-002  0.23856860167898430        0.0000000000000000     
   2.5530360025977361E-002  0.24701823398553260        0.0000000000000000     
   2.5618933562341732E-002  0.25547022684111975        0.0000000000000000     
   2.5690888843413334E-002  0.26392458024574561        0.0000000000000000     
   1.8918869911998166E-002  0.23007443439813213        0.0000000000000000     
   1.9009725171995312E-002  0.23851380996143506        0.0000000000000000     
   1.9087813644514864E-002  0.24694915904918871        0.0000000000000000     
   1.9153135329556828E-002  0.25538048166139293        0.0000000000000000     
   1.9205690227121208E-002  0.26380777779804798        0.0000000000000000     
   1.2574000204125805E-002  0.23004107370407001        0.0000000000000000     
   1.2634183258824745E-002  0.23847475249998032        0.0000000000000000     
   1.2685664706479603E-002  0.24689986499880115        0.0000000000000000     
   1.2728444547090389E-002  0.25531641120053244        0.0000000000000000     
   1.2762522780657091E-002  0.26372439110517432        0.0000000000000000     
   6.2687490637532255E-003  0.23002124783928843        0.0000000000000000     
   6.2985424948085247E-003  0.23845142929462004        0.0000000000000000     
   6.3239132118715850E-003  0.24687035183437001        0.0000000000000000     
   6.3448612149424061E-003  0.25527801545853818        0.0000000000000000     
   6.3613865040209909E-003  0.26367442016712483        0.0000000000000000     
   3.1164908804279419E-006  0.23001495680378736        0.0000000000000000     
   2.8028799466499332E-006  0.23844384034535426        0.0000000000000000     
   2.5591606908027462E-006  0.24686061955589522        0.0000000000000000     
   2.3853331128868144E-006  0.25526529443541024        0.0000000000000000     
   2.2813972129008368E-006  0.26365786498389920        0.0000000000000000     
   2.5690888843413334E-002  0.26392458024574561        0.0000000000000000     
   2.5758434379713972E-002  0.27232616772134177        0.0000000000000000     
   2.5833778681765444E-002  0.28061986278983975        0.0000000000000000     
   2.5916921749567761E-002  0.28880566545123942        0.0000000000000000     
   2.6007863583120908E-002  0.29688357570554091        0.0000000000000000     
   1.9205690227121208E-002  0.26380777779804798        0.0000000000000000     
   1.9255446967948335E-002  0.27217374894387775        0.0000000000000000     
   1.9312374182778549E-002  0.28042109658360653        0.0000000000000000     
   1.9376471871611844E-002  0.28854982071723428        0.0000000000000000     
   1.9447740034448234E-002  0.29655992134476089        0.0000000000000000     
   1.2762522780657091E-002  0.26372439110517432        0.0000000000000000     
   1.2795080113971890E-002  0.27206494110029600        0.0000000000000000     
   1.2833297253826951E-002  0.28027919757346653        0.0000000000000000     
   1.2877174200222274E-002  0.28836716052468592        0.0000000000000000     
   1.2926710953157861E-002  0.29632882995395421        0.0000000000000000     
   6.3613865040209909E-003  0.26367442016712483        0.0000000000000000     
   6.3773338177846393E-003  0.27199974419059636        0.0000000000000000     
   6.3965478949106567E-003  0.28019416575941947        0.0000000000000000     
   6.4190287353990379E-003  0.28825768487359438        0.0000000000000000     
   6.4447763392497907E-003  0.29619030153312093        0.0000000000000000     
   2.2813972129008368E-006  0.26365786498389920        0.0000000000000000     
   2.2080793865817978E-006  0.27197815821477889        0.0000000000000000     
   2.1261060296618025E-006  0.28016600114146573        0.0000000000000000     
   2.0354771421427756E-006  0.28822139376395972        0.0000000000000000     
   1.9361927240226298E-006  0.29614433608226098        0.0000000000000000     
   1.0499104491624046E-004   5.5393490375955659E-002   0.0000000000000000     
   9.5118580620169721E-005   6.0989687428054454E-002   0.0000000000000000     
   8.4792288612062293E-005   6.6770425652034185E-002   0.0000000000000000     
   7.4012168891920640E-005   7.2735705047894866E-002   0.0000000000000000     
   6.2778221459741483E-005   7.8885525615636498E-002   0.0000000000000000     
  -3.2220993749907368E-003   5.5523554324158536E-002   0.0000000000000000     
  -3.4455344442317747E-003   6.1094057342904295E-002   0.0000000000000000     
  -3.6609039796799444E-003   6.6853930928180011E-002   0.0000000000000000     
  -3.8682079813352459E-003   7.2803175079985682E-002   0.0000000000000000     
  -4.0674464491976779E-003   7.8941789798321324E-002   0.0000000000000000     
  -6.6748468820418847E-003   5.5637453721645524E-002   0.0000000000000000     
  -7.0977482181578599E-003   6.1198708315400439E-002   0.0000000000000000     
  -7.5052516641216250E-003   6.6950682829605312E-002   0.0000000000000000     
  -7.8973572199331817E-003   7.2893377264260151E-002   0.0000000000000000     
  -8.2740648855925258E-003   7.9026791619364961E-002   0.0000000000000000     
  -1.0253251476237204E-002   5.5735188568416603E-002   0.0000000000000000     
  -1.0861522741158083E-002   6.1303640345542858E-002   0.0000000000000000     
  -1.1448250764712977E-002   6.7060681356310062E-002   0.0000000000000000     
  -1.2013435546901884E-002   7.3006311600718299E-002   0.0000000000000000     
  -1.2557077087724808E-002   7.9140531078767437E-002   0.0000000000000000     
  -1.3957313157576694E-002   5.5816758864471787E-002   0.0000000000000000     
  -1.4736858013232447E-002   6.1408853433331571E-002   0.0000000000000000     
  -1.5489901281453999E-002   6.7183926508294328E-002   0.0000000000000000     
  -1.6216442962241357E-002   7.3141978089360044E-002   0.0000000000000000     
  -1.6916483055594515E-002   7.9283008176528724E-002   0.0000000000000000     
   6.2778221459741483E-005   7.8885525615636498E-002   0.0000000000000000     
   5.2227702128731200E-005   8.5209029161994895E-002   0.0000000000000000     
   4.3497866712092484E-005   9.1695357493705887E-002   0.0000000000000000     
   3.6588715209824737E-005   9.8344510610769473E-002   0.0000000000000000     
   3.1500247621928015E-005  0.10515648851318565        0.0000000000000000     
  -4.0674464491976779E-003   7.8941789798321324E-002   0.0000000000000000     
  -4.2576313189844435E-003   8.5257387094803100E-002   0.0000000000000000     
  -4.4377745264127444E-003   9.1737578981047216E-002   0.0000000000000000     
  -4.6078760714825815E-003   9.8382365457053686E-002   0.0000000000000000     
  -4.7679359541939539E-003  0.10519174652282250        0.0000000000000000     
  -8.2740648855925258E-003   7.9026791619364961E-002   0.0000000000000000     
  -8.6348636327263119E-003   8.5338003252573777E-002   0.0000000000000000     
  -8.9792424329611740E-003   9.1814089521540576E-002   0.0000000000000000     
  -9.3072012862971242E-003   9.8455050426265400E-002   0.0000000000000000     
  -9.6187401927341522E-003  0.10526088596674825        0.0000000000000000     
  -1.2557077087724808E-002   7.9140531078767437E-002   0.0000000000000000     
  -1.3079469239096869E-002   8.5450877635306899E-002   0.0000000000000000     
  -1.3580905852933199E-002   9.1924889115185968E-002   0.0000000000000000     
  -1.4061386929233801E-002   9.8562565518404643E-002   0.0000000000000000     
  -1.4520912467998668E-002  0.10536390684496297        0.0000000000000000     
  -1.6916483055594515E-002   7.9283008176528724E-002   0.0000000000000000     
  -1.7591448138096120E-002   8.5596010243002466E-002   0.0000000000000000     
  -1.8242764786328823E-002   9.2069977761983349E-002   0.0000000000000000     
  -1.8870433000292612E-002   9.8704910733471388E-002   0.0000000000000000     
  -1.9474452779987498E-002  0.10550080915746660        0.0000000000000000     
   3.1500247621928015E-005  0.10515648851318565        0.0000000000000000     
   2.7585686221462576E-005  0.11211745683801001        0.0000000000000000     
   2.4198253281490414E-005  0.11921358122229817        0.0000000000000000     
   2.1337948802009252E-005  0.12644486166605007        0.0000000000000000     
   1.9004772783020717E-005  0.13381129816926576        0.0000000000000000     
  -4.7679359541939539E-003  0.10519174652282250        0.0000000000000000     
  -4.9189445146360158E-003  0.11215094197097088        0.0000000000000000     
  -5.0618920928979230E-003  0.11924517159411611        0.0000000000000000     
  -5.1967786889796763E-003  0.12647443539225819        0.0000000000000000     
  -5.3236043028812730E-003  0.13383873336539714        0.0000000000000000     
  -9.6187401927341522E-003  0.10526088596674825        0.0000000000000000     
  -9.9144302236145575E-003  0.11221660551498946        0.0000000000000000     
  -1.0194842450280637E-002  0.11930721844298942        0.0000000000000000     
  -1.0459976872732386E-002  0.12653272475074812        0.0000000000000000     
  -1.0709833490969803E-002  0.13389312443826554        0.0000000000000000     
  -1.4520912467998668E-002  0.10536390684496297        0.0000000000000000     
  -1.4958871440714165E-002  0.11231444747006580        0.0000000000000000     
  -1.5374652818866645E-002  0.11939972176891807        0.0000000000000000     
  -1.5768256602456114E-002  0.12661972974151978        0.0000000000000000     
  -1.6139682791482573E-002  0.13397447138787097        0.0000000000000000     
  -1.9474452779987498E-002  0.10550080915746660        0.0000000000000000     
  -2.0052268165934833E-002  0.11244446783619985        0.0000000000000000     
  -2.0601323198655954E-002  0.11952268157190209        0.0000000000000000     
  -2.1121617878150874E-002  0.12673545036457329        0.0000000000000000     
  -2.1613152204419582E-002  0.13408277421421344        0.0000000000000000     
   1.9004772783020717E-005  0.13381129816926576        0.0000000000000000     
   1.6910837277058421E-005  0.14130142969659143        0.0000000000000000     
   1.4768254336651097E-005  0.14890379521267316        0.0000000000000000     
   1.2577023961801969E-005  0.15661839471751102        0.0000000000000000     
   1.0337146152509819E-005  0.16444522821110505        0.0000000000000000     
  -5.3236043028812730E-003  0.13383873336539714        0.0000000000000000     
  -5.4430409331684120E-003  0.14132650497889296        0.0000000000000000     
  -5.5557605784067980E-003  0.14892618969810562        0.0000000000000000     
  -5.6617632385964267E-003  0.15663778752303523        0.0000000000000000     
  -5.7610489137372989E-003  0.16446129845368168        0.0000000000000000     
  -1.0709833490969803E-002  0.13389312443826554        0.0000000000000000     
  -1.0945332736153742E-002  0.14137688248021180        0.0000000000000000     
  -1.1167395039445046E-002  0.14897246385125687        0.0000000000000000     
  -1.1376020400843720E-002  0.15667986855140090        0.0000000000000000     
  -1.1571208820349760E-002  0.16449909658064379        0.0000000000000000     
  -1.6139682791482573E-002  0.13397447138787097        0.0000000000000000     
  -1.6489964571678933E-002  0.14145256220054794        0.0000000000000000     
  -1.6820135128778099E-002  0.14904261767212698        0.0000000000000000     
  -1.7130194462780080E-002  0.15674463780260817        0.0000000000000000     
  -1.7420142573684873E-002  0.16455862259199150        0.0000000000000000     
  -2.1613152204419582E-002  0.13408277421421344        0.0000000000000000     
  -2.2076936439743979E-002  0.14155354413990140        0.0000000000000000     
  -2.2513980846405952E-002  0.14913665116071589        0.0000000000000000     
  -2.2924285424405503E-002  0.15683209527665701        0.0000000000000000     
  -2.3307850173742643E-002  0.16463987648772466        0.0000000000000000     
   1.0337146152509819E-005  0.16444522821110505        0.0000000000000000     
   8.2936217332611577E-006  0.17237199601941117        0.0000000000000000     
   6.6914515285429292E-006  0.18038639846838544        0.0000000000000000     
   5.5306355383552422E-006  0.18848843555802786        0.0000000000000000     
   4.8111737626986388E-006  0.19667810728833837        0.0000000000000000     
  -5.7610489137372989E-003  0.16446129845368168        0.0000000000000000     
  -5.8526231201742850E-003  0.17238492495845154        0.0000000000000000     
  -5.9354913742522535E-003  0.18039686950575126        0.0000000000000000     
  -6.0096536759712046E-003  0.18849713209558094        0.0000000000000000     
  -6.0751100253311364E-003  0.19668571272794047        0.0000000000000000     
  -1.1571208820349760E-002  0.16449909658064379        0.0000000000000000     
  -1.1751431729493785E-002  0.17241853862745518        0.0000000000000000     
  -1.1915160559806411E-002  0.18042658538030462        0.0000000000000000     
  -1.2062395311287636E-002  0.18852323683919203        0.0000000000000000     
  -1.2193135983937460E-002  0.19670849300411752        0.0000000000000000     
  -1.7420142573684873E-002  0.16455862259199150        0.0000000000000000     
  -1.7688132206225234E-002  0.17247283702642213        0.0000000000000000     
  -1.7932316105133919E-002  0.18047554609204539        0.0000000000000000     
  -1.8152694270410941E-002  0.18856674978886118        0.0000000000000000     
  -1.8349266702056277E-002  0.19674644811686956        0.0000000000000000     
  -2.3307850173742643E-002  0.16463987648772466        0.0000000000000000     
  -2.3662724550368639E-002  0.17254782015535239        0.0000000000000000     
  -2.3986958010234795E-002  0.18054375164097358        0.0000000000000000     
  -2.4280550553341104E-002  0.18862767094458832        0.0000000000000000     
  -2.4543502179687579E-002  0.19679957806619655        0.0000000000000000     
   4.8111737626986388E-006  0.19667810728833837        0.0000000000000000     
   4.3311675812639661E-006  0.20493677717103737        0.0000000000000000     
   3.8887183737391440E-006  0.21324580871784518        0.0000000000000000     
   3.4838261401278858E-006  0.22160520192876185        0.0000000000000000     
   3.1164908804279419E-006  0.23001495680378736        0.0000000000000000     
  -6.0751100253311364E-003  0.19668571272794047        0.0000000000000000     
  -6.1326587558702362E-003  0.20494378981144040        0.0000000000000000     
  -6.1830982011266949E-003  0.21325254175469116        0.0000000000000000     
  -6.2264283611005080E-003  0.22161196855769280        0.0000000000000000     
  -6.2626492357916756E-003  0.23002207022044530        0.0000000000000000     
  -1.2193135983937460E-002  0.19670849300411752        0.0000000000000000     
  -1.2308453949714603E-002  0.20496403468682736        0.0000000000000000     
  -1.2409420580577767E-002  0.21327154269906787        0.0000000000000000     
  -1.2496035876526961E-002  0.22163101704083898        0.0000000000000000     
  -1.2568299837562181E-002  0.23004245771214077        0.0000000000000000     
  -1.8349266702056277E-002  0.19674644811686956        0.0000000000000000     
  -1.8523054413951825E-002  0.20499751179719836        0.0000000000000000     
  -1.8675078419979483E-002  0.21330281155097527        0.0000000000000000     
  -1.8805338720139227E-002  0.22166234737820048        0.0000000000000000     
  -1.8913835314431079E-002  0.23007611927887381        0.0000000000000000     
  -2.4543502179687579E-002  0.19679957806619655        0.0000000000000000     
  -2.4776460148581921E-002  0.20504422114255325        0.0000000000000000     
  -2.4980071719331833E-002  0.21334634831041346        0.0000000000000000     
  -2.5154336891937315E-002  0.22170595956977712        0.0000000000000000     
  -2.5299255666398377E-002  0.23012305492064430        0.0000000000000000     
   3.1164908804279419E-006  0.23001495680378736        0.0000000000000000     
   2.8028799466499332E-006  0.23844384034535426        0.0000000000000000     
   2.5591606908027462E-006  0.24686061955589522        0.0000000000000000     
   2.3853331128868144E-006  0.25526529443541024        0.0000000000000000     
   2.2813972129008368E-006  0.26365786498389920        0.0000000000000000     
  -6.2626492357916756E-003  0.23002207022044530        0.0000000000000000     
  -6.2930389624011648E-003  0.23845194118657584        0.0000000000000000     
  -6.3188756781299323E-003  0.24687067589971154        0.0000000000000000     
  -6.3401593829779807E-003  0.25527827435985240        0.0000000000000000     
  -6.3568900769453117E-003  0.26367473656699841        0.0000000000000000     
  -1.2568299837562181E-002  0.23004245771214077        0.0000000000000000     
  -1.2628986408875203E-002  0.23847568735267755        0.0000000000000000     
  -1.2680869535657814E-002  0.24690052860215347        0.0000000000000000     
  -1.2723949217910006E-002  0.25531698146056858        0.0000000000000000     
  -1.2758225455631786E-002  0.26372504592792295        0.0000000000000000     
  -1.8913835314431079E-002  0.23007611927887381        0.0000000000000000     
  -1.9005039459475469E-002  0.23851507884365933        0.0000000000000000     
  -1.9083422411892835E-002  0.24695017766322103        0.0000000000000000     
  -1.9148984171683186E-002  0.25538141573755890        0.0000000000000000     
  -1.9201724738846515E-002  0.26380879306667288        0.0000000000000000     
  -2.5299255666398377E-002  0.23012305492064430        0.0000000000000000     
  -2.5421198114201956E-002  0.23857011565952121        0.0000000000000000     
  -2.5526534306835009E-002  0.24701962308291417        0.0000000000000000     
  -2.5615264244297525E-002  0.25547157719082320        0.0000000000000000     
  -2.5687387926589509E-002  0.26392597798324824        0.0000000000000000     
   2.2813972129008368E-006  0.26365786498389920        0.0000000000000000     
   2.2080793865817978E-006  0.27197815821477889        0.0000000000000000     
   2.1261060296618025E-006  0.28016600114146573        0.0000000000000000     
   2.0354771421427756E-006  0.28822139376395972        0.0000000000000000     
   1.9361927240226298E-006  0.29614433608226098        0.0000000000000000     
  -6.3568900769453117E-003  0.26367473656699841        0.0000000000000000     
  -6.3729851824781119E-003  0.27200016866098392        0.0000000000000000     
  -6.3923621220225713E-003  0.28019467678164328        0.0000000000000000     
  -6.4150208955786898E-003  0.28825826092897650        0.0000000000000000     
  -6.4409615031464675E-003  0.29619092110298351        0.0000000000000000     
  -1.2758225455631786E-002  0.26372504592792295        0.0000000000000000     
  -1.2790934049065271E-002  0.27206576101735186        0.0000000000000000     
  -1.2829310798452584E-002  0.28028016574199061        0.0000000000000000     
  -1.2873355703793729E-002  0.28836826010183919        0.0000000000000000     
  -1.2923068765088702E-002  0.29633004409689756        0.0000000000000000     
  -1.9201724738846515E-002  0.26380879306667288        0.0000000000000000     
  -1.9251638520374890E-002  0.27217493528388270        0.0000000000000000     
  -1.9308719923260380E-002  0.28042246802250770        0.0000000000000000     
  -1.9372968947502976E-002  0.28855139128254786        0.0000000000000000     
  -1.9444385593102683E-002  0.29656170506400326        0.0000000000000000     
  -2.5687387926589509E-002  0.26392597798324824        0.0000000000000000     
  -2.5755098596406983E-002  0.27232769146057634        0.0000000000000000     
  -2.5830589496445958E-002  0.28062158362319445        0.0000000000000000     
  -2.5913860626706430E-002  0.28880765447110252        0.0000000000000000     
  -2.6004911987188413E-002  0.29688590400430059        0.0000000000000000     
  -1.3957313157576694E-002   5.5816758864471787E-002   0.0000000000000000     
  -1.4736858013232447E-002   6.1408853433331571E-002   0.0000000000000000     
  -1.5489901281453999E-002   6.7183926508294328E-002   0.0000000000000000     
  -1.6216442962241357E-002   7.3141978089360044E-002   0.0000000000000000     
  -1.6916483055594515E-002   7.9283008176528724E-002   0.0000000000000000     
  -1.7726040935530474E-002   5.5952879390311280E-002   0.0000000000000000     
  -1.8676614780519421E-002   6.1567209873028252E-002   0.0000000000000000     
  -1.9595611665366497E-002   6.7358873056951762E-002   0.0000000000000000     
  -2.0483031590071695E-002   7.3327868942081847E-002   0.0000000000000000     
  -2.1338874554635026E-002   7.9474197528418458E-002   0.0000000000000000     
  -2.1498443819568669E-002   5.6214264926435303E-002   0.0000000000000000     
  -2.2633653789157486E-002   6.1831571958894598E-002   0.0000000000000000     
  -2.3730790367472266E-002   6.7623975773676195E-002   0.0000000000000000     
  -2.4789853554513006E-002   7.3591476370780090E-002   0.0000000000000000     
  -2.5810843350279708E-002   7.9734073750206316E-002   0.0000000000000000     
  -2.5274521809691270E-002   5.6600915472843842E-002   0.0000000000000000     
  -2.6607975039146629E-002   6.2201939690930581E-002   0.0000000000000000     
  -2.7895437387771303E-002   6.7979234658467558E-002   0.0000000000000000     
  -2.9136908855565281E-002   7.3932800375454785E-002   0.0000000000000000     
  -3.0332389442528567E-002   8.0062636841892257E-002   0.0000000000000000     
  -2.9054274905898285E-002   5.7112831029536924E-002   0.0000000000000000     
  -3.0599578530486862E-002   6.2678313069136238E-002   0.0000000000000000     
  -3.2089552726263612E-002   6.8424649711325891E-002   0.0000000000000000     
  -3.3524197493228519E-002   7.4351840956105919E-002   0.0000000000000000     
  -3.4903512831381600E-002   8.0459886803476294E-002   0.0000000000000000     
  -1.6916483055594515E-002   7.9283008176528724E-002   0.0000000000000000     
  -1.7591448138096120E-002   8.5596010243002466E-002   0.0000000000000000     
  -1.8242764786328823E-002   9.2069977761983349E-002   0.0000000000000000     
  -1.8870433000292612E-002   9.8704910733471388E-002   0.0000000000000000     
  -1.9474452779987498E-002  0.10550080915746660        0.0000000000000000     
  -2.1338874554635026E-002   7.9474197528418458E-002   0.0000000000000000     
  -2.2165813997303687E-002   8.5788284020080027E-002   0.0000000000000000     
  -2.2966523356324892E-002   9.2260553621184904E-002   0.0000000000000000     
  -2.3741002631698632E-002   9.8891006331733117E-002   0.0000000000000000     
  -2.4489251823424919E-002  0.10567964215172465        0.0000000000000000     
  -2.5810843350279708E-002   7.9734073750206316E-002   0.0000000000000000     
  -2.6797580484299189E-002   8.6042581910959107E-002   0.0000000000000000     
  -2.7753885686098264E-002   9.2507814852042750E-002   0.0000000000000000     
  -2.8679758955676937E-002   9.9129772573457245E-002   0.0000000000000000     
  -2.9575200293035193E-002  0.10590845507520261        0.0000000000000000     
  -3.0332389442528567E-002   8.0062636841892257E-002   0.0000000000000000     
  -3.1486747599082633E-002   8.6358903915639704E-002   0.0000000000000000     
  -3.2604851775648952E-002   9.2811761454556885E-002   0.0000000000000000     
  -3.3686701972227513E-002   9.9421209458643786E-002   0.0000000000000000     
  -3.4732298188818324E-002  0.10618724792790042        0.0000000000000000     
  -3.4903512831381600E-002   8.0459886803476294E-002   0.0000000000000000     
  -3.6233315341654013E-002   8.6737250034121818E-002   0.0000000000000000     
  -3.7519421624976929E-002   9.3172393428727310E-002   0.0000000000000000     
  -3.8761831681350369E-002   9.9765316987292740E-002   0.0000000000000000     
  -3.9960545510774305E-002  0.10651602070981814        0.0000000000000000     
  -1.9474452779987498E-002  0.10550080915746660        0.0000000000000000     
  -2.0052268165934833E-002  0.11244446783619985        0.0000000000000000     
  -2.0601323198655954E-002  0.11952268157190209        0.0000000000000000     
  -2.1121617878150874E-002  0.12673545036457329        0.0000000000000000     
  -2.1613152204419582E-002  0.13408277421421344        0.0000000000000000     
  -2.4489251823424919E-002  0.10567964215172465        0.0000000000000000     
  -2.5206798032338926E-002  0.11261454008284824        0.0000000000000000     
  -2.5889168359275839E-002  0.11968377912679255        0.0000000000000000     
  -2.6536362804235658E-002  0.12688735928355763        0.0000000000000000     
  -2.7148381367218380E-002  0.13422528055314348        0.0000000000000000     
  -2.9575200293035193E-002  0.10590845507520261        0.0000000000000000     
  -3.0434638672988821E-002  0.11283253767946749        0.0000000000000000     
  -3.1252503070353585E-002  0.11989069570844060        0.0000000000000000     
  -3.2028793485129485E-002  0.12708292916212197        0.0000000000000000     
  -3.2763509917316531E-002  0.13440923804051155        0.0000000000000000     
  -3.4732298188818324E-002  0.10618724792790042        0.0000000000000000     
  -3.5735790087884516E-002  0.11309846062605763        0.0000000000000000     
  -3.6691327331889186E-002  0.12014343131684622        0.0000000000000000     
  -3.7598909920832355E-002  0.12732216000026628        0.0000000000000000     
  -3.8458537854714023E-002  0.13463464667631772        0.0000000000000000     
  -3.9960545510774305E-002  0.10651602070981814        0.0000000000000000     
  -4.1110252277025985E-002  0.11341230892261862        0.0000000000000000     
  -4.2205641143882644E-002  0.12044198595200944        0.0000000000000000     
  -4.3246712111344260E-002  0.12760505179799053        0.0000000000000000     
  -4.4233465179410854E-002  0.13490150646056193        0.0000000000000000     
  -2.1613152204419582E-002  0.13408277421421344        0.0000000000000000     
  -2.2076936439743979E-002  0.14155354413990140        0.0000000000000000     
  -2.2513980846405952E-002  0.14913665116071589        0.0000000000000000     
  -2.2924285424405503E-002  0.15683209527665701        0.0000000000000000     
  -2.3307850173742643E-002  0.16463987648772466        0.0000000000000000     
  -2.7148381367218380E-002  0.13422528055314348        0.0000000000000000     
  -2.7726204063911169E-002  0.14168669857860225        0.0000000000000000     
  -2.8270810910001182E-002  0.14926076900298618        0.0000000000000000     
  -2.8782201905488410E-002  0.15694749182629525        0.0000000000000000     
  -2.9260377050372863E-002  0.16474686704852945        0.0000000000000000     
  -3.2763509917316531E-002  0.13440923804051155        0.0000000000000000     
  -3.3457723167742794E-002  0.14185889579698061        0.0000000000000000     
  -3.4112504037236341E-002  0.14942117588490031        0.0000000000000000     
  -3.4727852525797201E-002  0.15709607830427075        0.0000000000000000     
  -3.5303768633425353E-002  0.16488360305509181        0.0000000000000000     
  -3.8458537854714023E-002  0.13463464667631772        0.0000000000000000     
  -3.9271493751238833E-002  0.14207013579503647        0.0000000000000000     
  -4.0039060228111462E-002  0.14961787180645836        0.0000000000000000     
  -4.0761237285331868E-002  0.15727785471058350        0.0000000000000000     
  -4.1438024922900094E-002  0.16505008450741185        0.0000000000000000     
  -4.4233465179410854E-002  0.13490150646056193        0.0000000000000000     
  -4.5167515814399303E-002  0.14232041857276978        0.0000000000000000     
  -4.6050479482626500E-002  0.14985085676766033        0.0000000000000000     
  -4.6882356184092443E-002  0.15749282104523357        0.0000000000000000     
  -4.7663145918797112E-002  0.16524631140548951        0.0000000000000000     
  -2.3307850173742643E-002  0.16463987648772466        0.0000000000000000     
  -2.3662724550368639E-002  0.17254782015535239        0.0000000000000000     
  -2.3986958010234795E-002  0.18054375164097358        0.0000000000000000     
  -2.4280550553341104E-002  0.18862767094458832        0.0000000000000000     
  -2.4543502179687579E-002  0.19679957806619655        0.0000000000000000     
  -2.9260377050372863E-002  0.16474686704852945        0.0000000000000000     
  -2.9703365648745570E-002  0.17264628912350899        0.0000000000000000     
  -3.0109197004697559E-002  0.18063315250505410        0.0000000000000000     
  -3.0477871118228833E-002  0.18870745719316473        0.0000000000000000     
  -3.0809387989339396E-002  0.19686920318784090        0.0000000000000000     
  -3.5303768633425353E-002  0.16488360305509181        0.0000000000000000     
  -3.5838212388177602E-002  0.17277104504015495        0.0000000000000000     
  -3.6329143818110754E-002  0.18074569916225158        0.0000000000000000     
  -3.6776562923224794E-002  0.18880756542138161        0.0000000000000000     
  -3.7180469703519750E-002  0.19695664381754510        0.0000000000000000     
  -4.1438024922900094E-002  0.16505008450741185        0.0000000000000000     
  -4.2067264768664722E-002  0.17292208790529037        0.0000000000000000     
  -4.2646798450474359E-002  0.18088139161256606        0.0000000000000000     
  -4.3176625968328990E-002  0.18892799562923898        0.0000000000000000     
  -4.3656747322228628E-002  0.19706189995530904        0.0000000000000000     
  -4.7663145918797112E-002  0.16524631140548951        0.0000000000000000     
  -4.8390522790206947E-002  0.17309941771891516        0.0000000000000000     
  -4.9062160901788394E-002  0.18104022985599755        0.0000000000000000     
  -4.9678060253541413E-002  0.18906874781673683        0.0000000000000000     
  -5.0238220845466031E-002  0.19718497160113285        0.0000000000000000     
  -2.4543502179687579E-002  0.19679957806619655        0.0000000000000000     
  -2.4776460148581921E-002  0.20504422114255325        0.0000000000000000     
  -2.4980071719331833E-002  0.21334634831041346        0.0000000000000000     
  -2.5154336891937315E-002  0.22170595956977712        0.0000000000000000     
  -2.5299255666398377E-002  0.23012305492064430        0.0000000000000000     
  -3.0809387989339396E-002  0.19686920318784090        0.0000000000000000     
  -3.1103804708200535E-002  0.20510526078517760        0.0000000000000000     
  -3.1361178364983547E-002  0.21340250028126975        0.0000000000000000     
  -3.1581508959688420E-002  0.22176092167611727        0.0000000000000000     
  -3.1764796492315166E-002  0.23018052496972030        0.0000000000000000     
  -3.7180469703519750E-002  0.19695664381754510        0.0000000000000000     
  -3.7540221647403345E-002  0.20518172878735680        0.0000000000000000     
  -3.7855176243283342E-002  0.21347161476743140        0.0000000000000000     
  -3.8125333491159742E-002  0.22182630175776913        0.0000000000000000     
  -3.8350693391032531E-002  0.23024578975836976        0.0000000000000000     
  -4.3656747322228628E-002  0.19706189995530904        0.0000000000000000     
  -4.4085710966190343E-002  0.20527362514909078        0.0000000000000000     
  -4.4462065354231230E-002  0.21355369176889866        0.0000000000000000     
  -4.4785810486351274E-002  0.22190209981473263        0.0000000000000000     
  -4.5056946362550490E-002  0.23031884928659266        0.0000000000000000     
  -5.0238220845466031E-002  0.19718497160113285        0.0000000000000000     
  -5.0740272664561534E-002  0.20538094987037969        0.0000000000000000     
  -5.1181845697827202E-002  0.21364873128567133        0.0000000000000000     
  -5.1562939945263030E-002  0.22198831584700773        0.0000000000000000     
  -5.1883555406869022E-002  0.23039970355438902        0.0000000000000000     
  -2.5299255666398377E-002  0.23012305492064430        0.0000000000000000     
  -2.5421198114201956E-002  0.23857011565952121        0.0000000000000000     
  -2.5526534306835009E-002  0.24701962308291417        0.0000000000000000     
  -2.5615264244297525E-002  0.25547157719082320        0.0000000000000000     
  -2.5687387926589509E-002  0.26392597798324824        0.0000000000000000     
  -3.1764796492315166E-002  0.23018052496972030        0.0000000000000000     
  -3.1919013831413538E-002  0.23863628015751215        0.0000000000000000     
  -3.2052133845533314E-002  0.24710315723492618        0.0000000000000000     
  -3.2164156534674485E-002  0.25558115620196248        0.0000000000000000     
  -3.2255081898837051E-002  0.26407027705862096        0.0000000000000000     
  -3.8350693391032531E-002  0.23024578975836976        0.0000000000000000     
  -3.8540038069469089E-002  0.23870905469488093        0.0000000000000000     
  -3.8702149653036755E-002  0.24719507249295022        0.0000000000000000     
  -3.8837028141735529E-002  0.25570384315257760        0.0000000000000000     
  -3.8944673535565411E-002  0.26423536667376307        0.0000000000000000     
  -4.5056946362550490E-002  0.23031884928659266        0.0000000000000000     
  -4.5284270828368584E-002  0.23878843927162766        0.0000000000000000     
  -4.5476581729345315E-002  0.24729536885698622        0.0000000000000000     
  -4.5633879065480644E-002  0.25583963804266857        0.0000000000000000     
  -4.5756162836774611E-002  0.26442124682867452        0.0000000000000000     
  -5.1883555406869022E-002  0.23039970355438902        0.0000000000000000     
  -5.2151712108112064E-002  0.23887443388775215        0.0000000000000000     
  -5.2375430074459009E-002  0.24740404632703425        0.0000000000000000     
  -5.2554709305909865E-002  0.25598854087223533        0.0000000000000000     
  -5.2689549802464639E-002  0.26462791752335535        0.0000000000000000     
  -2.5687387926589509E-002  0.26392597798324824        0.0000000000000000     
  -2.5755098596406983E-002  0.27232769146057634        0.0000000000000000     
  -2.5830589496445958E-002  0.28062158362319445        0.0000000000000000     
  -2.5913860626706430E-002  0.28880765447110252        0.0000000000000000     
  -2.6004911987188413E-002  0.29688590400430059        0.0000000000000000     
  -3.2255081898837051E-002  0.26407027705862096        0.0000000000000000     
  -3.2339708085470042E-002  0.27251768361680734        0.0000000000000000     
  -3.2432833242022528E-002  0.28087053968842740        0.0000000000000000     
  -3.2534457368494474E-002  0.28912884527348109        0.0000000000000000     
  -3.2644580464885893E-002  0.29729260037196825        0.0000000000000000     
  -3.8944673535565411E-002  0.26423536667376307        0.0000000000000000     
  -3.9043860795872611E-002  0.27273856582195027        0.0000000000000000     
  -3.9153364884003283E-002  0.28116236336258310        0.0000000000000000     
  -3.9273185799957450E-002  0.28950675929566133        0.0000000000000000     
  -3.9403323543735116E-002  0.29777175362118513        0.0000000000000000     
  -4.5756162836774611E-002  0.26442124682867452        0.0000000000000000     
  -4.5867556727614660E-002  0.27299033807600515        0.0000000000000000     
  -4.5992184422388255E-002  0.28149705464566144        0.0000000000000000     
  -4.6130045921095403E-002  0.28994139653764339        0.0000000000000000     
  -4.6281141223736104E-002  0.29832336375195101        0.0000000000000000     
  -5.2689549802464639E-002  0.26462791752335535        0.0000000000000000     
  -5.2810795880696204E-002  0.27327300037897195        0.0000000000000000     
  -5.2949291857177415E-002  0.28187461353766258        0.0000000000000000     
  -5.3105037731908299E-002  0.29043275699942728        0.0000000000000000     
  -5.3278033504888835E-002  0.29894743076426611        0.0000000000000000     
  -2.9054274905898285E-002   5.7112831029536924E-002   0.0000000000000000     
  -3.0599578530486862E-002   6.2678313069136238E-002   0.0000000000000000     
  -3.2089552726263612E-002   6.8424649711325891E-002   0.0000000000000000     
  -3.3524197493228519E-002   7.4351840956105919E-002   0.0000000000000000     
  -3.4903512831381600E-002   8.0459886803476294E-002   0.0000000000000000     
  -3.2934155102800955E-002   5.7694163162912239E-002   0.0000000000000000     
  -3.4691923105335150E-002   6.3221196178375266E-002   0.0000000000000000     
  -3.6385295197623874E-002   6.8933548400520989E-002   0.0000000000000000     
  -3.8014271379667126E-002   7.4831219829349385E-002   0.0000000000000000     
  -3.9578851651464894E-002   8.0914210464860484E-002   0.0000000000000000     
  -3.7010614395010508E-002   5.8289063439367524E-002   0.0000000000000000     
  -3.8968467605848447E-002   6.3791093103511429E-002   0.0000000000000000     
  -4.0854823616526773E-002   6.9479258194322616E-002   0.0000000000000000     
  -4.2669682427045476E-002   7.5353558711801119E-002   0.0000000000000000     
  -4.4413044037404557E-002   8.1413994655946911E-002   0.0000000000000000     
  -4.1283652782526936E-002   5.8897531858902764E-002   0.0000000000000000     
  -4.3429212032026765E-002   6.4388003844544725E-002   0.0000000000000000     
  -4.5498137982972309E-002   7.0061779092730828E-002   0.0000000000000000     
  -4.7490430635363581E-002   7.5918857603461107E-002   0.0000000000000000     
  -4.9406089989200576E-002   8.1959239376735521E-002   0.0000000000000000     
  -4.5753270265350261E-002   5.9519568421517975E-002   0.0000000000000000     
  -4.8074156383870088E-002   6.5011928401475141E-002   0.0000000000000000     
  -5.0315238296960482E-002   7.0681111095745583E-002   0.0000000000000000     
  -5.2476516004621436E-002   7.6527116504329321E-002   0.0000000000000000     
  -5.4557989506852964E-002   8.2549944627226340E-002   0.0000000000000000     
  -3.4903512831381600E-002   8.0459886803476294E-002   0.0000000000000000     
  -3.6233315341654013E-002   8.6737250034121818E-002   0.0000000000000000     
  -3.7519421624976929E-002   9.3172393428727310E-002   0.0000000000000000     
  -3.8761831681350369E-002   9.9765316987292740E-002   0.0000000000000000     
  -3.9960545510774305E-002  0.10651602070981814        0.0000000000000000     
  -3.9578851651464894E-002   8.0914210464860484E-002   0.0000000000000000     
  -4.1085566759039883E-002   8.7169525111372312E-002   0.0000000000000000     
  -4.2540947448414766E-002   9.3584168573202883E-002   0.0000000000000000     
  -4.3944993719589535E-002  0.10015814085035216        0.0000000000000000     
  -4.5297705572564219E-002  0.10689144194282020        0.0000000000000000     
  -4.4413044037404557E-002   8.1413994655946911E-002   0.0000000000000000     
  -4.6091784898266791E-002   8.7647633992357990E-002   0.0000000000000000     
  -4.7712781460294972E-002   9.4041544686632395E-002   0.0000000000000000     
  -4.9276033723489085E-002  0.10059572673877010        0.0000000000000000     
  -5.0781541687849131E-002  0.10731018014877114        0.0000000000000000     
  -4.9406089989200576E-002   8.1959239376735521E-002   0.0000000000000000     
  -5.1251969759334749E-002   8.8171576677078839E-002   0.0000000000000000     
  -5.3034923660617551E-002   9.4544521769015885E-002   0.0000000000000000     
  -5.4754951693048982E-002  0.10107807465254656        0.0000000000000000     
  -5.6412053856629042E-002  0.10777223532767093        0.0000000000000000     
  -5.4557989506852964E-002   8.2549944627226340E-002   0.0000000000000000     
  -5.6566121342243744E-002   8.8741353165534900E-002   0.0000000000000000     
  -5.8507374049382499E-002   9.5093099820353300E-002   0.0000000000000000     
  -6.0381747628269242E-002  0.10160518459168152        0.0000000000000000     
  -6.2189242078903958E-002  0.10827760747951957        0.0000000000000000     
  -3.9960545510774305E-002  0.10651602070981814        0.0000000000000000     
  -4.1110252277025985E-002  0.11341230892261862        0.0000000000000000     
  -4.2205641143882644E-002  0.12044198595200944        0.0000000000000000     
  -4.3246712111344260E-002  0.12760505179799053        0.0000000000000000     
  -4.4233465179410854E-002  0.13490150646056193        0.0000000000000000     
  -4.5297705572564219E-002  0.10689144194282020        0.0000000000000000     
  -4.6594427334683934E-002  0.11377092425797783        0.0000000000000000     
  -4.7830503333293820E-002  0.12078344020319583        0.0000000000000000     
  -4.9005933568393896E-002  0.12792898977847422        0.0000000000000000     
  -5.0120718039984136E-002  0.13520757298381303        0.0000000000000000     
  -5.0781541687849131E-002  0.10731018014877114        0.0000000000000000     
  -5.2224717355129006E-002  0.11417114832096245        0.0000000000000000     
  -5.3600972727082599E-002  0.12116487465967105        0.0000000000000000     
  -5.4910307803709917E-002  0.12829135916489687        0.0000000000000000     
  -5.6152722585010938E-002  0.13555060183663992        0.0000000000000000     
  -5.6412053856629042E-002  0.10777223532767093        0.0000000000000000     
  -5.8001122338361216E-002  0.11461298111157256        0.0000000000000000     
  -5.9517049325248976E-002  0.12158628932143505        0.0000000000000000     
  -6.0959834817292329E-002  0.12869215995725836        0.0000000000000000     
  -6.2329478814491281E-002  0.13593059301904253        0.0000000000000000     
  -6.2189242078903958E-002  0.10827760747951957        0.0000000000000000     
  -6.3923642284380550E-002  0.11509642262980813        0.0000000000000000     
  -6.5578733127792943E-002  0.12204768418848787        0.0000000000000000     
  -6.7154514609141153E-002  0.12913139215555880        0.0000000000000000     
  -6.8650986728425137E-002  0.13634754653102091        0.0000000000000000     
  -4.4233465179410854E-002  0.13490150646056193        0.0000000000000000     
  -4.5167515814399303E-002  0.14232041857276978        0.0000000000000000     
  -4.6050479482626500E-002  0.14985085676766033        0.0000000000000000     
  -4.6882356184092443E-002  0.15749282104523357        0.0000000000000000     
  -4.7663145918797112E-002  0.16524631140548951        0.0000000000000000     
  -5.0120718039984136E-002  0.13520757298381303        0.0000000000000000     
  -5.1176956557524814E-002  0.14260803508047182        0.0000000000000000     
  -5.2176748930476198E-002  0.15011922132971012        0.0000000000000000     
  -5.3120095158838275E-002  0.15774113173152804        0.0000000000000000     
  -5.4006995242611065E-002  0.16547376628592542        0.0000000000000000     
  -5.6152722585010938E-002  0.13555060183663992        0.0000000000000000     
  -5.7330983180915958E-002  0.14293127626843372        0.0000000000000000     
  -5.8447855701355245E-002  0.15042205605381170        0.0000000000000000     
  -5.9503340146328805E-002  0.15802294119277391        0.0000000000000000     
  -6.0497436515836646E-002  0.16573393168532025        0.0000000000000000     
  -6.2329478814491281E-002  0.13593059301904253        0.0000000000000000     
  -6.3629595684572743E-002  0.14329014213665545        0.0000000000000000     
  -6.4863799795263646E-002  0.15075936093996503        0.0000000000000000     
  -6.6032091146564012E-002  0.15833824942897123        0.0000000000000000     
  -6.7134469738473854E-002  0.16602680760367408        0.0000000000000000     
  -6.8650986728425137E-002  0.13634754653102091        0.0000000000000000     
  -7.0072794068495148E-002  0.14368463268513706        0.0000000000000000     
  -7.1424581212201410E-002  0.15113113598817007        0.0000000000000000     
  -7.2706348159543924E-002  0.15868705644012002        0.0000000000000000     
  -7.3918094910522675E-002  0.16635239404098684        0.0000000000000000     
  -4.7663145918797112E-002  0.16524631140548951        0.0000000000000000     
  -4.8390522790206947E-002  0.17309941771891516        0.0000000000000000     
  -4.9062160901788394E-002  0.18104022985599755        0.0000000000000000     
  -4.9678060253541413E-002  0.18906874781673683        0.0000000000000000     
  -5.0238220845466031E-002  0.19718497160113285        0.0000000000000000     
  -5.4006995242611065E-002  0.16547376628592542        0.0000000000000000     
  -5.4834963224611323E-002  0.17330589297442400        0.0000000000000000     
  -5.5601513147655837E-002  0.18122627977854541        0.0000000000000000     
  -5.6306645011744608E-002  0.18923492669828970        0.0000000000000000     
  -5.6950358816877635E-002  0.19733183373365687        0.0000000000000000     
  -6.0497436515836646E-002  0.16573393168532025        0.0000000000000000     
  -6.1427562843684898E-002  0.17354437216521168        0.0000000000000000     
  -6.2291137163679726E-002  0.18144360726620909        0.0000000000000000     
  -6.3088159475821123E-002  0.18943163698831234        0.0000000000000000     
  -6.3818629780109104E-002  0.19750846133152156        0.0000000000000000     
  -6.7134469738473854E-002  0.16602680760367408        0.0000000000000000     
  -6.8168321647427671E-002  0.17381485529127827        0.0000000000000000     
  -6.9131032949860033E-002  0.18169221231898847        0.0000000000000000     
  -7.0022603645770953E-002  0.18965887868680470        0.0000000000000000     
  -7.0843033735160418E-002  0.19771485439472691        0.0000000000000000     
  -7.3918094910522675E-002  0.16635239404098684        0.0000000000000000     
  -7.5057239635839643E-002  0.17411734235262366        0.0000000000000000     
  -7.6121200506196765E-002  0.18197209493688363        0.0000000000000000     
  -7.7109977521594097E-002  0.18991665179376668        0.0000000000000000     
  -7.8023570682031571E-002  0.19795101292327297        0.0000000000000000     
  -5.0238220845466031E-002  0.19718497160113285        0.0000000000000000     
  -5.0740272664561534E-002  0.20538094987037969        0.0000000000000000     
  -5.1181845697827202E-002  0.21364873128567133        0.0000000000000000     
  -5.1562939945263030E-002  0.22198831584700773        0.0000000000000000     
  -5.1883555406869022E-002  0.23039970355438902        0.0000000000000000     
  -5.6950358816877635E-002  0.19733183373365687        0.0000000000000000     
  -5.7529767527473630E-002  0.20551016163501687        0.0000000000000000     
  -5.8041984107951340E-002  0.21376307115273979        0.0000000000000000     
  -5.8487008558310731E-002  0.22209056228682569        0.0000000000000000     
  -5.8864840878551802E-002  0.23049263503727443        0.0000000000000000     
  -6.3818629780109104E-002  0.19750846133152156        0.0000000000000000     
  -6.4480056339883379E-002  0.20566771912679582        0.0000000000000000     
  -6.5069947418483709E-002  0.21390304920509445        0.0000000000000000     
  -6.5588303015910079E-002  0.22221445156641736        0.0000000000000000     
  -6.6035123132162504E-002  0.23060192621076456        0.0000000000000000     
  -7.0843033735160418E-002  0.19771485439472691        0.0000000000000000     
  -7.1591139101790754E-002  0.20585362234571664        0.0000000000000000     
  -7.2265735629424302E-002  0.21406866544273526        0.0000000000000000     
  -7.2866823318061102E-002  0.22235998368578283        0.0000000000000000     
  -7.3394402167701100E-002  0.23072757707485936        0.0000000000000000     
  -7.8023570682031571E-002  0.19795101292327297        0.0000000000000000     
  -7.8863015813195769E-002  0.20606787129177917        0.0000000000000000     
  -7.9629348740773181E-002  0.21425991986566220        0.0000000000000000     
  -8.0322569464763793E-002  0.22252715864492215        0.0000000000000000     
  -8.0942677985167605E-002  0.23086958762955886        0.0000000000000000     
  -5.1883555406869022E-002  0.23039970355438902        0.0000000000000000     
  -5.2151712108112064E-002  0.23887443388775215        0.0000000000000000     
  -5.2375430074459009E-002  0.24740404632703425        0.0000000000000000     
  -5.2554709305909865E-002  0.25598854087223533        0.0000000000000000     
  -5.2689549802464639E-002  0.26462791752335535        0.0000000000000000     
  -5.8864840878551802E-002  0.23049263503727443        0.0000000000000000     
  -5.9181451977730400E-002  0.23896849993248304        0.0000000000000000     
  -5.9442812764902334E-002  0.24751736750084830        0.0000000000000000     
  -5.9648923240067597E-002  0.25613923774237035        0.0000000000000000     
  -5.9799783403226184E-002  0.26483411065704904        0.0000000000000000     
  -6.6035123132162504E-002  0.23060192621076456        0.0000000000000000     
  -6.6412580506254537E-002  0.23907209879504868        0.0000000000000000     
  -6.6722847877199815E-002  0.24763159497618251        0.0000000000000000     
  -6.6965925244998267E-002  0.25628041475416591        0.0000000000000000     
  -6.7141812609649937E-002  0.26501855812899899        0.0000000000000000     
  -7.3394402167701100E-002  0.23072757707485936        0.0000000000000000     
  -7.3845097693684483E-002  0.23918523047544921        0.0000000000000000     
  -7.4215535411351424E-002  0.24774672875303680        0.0000000000000000     
  -7.4505715320701896E-002  0.25641207190762211        0.0000000000000000     
  -7.4715637421735925E-002  0.26518125993920522        0.0000000000000000     
  -8.0942677985167605E-002  0.23086958762955886        0.0000000000000000     
  -8.1479003540020217E-002  0.23930789497368452        0.0000000000000000     
  -8.1920875367357163E-002  0.24786276883141123        0.0000000000000000     
  -8.2268293467178455E-002  0.25653420920273889        0.0000000000000000     
  -8.2521257839484080E-002  0.26532221608766771        0.0000000000000000     
  -5.2689549802464639E-002  0.26462791752335535        0.0000000000000000     
  -5.2810795880696204E-002  0.27327300037897195        0.0000000000000000     
  -5.2949291857177415E-002  0.28187461353766258        0.0000000000000000     
  -5.3105037731908299E-002  0.29043275699942728        0.0000000000000000     
  -5.3278033504888835E-002  0.29894743076426611        0.0000000000000000     
  -5.9799783403226184E-002  0.26483411065704904        0.0000000000000000     
  -5.9932300962344434E-002  0.27355784264625632        0.0000000000000000     
  -6.0083383625388669E-002  0.28226629011136406        0.0000000000000000     
  -6.0253031392358866E-002  0.29095945305237225        0.0000000000000000     
  -6.0441244263255062E-002  0.29963733146928090        0.0000000000000000     
  -6.7141812609649937E-002  0.26501855812899899        0.0000000000000000     
  -6.7290794679786561E-002  0.27381615479326410        0.0000000000000000     
  -6.7453156164039865E-002  0.28264333443954365        0.0000000000000000     
  -6.7628897062409848E-002  0.29150009706783769        0.0000000000000000     
  -6.7818017374896539E-002  0.30038644267814613        0.0000000000000000     
  -7.4715637421735925E-002  0.26518125993920522        0.0000000000000000     
  -7.4886277033022600E-002  0.27404793681999517        0.0000000000000000     
  -7.5058609473131019E-002  0.28300574652220128        0.0000000000000000     
  -7.5232634742061266E-002  0.29205468904582349        0.0000000000000000     
  -7.5408352839813231E-002  0.30119476439086179        0.0000000000000000     
  -8.2521257839484080E-002  0.26532221608766771        0.0000000000000000     
  -8.2718748022052507E-002  0.27425318872644966        0.0000000000000000     
  -8.2899743552662150E-002  0.28335352635933703        0.0000000000000000     
  -8.3064244431313050E-002  0.29262322898632981        0.0000000000000000     
  -8.3212250658005180E-002  0.30206229660742789        0.0000000000000000     
  -4.5753270265350261E-002   5.9519568421517975E-002   0.0000000000000000     
  -4.8074156383870088E-002   6.5011928401475141E-002   0.0000000000000000     
  -5.0315238296960482E-002   7.0681111095745583E-002   0.0000000000000000     
  -5.2476516004621436E-002   7.6527116504329321E-002   0.0000000000000000     
  -5.4557989506852964E-002   8.2549944627226340E-002   0.0000000000000000     
  -5.0397633297730532E-002   6.0201941991229677E-002   0.0000000000000000     
  -5.2894039172222997E-002   6.5690310066566726E-002   0.0000000000000000     
  -5.5307061568534613E-002   7.1350740098637469E-002   0.0000000000000000     
  -5.7636700486665367E-002   7.7183232087441878E-002   0.0000000000000000     
  -5.9882955926615265E-002   8.3187786032979952E-002   0.0000000000000000     
  -5.5194908333917797E-002   6.0991421432054403E-002   0.0000000000000000     
  -5.7879598907930055E-002   6.6450592132083527E-002   0.0000000000000000     
  -6.0474544807738020E-002   7.2084151996676990E-002   0.0000000000000000     
  -6.2979746033341694E-002   7.7892101025834784E-002   0.0000000000000000     
  -6.5395202584741061E-002   8.3874439219556951E-002   0.0000000000000000     
  -6.0145095373912071E-002   6.1888006743992162E-002   0.0000000000000000     
  -6.3030835590991249E-002   6.7292774598025518E-002   0.0000000000000000     
  -6.5817688014570705E-002   7.2881346789864160E-002   0.0000000000000000     
  -6.8505652644650403E-002   7.8653723319508068E-002   0.0000000000000000     
  -7.1094729481230357E-002   8.4609904186957269E-002   0.0000000000000000     
  -6.5248194417713345E-002   6.2891697927042939E-002   0.0000000000000000     
  -6.8347749221406615E-002   6.8216857464392711E-002   0.0000000000000000     
  -7.1336491189032666E-002   7.3742324478198978E-002   0.0000000000000000     
  -7.4214420320591501E-002   7.9468098968461728E-002   0.0000000000000000     
  -7.6981536616083146E-002   8.5394180935180974E-002   0.0000000000000000     
  -5.4557989506852964E-002   8.2549944627226340E-002   0.0000000000000000     
  -5.6566121342243744E-002   8.8741353165534900E-002   0.0000000000000000     
  -5.8507374049382499E-002   9.5093099820353300E-002   0.0000000000000000     
  -6.0381747628269242E-002  0.10160518459168152        0.0000000000000000     
  -6.2189242078903958E-002  0.10827760747951957        0.0000000000000000     
  -5.9882955926615265E-002   8.3187786032979952E-002   0.0000000000000000     
  -6.2052176283880545E-002   8.9358163014450737E-002   0.0000000000000000     
  -6.4150709953957427E-002   9.5688124111053263E-002   0.0000000000000000     
  -6.6178556936845920E-002  0.10217766932278749        0.0000000000000000     
  -6.8135717232546009E-002  0.10882679864965347        0.0000000000000000     
  -6.5395202584741061E-002   8.3874439219556951E-002   0.0000000000000000     
  -6.7728071221131877E-002   9.0023205780550938E-002   0.0000000000000000     
  -6.9985508701709873E-002   9.6330439911524263E-002   0.0000000000000000     
  -7.2167515026475046E-002  0.10279614161247697        0.0000000000000000     
  -7.4274090195427356E-002  0.10942031088340899        0.0000000000000000     
  -7.1094729481230357E-002   8.4609904186957269E-002   0.0000000000000000     
  -7.3593806153997784E-002   9.0736481463835436E-002   0.0000000000000000     
  -7.6011770292639877E-002   9.7020047221766367E-002   0.0000000000000000     
  -7.8348621897156620E-002  0.10346060146074990        0.0000000000000000     
  -8.0604360967548028E-002  0.11005814418078615        0.0000000000000000     
  -7.6981536616083146E-002   8.5394180935180974E-002   0.0000000000000000     
  -7.9649381082478224E-002   9.1497990064304341E-002   0.0000000000000000     
  -8.2229494726747399E-002   9.7756946041779452E-002   0.0000000000000000     
  -8.4721877548890642E-002  0.10417104886760635        0.0000000000000000     
  -8.7126529548907983E-002  0.11074029854178497        0.0000000000000000     
  -6.2189242078903958E-002  0.10827760747951957        0.0000000000000000     
  -6.3923642284380550E-002  0.11509642262980813        0.0000000000000000     
  -6.5578733127792943E-002  0.12204768418848787        0.0000000000000000     
  -6.7154514609141153E-002  0.12913139215555880        0.0000000000000000     
  -6.8650986728425137E-002  0.13634754653102091        0.0000000000000000     
  -6.8135717232546009E-002  0.10882679864965347        0.0000000000000000     
  -7.0014843952189112E-002  0.11562194482625673        0.0000000000000000     
  -7.1808590206906622E-002  0.12254954058720288        0.0000000000000000     
  -7.3516955996698496E-002  0.12960958593249192        0.0000000000000000     
  -7.5139941321564763E-002  0.13680208086212381        0.0000000000000000     
  -7.4274090195427356E-002  0.10942031088340899        0.0000000000000000     
  -7.6297294100789004E-002  0.11619001965150598        0.0000000000000000     
  -7.8229186634782039E-002  0.12309233984395349        0.0000000000000000     
  -8.0069767797406516E-002  0.13012727146075154        0.0000000000000000     
  -8.1819037588662380E-002  0.13729481450190009        0.0000000000000000     
  -8.0604360967548028E-002  0.11005814418078615        0.0000000000000000     
  -8.2770992730180210E-002  0.11680064710555581        0.0000000000000000     
  -8.4840522411419275E-002  0.12367608195873965        0.0000000000000000     
  -8.6812950011265197E-002  0.13068444874033761        0.0000000000000000     
  -8.8688275529718003E-002  0.13782574745034973        0.0000000000000000     
  -8.7126529548907983E-002  0.11074029854178497        0.0000000000000000     
  -8.9435939840362744E-002  0.11745382718840633        0.0000000000000000     
  -9.1642597536818249E-002  0.12430076693156142        0.0000000000000000     
  -9.3746502638274554E-002  0.13128111777125021        0.0000000000000000     
  -9.5747655144731603E-002  0.13839487970747272        0.0000000000000000     
  -6.8650986728425137E-002  0.13634754653102091        0.0000000000000000     
  -7.0072794068495148E-002  0.14368463268513706        0.0000000000000000     
  -7.1424581212201410E-002  0.15113113598817007        0.0000000000000000     
  -7.2706348159543924E-002  0.15868705644012002        0.0000000000000000     
  -7.3918094910522675E-002  0.16635239404098684        0.0000000000000000     
  -7.5139941321564763E-002  0.13680208086212381        0.0000000000000000     
  -7.6683140915111248E-002  0.14411547896437896        0.0000000000000000     
  -7.8152149510943805E-002  0.15153823382753759        0.0000000000000000     
  -7.9546967109062380E-002  0.15907034545159976        0.0000000000000000     
  -8.0867593709467028E-002  0.16671181383656539        0.0000000000000000     
  -8.1819037588662380E-002  0.13729481450190009        0.0000000000000000     
  -8.3483198806849110E-002  0.14458341202488154        0.0000000000000000     
  -8.5068454250266060E-002  0.15198150708717809        0.0000000000000000     
  -8.6574803918913285E-002  0.15948909968878985        0.0000000000000000     
  -8.8002247812790743E-002  0.16710618982971670        0.0000000000000000     
  -8.8688275529718003E-002  0.13782574745034973        0.0000000000000000     
  -9.0472967743708665E-002  0.14508843186664480        0.0000000000000000     
  -9.2173495430168201E-002  0.15246095576709168        0.0000000000000000     
  -9.3789858589096595E-002  0.15994331915169027        0.0000000000000000     
  -9.5322057220493903E-002  0.16753552202044064        0.0000000000000000     
  -9.5747655144731603E-002  0.13839487970747272        0.0000000000000000     
  -9.7652447725689970E-002  0.14563053848966881        0.0000000000000000     
  -9.9467273050650243E-002  0.15297657986727825        0.0000000000000000     
 -0.10119213111961238       0.16043300384030112        0.0000000000000000     
 -0.10282702193257642       0.16799981040873735        0.0000000000000000     
  -7.3918094910522675E-002  0.16635239404098684        0.0000000000000000     
  -7.5057239635839643E-002  0.17411734235262366        0.0000000000000000     
  -7.6121200506196765E-002  0.18197209493688363        0.0000000000000000     
  -7.7109977521594097E-002  0.18991665179376668        0.0000000000000000     
  -7.8023570682031571E-002  0.19795101292327297        0.0000000000000000     
  -8.0867593709467028E-002  0.16671181383656539        0.0000000000000000     
  -8.2111778910912689E-002  0.17445302398425291        0.0000000000000000     
  -8.3277272312154413E-002  0.18228436089648059        0.0000000000000000     
  -8.4364073913192200E-002  0.19020582457324836        0.0000000000000000     
  -8.5372183714026023E-002  0.19821741501455631        0.0000000000000000     
  -8.8002247812790743E-002  0.16710618982971670        0.0000000000000000     
  -8.9349401574638707E-002  0.17482309082117106        0.0000000000000000     
  -9.0614880847197446E-002  0.18263011597436535        0.0000000000000000     
  -9.1798685630466920E-002  0.19052726528929953        0.0000000000000000     
  -9.2900815924447142E-002  0.19851453876597364        0.0000000000000000     
  -9.5322057220493903E-002  0.16753552202044064        0.0000000000000000     
  -9.6770107627017724E-002  0.17522754286337813        0.0000000000000000     
  -9.8134026111325851E-002  0.18300936017053801        0.0000000000000000     
  -9.9413812673418242E-002  0.19088097394192022        0.0000000000000000     
 -0.10060946731329495       0.19884238417752492        0.0000000000000000     
 -0.10282702193257642       0.16799981040873735        0.0000000000000000     
 -0.10437389706804973       0.17566638011087410        0.0000000000000000     
 -0.10583470810453964       0.18342209348499844        0.0000000000000000     
 -0.10720945504204624       0.19126695053111054        0.0000000000000000     
 -0.10849813788056945       0.19920095124921020        0.0000000000000000     
  -7.8023570682031571E-002  0.19795101292327297        0.0000000000000000     
  -7.8863015813195769E-002  0.20606787129177917        0.0000000000000000     
  -7.9629348740773181E-002  0.21425991986566220        0.0000000000000000     
  -8.0322569464763793E-002  0.22252715864492215        0.0000000000000000     
  -8.0942677985167605E-002  0.23086958762955886        0.0000000000000000     
  -8.5372183714026023E-002  0.19821741501455631        0.0000000000000000     
  -8.6304914272707270E-002  0.20631122389291032        0.0000000000000000     
  -8.7165578147287329E-002  0.21447934288081630        0.0000000000000000     
  -8.7954175337766172E-002  0.22272177197827434        0.0000000000000000     
  -8.8670705844143827E-002  0.23103851118528437        0.0000000000000000     
  -9.2900815924447142E-002  0.19851453876597364        0.0000000000000000     
  -9.3926062278934130E-002  0.20658443807703689        0.0000000000000000     
  -9.4879215243723863E-002  0.21472946489513853        0.0000000000000000     
  -9.5760274818816341E-002  0.22294961922027864        0.0000000000000000     
  -9.6569241004211576E-002  0.23124490105245715        0.0000000000000000     
 -0.10060946731329495       0.19884238417752492        0.0000000000000000     
 -0.10172645983187632       0.20688751384415885        0.0000000000000000     
 -0.10277026003008277       0.21501028590862889        0.0000000000000000     
 -0.10374086790791427       0.22321070037093504        0.0000000000000000     
 -0.10463828346537088       0.23148875723107726        0.0000000000000000     
 -0.10849813788056945       0.19920095124921020        0.0000000000000000     
 -0.10970610693153385       0.20722045119427623        0.0000000000000000     
 -0.11083871250636404       0.21532180592128730        0.0000000000000000     
 -0.11189595460505997       0.22350501543024348        0.0000000000000000     
 -0.11287783322762168       0.23177007972114469        0.0000000000000000     
  -8.0942677985167605E-002  0.23086958762955886        0.0000000000000000     
  -8.1479003540020217E-002  0.23930789497368452        0.0000000000000000     
  -8.1920875367357163E-002  0.24786276883141123        0.0000000000000000     
  -8.2268293467178455E-002  0.25653420920273889        0.0000000000000000     
  -8.2521257839484080E-002  0.26532221608766771        0.0000000000000000     
  -8.8670705844143827E-002  0.23103851118528437        0.0000000000000000     
  -8.9300797716975577E-002  0.23945506785821491        0.0000000000000000     
  -8.9830079006816707E-002  0.24799694935343455        0.0000000000000000     
  -9.0258549713667230E-002  0.25666415567094325        0.0000000000000000     
  -9.0586209837527132E-002  0.26545668681074103        0.0000000000000000     
  -9.6569241004211576E-002  0.23124490105245715        0.0000000000000000     
  -9.7296979896264429E-002  0.23964172469750064        0.0000000000000000     
  -9.7934357591329749E-002  0.24816650446123559        0.0000000000000000     
  -9.8481374089407464E-002  0.25681924034366205        0.0000000000000000     
  -9.8938029390497673E-002  0.26559993234477997        0.0000000000000000     
 -0.10463828346537088       0.23148875723107726        0.0000000000000000     
 -0.10546755007788677       0.23986786549154168        0.0000000000000000     
 -0.10623371112089620       0.24837143415481436        0.0000000000000000     
 -0.10693676659439921       0.25699946322089517        0.0000000000000000     
 -0.10757671649839574       0.26575195268978424        0.0000000000000000     
 -0.11287783322762168       0.23177007972114469        0.0000000000000000     
 -0.11381250826184261       0.24013349024033809        0.0000000000000000     
 -0.11472813959551617       0.24861173843417075        0.0000000000000000     
 -0.11562472722864242       0.25720482430264274        0.0000000000000000     
 -0.11650227116122130       0.26591274784575403        0.0000000000000000     
  -8.2521257839484080E-002  0.26532221608766771        0.0000000000000000     
  -8.2718748022052507E-002  0.27425318872644966        0.0000000000000000     
  -8.2899743552662150E-002  0.28335352635933703        0.0000000000000000     
  -8.3064244431313050E-002  0.29262322898632981        0.0000000000000000     
  -8.3212250658005180E-002  0.30206229660742789        0.0000000000000000     
  -9.0586209837527132E-002  0.26545668681074103        0.0000000000000000     
  -9.0843372395885219E-002  0.27443761213836337        0.0000000000000000     
  -9.1060350406230367E-002  0.28367000101934564        0.0000000000000000     
  -9.1237143868562534E-002  0.29315385345368772        0.0000000000000000     
  -9.1373752782881734E-002  0.30288916944138988        0.0000000000000000     
  -9.8938029390497673E-002  0.26559993234477997        0.0000000000000000     
  -9.9315314903529642E-002  0.27460690868147225        0.0000000000000000     
  -9.9624222037432736E-002  0.28393849757062195        0.0000000000000000     
  -9.9864750792206927E-002  0.29359469901222884        0.0000000000000000     
 -0.10003690116785226       0.30357551300629321        0.0000000000000000     
 -0.10757671649839574       0.26575195268978424        0.0000000000000000     
 -0.10813457554498576       0.27476107835577618        0.0000000000000000     
 -0.10859135844626928       0.28415901601316584        0.0000000000000000     
 -0.10894706520224628       0.29394576566195302        0.0000000000000000     
 -0.10920169581291674       0.30412132730213787        0.0000000000000000     
 -0.11650227116122130       0.26591274784575403        0.0000000000000000     
 -0.11730115432025361       0.27490012116127532        0.0000000000000000     
 -0.11796175963274001       0.28433155634697743        0.0000000000000000     
 -0.11848408709868054       0.29420705340286019        0.0000000000000000     
 -0.11886813671807521       0.30452661232892381        0.0000000000000000     
 </DataArray>
 <DataArray  type="Float64" Name="stress" NumberOfComponents="3" format="ascii">
   6057495015.8804207        159455908.18485332        74251352.487549797     
   5829702618.3562698        62860706.483032227        49481422.238298111     
   5611526502.6355085       -1680222.5408413410        30315946.118769217     
   5402966668.7181273       -34166878.886785030        16754924.128952870     
   5204023116.6041164       -34599262.554805517        8798356.2688593175     
   5654260503.6017990        95413319.527245045        197621791.15056211     
   5450854700.0836439        34666473.219902992        185590390.36764547     
   5253481606.4666033       -5971340.0836825371        178440756.52242741     
   5062141222.7506981       -26500120.383512020        176172889.61490661     
   4876833548.9359226       -26919867.679567337        178786789.64508823     
   5262372547.2319002        34774697.642260313        334056637.98450637     
   5081288517.1710863        9256760.5647878647        330582932.78196514     
   4902653625.1091557       -8097383.1830844879        331268307.32510525     
   4726467871.0461016       -17287733.601372242        336112761.61391687     
   4552731254.9819212       -18314290.690071821        345116295.64841110     
   4881831146.7706966       -22459957.470123053        483555892.98938346     
   4721004069.6186142       -13368431.482294559        484459049.48125190     
   4559042558.5631571       -8058351.8390564919        488798598.52678502     
   4395946613.6043272       -6529718.5403878689        496574540.12597603     
   4231716234.7421179       -8782531.5863165855        507786874.27882302     
   4512636302.2182064       -76290645.809888363        646119556.16518545     
   4370001357.4262228       -33209102.921360970        647218740.46551859     
   4222648406.8286138       -5854246.0515844822        651031630.12747777     
   4070577450.4253778        5773924.7994310856        657558225.15108383     
   3913788488.2165189        1675409.6316995621        666798525.53633118     
   5204023116.6041164       -34599262.554805517        8798356.2688593175     
   5038041368.9442120       -13519875.369981766        3972599.4379748483     
   4870107007.2940989        1050798.5141131878        4612148.9289307185     
   4700220031.6537552        9112759.0974564552        10717004.741721803     
   4528380442.0231781        10666006.380019665        22287166.876355790     
   4876833548.9359226       -26919867.679567337        178786789.64508823     
   4722867650.5518131       -10742111.876575232        172872516.36604905     
   4567612978.8401070        1139732.8344230652        171867043.45004326     
   4411069533.8008051        8725666.4534306526        175770370.89707723     
   4253237315.4338989        12015688.980440140        184582498.70715359     
   4552731254.9819212       -18314290.690071821        345116295.64841110     
   4409191188.8484659       -7515171.3764643669        338887986.69427317     
   4265026190.0500417        1200839.0539164543        337011972.14437515     
   4120236258.5866432        7833740.6010477543        339488251.99872416     
   3974821394.4582787        12383533.264964581        346316826.25731397     
   4231716234.7421179       -8782531.5863165855        507786874.27882302     
   4097011983.8341789       -3839053.8696298599        502019010.42265493     
   3962346640.9238939        1234117.1725759506        500046935.01193237     
   3827720206.0112653        6436981.5403101444        501870648.04665565     
   3693132679.0963016        11769539.233578444        507490149.52682084     
   3913788488.2165189        1675409.6316995621        666798525.53633118     
   3786330035.5089531        286240.64391660690        662265587.55120134     
   3659574331.4616737        1239567.1904237270        660971932.05271101     
   3533521376.0746822        4535389.2712121010        662917559.04088116     
   3408171169.3479738        10173706.886287451        668102468.51568556     
   4528380442.0231781        10666006.380019665        22287166.876355790     
   4331259325.6339550        2518919.2017292976        15675389.815472674     
   4134695739.8723512       -3769732.5511529446        12607979.648439242     
   3938689684.7383709       -8199948.8786175251        13084936.375246530     
   3743241160.2320209       -10771729.780669928        17106259.995895818     
   4253237315.4338989        12015688.980440140        184582498.70715359     
   4066065864.1502352        5129862.7192537785        177510659.63362929     
   3879277200.0975680       -480006.10528731346        174256981.99736056     
   3692871323.2759032       -4813917.4931533337        174821465.79835278     
   3506848233.6852417       -7871871.4443314075        179204111.03660247     
   3974821394.4582787        12383533.264964581        346316826.25731397     
   3798381878.4042249        6993648.9580926895        338581057.87507051     
   3622150406.1845541        2297244.0991432667        334937245.47351152     
   3446126977.7992539       -1705681.3118901253        335385389.05262583     
   3270311593.2483211       -5015127.2750387192        339925488.61242115     
   3693132679.0963016        11769539.233578444        507490149.52682084     
   3528207368.3959217        8110277.9182496071        498886584.53980583     
   3363315358.1332884        4562018.0620813370        494648770.07688606     
   3198456648.3084030        1124759.6650727987        494776706.13806164     
   3033631238.9212637       -2201497.2727851868        499270392.72333664     
   3408171169.3479738        10173706.886287451        668102468.51568556     
   3255542334.1253123        8479749.5997079611        658427239.62782860     
   3102772055.9437771        6314315.7835487127        653391555.80749083     
   2949860334.8033595        3677405.4377833605        652995417.05466545     
   2796807170.7040672        569018.56243300438        657238823.36935234     
   3743241160.2320209       -10771729.780669928        17106259.995895818     
   3570808408.8170843       -6659033.6836545467        10036299.383969344     
   3397672903.7448673       -4888849.7775840759        7711062.0569027681     
   3223834645.0153384       -5461178.0625543594        10130548.014718508     
   3049293632.6285205       -8376018.5384763479        17294757.257395428     
   3506848233.6852417       -7871871.4443314075        179204111.03660247     
   3346234817.1453538       -3384526.8445923328        171178717.00108460     
   3185187446.3210921       -343696.52611267567        167413938.39164689     
   3023706121.2124619        1250619.5111469030        167909775.20829889     
   2861790841.8194447        1398421.2671148777        172666227.45101693     
   3270311593.2483211       -5015127.2750387192        339925488.61242115     
   3120134346.2726460       -568083.76584005356        331258260.42173254     
   2969791944.3855281        3328443.3718613386        326367539.79832220     
   2819284387.5869460        6674454.1380292177        325253326.74220860     
   2668611675.8769183        9469948.5326973200        327915621.25337863     
   3033631238.9212637       -2201497.2727851868        499270392.72333664     
   2892506996.1989756        1790295.5526317358        490274929.64588082     
   2751486397.9381604        6127569.9162744284        484571866.27690840     
   2610569444.1388125        10810325.818146586        482161202.61644375     
   2469756134.8009291        15838563.258241057        483042938.66447282     
   2796807170.7040672        569018.56243300438        657238823.36935234     
   2663352766.9243360        3690611.1108093262        648228724.67353296     
   2530270806.9789906        8053683.1071505547        642026917.82741988     
   2397561290.8680434        13658234.551477313        638633402.83101487     
   2265224218.5914736        20504265.443731546        638048179.68430459     
   3049293632.6285205       -8376018.5384763479        17294757.257395428     
   2884275736.5044632       -8741505.7728182077        11553064.052284034     
   2719757792.9582195       -7440484.4144266844        6825968.8900050251     
   2555739801.9897909       -4472954.4633182287        3113471.7705699326     
   2392221763.5991831        161084.08050584793        415572.69395954022     
   2861790841.8194447        1398421.2671148777        172666227.45101693     
   2700151996.5306497        1362039.6800041199        165626909.12726912     
   2538770986.6859818        2185109.5733137131        160096315.17690611     
   2377647812.2854390        3867630.9470535517        156074445.59994334     
   2216782473.3290157        6409603.8011697531        153561300.39637309     
   2668611675.8769183        9469948.5326973200        327915621.25337863     
   2511763670.9392505        10186209.447544098        319296207.82169735     
   2354931384.3120131        10954864.730508089        312679645.09395272     
   2198114815.9952164        11775914.381597519        308065933.07016206     
   2041313965.9888592        12649358.400823474        305455071.75031954     
   2469756134.8009291        15838563.258241057        483042938.66447282     
   2319110759.7302508        17731003.529793859        472560960.13554764     
   2168238985.8363209        18868781.057172179        464575958.64112085     
   2017140813.1191530        19251895.840409040        459087934.18120462     
   1865816241.5787373        18880347.879507661        456096886.75578105     
   2265224218.5914736        20504265.443731546        638048179.68430459     
   2122193262.9036665        23996421.926774979        625421166.06884110     
   1978693791.2589264        25926858.553363800        615785255.81842875     
   1834725803.6572433        26295575.323489785        609140448.93307459     
   1690289300.0986292        25102572.237162709        605486745.41278064     
   2392221763.5991831        161084.08050584793        415572.69395954022     
   2249453461.1033278        6989942.1080013514       -6383713.4763860675     
   2103527996.3913326        3294926.0816637278       -11068555.912595846     
   1954445369.4632056       -10923963.998419762       -13638954.614673639     
   1802205580.3189449       -35666728.132304430       -14094909.582597667     
   2216782473.3290157        6409603.8011697531        153561300.39637309     
   2078305433.5876157        12899593.273796201        143270051.07770920     
   1937745191.4926367        12445574.901134849        134243529.81022060     
   1795101747.0440536        5047548.6831454039        126481736.59391308     
   1650375100.2418971       -9294485.3800899982        119984671.42877957     
   2041313965.9888592        12649358.400823474        305455071.75031954     
   1904700429.9077454        18072151.590380073        292924812.45631200     
   1767077651.3355820        20130803.143101931        280809565.53050256     
   1628445630.2723670        18825313.058990955        269109330.97291845     
   1488804366.7181144        14155681.338077247        257824108.78353313     
   1865816241.5787373        18880347.879507661        456096886.75578105     
   1728638450.0637031        22507617.057687402        442580570.65939230     
   1591525375.9201701        26350610.807546794        428629551.24824780     
   1454477019.1481357        30409329.129052818        414243828.52234894     
   1317493379.7475922        34683772.022216082        399423402.48169118     
   1690289300.0986292        25102572.237162709        605486745.41278064     
   1550119494.0554979        26205989.675759375        592237325.68697631     
   1411088365.2464113        31104997.894499242        577703486.96345150     
   1273195913.6713581        39799596.893353581        561885229.24221277     
   1136442139.3303506        52289786.672358990        544782552.52324092     
   1802205580.3189449       -35666728.132304430       -14094909.582597667     
   1771383846.7581627       -16607167.003381014       -8404590.1959112640     
   1748583171.1856449        29189254.086445212       -41517800.435418263     
   1733803553.6013970        101722535.13715935       -113434540.30114301     
   1727044994.0054049        200992676.14872724       -224154809.79306370     
   1650375100.2418971       -9294485.3800899982        119984671.42877957     
   1527735216.6961691       -13890430.025807917        135578415.21217605     
   1409235718.2121205       -4685091.1326001883        124805305.35058120     
   1294876604.7897651        18321531.299597979        87665341.844002694     
   1184657876.4290843        55129437.270712078        24158524.692417484     
   1488804366.7181144        14155681.338077247        257824108.78353313     
   1309879693.1337485       -3435761.0983895063        278793825.21597487     
   1131214731.6844785       -20161496.417854249        285833363.98462796     
   952809482.37030959       -36021524.620323718        278942725.08949506     
   774663945.19124722       -51015845.705771267        258121908.53058243     
   1317493379.7475922        34683772.022216082        399423402.48169118     
   1117817276.0708892        14756839.778897285        421241639.81549156     
   914520211.60271597       -17239961.769344449        441566375.46670830     
   707602186.34304738       -61306632.622554183        460397609.43535036     
   497063200.29190111       -117443172.78070065        477735341.72140360     
   1136442139.3303506        52289786.672358990        544782552.52324092     
   951547965.50761628        40687372.606069982        562921859.01072240     
   759152157.96681285        4079512.8128831983        592004339.79682124     
   559254716.70795536       -57533792.707150191        632029994.88155675     
   351855641.73102856       -144152543.95408136        682998824.26492000     
   1727044994.0054049        200992676.14872724       -224154809.79306370     
   1456544755.6527793        184552859.32754523       -96616096.560300574     
   1153899863.1322620        60964195.280079126        60096813.387428433     
   819110316.44385779       -169773315.99368793        245983920.05012330     
   452176115.58755910       -507659674.49376976        461045223.42778921     
   1184657876.4290843        55129437.270712078        24158524.692417484     
   977605391.43865836        11826714.136175871        155558277.05995113     
   732746256.25464761       -157498176.31030959        312788929.06344640     
   450080470.87705243       -452845234.06873238        495850480.70289314     
   129608035.30587929       -874214459.13912559        704742931.97833729     
   774663945.19124722       -51015845.705771267        258121908.53058243     
   621506936.19444597       -124047158.36420763        386777038.00290817     
   424881280.97835147       -341973958.42026615        537919770.03218496     
   184786979.54297614       -704796245.87395239        711550104.61843133     
  -98775968.111697793       -1212514020.7252507        907668041.76160944     
   497063200.29190111       -117443172.78070065        477735341.72140360     
   388249389.92011422       -223068758.17366019        597040186.26854432     
   230304937.30335265       -492463151.04987848        735489336.29363513     
   23229842.441606700       -925626351.40938973        893082791.79667532     
  -232975894.66512623       -1522558359.2521577        1069820552.7776569     
   351855641.73102856       -144152543.95408136        682998824.26492000     
   277832752.61568391       -285238085.29212904        786347721.85688710     
   149017225.22966880       -608965754.19907808        905497627.84779429     
  -34590940.427032232       -1115335550.6749802        1040448542.2376676     
  -272991744.35440660       -1804347474.7197938        1191200465.0264695     
   4512636302.2182064       -76290645.809888363        646119556.16518545     
   4370001357.4262228       -33209102.921360970        647218740.46551859     
   4222648406.8286138       -5854246.0515844822        651031630.12747777     
   4070577450.4253778        5773924.7994310856        657558225.15108383     
   3913788488.2165189        1675409.6316995621        666798525.53633118     
   4173105128.6921058       -24595624.492999792        795492763.08809078     
   4031484898.4996066       -6456635.9833443165        787471867.79282701     
   3887435022.9237676        3583534.5818409920        783273790.91527379     
   3740955501.9645877        5524887.2025573254        782898532.45542169     
   3592046335.6220684       -632578.12119436264        786346092.41327763     
   3817844889.6515441        22380677.169554234        933820720.49848843     
   3680408268.5044432        16527779.634108305        919349499.43363976     
   3542830362.3962774        10203932.228473186        909810209.84256077     
   3405111171.3270602        3409134.9526574612        905202851.72525334     
   3267250695.2967896       -3856612.1933403015        905527425.08172131     
   3446855585.0965457        64638259.177775621        1061103428.3963782     
   3316771467.4407315        35744143.930992723        1042851635.3879409     
   3188834425.2461486        14006946.888317227        1030640886.9093387     
   3063044458.5127969       -573331.95025575161        1024471182.9605747     
   2939401567.2406731       -7996692.5847343206        1024342523.5416497     
   3060137215.0270920        102177121.53166008        1177340886.7817614     
   2940574495.3084731        51192456.907318473        1157978275.6557291     
   2825447211.4733734        14992578.561361551        1145765822.1156073     
   2714755363.5217900       -6422513.5062034130        1140703526.1613939     
   2608498951.4537234       -13052819.295381427        1142791387.7930748     
   3913788488.2165189        1675409.6316995621        666798525.53633118     
   3786330035.5089531        286240.64391660690        662265587.55120134     
   3659574331.4616737        1239567.1904237270        660971932.05271101     
   3533521376.0746822        4535389.2712121010        662917559.04088116     
   3408171169.3479738        10173706.886287451        668102468.51568556     
   3592046335.6220684       -632578.12119436264        786346092.41327763     
   3473918317.0492249       -476098.62474799156        781619434.97093487     
   3356294405.7208071        1360738.3531119823        780474063.95690954     
   3239174601.6368027        4877932.8123492002        782909979.37120235     
   3122558904.7972174        10075484.752991915        788927181.21381319     
   3267250695.2967896       -3856612.1933403015        905527425.08172131     
   3159430264.9777293       -1861337.9769382477        900375299.86365569     
   3051915300.4872231        1152155.6679749489        899146465.01557863     
   2944705801.8252678        5183868.7413864136        901840920.53749025     
   2837801768.9918647        10233801.243317604        908458666.42939031     
   2939401567.2406731       -7996692.5847343206        1024342523.5416497     
   2842865879.2944570       -3869477.4126670361        1018533182.2293532     
   2746437015.7609262        613819.13502240181        1016989135.2287149     
   2650114976.6400847        5453197.0583353043        1019710382.5397338     
   2553899761.9319315        10648656.357275844        1026696924.1624193     
   2608498951.4537234       -13052819.295381427        1142791387.7930748     
   2524225159.9994125       -6500516.9319208860        1136093082.0680342     
   2439859551.5419216       -254271.24573409557        1134002074.5963221     
   2355402126.0812459        5685917.7631760836        1136518365.3779445     
   2270852883.6173992        11320050.094841003        1143641954.4128923     
   3408171169.3479738        10173706.886287451        668102468.51568556     
   3255542334.1253123        8479749.5997079611        658427239.62782860     
   3102772055.9437771        6314315.7835487127        653391555.80749083     
   2949860334.8033595        3677405.4377833605        652995417.05466545     
   2796807170.7040672        569018.56243300438        657238823.36935234     
   3122558904.7972174        10075484.752991915        788927181.21381319     
   2982035170.5134430        8812093.2645695210        779414900.21496570     
   2841476428.6363659        7432009.7984703779        774475328.91740501     
   2700882679.1659875        5935234.3546998501        774108467.32112551     
   2560253922.1023059        4321766.9332472086        778314315.42613220     
   2837801768.9918647        10233801.243317604        908458666.42939031     
   2709192177.4577546        9343688.0962852240        899233507.91271961     
   2580654013.6959114        8691667.5234886408        894514223.73109996     
   2452187277.7063370        8277739.5249294043        894300813.88454235     
   2323791969.4890394        8101904.1006129980        898593278.37303710     
   2553899761.9319315        10648656.357275844        1026696924.1624193     
   2437013354.9582467        10074534.094853640        1017883062.7210916     
   2320304811.1224113        10093288.958595157        1013508240.2485939     
   2203774130.4244199        10704920.948485851        1013572456.7449204     
   2087421312.8642769        11909430.064524889        1018075712.2100768     
   2270852883.6173992        11320050.094841003        1143641954.4128923     
   2165498703.0149202        11004631.260279894        1135363564.6400864     
   2060428820.9158595        11636874.103771091        1131457378.4698775     
   1955643237.3202207        13216778.625343680        1131923395.9022586     
   1851141952.2280064        15744344.824991107        1136761616.9372396     
   2796807170.7040672        569018.56243300438        657238823.36935234     
   2663352766.9243360        3690611.1108093262        648228724.67353296     
   2530270806.9789906        8053683.1071505547        642026917.82741988     
   2397561290.8680434        13658234.551477313        638633402.83101487     
   2265224218.5914736        20504265.443731546        638048179.68430459     
   2560253922.1023059        4321766.9332472086        778314315.42613220     
   2434588491.6925459        7598054.9291269779        769897605.45948339     
   2309222304.5383887        11871820.443670511        764628422.67060375     
   2184155360.6398406        17143063.476913333        762506767.05949759     
   2059387659.9968867        23411784.028811336        763532638.62617552     
   2323791969.4890394        8101904.1006129980        898593278.37303710     
   2206884756.2437372        11823660.682337403        890684556.46030498     
   2090203585.6752486        16298892.853442311        886262597.05341291     
   1973748457.7835782        21527600.613938451        885327400.15236354     
   1857519372.5687201        27509783.963810563        887878965.75716317     
   2087421312.8642769        11909430.064524889        1018075712.2100768     
   1980241560.5779097        16367428.370442867        1010589577.6760033     
   1873214650.3895681        21334900.336445570        1006929440.9758502     
   1766340582.2992618        26811845.962553740        1007095302.1096019     
   1659619356.3069704        32798265.248734653        1011087161.0772640     
   1851141952.2280064        15744344.824991107        1136761616.9372396     
   1754658904.6950562        21229357.993437171        1129612669.1065872     
   1658255498.6813445        26979842.892684042        1126628954.4379098     
   1561931734.1868758        32995799.522741079        1127810472.9312124     
   1465687611.2116477        39277227.883593798        1133157224.5864940     
   2265224218.5914736        20504265.443731546        638048179.68430459     
   2122193262.9036665        23996421.926774979        625421166.06884110     
   1978693791.2589264        25926858.553363800        615785255.81842875     
   1834725803.6572433        26295575.323489785        609140448.93307459     
   1690289300.0986292        25102572.237162709        605486745.41278064     
   2059387659.9968867        23411784.028811336        763532638.62617552     
   1924368532.8177435        26585038.123942852        751966118.83214378     
   1789036950.1878967        28716774.050076127        743645033.53846514     
   1653392912.1073501        29806991.807197750        738569382.74514890     
   1517436418.5760961        29855691.395305812        736739166.45218062     
   1857519372.5687201        27509783.963810563        887878965.75716317     
   1731238734.2848065        30582133.787023067        877555010.37517822     
   1604801701.0564115        33133167.128652573        870730820.62884176     
   1478208272.8835578        35162883.988736153        867406396.51816273     
   1351458449.7662261        36671284.367237866        867581738.04312801     
   1659619356.3069704        32798265.248734653        1011087161.0772640     
   1542803867.3048444        35987708.915974259        1002187840.6979319     
   1425988043.8644736        39176037.789092839        997042617.08954477     
   1309171885.9858730        42363251.868100047        995651490.25210202     
   1192355393.6690285        45549351.152966678        998014460.18561220     
   1465687611.2116477        39277227.883593798        1133157224.5864940     
   1359063931.8778698        42801763.510851681        1125864609.8004105     
   1252595978.6120787        46845386.031397521        1122580422.9205775     
   1146283751.4142990        51408095.445310950        1123304663.9469893     
   1040127250.2845056        56489891.752511203        1128037332.8796372     
   1690289300.0986292        25102572.237162709        605486745.41278064     
   1550119494.0554979        26205989.675759375        592237325.68697631     
   1411088365.2464113        31104997.894499242        577703486.96345150     
   1273195913.6713581        39799596.893353581        561885229.24221277     
   1136442139.3303506        52289786.672358990        544782552.52324092     
   1517436418.5760961        29855691.395305812        736739166.45218062     
   1375392935.0611310        28028413.253102064        727625206.34241116     
   1233629018.6000307        27133025.290436983        719030689.23220932     
   1092144669.1928017        27169527.507342935        710955615.12157488     
   950939886.83942688        28137919.903773546        703399984.01053107     
   1351458449.7662261        36671284.367237866        867581738.04312801     
   1212695180.2002704        33459478.070470035        861600942.33917606     
   1073352367.5080078        28315861.352682889        857943451.63209581     
   933430011.68943858        21240434.213863850        856609265.92188776     
   792928112.74455738        12233196.654020965        857598385.20854580     
   1192355393.6690285        45549351.152966678        998014460.18561220     
   1062026229.4729255        42499184.127896070        994164533.67728257     
   930258411.97034192        34653506.081218898        994441774.16312349     
   797051941.16128123        22012317.012952983        998846181.64311862     
   662406817.04573667        4575616.9230746925        1007377756.1172911     
   1040127250.2845056        56489891.752511203        1128037332.8796372     
   923386082.87910283        55147531.425395459        1125315980.3567276     
   804347151.98704553        46145959.476104021        1128525656.8252811     
   683010457.60833311        29485175.904619485        1137666362.2852876     
   559375999.74296260        5165180.7109424472        1152738096.7367597     
   1136442139.3303506        52289786.672358990        544782552.52324092     
   951547965.50761628        40687372.606069982        562921859.01072240     
   759152157.96681285        4079512.8128831983        592004339.79682124     
   559254716.70795536       -57533792.707150191        632029994.88155675     
   351855641.73102856       -144152543.95408136        682998824.26492000     
   950939886.83942688        28137919.903773546        703399984.01053107     
   791739972.50603497        11049113.109798223        721325487.43562090     
   623914122.15410948       -34792813.745950490        749338722.18335032     
   447462335.78364241       -109387860.66350418        787439688.25372016     
   262384613.39464036       -212736027.64284664        835628385.64674044     
   792928112.74455738        12233196.654020965        857598385.20854580     
   656978335.11198056       -11075239.704200447        873998399.55402386     
   511278319.16040075       -66884470.459112436        899630702.24616337     
   355828064.88980448       -155194495.61072898        934495293.28495634     
   190627572.30020565       -276005315.15902925        978592172.67040849     
   662406817.04573667        4575616.9230746925        1007377756.1172911     
   547263053.32544732       -25685685.835960269        1020940595.3659428     
   421244748.98568225       -92195457.326580614        1042880279.9852686     
   284351904.02643991       -194953697.54879180        1073196809.9752648     
   136584518.44770789       -333960406.50263572        1111890185.3359356     
   559375999.74296260        5165180.7109424472        1152738096.7367597     
   462594127.14644581       -32782225.285433978        1162152074.8713682     
   353813411.62997466       -110725774.34831890        1179087455.4006641     
   233033853.19354606       -228665466.47773167        1203544238.3246543     
   100255451.83716464       -386601301.67364258        1235522423.6433246     
   351855641.73102856       -144152543.95408136        682998824.26492000     
   277832752.61568391       -285238085.29212904        786347721.85688710     
   149017225.22966880       -608965754.19907808        905497627.84779429     
  -34590940.427032232       -1115335550.6749802        1040448542.2376676     
  -272991744.35440660       -1804347474.7197938        1191200465.0264695     
   262384613.39464036       -212736027.64284664        835628385.64674044     
   223660160.50959912       -352361938.17807251        885013602.74622035     
   140693253.92414680       -639462694.38134658        945413616.82327712     
   13483893.638263881       -1074038296.2527006        1016828427.8778756     
  -157967920.34801757       -1656088743.7920940        1099258035.9100547     
   190627572.30020565       -276005315.15902925        978592172.67040849     
   173526665.87007982       -418274061.82406640        986322257.94271600     
   122733490.30979967       -672850372.25628185        1000280928.7712007     
   38248045.619368196       -1039734246.4556849        1020468185.1558667     
  -79929668.201224566       -1518925684.4222732        1046884027.0966992     
   136584518.44770789       -333960406.50263572        1111890185.3359356     
   127432268.69712099       -482974456.23008883        1090273687.4463792     
   95137934.386645138       -709128787.82384300        1070099563.6916105     
   39701515.516263902       -1012423401.2839153        1051367814.0716170     
  -38876987.913999259       -1392858296.6103225        1034078438.5864420     
   100255451.83716464       -386601301.67364258        1235522423.6433246     
   85376968.990730405       -546463121.39613390        1196867891.2571850     
   57906586.154663742       -748297941.08405578        1154869521.5844674     
   17844303.328958750       -992105760.73743021        1109527314.6251490     
  -34809879.486375570       -1277886580.3562522        1060841270.3792424     
   3060137215.0270920        102177121.53166008        1177340886.7817614     
   2940574495.3084731        51192456.907318473        1157978275.6557291     
   2825447211.4733734        14992578.561361551        1145765822.1156073     
   2714755363.5217900       -6422513.5062034130        1140703526.1613939     
   2608498951.4537234       -13052819.295381427        1142791387.7930748     
   2642809771.7907033        35764504.233523011        1214989195.0288777     
   2548212261.5864859        10522910.295401335        1205063843.6270375     
   2456048857.6672425       -6604996.0261417627        1201251633.3381624     
   2366319560.0329762       -15619214.731092691        1203552564.1622586     
   2279024368.6836843       -16519745.819461346        1211966636.0993164     
   2242478142.9229951       -25549368.754011631        1260825525.4771547     
   2169882938.0247812       -25936763.268436670        1258002549.2678740     
   2097720509.8130016       -24881568.828075409        1260255697.6986201     
   2025990858.2876568       -22383785.432933688        1267584970.7693951     
   1954693983.4487484       -18443413.083006859        1279990368.4802012     
   1859142328.4239666       -81764497.430941343        1314849878.1265936     
   1805586524.6233587       -58186563.784190536        1316794392.5782411     
   1750462167.9106517       -39837139.844444752        1322778015.1969748     
   1693769258.2858353       -26716225.611725450        1332800745.9828045     
   1635507795.7489142       -18823821.086023569        1346862584.9357197     
   1492802328.2936161       -132880881.79726785        1377062252.9771912     
   1455323021.3822236       -86226491.251851618        1381439373.5581346     
   1414273831.9601889       -51471709.075248122        1388818585.8332307     
   1369654760.0275047       -28616535.267473817        1399199889.8024781     
   1321465805.5841763       -17660969.828511357        1412583285.4658771     
   2608498951.4537234       -13052819.295381427        1142791387.7930748     
   2524225159.9994125       -6500516.9319208860        1136093082.0680342     
   2439859551.5419216       -254271.24573409557        1134002074.5963221     
   2355402126.0812459        5685917.7631760836        1136518365.3779445     
   2270852883.6173992        11320050.094841003        1143641954.4128923     
   2279024368.6836843       -16519745.819461346        1211966636.0993164     
   2206306918.6523685       -9579849.9297536612        1206721572.1405776     
   2133441365.3576376       -3133631.5847623348        1205669258.6709085     
   2060427708.7994781        2818909.2154679298        1208809695.6903083     
   1987265948.9778986        8277772.4709663391        1216142883.1987722     
   1954693983.4487484       -18443413.083006859        1279990368.4802012     
   1892348452.6568239       -11471250.322113156        1276132878.9841471     
   1829798532.3412349       -5180385.9734358788        1276053592.2128999     
   1767044222.5019844        429179.96303534508        1279752508.1664591     
   1704085523.1390667        5357447.4872858524        1287229626.8448224     
   1635507795.7489142       -18823821.086023569        1346862584.9357197     
   1582349762.0127692       -12174718.109035909        1344327002.5987384     
   1528931052.4927175       -6394534.4117440581        1345155075.2223012     
   1475251667.1887674       -1483269.9941141605        1349346802.8064067     
   1421311606.1009035        2559075.1438058019        1356902185.3510571     
   1321465805.5841763       -17660969.828511357        1412583285.4658771     
   1276310846.7202077       -11690253.290510595        1411303942.9843514     
   1230838925.8120880       -6776076.8996756673        1412973707.6991105     
   1185050042.8598244       -2918440.6559914947        1417592579.6101437     
   1138944197.8634119       -117344.55946922302        1425160558.7174616     
   2270852883.6173992        11320050.094841003        1143641954.4128923     
   2165498703.0149202        11004631.260279894        1135363564.6400864     
   2060428820.9158595        11636874.103771091        1131457378.4698775     
   1955643237.3202207        13216778.625343680        1131923395.9022586     
   1851141952.2280064        15744344.824991107        1136761616.9372396     
   1987265948.9778986        8277772.4709663391        1216142883.1987722     
   1893475213.5408392        7726555.6448696852        1208430185.7929516     
   1799950347.9186685        8061571.5350719690        1205294657.5252151     
   1706691352.1113908        9282820.1415776014        1206736298.3955545     
   1613698226.1189940        11390301.464362264        1212755108.4039729     
   1704085523.1390667        5357447.4872858524        1287229626.8448224     
   1622443848.6830981        4746117.4143717289        1280061121.6693718     
   1541049615.3534813        4959591.0959714055        1277674751.1674833     
   1459902823.1502230        5997868.5320939422        1280070515.3391576     
   1379003472.0733171        7860949.7227274179        1287248414.1843963     
   1421311606.1009035        2559075.1438058019        1356902185.3510571     
   1352404608.4416893        2063316.5687717199        1350256372.2693489     
   1283726623.2202978        2330932.7864782214        1348597659.3966913     
   1215277650.4367261        3361923.7969162464        1351926046.7330759     
   1147057690.0909770        5156289.6001002789        1360241534.2785060     
   1138944197.8634119       -117344.55946922302        1425160558.7174616     
   1083357492.8166170       -321846.89193409681        1419015937.5928786     
   1027981371.5191137        175596.60657310486        1418063382.2128265     
   972815833.97089899        1374985.9360425472        1422302892.5773039     
   917860880.17197180        3276321.0964701772        1431734468.6863098     
   1851141952.2280064        15744344.824991107        1136761616.9372396     
   1754658904.6950562        21229357.993437171        1129612669.1065872     
   1658255498.6813445        26979842.892684042        1126628954.4379098     
   1561931734.1868758        32995799.522741079        1127810472.9312124     
   1465687611.2116477        39277227.883593798        1133157224.5864940     
   1613698226.1189940        11390301.464362264        1212755108.4039729     
   1528094003.8085148        16311275.353950143        1206773226.1796434     
   1442617420.3395586        21657712.048614800        1205124600.7980535     
   1357268475.7121367        27429611.548394203        1207809232.2591975     
   1272047169.9262381        33626973.853251338        1214827120.5630744     
   1379003472.0733171        7860949.7227274179        1287248414.1843963     
   1304758142.6446157        12361904.631247520        1282489594.4423957     
   1230688449.3797252        17448313.419138908        1282232055.2238877     
   1156794392.2786517        23120176.086420536        1286475796.5288763     
   1083075971.3413916        29377492.633077800        1295220818.3573558     
   1147057690.0909770        5156289.6001002789        1360241534.2785060     
   1084651321.2033587        9381245.8253383040        1356761773.8948386     
   1022468585.8018413        14351647.004247308        1357951317.7154155     
   960509483.88642120        20067493.136818111        1363810165.7402470     
   898774015.45710683        26528784.223072886        1374338317.9693303     
   917860880.17197180        3276321.0964701772        1431734468.6863098     
   867773539.48474526        7369298.9362256527        1429589764.5369720     
   817957829.60590065        12367712.803926349        1432282388.2726395     
   768413750.53545010        18271562.699601978        1439812339.8933151     
   719141302.27338815        25080848.623244375        1452179619.3990026     
   1465687611.2116477        39277227.883593798        1133157224.5864940     
   1359063931.8778698        42801763.510851681        1125864609.8004105     
   1252595978.6120787        46845386.031397521        1122580422.9205775     
   1146283751.4142990        51408095.445310950        1123304663.9469893     
   1040127250.2845056        56489891.752511203        1128037332.8796372     
   1272047169.9262381        33626973.853251338        1214827120.5630744     
   1176159597.4325206        36808606.854595840        1209416361.7762640     
   1080265804.1470571        39969503.883450270        1208334850.1815381     
   984365790.06985927        43109664.939856887        1211582585.7788987     
   888459555.20091522        46229090.023779303        1219159568.5683599     
   1083075971.3413916        29377492.633077800        1295220818.3573558     
   998841132.21872270        32491210.967810333        1291502977.5667832     
   914438125.44457018        35044370.464262515        1292435203.2541409     
   829866951.01894462        37036971.122473478        1298017495.4194376     
   745127608.94183600        38469012.942404002        1308249854.0626690     
   898774015.45710683        26528784.223072886        1374338317.9693303     
   827108536.23647273        29849575.850483328        1372124457.1719651     
   755112942.50462365        32069985.773850530        1374881482.1383862     
   682787234.26155555        33190013.993147880        1382609392.8685784     
   610131411.50726211        33209660.508368641        1395308189.3625605     
   719141302.27338815        25080848.623244375        1452179619.3990026     
   660961809.48577297        28883701.502628177        1451280800.5918176     
   602290255.32720780        31046349.812177837        1455673686.8342681     
   543126639.79768729        31568793.551876873        1465358278.1263380     
   483470962.89720899        30451032.721716151        1480334574.4680393     
   1040127250.2845056        56489891.752511203        1128037332.8796372     
   923386082.87910283        55147531.425395459        1125315980.3567276     
   804347151.98704553        46145959.476104021        1128525656.8252811     
   683010457.60833311        29485175.904619485        1137666362.2852876     
   559375999.74296260        5165180.7109424472        1152738096.7367597     
   888459555.20091522        46229090.023779303        1219159568.5683599     
   786837897.19727361        44189291.374015570        1216658790.5597475     
   682951297.26452541        34599686.293896675        1220018322.7124109     
   576799755.40269828        17460274.783511579        1229238165.0263376     
   468383271.61176443       -7228943.1572237313        1244318317.5015574     
   745127608.94183600        38469012.942404002        1308249854.0626690     
   658423406.53942037        35671159.829823464        1306007942.3855011     
   569487083.76546538        25432905.478781521        1309555622.0394270     
   478318640.61997569        7754249.8892908990        1318892893.0244343     
   384918077.10294640       -17364806.938669130        1334019755.3405354     
   610131411.50726211        33209660.508368641        1395308189.3625605     
   538142610.90554678        29593136.792827785        1393363435.8339949     
   463954511.48984945        18645617.030692473        1397137554.8063343     
   387567113.26017433        367101.22195313871        1406630546.2795713     
   308980416.21651274       -25242410.633402541        1421842410.2537096     
   483470962.89720899        30451032.721716151        1480334574.4680393     
   425995510.29564923        25955222.263028160        1478725270.9052260     
   366353580.43767023        14237820.949609488        1482764121.0131290     
   304545173.32327604       -4701171.2185266167        1492451124.7917459     
   240570288.95245537       -30861754.241423070        1507786282.2410841     
   559375999.74296260        5165180.7109424472        1152738096.7367597     
   462594127.14644581       -32782225.285433978        1162152074.8713682     
   353813411.62997466       -110725774.34831890        1179087455.4006641     
   233033853.19354606       -228665466.47773167        1203544238.3246543     
   100255451.83716464       -386601301.67364258        1235522423.6433246     
   468383271.61176443       -7228943.1572237313        1244318317.5015574     
   390703541.68481958       -41535530.952896193        1242848767.7115190     
   302867833.23809016       -109695380.48119529        1247711582.6109147     
   204876146.27157715       -211708491.74210602        1258906762.1997471     
   96728480.785266310       -347574864.73565984        1276434306.4780214     
   384918077.10294640       -17364806.938669130        1334019755.3405354     
   322943239.25913388       -49049751.709586263        1323816686.0927217     
   252655287.29570284       -108445076.87922913        1318756943.8290825     
   174054221.21265972       -195550782.44757825        1318840528.5496237     
   87140041.009991318       -310366868.41467673        1324067440.2543528     
   308980416.21651274       -25242410.633402541        1421842410.2537096     
   259313219.86938772       -55324887.555492818        1405055830.0149775     
   203175773.80281961       -106974863.54239845        1392223539.0551696     
   140568078.01679614       -180192338.59415430        1383345537.3742871     
   71490132.511329904       -274977312.71071625        1378421824.9723356     
   240570288.95245537       -30861754.241423070        1507786282.2410841     
   199813483.51558042       -60360938.490617722        1486566199.4782915     
   154429292.75943005       -105284740.47073296        1468111368.2891772     
   104417716.68400466       -165633160.18176380        1452421788.6737361     
   49778755.289286494       -241406197.62377036        1439497460.6319683     
   100255451.83716464       -386601301.67364258        1235522423.6433246     
   85376968.990730405       -546463121.39613390        1196867891.2571850     
   57906586.154663742       -748297941.08405578        1154869521.5844674     
   17844303.328958750       -992105760.73743021        1109527314.6251490     
  -34809879.486375570       -1277886580.3562522        1060841270.3792424     
   96728480.785266310       -347574864.73565984        1276434306.4780214     
   79805966.593730092       -488743006.40633255        1222072893.5860062     
   51499223.845777929       -667858576.59838927        1165169060.4723942     
   11808252.541414857       -884921575.31180966        1105722807.1371756     
  -39266947.319346189       -1139932002.5465655        1043734133.5803754     
   87140041.009991318       -310366868.41467673        1324067440.2543528     
   70463258.516178459       -432154403.12071323        1255408096.8618865     
   43609918.899188906       -587863794.90400529        1185007750.3128173     
   6580022.1590000987       -777495043.76462340        1112866400.6071296     
  -40626431.704371452       -1001048149.7025213        1038984047.7448517     
   71490132.511329904       -274977312.71071625        1378421824.9723356     
   57348844.758085713       -376697311.53924125        1296873501.0848439     
   34238671.314884990       -508313596.00095677        1214385591.1057355     
   2159612.1817165017       -669826166.09589136        1130958095.0350122     
  -38888332.641426355       -861235021.82407963        1046591012.8726861     
   49778755.289286494       -241406197.62377036        1439497460.6319683     
   40462725.319438785       -322371731.66196215        1346469106.2548764     
   23385481.092876524       -429207979.88919955        1253302582.8511646     
  -1452977.3904539645       -561914942.30566025        1159997890.4208300     
  -34052650.130517125       -720492618.91123533        1066555028.9638807     
   1492802328.2936161       -132880881.79726785        1377062252.9771912     
   1455323021.3822236       -86226491.251851618        1381439373.5581346     
   1414273831.9601889       -51471709.075248122        1388818585.8332307     
   1369654760.0275047       -28616535.267473817        1399199889.8024781     
   1321465805.5841763       -17660969.828511357        1412583285.4658771     
   1173070520.2137022       -17309841.840703011        1465706806.9269996     
   1135360947.0182602       -1479158.8515926600        1458949597.6807361     
   1096013517.7221904        8892003.8020942807        1456126332.1117332     
   1055028232.3254986        13803646.120371699        1457237010.2199957     
   1012405090.8281796        13255768.103227437        1462281632.0055232     
   828874688.43229282        90921991.005411625        1541395642.5205476     
   793597283.19026196        76727696.709455550        1525758134.2587602     
   758614048.25762641        63513970.111483604        1514986421.6573513     
   723924983.63438570        51280811.211490244        1509080504.7163193     
   689530089.32053959        40028220.009483278        1508040383.4356594     
   460214832.94938731        191814616.74107742        1604128759.7578235     
   430032029.89823151        148394075.43129757        1581864983.2922118     
   402075423.56648952        112394189.85289446        1565398854.4700856     
   376345013.95416117        83814960.005871117        1554730373.2914486     
   352840801.06124806        62656385.890233643        1549859539.7562983     
   67090953.764986515        285368035.36629623        1653906158.6388421     
   44665187.142165765        213519977.31392232        1627270144.7810879     
   26397643.648780592        155532663.02633366        1607363630.5499368     
   12288323.284828868        111406092.50352214        1594186615.9453824     
   2337226.0503141470        81140265.745501280        1587739100.9674296     
   1321465805.5841763       -17660969.828511357        1412583285.4658771     
   1276310846.7202077       -11690253.290510595        1411303942.9843514     
   1230838925.8120880       -6776076.8996756673        1412973707.6991105     
   1185050042.8598244       -2918440.6559914947        1417592579.6101437     
   1138944197.8634119       -117344.55946922302        1425160558.7174616     
   1012405090.8281796        13255768.103227437        1462281632.0055232     
   973895851.12253273        11700958.613779902        1456551116.9424889     
   935546817.84071624        10680170.537102044        1454720246.1959136     
   897357990.98272729        10193403.873182774        1456789019.7657928     
   859329370.54856849        10240658.622029781        1462757437.6521256     
   689530089.32053959        40028220.009483278        1508040383.4356594     
   660382389.11657107        31762630.595591098        1498415392.3370960     
   631872063.80441082        25621624.154393017        1493640582.6751602     
   603999113.38405812        21605200.685885489        1493715954.4498560     
   576763537.85551143        19713360.190066427        1498641507.6611836     
   352840801.06124806        62656385.890233643        1549859539.7562983     
   335770460.70232040        48494762.654913872        1536896769.1681707     
   319814663.70317650        38048283.952207021        1529734717.1368499     
   304973410.06381834        31316949.782120354        1528373383.6623378     
   291246699.78424466        28300760.144647673        1532812768.7446270     
   2337226.0503141470        81140265.745501280        1587739100.9674296     
   60065.879779960960        61897354.791744716        1571995247.4357159     
  -625382.46298749372        47960149.930544622        1563002649.5809855     
   280881.02200233750        39328651.161868811        1560761307.4032373     
   2778856.3347583991        36002858.485746406        1565271220.9024708     
   1138944197.8634119       -117344.55946922302        1425160558.7174616     
   1083357492.8166170       -321846.89193409681        1419015937.5928786     
   1027981371.5191137        175596.60657310486        1418063382.2128265     
   972815833.97089899        1374985.9360425472        1422302892.5773039     
   917860880.17197180        3276321.0964701772        1431734468.6863098     
   859329370.54856849        10240658.622029781        1462757437.6521256     
   817248246.27811658        9527697.9980985224        1455845614.1514747     
   775307268.84412074        9281893.4956880510        1454247969.7245862     
   733506438.24658823        9503245.1148208380        1457964504.3714652     
   691845754.48551440        10191752.855484366        1466995218.0921090     
   576763537.85551143        19713360.190066427        1498641507.6611836     
   548536889.58778572        18596609.842575371        1490880305.3861604     
   520379951.24369133        17712225.907186180        1488555395.5141354     
   492292722.82322294        17060208.383886367        1491666778.0451090     
   464275204.32638609        16640557.272688985        1500214452.9790885     
   291246699.78424466        28300760.144647673        1532812768.7446270     
   277223422.74562967        26884888.641506255        1524120011.2969339     
   263199418.71781963        25466593.841046274        1520985659.5814731     
   249174687.70080698        24045875.743244909        1523409713.5982451     
   235149229.69459149        22622734.348101176        1531392173.3472576     
   2778856.3347583991        36002858.485746406        1565271220.9024708     
   3307845.7516480461        34392534.394894503        1555564731.8837953     
   3765671.2665052200        32544997.297267687        1551538761.9265940     
   4152332.8793316334        30460247.192871667        1553193311.0308645     
   4467830.5901259817        28138284.081702106        1560528379.1966021     
   917860880.17197180        3276321.0964701772        1431734468.6863098     
   867773539.48474526        7369298.9362256527        1429589764.5369720     
   817957829.60590065        12367712.803926349        1432282388.2726395     
   768413750.53545010        18271562.699601978        1439812339.8933151     
   719141302.27338815        25080848.623244375        1452179619.3990026     
   691845754.48551440        10191752.855484366        1466995218.0921090     
   653823744.64659548        12388654.152667284        1464565080.7801623     
   615936395.47442865        15034424.339027733        1467016195.4378867     
   578183706.96901441        18129063.414559811        1474348562.0652800     
   540565679.13035345        21672571.379270166        1486562180.6623409     
   464275204.32638609        16640557.272688985        1500214452.9790885     
   438444022.72051871        16979031.242722541        1497339084.0059652     
   412610531.63977122        17309806.963153124        1499388891.0871747     
   386774731.08414006        17632884.433972657        1506363874.2227120     
   360936621.05363107        17948263.655199677        1518264033.4125767     
   235149229.69459149        22622734.348101176        1531392173.3472576     
   221634373.70651731        21140430.206394590        1527911774.2143834     
   207980238.10193372        19193860.676324703        1529400475.2204998     
   194186822.88083121        16783025.757858552        1535858276.3656065     
   180254128.04321858        13907925.451023787        1547285177.6497014     
   4467830.5901259817        28138284.081702106        1560528379.1966021     
   3394797.6045960458        24872851.043703981        1556283151.4054077     
   2045514.8609223329        20686585.478559934        1557050947.8378627     
   419982.35909116454        15579487.386224022        1562831768.4939697     
  -1481799.9008866167        9551556.7667334303        1573625613.3737218     
   719141302.27338815        25080848.623244375        1452179619.3990026     
   660961809.48577297        28883701.502628177        1451280800.5918176     
   602290255.32720780        31046349.812177837        1455673686.8342681     
   543126639.79768729        31568793.551876873        1465358278.1263380     
   483470962.89720899        30451032.721716151        1480334574.4680393     
   540565679.13035345        21672571.379270166        1486562180.6623409     
   495691478.64903831        22895368.135560751        1484997155.0801852     
   450587765.13901621        23353121.462828174        1488970662.2508831     
   405254538.60028678        23045831.361071095        1498482702.1744413     
   359691799.03284800        21973497.830282614        1513533274.8508530     
   360936621.05363107        17948263.655199677        1518264033.4125767     
   330072934.88784266        16802570.891141713        1516339107.4547305     
   299242284.03559965        15766995.838904366        1520199541.9529703     
   268444668.49689686        14841538.498465151        1529845336.9073002     
   237680088.27173567        14026198.869833723        1545276492.3177228     
   180254128.04321858        13907925.451023787        1547285177.6497014     
   164106178.20219386        10605309.769400083        1545306657.7154608     
   148253812.01696363        8287972.9404246956        1549360325.9405334     
   132697029.48752008        6955914.9640715048        1559446182.3249314     
   117435830.61386576        6609135.8403491974        1575564226.8686488     
  -1481799.9008866167        9551556.7667334303        1573625613.3737218     
  -2208791.4079157296        4303584.7703068936        1571899805.8623714     
  -2377650.9169023414        916052.76735605684        1576453014.2135720     
  -1988378.4278513922       -611039.24213555129        1587285238.4273264     
  -1040973.9407559285       -277691.25814752525        1604396478.5036318     
   483470962.89720899        30451032.721716151        1480334574.4680393     
   425995510.29564923        25955222.263028160        1478725270.9052260     
   366353580.43767023        14237820.949609488        1482764121.0131290     
   304545173.32327604       -4701171.2185266167        1492451124.7917459     
   240570288.95245537       -30861754.241423070        1507786282.2410841     
   359691799.03284800        21973497.830282614        1513533274.8508530     
   317188674.08734524        18964360.104243949        1510253621.6556630     
   273032849.91880143        10446224.968071043        1512499911.5868814     
   227224326.52720207       -3580907.5782883018        1520272144.6445160     
   179763103.91255921       -23117037.534790076        1533570320.8285503     
   237680088.27173567        14026198.869833723        1545276492.3177228     
   209800117.99855632        12398981.981325887        1540925897.1957638     
   180781226.53570384        6975361.1272431463        1541979034.6559067     
   150623413.88317728       -2244663.6924221143        1548435904.6981559     
   119326680.04097743       -15261092.477662757        1560296507.3224983     
   117435830.61386576        6609135.8403491974        1575564226.8686488     
   103829842.02927747        6259087.8942550458        1570742097.5255179     
   89598710.288391784        3825229.4271679781        1571201490.2201860     
   74742435.391201437       -692439.56093446910        1576942404.9526491     
   59261017.337709405       -7293919.0700413175        1587964841.7229123     
  -1040973.9407559285       -277691.25814752525        1604396478.5036318     
  -722153.82049057237        544677.84303410107        1599702222.6449394     
  -514698.82314369868        995829.86782078596        1600167278.2797298     
  -418608.94873614708        1075764.8161434107        1605791645.4080117     
  -433884.19724602572        784482.68807390763        1616575324.0297863     
   240570288.95245537       -30861754.241423070        1507786282.2410841     
   199813483.51558042       -60360938.490617722        1486566199.4782915     
   154429292.75943005       -105284740.47073296        1468111368.2891772     
   104417716.68400466       -165633160.18176380        1452421788.6737361     
   49778755.289286494       -241406197.62377036        1439497460.6319683     
   179763103.91255921       -23117037.534790076        1533570320.8285503     
   148524636.99216980       -45537820.746194892        1507842341.7456253     
   113828003.38503781       -79485826.246736243        1485037432.7852859     
   75673203.091167897       -124961054.03640732        1465155593.9475474     
   34060236.110545501       -181963504.11525205        1448196825.2323985     
   119326680.04097743       -15261092.477662757        1560296507.3224983     
   98057461.776837245       -30468201.609365307        1531424720.3240566     
   74499295.458496332       -53305137.588404261        1505633821.9971287     
   48652181.085952990       -83771900.414784282        1482923812.3417151     
   20516118.659209259       -121868490.08849895        1463294691.3578095     
   59261017.337709405       -7293919.0700413175        1587964841.7229123     
   48411957.869595446       -15152081.080096833        1557313335.2135806     
   36443168.979813866       -26742674.495711237        1529900535.9246910     
   23354650.668377720       -42065699.316839382        1505726443.8562348     
   9146402.9352760091       -61121155.543524966        1484791059.0082049     
  -433884.19724602572        784482.68807390763        1616575324.0297863     
  -411874.72956366907        410540.84158978390        1585508186.4142058     
  -340376.05101328518        201563.03133172367        1557837574.5679812     
  -219388.16157172411        157549.25737828121        1533563488.4911110     
  -48911.061261037830        278499.51965456217        1512685928.1835864     
   49778755.289286494       -241406197.62377036        1439497460.6319683     
   40462725.319438785       -322371731.66196215        1346469106.2548764     
   23385481.092876524       -429207979.88919955        1253302582.8511646     
  -1452977.3904539645       -561914942.30566025        1159997890.4208300     
  -34052650.130517125       -720492618.91123533        1066555028.9638807     
   34060236.110545501       -181963504.11525205        1448196825.2323985     
   29871791.835008904       -241816018.65345669        1347679207.3168581     
   19859698.023605958       -321080698.31122279        1246371819.8466375     
   4023954.6763526797       -419757543.08848864        1144274662.8217435     
  -17635438.206755370       -537846552.98526335        1041387736.2421848     
   20516118.659209259       -121868490.08849895        1463294691.3578095     
   19593544.283523440       -161166499.86513451        1357548302.0781829     
   14784885.092873901       -213418125.69165125        1250360542.7158313     
   6090141.0872498602       -278623367.56807983        1141731413.2707474     
  -6490687.7333397716       -356782225.49439514        1031660913.7429446     
   9146402.9352760091       -61121155.543524966        1484791059.0082049     
   9627982.6650055684       -80423175.296908766        1376076390.5388682     
   8161042.3006598130       -106220262.03054759        1265268751.4587502     
   4745581.8422361240       -138512415.74444264        1152368141.7678494     
  -618398.71027496457       -177299636.43863216        1037374561.4661698     
  -48911.061261037830        278499.51965456217        1512685928.1835864     
  -24893.020543039398        413955.05122109823        1403263472.6989081     
  -11830.353021160729        512892.67213598313        1291096446.0753903     
  -9723.0586909412232        575312.38240888179        1176184848.3130243     
  -18571.137558168353        601214.18202640070        1058528679.4118520     
   67090953.764986515        285368035.36629623        1653906158.6388421     
   44665187.142165765        213519977.31392232        1627270144.7810879     
   26397643.648780592        155532663.02633366        1607363630.5499368     
   12288323.284828868        111406092.50352214        1594186615.9453824     
   2337226.0503141470        81140265.745501280        1587739100.9674296     
  -402721760.24754637        113388283.78800690        1540356016.2474256     
  -396763082.35823834        81631127.144671351        1527695928.0898857     
  -388848932.39433813        56392210.749978527        1520888781.9130003     
  -378979310.35584700        37671534.603922442        1519934577.7167547     
  -367154216.24276340        25469098.706505433        1524833315.5011516     
  -841540524.77194381       -49293282.943840116        1440235261.2234054     
  -809701852.78752065       -41710873.303236425        1438981222.5354416     
  -778110459.78334999       -34952726.930141240        1442703568.1821632     
  -746766345.75943100       -29018843.824548006        1451402298.1635776     
  -715669510.71576250       -23909223.986460239        1465077412.4796789     
  -1249365339.8082089       -202676664.82924914        1353543893.5667939     
  -1194151124.1456850       -156506024.02981043        1361126028.1177449     
  -1141386938.5182567       -118502150.01402605        1372807989.3574312     
  -1091072782.9259250       -88665042.781894028        1388589777.2858498     
  -1043208657.3686855       -66994702.333404720        1408471391.9030020     
  -1626196205.3563387       -346761861.86821592        1280281913.2775824     
  -1550110896.4327288       -262754325.03505170        1294130344.8368030     
  -1478678368.5990605       -194256058.50168920        1311202045.4387989     
  -1411898621.8553278       -141267062.26811242        1331497015.0835764     
  -1349771656.2015319       -103787336.33432621        1355015253.7711315     
   2337226.0503141470        81140265.745501280        1587739100.9674296     
   60065.879779960960        61897354.791744716        1571995247.4357159     
  -625382.46298749372        47960149.930544622        1563002649.5809855     
   280881.02200233750        39328651.161868811        1560761307.4032373     
   2778856.3347583991        36002858.485746406        1565271220.9024708     
  -367154216.24276340        25469098.706505433        1524833315.5011516     
  -349857600.04367650        18857846.942625076        1517057666.9061644     
  -331912239.98002100        14409074.727304563        1514672515.4131613     
  -313318136.05179197        12122782.060562581        1517677861.0221455     
  -294075288.25899333        11998968.942387804        1526073703.7331173     
  -715669510.71576250       -23909223.986460239        1465077412.4796789     
  -682686999.78990400       -19055181.053338319        1464169839.5310218     
  -649998712.96266460       -15181885.115614772        1467292005.1093607     
  -617604650.23404491       -12289336.173291117        1474443909.2146859     
  -585504811.60404313       -10377534.226360202        1485625551.8470049     
  -1043208657.3686855       -66994702.333404720        1408471391.9030020     
  -998428133.35889578       -51841729.196121454        1413331765.3102942     
  -954884801.41091955       -40812729.598219395        1420861118.6695795     
  -912578661.52474844       -33907703.539666712        1431059451.9808626     
  -871509713.70039320       -31126651.020498306        1443926765.2441401     
  -1349771656.2015319       -103787336.33432621        1355015253.7711315     
  -1297081000.7506564       -79501797.485743523        1364543444.2439780     
  -1246570505.3247852       -62483458.720506370        1375379856.0938227     
  -1198240169.9239128       -52732320.038600326        1387524489.3206687     
  -1152089994.5480411       -50248381.440029085        1400977343.9245148     
   2778856.3347583991        36002858.485746406        1565271220.9024708     
   3307845.7516480461        34392534.394894503        1555564731.8837953     
   3765671.2665052200        32544997.297267687        1551538761.9265940     
   4152332.8793316334        30460247.192871667        1553193311.0308645     
   4467830.5901259817        28138284.081702106        1560528379.1966021     
  -294075288.25899333        11998968.942387804        1526073703.7331173     
  -278728652.95135480        11564134.014854118        1518058767.3074250     
  -263465151.44047788        10852186.431448862        1515490234.2369978     
  -248284783.72635466        9863126.1921973377        1518368104.5218301     
  -233187549.80899438        8596953.2970713675        1526692378.1619296     
  -585504811.60404313       -10377534.226360202        1485625551.8470049     
  -556009432.42339289       -9837550.5958976448        1479288203.1371138     
  -526609156.93423086       -9614579.2703946829        1478163142.0762796     
  -497303985.13654977       -9708620.2498297393        1482250368.6644983     
  -468093917.03035659       -10119673.534223586        1491549882.9017725     
  -871509713.70039320       -31126651.020498306        1443926765.2441401     
  -828534492.66446638       -29812519.437358022        1439253039.3728654     
  -785666345.21475494       -28855299.808269322        1439557485.4444389     
  -742905271.35125148       -28254992.133205444        1444840103.4588630     
  -700251271.07396507       -28011596.412199914        1455100893.4161289     
  -1152089994.5480411       -50248381.440029085        1400977343.9245148     
  -1096303833.6745772       -48360772.509539545        1397953276.0146787     
  -1040636716.2820528       -46869975.182179451        1399673264.3414795     
  -985088642.37046409       -45775989.457940221        1406137308.9049208     
  -929659611.93981886       -45078815.336846530        1417345409.7050018     
   4467830.5901259817        28138284.081702106        1560528379.1966021     
   3394797.6045960458        24872851.043703981        1556283151.4054077     
   2045514.8609223329        20686585.478559934        1557050947.8378627     
   419982.35909116454        15579487.386224022        1562831768.4939697     
  -1481799.9008866167        9551556.7667334303        1573625613.3737218     
  -233187549.80899438        8596953.2970713675        1526692378.1619296     
  -221032552.55146956        6124906.5101161301        1523155480.3486857     
  -209007522.30634642        3219636.3484887183        1524597877.0562091     
  -197112459.07362530       -118857.18781097978        1531019568.2844999     
  -185347362.85330287       -3890574.0987752900        1542420554.0335541     
  -468093917.03035659       -10119673.534223586        1491549882.9017725     
  -442807260.10945058       -11827245.244053006        1488891978.2698536     
  -417504287.45519441       -13480431.176049203        1491179638.4558170     
  -392184999.06759101       -15079231.330220640        1498412863.4596622     
  -366849394.94664240       -16623645.706577629        1510591653.2813923     
  -700251271.07396507       -28011596.412199914        1455100893.4161289     
  -661929325.06934035       -28983604.218784750        1453492645.1689062     
  -623444780.58561897       -29413617.095050305        1456796232.0366824     
  -584797637.62280428       -29301635.041004658        1465011654.0194590     
  -545987896.18089449       -28647658.056638777        1478138911.1172309     
  -929659611.93981886       -45078815.336846530        1417345409.7050018     
  -878398747.43114519       -45344170.414097756        1416957481.0458469     
  -826829001.69763303       -44579921.408552408        1421447657.7988088     
  -774950374.73926795       -42786068.320163101        1430815939.9638822     
  -722762866.55606866       -39962611.148996502        1445062327.5410767     
  -1481799.9008866167        9551556.7667334303        1573625613.3737218     
  -2208791.4079157296        4303584.7703068936        1571899805.8623714     
  -2377650.9169023414        916052.76735605684        1576453014.2135720     
  -1988378.4278513922       -611039.24213555129        1587285238.4273264     
  -1040973.9407559285       -277691.25814752525        1604396478.5036318     
  -185347362.85330287       -3890574.0987752900        1542420554.0335541     
  -169297242.83262226       -6108269.1275526881        1541850720.3110998     
  -152940113.11245316       -7302598.4913713187        1547208046.4471793     
  -136275973.69278920       -7473562.1902054921        1558492532.4417963     
  -119304824.57363810       -6621160.2240854688        1575704178.2949460     
  -366849394.94664240       -16623645.706577629        1510591653.2813923     
  -335027466.26686770       -16112654.628280610        1510884817.3328583     
  -303149650.18615651       -15415372.213531092        1516753285.2388382     
  -271215946.70450503       -14531798.462315515        1528197056.9993417     
  -239226355.82191825       -13461933.374646135        1545216132.6143641     
  -545987896.18089449       -28647658.056638777        1478138911.1172309     
  -499399461.71064657       -25709571.731861889        1479002096.9276400     
  -453006262.13801485       -23422268.399137393        1485088730.5885484     
  -406808297.46299779       -21785748.058461949        1496398812.0999618     
  -360805567.68559235       -20800010.709826678        1512932341.4618747     
  -722762866.55606866       -39962611.148996502        1445062327.5410767     
  -662413229.16396594       -34899020.438315332        1446202559.0954518     
  -602509948.96803427       -31323287.048205376        1452214382.4963086     
  -543053025.96826398       -29235410.978630394        1463097797.7436526     
  -484042460.16466141       -28635392.229619026        1478852804.8374844     
  -1040973.9407559285       -277691.25814752525        1604396478.5036318     
  -722153.82049057237        544677.84303410107        1599702222.6449394     
  -514698.82314369868        995829.86782078596        1600167278.2797298     
  -418608.94873614708        1075764.8161434107        1605791645.4080117     
  -433884.19724602572        784482.68807390763        1616575324.0297863     
  -119304824.57363810       -6621160.2240854688        1575704178.2949460     
  -105295037.60023394       -5421296.1216599308        1570723905.0294795     
  -90777400.471354887       -2528598.1676508002        1571028719.0034146     
  -75751913.186999217        2056933.6379466131        1576618620.2167614     
  -60218575.747161597        8335299.2951480485        1587493608.6695127     
  -239226355.82191825       -13461933.374646135        1545216132.6143641     
  -211166242.72132522       -11776766.488769986        1540672259.7669201     
  -181979064.18685102       -6334714.8232887089        1541539249.9048026     
  -151664820.21850154        2864221.6217778400        1547817103.0280120     
  -120223510.81626904        15820042.846451305        1559505819.1365447     
  -360805567.68559235       -20800010.709826678        1512932341.4618747     
  -318335769.18375915       -18521733.258280367        1509547286.8572645     
  -274119689.96964228       -10422520.099124745        1511698870.9838977     
  -228157330.04324493        3497628.7676368356        1519387093.8417721     
  -180448689.40456495        23238713.342001349        1532611955.4308949     
  -484042460.16466141       -28635392.229619026        1478852804.8374844     
  -426803616.98753512       -25656196.430189982        1477348986.3005059     
  -367199277.81972426       -14792013.995142996        1481507582.2406898     
  -305229442.66122651        3957155.0755256116        1491328592.6580389     
  -240894111.51204634        30591310.781802416        1506812017.5525467     
  -433884.19724602572        784482.68807390763        1616575324.0297863     
  -411874.72956366907        410540.84158978390        1585508186.4142058     
  -340376.05101328518        201563.03133172367        1557837574.5679812     
  -219388.16157172411        157549.25737828121        1533563488.4911110     
  -48911.061261037830        278499.51965456217        1512685928.1835864     
  -60218575.747161597        8335299.2951480485        1587493608.6695127     
  -49236754.434769019        15802100.699853770        1556978359.5486851     
  -37078899.375149183        27189014.595318750        1529687806.8657012     
  -23745010.568302132        42496040.981540069        1505621950.6205528     
  -9235088.0142287388        61723179.858516209        1484780790.8132517     
  -120223510.81626904        15820042.846451305        1559505819.1365447     
  -98772818.606336862        30980305.218235657        1530856760.4695439     
  -75019548.112835661        53815828.535247274        1505260568.9088690     
  -48963699.335761592        84326612.797503114        1482717244.4545245     
  -20605272.275118887        122512658.00498781        1463226787.1064978     
  -180448689.40456495        23238713.342001349        1532611955.4308949     
  -149020067.24428052        45945154.396691471        1507143389.1767857     
  -114162322.26408336        80082004.851090759        1484555860.6974905     
  -75875454.463962883        125649264.70523363        1464849369.9930100     
  -34159463.843926549        182646933.95909745        1448023917.0633390     
  -240894111.51204634        30591310.781802416        1506812017.5525467     
  -199978500.34859544        60696648.235232577        1485838245.6704071     
  -154507221.82887888        105987543.54288492        1467573682.2315660     
  -104480275.95290190        166463996.70473659        1452018327.2360263     
  -49897662.720658690        242126007.72080982        1439172180.6837788     
  -48911.061261037830        278499.51965456217        1512685928.1835864     
  -24893.020543039398        413955.05122109823        1403263472.6989081     
  -11830.353021160729        512892.67213598313        1291096446.0753903     
  -9723.0586909412232        575312.38240888179        1176184848.3130243     
  -18571.137558168353        601214.18202640070        1058528679.4118520     
  -9235088.0142287388        61723179.858516209        1484780790.8132517     
  -9696215.5309293382        81189825.810798094        1376048524.1328065     
  -8214153.4344829470        107133770.47357133        1265226595.7576437     
  -4788901.7249023095        139555013.84679502        1152315005.6877367     
   579539.59782863408        178453555.93051520        1037313753.9231081     
  -20605272.275118887        122512658.00498781        1463226787.1064978     
  -19680375.508939624        161871845.33009455        1357464545.0477026     
  -14858144.143283144        214222147.98679182        1250267550.7382753     
  -6138578.1781428456        279563565.97509909        1141635804.1782229     
   6478322.3864677548        357896099.29497975        1031569305.3675387     
  -34159463.843926549        182646933.95909745        1448023917.0633390     
  -29977372.954580203        242460013.60909194        1347511535.4435780     
  -19943802.479409933        321778025.21183431        1246219311.0172892     
  -4058752.4184272587        420600968.76728326        1144147243.7844739     
   17677777.228362769        538928844.27542758        1041295333.7451347     
  -49897662.720658690        242126007.72080982        1439172180.6837788     
  -40587207.867840558        322954330.64782333        1346189495.3204396     
  -23471128.442879558        429801402.14864564        1253081876.5946746     
   1450575.5542417467        562667222.22333312        1159849324.5064933     
   34177904.123506099        721551790.87183666        1066491839.0558771     
  -1626196205.3563387       -346761861.86821592        1280281913.2775824     
  -1550110896.4327288       -262754325.03505170        1294130344.8368030     
  -1478678368.5990605       -194256058.50168920        1311202045.4387989     
  -1411898621.8553278       -141267062.26811242        1331497015.0835764     
  -1349771656.2015319       -103787336.33432621        1355015253.7711315     
  -1913114195.9005301       -192328439.28518319        1296072960.8253887     
  -1838510950.8576136       -145743500.71678400        1295703836.5718615     
  -1766402141.4727547       -107473347.67523313        1299607378.3515055     
  -1696787767.7459469       -77517980.160530031        1307783586.1643233     
  -1629667829.6771951       -55877398.172673523        1320232460.0103109     
  -2230240885.1255207       -46957626.306390285        1296382673.8838687     
  -2154121426.8478899       -36895802.868130445        1284314063.4881270     
  -2078338058.7964332       -27954280.183779359        1277567516.1159506     
  -2002890780.9711454       -20133058.253324986        1276143031.7673361     
  -1927779593.3720286       -13432137.076773524        1280040610.4422882     
  -2577576273.0313048        89350577.068163753        1281211052.4530199     
  -2496942324.4035554        63788768.510901332        1259961025.5855992     
  -2414486120.5700989        44301143.972681880        1245082458.7321303     
  -2330207661.5309238        30887703.453504443        1236575351.8926198     
  -2244106947.2860370        23548446.953374982        1234439705.0670617     
  -2955120359.6178880        216596170.83847988        1250558096.5328512     
  -2866973643.5246143        156310213.42032182        1222644722.8642771     
  -2774846326.7937450        109292924.79414630        1202152206.2000470     
  -2678738409.4252777        75544304.959964991        1189080546.5401676     
  -2578649891.4192138        55064353.917772532        1183429743.8846354     
  -1349771656.2015319       -103787336.33432621        1355015253.7711315     
  -1297081000.7506564       -79501797.485743523        1364543444.2439780     
  -1246570505.3247852       -62483458.720506370        1375379856.0938227     
  -1198240169.9239128       -52732320.038600326        1387524489.3206687     
  -1152089994.5480411       -50248381.440029085        1400977343.9245148     
  -1629667829.6771951       -55877398.172673523        1320232460.0103109     
  -1575747482.6931427       -44015443.569573104        1321928767.9618595     
  -1523169238.5516973       -36627165.108493507        1326129752.0801172     
  -1471933097.2528613       -33712562.789446056        1332835412.3650820     
  -1422039058.7966349       -35271636.612430513        1342045748.8167555     
  -1927779593.3720286       -13432137.076773524        1280040610.4422882     
  -1869211112.5984898       -12968234.042251706        1274882769.2519982     
  -1811146677.4851685       -14184483.208452225        1273426059.0181243     
  -1753586288.0320618       -17080884.575370908        1275670479.7406662     
  -1696529944.2391715       -21657438.143013239        1281616031.4196231     
  -2244106947.2860370        23548446.953374982        1234439705.0670617     
  -2177471890.4667025        13639831.096208572        1223405448.1143920     
  -2110502822.1251936        4844586.9796298742        1217268776.9078462     
  -2043199742.2615108       -2837285.3963668346        1216029691.4474235     
  -1975562650.8756504       -9405786.0317792892        1219688191.7331243     
  -2578649891.4192138        55064353.917772532        1183429743.8846354     
  -2500529816.2977819        35808751.845805764        1167496804.5490444     
  -2421237672.4717817        20460045.455729842        1157657905.7492826     
  -2340773459.9412112        9018234.7475560904        1153913047.4853513     
  -2259137178.7060723        1483319.7212747335        1156262229.7572520     
  -1152089994.5480411       -50248381.440029085        1400977343.9245148     
  -1096303833.6745772       -48360772.509539545        1397953276.0146787     
  -1040636716.2820528       -46869975.182179451        1399673264.3414795     
  -985088642.37046409       -45775989.457940221        1406137308.9049208     
  -929659611.93981886       -45078815.336846530        1417345409.7050018     
  -1422039058.7966349       -35271636.612430513        1342045748.8167555     
  -1354017318.1931934       -33658145.921030998        1337267618.9589844     
  -1286147373.2942460       -32550640.911282241        1337220675.3274243     
  -1218429224.0998018       -31949121.583208919        1341904917.9220772     
  -1150862870.6098511       -31853587.936774194        1351320346.7429376     
  -1696529944.2391715       -21657438.143013239        1281616031.4196231     
  -1616309395.3641219       -20329097.128222704        1275045628.6864362     
  -1536273394.4171233       -19615915.873610198        1273193542.1690338     
  -1456421941.3981771       -19517894.379168868        1276059771.8674145     
  -1376755036.3072877       -20035032.644914746        1283644317.7815766     
  -1975562650.8756504       -9405786.0317792892        1219688191.7331243     
  -1883180065.1873579       -8373626.1311067343        1211287305.1970370     
  -1791014779.6506724       -8065800.0691263676        1207591864.8663089     
  -1699066794.2655988       -8482307.8458561897        1208601870.7409329     
  -1607336109.0321391       -9623149.4612873197        1214317322.8209074     
  -2259137178.7060723        1483319.7212747335        1156262229.7572520     
  -2154629327.6629033        2208267.0703248978        1145992648.4907842     
  -2050371528.9949017        2099706.5021400452        1140415643.4192467     
  -1946363782.7020633        1157638.0167522430        1139531214.5426340     
  -1842606088.7843940       -617938.38587093353        1143339361.8609438     
  -929659611.93981886       -45078815.336846530        1417345409.7050018     
  -878398747.43114519       -45344170.414097756        1416957481.0458469     
  -826829001.69763303       -44579921.408552408        1421447657.7988088     
  -774950374.73926795       -42786068.320163101        1430815939.9638822     
  -722762866.55606866       -39962611.148996502        1445062327.5410767     
  -1150862870.6098511       -31853587.936774194        1351320346.7429376     
  -1087462729.4864480       -33101228.049880207        1349428328.0654349     
  -1023972315.7681741       -34047959.513412058        1352222790.2261882     
  -960391629.45501137       -34693782.327314198        1359703733.2252018     
  -896720670.54696715       -35038696.491616666        1371871157.0624738     
  -1376755036.3072877       -20035032.644914746        1283644317.7815766     
  -1301763117.3516164       -22429207.428645492        1279993165.6841021     
  -1226899534.4310269       -25251168.995978236        1280836869.8510273     
  -1152164287.5455136       -28500917.346896172        1286175430.2823553     
  -1077557376.6950772       -32178452.481410325        1296008846.9780819     
  -1607336109.0321391       -9623149.4612873197        1214317322.8209074     
  -1521299911.0266397       -13328108.550352395        1208651993.9018443     
  -1435610657.6861854       -18189549.856229544        1207289896.6733236     
  -1350268349.0107691       -24207473.378899217        1210231031.1353428     
  -1265272985.0003924       -31381879.118367136        1217475397.2879071     
  -1842606088.7843940       -617938.38587093353        1143339361.8609438     
  -1746073110.5115218       -5797931.4150167704        1135404812.7186661     
  -1650105685.5336566       -12863102.094187260        1131581870.6930749     
  -1554703813.8507857       -21813450.423331976        1131870535.7841699     
  -1459867495.4629118       -32648976.402478635        1136270807.9919510     
  -722762866.55606866       -39962611.148996502        1445062327.5410767     
  -662413229.16396594       -34899020.438315332        1446202559.0954518     
  -602509948.96803427       -31323287.048205376        1452214382.4963086     
  -543053025.96826398       -29235410.978630394        1463097797.7436526     
  -484042460.16466141       -28635392.229619026        1478852804.8374844     
  -896720670.54696715       -35038696.491616666        1371871157.0624738     
  -824811416.84457278       -33147535.642872274        1370140659.2181041     
  -753147653.38009167       -32074675.587183326        1373162681.2725370     
  -681729380.15351558       -31820116.324503303        1380937223.2257752     
  -610556597.16484702       -32383857.854852080        1393464285.0778103     
  -1077557376.6950772       -32178452.481410325        1296008846.9780819     
  -994428712.24719477       -33561783.164038718        1291641964.5196044     
  -911344671.07896888       -35093858.112193942        1291908530.0122490     
  -828305253.19039202       -36774677.325843632        1296808543.4560101     
  -745310458.58147275       -38604240.805017173        1306342004.8508914     
  -1265272985.0003924       -31381879.118367136        1217475397.2879071     
  -1171265115.3718314       -36141763.001810431        1210706474.9999523     
  -1077101002.0646706       -40380834.623258471        1208451928.7154362     
  -982780645.07890785       -44099093.982695818        1210711758.4343553     
  -888304044.41453695       -47296541.080110461        1217485964.1567061     
  -1459867495.4629118       -32648976.402478635        1136270807.9919510     
  -1355320626.2184842       -40887475.156190276        1127334190.6591516     
  -1250416646.3371942       -47935605.120366275        1122792877.3821034     
  -1145155555.8190494       -53793366.295018196        1122646868.1608100     
  -1039537354.6640433       -58460758.680143118        1126896162.9952714     
  -484042460.16466141       -28635392.229619026        1478852804.8374844     
  -426803616.98753512       -25656196.430189982        1477348986.3005059     
  -367199277.81972426       -14792013.995142996        1481507582.2406898     
  -305229442.66122651        3957155.0755256116        1491328592.6580389     
  -240894111.51204634        30591310.781802416        1506812017.5525467     
  -610556597.16484702       -32383857.854852080        1393464285.0778103     
  -538589625.18127930       -29569548.542999774        1391828527.2396498     
  -464306969.01888740       -19036291.968397439        1395897735.5033312     
  -387708628.67765850       -784088.13100725412        1405671909.8688593     
  -308794604.15759677        25187062.969160438        1421151050.3362441     
  -745310458.58147275       -38604240.805017173        1306342004.8508914     
  -658493781.72093034       -35918345.159593195        1304516193.9310343     
  -569411232.49341273       -25679541.624246389        1308437900.7377176     
  -478062810.89891577       -7887830.1989741623        1318107125.2709377     
  -384448516.93744081        17456789.116230398        1333523867.5306904     
  -888304044.41453695       -47296541.080110461        1217485964.1567061     
  -786516086.60648739       -44702586.279962599        1215411986.3746691     
  -682512068.24331033       -34721762.962717444        1219128077.9438550     
  -576291989.32500672       -17354071.128391325        1228634238.8642640     
  -467855849.85158402        7400489.2230072618        1243930469.1359029     
  -1039537354.6640433       -58460758.680143118        1126896162.9952714     
  -922656539.83794200       -55922271.904084563        1124515904.5705538     
  -803609476.26857209       -46162955.983789444        1127968267.1217437     
  -682396163.95593214       -29182810.919265062        1137253250.6488492     
  -559016602.90001917       -4981836.7104968131        1152370855.1518664     
  -240894111.51204634        30591310.781802416        1506812017.5525467     
  -199978500.34859544        60696648.235232577        1485838245.6704071     
  -154507221.82887888        105987543.54288492        1467573682.2315660     
  -104480275.95290190        166463996.70473659        1452018327.2360263     
  -49897662.720658690        242126007.72080982        1439172180.6837788     
  -308794604.15759677        25187062.969160438        1421151050.3362441     
  -259153205.39101782        55635512.328015611        1404477160.5927751     
  -203085236.30783582        107505862.74223028        1391727027.0456343     
  -140590696.90804744        180798114.21179253        1382900649.6948044     
  -71669587.191649705        275512266.73671865        1377998028.5402880     
  -384448516.93744081        17456789.116230398        1333523867.5306904     
  -322611194.13054460        49289391.311675653        1323332580.0463078     
  -252476398.04670039        108780237.76360919        1318279596.5112557     
  -174044128.68590623        195929328.47204757        1318364916.9255378     
  -87314386.048168659        310736663.43695909        1323588541.2891567     
  -467855849.85158402        7400489.2230072618        1243930469.1359029     
  -390352466.56717765        41658285.186179683        1242404504.0309913     
  -302680707.04547364        109810668.60701923        1247231390.6284308     
  -204840571.28648710        211857639.48546609        1258411128.9282262     
  -96832059.290210456        347799197.82154101        1275943718.9303620     
  -559016602.90001917       -4981836.7104968131        1152370855.1518664     
  -462377022.70090240        32742193.951596141        1161692932.5468309     
  -353698163.30415869        110597155.27245410        1178582409.3971651     
  -232980024.70978126        228583047.25208694        1203039285.7028673     
  -100222606.91777816        386699869.89047182        1235063561.4639356     
  -49897662.720658690        242126007.72080982        1439172180.6837788     
  -40587207.867840558        322954330.64782333        1346189495.3204396     
  -23471128.442879558        429801402.14864564        1253081876.5946746     
   1450575.5542417467        562667222.22333312        1159849324.5064933     
   34177904.123506099        721551790.87183666        1066491839.0558771     
  -71669587.191649705        275512266.73671865        1377998028.5402880     
  -57482937.782803372        377194505.58417445        1296554005.0489116     
  -34301919.515943170        508857973.95833528        1214173391.6737235     
  -2126532.3910915554        670502671.85913551        1130856188.4147289     
   39043223.591764331        862128599.28663206        1046602395.2719177     
  -87314386.048168659        310736663.43695909        1323588541.2891567     
  -70570560.715815037        432577112.61514086        1255070048.0032248     
  -43643622.239613086        588361272.27281713        1184803308.3121095     
  -6533570.6195530593        778089142.41001642        1112788322.2157862     
   40759594.144358158        1001760723.0267280        1039025089.7142748     
  -96832059.290210456        347799197.82154101        1275943718.9303620     
  -79850076.666891932        489102151.74067271        1221737624.1833925     
  -51496236.613871008        668311297.09214890        1164971626.5098302     
  -11770539.131147981        885426633.87595546        1105645725.9096847     
   39327015.781279862        1140448162.0921223        1043759922.3829534     
  -100222606.91777816        386699869.89047182        1235063561.4639356     
  -85321485.636033326        546769622.96077859        1196556733.5894020     
  -57859762.638729393        748708048.41628218        1154678346.2668922     
  -17837437.925878227        992515146.25694597        1109428399.4964130     
   34745488.502536833        1278190916.4828174        1060806893.2779537     
  -2955120359.6178880        216596170.83847988        1250558096.5328512     
  -2866973643.5246143        156310213.42032182        1222644722.8642771     
  -2774846326.7937450        109292924.79414630        1202152206.2000470     
  -2678738409.4252777        75544304.959964991        1189080546.5401676     
  -2578649891.4192138        55064353.917772532        1183429743.8846354     
  -3404373301.8352785        107871122.88679171        1075350400.6638043     
  -3288586638.6043377        81692841.418890476        1059875506.0604868     
  -3171128681.5995984        61085539.196983457        1050370250.1086636     
  -3051999430.8210564        46049216.221079350        1046834632.8083292     
  -2931198886.2687197        36583872.491163731        1049268654.1594862     
  -3825434387.3811245        7603631.9365670681        911418912.69951773     
  -3686154115.1635394        14289124.973618746        905688305.82036555     
  -3547511856.0359449        18847907.710674047        904476119.23984694     
  -3409507609.9983521        21279980.147732019        907782352.95796299     
  -3272141377.0507545        21585342.284796238        915607006.97471297     
  -4218303616.2554245       -84206302.012194395        758763632.63999891     
  -4059676073.2022033       -45900935.915490150        760083122.14390814     
  -3903995850.1027765       -17419969.664778233        764469813.59359801     
  -3751262946.9571528        1236596.7399415970        771923706.98906779     
  -3601477363.7653241        10068763.298671246        782444802.33031046     
  -4582980988.4581776       -167558678.95949078        617384560.48523974     
  -4409152512.7203474       -98877341.248446465        623059955.03111935     
  -4240580663.8001132       -47718092.929391384        630351333.16992128     
  -4077265441.6974669       -14080934.002310753        639258694.90164280     
  -3919206846.4124231        2034135.5327813625        649782040.22628474     
  -2578649891.4192138        55064353.917772532        1183429743.8846354     
  -2500529816.2977819        35808751.845805764        1167496804.5490444     
  -2421237672.4717817        20460045.455729842        1157657905.7492826     
  -2340773459.9412112        9018234.7475560904        1153913047.4853513     
  -2259137178.7060723        1483319.7212747335        1156262229.7572520     
  -2931198886.2687197        36583872.491163731        1049268654.1594862     
  -2836726796.8130322        22950560.862800002        1038088080.6386217     
  -2741466285.5505638        11945321.923704743        1032094487.5059053     
  -2645417352.4813180        3568155.6738667488        1031287874.7613382     
  -2548579997.6052895       -2180937.8866953850        1035668242.4049218     
  -3272141377.0507545        21585342.284796238        915607006.97471297     
  -3163908873.6827598        12796840.973453045        908731211.22115362     
  -3055271595.4057741        5357589.3587412834        906135335.70806301     
  -2946229542.2197938       -732412.55932307243        907819380.43544042     
  -2836782714.1248231       -5473164.7807554007        913783345.40328467     
  -3601477363.7653241        10068763.298671246        782444802.33031046     
  -3482076046.9069662        5347592.1777615547        779426196.29663861     
  -3362653602.0374069        696847.76085925102        779780450.35575426     
  -3243210029.1566439       -3883469.9520335197        783507564.50765431     
  -3123745328.2646785       -8393360.9609179497        790607538.75234294     
  -3919206846.4124231        2034135.5327813625        649782040.22628474     
  -3791228316.4856501        602814.47572517395        650173035.86508012     
  -3663612305.4454646       -2036902.8699567318        653029831.44898021     
  -3536358813.2918649       -5885016.5042502880        658352426.97798455     
  -3409467840.0248494       -10941526.427165270        666140822.45209670     
  -2259137178.7060723        1483319.7212747335        1156262229.7572520     
  -2154629327.6629033        2208267.0703248978        1145992648.4907842     
  -2050371528.9949017        2099706.5021400452        1140415643.4192467     
  -1946363782.7020633        1157638.0167522430        1139531214.5426340     
  -1842606088.7843940       -617938.38587093353        1143339361.8609438     
  -2548579997.6052895       -2180937.8866953850        1035668242.4049218     
  -2431802311.6235147       -1054871.0769799948        1025550713.4544972     
  -2315224215.9945250       -594105.44322240353        1020086376.8479217     
  -2198845710.7183256       -798640.98543250561        1019275232.5851964     
  -2082666795.7949109       -1668477.7035890818        1023117280.6663140     
  -2836782714.1248231       -5473164.7807554007        913783345.40328467     
  -2707847718.4932356       -3979736.0970152617        903876741.12834585     
  -2579061851.1920619       -2983401.8479754925        898583945.34617865     
  -2450425112.2212896       -2484162.0336242914        897904958.05678165     
  -2321937501.5809283       -2482016.6539657116        901839779.26015484     
  -3123745328.2646785       -8393360.9609179497        790607538.75234294     
  -2982765548.2720737       -6566327.9897854328        780970731.51233339     
  -2841884434.5874968       -5068182.7120898962        775908348.91401696     
  -2701101987.2109499       -3898925.1278264523        775420390.95739162     
  -2560418206.1424308       -3058555.2369803190        779506857.64245570     
  -3409467840.0248494       -10941526.427165270        666140822.45209670     
  -3256555800.9600224       -8814646.7552920580        656832684.60645604     
  -3103691966.1808414       -6848448.0355806351        652059587.55143332     
  -2950876335.6873145       -5042930.2680394650        651821531.28702033     
  -2798108909.4794292       -3398093.4526470900        656118515.81322968     
  -1842606088.7843940       -617938.38587093353        1143339361.8609438     
  -1746073110.5115218       -5797931.4150167704        1135404812.7186661     
  -1650105685.5336566       -12863102.094187260        1131581870.6930749     
  -1554703813.8507857       -21813450.423331976        1131870535.7841699     
  -1459867495.4629118       -32648976.402478635        1136270807.9919510     
  -2082666795.7949109       -1668477.7035890818        1023117280.6663140     
  -1975673229.1441500       -6278580.9058951139        1014712977.0020120     
  -1869129299.8344369       -12387475.245035410        1010112159.6285894     
  -1763035007.8657861       -19995160.721039176        1009314828.5460472     
  -1657390353.2381856       -29101637.333892465        1012320983.7543906     
  -2321937501.5809283       -2482016.6539657116        901839779.26015484     
  -2205363691.7688465       -6786333.5943608284        893100956.35342395     
  -2089123603.3438864       -12203055.158488035        887857498.91177297     
  -1973217236.3060324       -18732181.346313596        886109406.93519700     
  -1857644590.6552997       -26373712.157861710        887856680.42369735     
  -2560418206.1424308       -3058555.2369803190        779506857.64245570     
  -2435144498.3856277       -7321189.4804716110        770568750.77290332     
  -2310088596.0619969       -12309841.834533930        764817888.54262090     
  -2185250499.1715345       -18024512.299168229        762254270.95161164     
  -2060630207.7142458       -24465200.874378800        762877897.99987257     
  -2798108909.4794292       -3398093.4526470900        656118515.81322968     
  -2665015648.9944849       -7883148.5641918182        647116360.26045108     
  -2532024277.9887743       -12707835.273188829        640993328.52113783     
  -2399134796.4622879       -17872153.579598546        637749420.59529340     
  -2266347204.4150305       -23376103.483440995        637384636.48291492     
  -1459867495.4629118       -32648976.402478635        1136270807.9919510     
  -1355320626.2184842       -40887475.156190276        1127334190.6591516     
  -1250416646.3371942       -47935605.120366275        1122792877.3821034     
  -1145155555.8190494       -53793366.295018196        1122646868.1608100     
  -1039537354.6640433       -58460758.680143118        1126896162.9952714     
  -1657390353.2381856       -29101637.333892465        1012320983.7543906     
  -1541308031.1094184       -35236140.888094962        1002636346.7601564     
  -1424881122.5352142       -40222022.957524955        996944293.65208173     
  -1308109627.5155694       -44059283.542145848        995244824.43016827     
  -1190993546.0504925       -46747922.641991854        997537939.09442019     
  -1857644590.6552997       -26373712.157861710        887856680.42369735     
  -1731177444.6981709       -30749409.229360223        877409412.21136725     
  -1604378236.4870176       -34018232.120798707        870552007.71561003     
  -1477246966.0218604       -36180180.832208037        867284466.93641949     
  -1349783633.3026810       -37235255.363555670        867606789.87380147     
  -2060630207.7142458       -24465200.874378800        762877897.99987257     
  -1924928866.9847336       -27427280.179964423        751653387.01279175     
  -1788907988.1926200       -29324232.610228896        743616019.57269025     
  -1652567571.3379164       -30156058.165184855        738765795.67956460     
  -1515907616.4206231       -29922756.844842255        737102715.33341455     
  -2266347204.4150305       -23376103.483440995        637384636.48291492     
  -2122562297.9691060       -25269753.739897966        625368271.16442299     
  -1978470377.6520126       -26140024.425789356        616136329.22332084     
  -1834071443.4637501       -25986915.541113377        609688810.65959871     
  -1689365495.4043109       -24810427.085859299        606025715.47325993     
  -1039537354.6640433       -58460758.680143118        1126896162.9952714     
  -922656539.83794200       -55922271.904084563        1124515904.5705538     
  -803609476.26857209       -46162955.983789444        1127968267.1217437     
  -682396163.95593214       -29182810.919265062        1137253250.6488492     
  -559016602.90001917       -4981836.7104968131        1152370855.1518664     
  -1190993546.0504925       -46747922.641991854        997537939.09442019     
  -1060846959.9812008       -42955601.834844887        993767536.15794766     
  -929349262.42828369       -34659576.082276881        994079605.34853590     
  -796500453.39175045       -21859845.384316862        998474146.66618216     
  -662300532.87160003       -4556409.7409690917        1006951160.1108950     
  -1349783633.3026810       -37235255.363555670        867606789.87380147     
  -1211371701.2726395       -33689228.110044122        861495248.95598567     
  -1072423795.0186191       -28356620.109959066        857716031.31637681     
  -932939914.54063010       -21237431.363294005        856269136.95497298     
  -792920059.83867109       -12331661.870075107        857154565.87177885     
  -1515907616.4206231       -29922756.844842255        737102715.33341455     
  -1374230763.7122567       -28123150.729687750        727699042.96466684     
  -1232833074.0395725       -27254088.066806078        718877545.02526879     
  -1091714547.4025736       -27315568.856206775        710638221.51521969     
  -950875183.80124426       -28307593.097845078        702981072.43453729     
  -1689365495.4043109       -24810427.085859299        606025715.47325993     
  -1549424147.3000703       -26257369.693823636        592378918.18398547     
  -1410577099.4911530       -31351979.952866316        577564146.47520638     
  -1272824351.9775589       -40094257.862983465        561581400.34692454     
  -1136165904.7593076       -52484203.424248755        544430679.79915464     
  -559016602.90001917       -4981836.7104968131        1152370855.1518664     
  -462377022.70090240        32742193.951596141        1161692932.5468309     
  -353698163.30415869        110597155.27245410        1178582409.3971651     
  -232980024.70978126        228583047.25208694        1203039285.7028673     
  -100222606.91777816        386699869.89047182        1235063561.4639356     
  -662300532.87160003       -4556409.7409690917        1006951160.1108950     
  -547170898.45614326        25607041.467872202        1020503654.9285148     
  -421141099.87803179        92104373.218898863        1042456618.0233215     
  -284211137.13723987        194935585.51220229        1072810049.3953089     
  -136381010.23377955        334100678.34772444        1111563949.0444782     
  -792920059.83867109       -12331661.870075107        857154565.87177885     
  -656920174.57313073        10985268.875597626        873608510.57127726     
  -511159240.17987603        66839030.046986461        899295992.36976969     
  -355637256.65891385        155229621.64406002        934217011.26725721     
  -190354224.01024285        276157043.66684169        978371567.26375079     
  -950875183.80124426       -28307593.097845078        702981072.43453729     
  -791624851.05185044       -11123123.825176656        721007499.47511506     
  -623752584.20971072        34801125.756659836        749100532.43651032     
  -447258383.27482212        109465155.64765725        787260171.31871533     
  -262142248.24718583        212868965.84781343        835486416.12174141     
  -1136165904.7593076       -52484203.424248755        544430679.79915464     
  -951284927.89231706       -40718136.634488285        562700621.64004004     
  -758921131.96753049       -4009339.6520689726        591870238.22354722     
  -559074516.98495865        57642187.522971064        631939529.54968309     
  -351745082.94459283        144236444.89064595        682908495.61845231     
  -100222606.91777816        386699869.89047182        1235063561.4639356     
  -85321485.636033326        546769622.96077859        1196556733.5894020     
  -57859762.638729393        748708048.41628218        1154678346.2668922     
  -17837437.925878227        992515146.25694597        1109428399.4964130     
   34745488.502536833        1278190916.4828174        1060806893.2779537     
  -136381010.23377955        334100678.34772444        1111563949.0444782     
  -127283232.92290103        483243267.84358674        1090035934.2368007     
  -95065486.892433017        709452419.73808753        1069937021.2628208     
  -39727772.142370403        1012728134.0312526        1051267210.1225688     
   38729911.327292144        1393070410.7230573        1034026500.8160287     
  -190354224.01024285        276157043.66684169        978371567.26375079     
  -173343615.57970840        418487322.11539644        986141627.02763045     
  -122653671.42553523        673082052.97609270        1000141449.9069102     
  -38284391.547732592        1039941236.2488847        1020371035.9016002     
   79764224.053707898        1519064871.9337957        1046830385.0116793     
  -262142248.24718583        212868965.84781343        835486416.12174141     
  -223502633.60645193        352501785.77623361        884873811.96190071     
  -140624316.23804629        639596948.13023233        945291632.19914293     
  -13507296.141959548        1074154452.9098506        1016739876.8334851     
   157848426.68181133        1656174300.1150336        1099218545.8649023     
  -351745082.94459283        144236444.89064595        682908495.61845231     
  -277760287.00311983        285286658.82611340        786232489.03959894     
  -148977421.32993925        608997105.20061719        905387568.13952792     
   34603514.074956775        1115367784.0141780        1040373732.9182304     
   272982519.21157241        1804398695.2667820        1191190983.3757229     
  -4582980988.4581776       -167558678.95949078        617384560.48523974     
  -4409152512.7203474       -98877341.248446465        623059955.03111935     
  -4240580663.8001132       -47718092.929391384        630351333.16992128     
  -4077265441.6974669       -14080934.002310753        639258694.90164280     
  -3919206846.4124231        2034135.5327813625        649782040.22628474     
  -4889289836.3128233       -53808060.778872967        503274877.06076348     
  -4723863720.3919888       -36041934.733554363        496008215.38996583     
  -4559207782.8532209       -20843069.961829424        492411880.65142196     
  -4395322023.6965427       -8211466.4637215137        492485872.84513569     
  -4232206442.9219499        1852875.7607779503        496230191.97110128     
  -5225466088.5099554        50982336.098994255        367934828.05379391     
  -5062572780.0080004        19594116.198034763        352960300.00774997     
  -4895963201.4526196        593463.14183092117        343710442.23329389     
  -4725637352.8438025       -6019623.0695908070        340185254.73043042     
  -4551595234.1815519       -245142.43624114990        342384737.49915045     
  -5591509745.0495605        146812511.67412663        211364413.46432889     
  -5425279691.5683956        68030811.546304464        193916208.88447183     
  -5250846919.5982933        16591506.381624222        184247017.91553769     
  -5068211429.1392450       -7505403.8199064732        182356840.55752426     
  -4877373220.1912508       -4259919.0582993031        188245676.81043303     
  -5987420805.9316387        233682465.94651079        33563633.292372942     
  -5811984455.0731716        109268151.31125355        18875942.020133089     
  -5623858937.2902460        27151059.757529020        14021607.698145609     
  -5423044252.5828743       -12668808.714691162        19000630.326423321     
  -5209540400.9510365       -10191454.105376959        33813009.904950850     
  -3919206846.4124231        2034135.5327813625        649782040.22628474     
  -3791228316.4856501        602814.47572517395        650173035.86508012     
  -3663612305.4454646       -2036902.8699567318        653029831.44898021     
  -3536358813.2918649       -5885016.5042502880        658352426.97798455     
  -3409467840.0248494       -10941526.427165270        666140822.45209670     
  -4232206442.9219499        1852875.7607779503        496230191.97110128     
  -4096560783.6525917        1610275.3195941448        494174104.31451768     
  -3961507121.5269518       -605648.93397259712        495275688.37269402     
  -3827045456.5450168       -4794896.9998962879        499534944.14563102     
  -3693175788.7067981       -10957468.878202438        506951871.63331801     
  -4551595234.1815519       -245142.43624114990        342384737.49915045     
  -4406305669.0848942        1294010.6838591099        337613841.91387779     
  -4261837579.3890772        94912.467830181122        336692489.81301320     
  -4118190965.0940905       -3842437.0843083858        339620681.19656199     
  -3975365826.1999507       -10518037.972596407        346398416.06452119     
  -4877373220.1912508       -4259919.0582993031        188245676.81043303     
  -4720462972.7825632       -345979.43147635460        180492248.66315728     
  -4564603679.0318413        64781.335453033447        177280235.76993996     
  -4409795338.9390917       -3027636.7575187683        178609638.13078412     
  -4256037952.5042963       -9623233.7103505135        184480455.74569279     
  -5209540400.9510365       -10191454.105376959        33813009.904950850     
  -5039032694.7456045       -3309695.0264534950        22809324.562351484     
  -4869805420.4552631       -696042.33116173744        17038926.243468877     
  -4701858578.0800028       -2350496.0194838047        16501814.948307676     
  -4535192167.6198463       -8273056.0914654732        21197990.676847544     
  -3409467840.0248494       -10941526.427165270        666140822.45209670     
  -3256555800.9600224       -8814646.7552920580        656832684.60645604     
  -3103691966.1808414       -6848448.0355806351        652059587.55143332     
  -2950876335.6873145       -5042930.2680394650        651821531.28702033     
  -2798108909.4794292       -3398093.4526470900        656118515.81322968     
  -3693175788.7067981       -10957468.878202438        506951871.63331801     
  -3528573750.7002087       -8718984.3801348209        498125583.19051242     
  -3363919487.8625288       -6306417.1117630005        493730805.87547952     
  -3199213000.1937642       -3719767.0731042624        493767539.68821728     
  -3034454287.6939077       -959034.26414883137        498235784.62872893     
  -3975365826.1999507       -10518037.972596407        346398416.06452119     
  -3799369588.2882915       -8256688.3593499660        338171144.32740676     
  -3623220696.4288082       -5486492.2533400059        334271854.05522859     
  -3446919150.6214957       -2207449.6545734406        334700545.24797362     
  -3270464950.8663549        1580439.4369637966        339457217.90565008     
  -4256037952.5042963       -9623233.7103505135        184480455.74569279     
  -4068943313.7242680       -7427758.6929333210        176969368.01714191     
  -3881595591.8796721       -4388673.4602870941        173682732.09067535     
  -3693994786.9705005       -505978.01240158081        174620547.96629506     
  -3506140898.9967718        4220327.6506931782        179782815.64400414     
  -4535192167.6198463       -8273056.0914654732        21197990.676847544     
  -4337294927.0081329       -6232195.3808798790        14520254.259718325     
  -4139044174.2151146       -3012960.7325892448        11963439.981826063     
  -3940439909.2408018        1384647.8533446789        13527547.843180045     
  -3741482132.0851679        6960630.3770022392        19212577.843780592     
  -2798108909.4794292       -3398093.4526470900        656118515.81322968     
  -2665015648.9944849       -7883148.5641918182        647116360.26045108     
  -2532024277.9887743       -12707835.273188829        640993328.52113783     
  -2399134796.4622879       -17872153.579598546        637749420.59529340     
  -2266347204.4150305       -23376103.483440995        637384636.48291492     
  -3034454287.6939077       -959034.26414883137        498235784.62872893     
  -2893265287.8653469       -5151420.2049168348        489507037.68362409     
  -2752050845.8008523       -9258998.6925785542        484059119.68842191     
  -2610810961.5004220       -13281769.727110147        481892030.64313012     
  -2469545634.9640617       -17219733.308558822        483005770.54773718     
  -3270464950.8663549        1580439.4369637966        339457217.90565008     
  -3120032482.7329159       -1974958.6446272135        331150433.23590499     
  -2969447240.6483955       -5021110.2226015329        326526182.65250713     
  -2818709224.6127758       -7558015.2969077826        325584466.15545195     
  -2667818434.6260576       -9585673.8675695658        328325283.74474037     
  -3506140898.9967718        4220327.6506931782        179782815.64400414     
  -3345317233.5972157        1646236.1166296005        172046546.91730699     
  -3184213462.5314045        5830.1367428302765        168394517.41339585     
  -3022829585.7993393       -700890.28895175457        168826727.13227072     
  -2861165603.4010229       -473925.16049587727        173343176.07391897     
  -3741482132.0851679        6960630.3770022392        19212577.843780592     
  -3569119540.4582400        5712164.0788493156        12195378.727816090     
  -3396349511.4498882        5821822.3854196072        9664123.9710836522     
  -3223172045.0601091        7289605.2967480421        11618813.573571110     
  -3049587141.2889352        10115512.812746882        18059447.535279106     
  -2266347204.4150305       -23376103.483440995        637384636.48291492     
  -2122562297.9691060       -25269753.739897966        625368271.16442299     
  -1978470377.6520126       -26140024.425789356        616136329.22332084     
  -1834071443.4637501       -25986915.541113377        609688810.65959871     
  -1689365495.4043109       -24810427.085859299        606025715.47325993     
  -2469545634.9640617       -17219733.308558822        483005770.54773718     
  -2318720768.8332458       -18097700.844455004        472757583.18131703     
  -2167794663.0698771       -18638202.938512921        464905937.72114825     
  -2016767317.6739306       -18841239.590648413        459450834.16722625     
  -1865638732.6454484       -18706810.800986171        456392272.51956069     
  -2667818434.6260576       -9585673.8675695658        328325283.74474037     
  -2511061841.5850163       -9780428.5152914524        319605204.38534236     
  -2354409783.1500340       -10323631.849884033        312893785.46106148     
  -2197862259.3210979       -11215283.871289372        308191026.97189283     
  -2041419270.0982263       -12455384.579595208        305496928.91783428     
  -2861165603.4010229       -473925.16049587727        173343176.07391897     
  -2699585516.2244196       -317936.75241267681        165911134.77649429     
  -2538315737.8925009       -1196311.1599682570        160099872.44305521     
  -2377356268.4052401       -3109048.3830411434        155909389.07358503     
  -2216707107.7626572       -6056148.4216986895        153339684.66810527     
  -3049587141.2889352        10115512.812746882        18059447.535279106     
  -2884291792.7514524        10289774.444164038        11675374.354776544     
  -2719512527.2972794        8743759.1312375069        6524198.6671229834     
  -2555249344.9263520        5477466.8741517067        2605920.4723081719     
  -2391502245.6387300        490897.67270553112       -79460.229655078292     
  -1689365495.4043109       -24810427.085859299        606025715.47325993     
  -1549424147.3000703       -26257369.693823636        592378918.18398547     
  -1410577099.4911530       -31351979.952866316        577564146.47520638     
  -1272824351.9775589       -40094257.862983465        561581400.34692454     
  -1136165904.7593076       -52484203.424248755        544430679.79915464     
  -1865638732.6454484       -18706810.800986171        456392272.51956069     
  -1728447716.2380536       -22630201.024012089        442663901.73108464     
  -1591276542.8212900       -26619734.549114108        428559353.50646400     
  -1454125212.3951411       -30675411.376294196        414078627.84570706     
  -1316993724.9596095       -34797231.505513132        399221724.74881059     
  -2041419270.0982263       -12455384.579595208        305496928.91783428     
  -1904716308.2923799       -18176539.289136529        292940518.15232366     
  -1766958732.1724441       -20382312.951701164        280799726.93403077     
  -1628146541.7384079       -19072705.567277253        269074555.26295984     
  -1488279736.9902871       -14247717.135890126        257765003.13911009     
  -2216707107.7626572       -6056148.4216986895        153339684.66810527     
  -2078229923.4630334       -12896384.489132643        143208767.44770917     
  -1937623667.5446117       -12639715.160555243        134285266.75790653     
  -1794888340.0073857       -5286140.4359768629        126569182.59867798     
  -1650023940.8513579        9164339.6846148968        120060514.97003300     
  -2391502245.6387300        490897.67270553112       -79460.229655078292     
  -2248988561.7500196       -6789736.6240285635       -6531350.3827516632     
  -2103271348.9378076       -3391941.1757676601       -10984027.021911411     
  -1954350607.2020550        10684284.017626882       -13437490.147126636     
  -1802226336.5428069        35438938.956019640       -13891739.758402461     
  -1136165904.7593076       -52484203.424248755        544430679.79915464     
  -951284927.89231706       -40718136.634488285        562700621.64004004     
  -758921131.96753049       -4009339.6520689726        591870238.22354722     
  -559074516.98495865        57642187.522971064        631939529.54968309     
  -351745082.94459283        144236444.89064595        682908495.61845231     
  -1316993724.9596095       -34797231.505513132        399221724.74881059     
  -1117423379.8977203       -14750479.105841875        421093592.08835369     
  -914248412.56545889        17311680.861741722        441454371.23290431     
  -707468822.96280003        61389248.397309184        460304062.18245924     
  -497084611.08976567        117482223.50080594        477642664.93702286     
  -1488279736.9902871       -14247717.135890126        257765003.13911009     
  -1309479346.4124231        3441924.0699879527        278714233.05866832     
  -1130952530.3515909        20219650.219098032        285741611.84561521     
  -952699288.80777526        36085461.311493874        278847139.49994737     
  -774719621.78098214        51039357.347139508        258030816.02166960     
  -1650023940.8513579        9164339.6846148968        120060514.97003300     
  -1527452827.4364219        13859072.893055677        135562544.55096918     
  -1409033485.3259377        4714568.4199898839        124731960.06167315     
  -1294765914.5198710       -18269173.734457552        87568761.502149448     
  -1184650115.0182366       -55092153.570365012        24072948.872387908     
  -1802226336.5428069        35438938.956019640       -13891739.758402461     
  -1771343822.9697239        16500967.363305688       -8361473.4347280646     
  -1748491277.4884977       -29203564.535585523       -41574584.118906230     
  -1733668700.0990918       -101674656.74053901       -113531071.81094511     
  -1726876090.8015141       -200912309.25160974       -224230936.51082405     
  -351745082.94459283        144236444.89064595        682908495.61845231     
  -277760287.00311983        285286658.82611340        786232489.03959894     
  -148977421.32993925        608997105.20061719        905387568.13952792     
   34603514.074956775        1115367784.0141780        1040373732.9182304     
   272982519.21157241        1804398695.2667820        1191190983.3757229     
  -497084611.08976567        117482223.50080594        477642664.93702286     
  -388245713.08638191        223097442.89576289        596952859.24704766     
  -230273521.89028579        492490306.26640266        735420122.05065060     
  -23168037.501517415        925660813.61266530        893044453.34783268     
   233070740.07998443        1522608964.9346564        1069825853.1386122     
  -774719621.78098214        51039357.347139508        258030816.02166960     
  -621523813.67335963        124070424.61433437        386718305.25837308     
  -424859488.91206408        341996547.39377195        537888845.80346489     
  -184726647.49709618        704817725.68547463        711542437.65693963     
   98874710.571582615        1212533959.4894998        907679080.81881881     
  -1184650115.0182366       -55092153.570365012        24072948.872387908     
  -977594588.76408863       -11794396.018277884        155528827.07358202     
  -732735322.39526963        157515828.58269978        312793739.39797503     
  -450072315.91180015        452838520.23252642        495867685.84556586     
  -129605569.31365168        874173678.93126678        704750666.41634536     
  -1726876090.8015141       -200912309.25160974       -224230936.51082405     
  -1456458038.3585432       -184497019.00196785       -96615575.307312369     
  -1153901022.3399034       -60951850.166774273        60134802.834194355     
  -819205042.74564290        169723197.25382650        246020197.91369498     
  -452370099.57570207        507528123.26002908        461040609.93120956     
 </DataArray>
 <DataArray  type="Float64" Name="VM" NumberOfComponents="1" format="ascii">
   5980744809.3884974     
   5799161154.4389601     
   5612612430.5900526     
   5420208565.0959082     
   5221430963.1068687     
   5617600635.2380295     
   5443104646.8255472     
   5265548241.3938427     
   5084607558.9330692     
   4900143671.9335337     
   5276889064.9121742     
   5108854826.4290113     
   4940140977.2131939     
   4770788476.2116032     
   4600912204.0674171     
   4964262726.7437334     
   4801590598.0852823     
   4640952980.4314804     
   4482505145.8635216     
   4326454337.5386028     
   4686831556.5117512     
   4527672120.1185102     
   4373447245.9298391     
   4224130605.0383520     
   4079834158.3373532     
   5221430963.1068687     
   5044819586.2963333     
   4869588245.5520811     
   4695706973.1890211     
   4523221596.3985758     
   4900143671.9335337     
   4737719127.4938459     
   4576734491.6266861     
   4417217078.3969584     
   4259257982.0815864     
   4600912204.0674171     
   4451819228.9908457     
   4304190916.0628719     
   4158111127.8721876     
   4013719243.9463964     
   4326454337.5386028     
   4190145563.6055379     
   4055298168.7537208     
   3922048812.5523138     
   3790585679.4302416     
   4079834158.3373532     
   3956134292.9110870     
   3833875483.1935086     
   3713239429.4265575     
   3594460072.7649708     
   4523221596.3985758     
   4330085536.3490963     
   4136639536.2388334     
   3942861191.1363916     
   3748755722.7022243     
   4259257982.0815864     
   4075118362.7300301     
   3891240212.2803111     
   3707665923.0100393     
   3524484969.3492723     
   4013719243.9463964     
   3839934980.4527187     
   3667179672.9806843     
   3495586092.2624884     
   3325358944.6449704     
   3790585679.4302416     
   3628548158.8924317     
   3468515492.5511718     
   3310731137.9776092     
   3155537140.7097507     
   3594460072.7649708     
   3445518959.6463542     
   3299758172.1643462     
   3157538713.9042687     
   3019342287.9031005     
   3748755722.7022243     
   3574184851.2068543     
   3400146196.2021780     
   3226616410.7183394     
   3053637188.9203420     
   3524484969.3492723     
   3361031208.9486928     
   3198530319.4580646     
   3037038004.9428449     
   2876679972.9957709     
   3325358944.6449704     
   3172728678.0422387     
   3021479405.8972812     
   2871752252.8507142     
   2723764363.0302320     
   3155537140.7097507     
   3013723611.3692899     
   2873723142.6558833     
   2735764400.5796790     
   2600157741.0765419     
   3019342287.9031005     
   2888638714.1447606     
   2760172623.0168920     
   2634254753.4382939     
   2511280722.1659894     
   3053637188.9203420     
   2888725717.5058317     
   2723511320.0037684     
   2557984896.6853256     
   2392141333.9191527     
   2876679972.9957709     
   2714671575.7970400     
   2552784341.6854801     
   2391047032.4280276     
   2229506702.9839706     
   2723764363.0302320     
   2566968124.3962030     
   2411084726.9398131     
   2256252747.7962871     
   2102667307.1645682     
   2600157741.0765419     
   2451001943.3792224     
   2303952423.1063623     
   2159323760.9370065     
   2017541217.7895553     
   2511280722.1659894     
   2372089781.8870454     
   2236554146.7545075     
   2105189141.3596199     
   1978666228.6790793     
   2392141333.9191527     
   2245993864.3918653     
   2101969899.3256705     
   1960072546.9500978     
   1820464733.2833974     
   2229506702.9839706     
   2086693437.6189196     
   1945497093.9210222     
   1805920204.6614225     
   1668038581.7874274     
   2102667307.1645682     
   1962448249.6891472     
   1823172514.8837507     
   1684871823.1442971     
   1547605763.3302934     
   2017541217.7895553     
   1880803720.7998631     
   1744385160.3720965     
   1608412976.9896679     
   1473062555.7139897     
   1978666228.6790793     
   1848017839.2263784     
   1717402093.6714432     
   1587162307.6716681     
   1457797904.1712656     
   1820464733.2833974     
   1779805076.2178741     
   1735663119.3557508     
   1696660699.2953565     
   1681277849.8125291     
   1668038581.7874274     
   1552589210.1646879     
   1428040178.0278616     
   1294748089.1583259     
   1158833430.6100006     
   1547605763.3302934     
   1397667714.2895570     
   1244171359.8933151     
   1084846644.3693738     
   917664284.90186667     
   1473062555.7139897     
   1328748032.5107067     
   1198896709.0727317     
   1087997215.4943151     
   1001965355.3995930     
   1457797904.1712656     
   1348712743.4640689     
   1274613308.1958294     
   1243638920.1431732     
   1262840218.0198016     
   1681277849.8125291     
   1383754636.5071280     
   1129464400.3203993     
   1010124759.9604905     
   1153005315.8614454     
   1158833430.6100006     
   1008407380.8338789     
   985210481.61728466     
   1161490908.3189714     
   1544131530.1453593     
   917664284.90186667     
   963090945.83716083     
   1144919936.7871568     
   1476493074.6950393     
   1957489085.0759902     
   1001965355.3995930     
   1164677861.4605737     
   1425415976.4153011     
   1808761051.4704232     
   2334799857.4467735     
   1262840218.0198016     
   1446661157.6741860     
   1715683441.7418001     
   2110494947.9453869     
   2663549883.3522840     
   4686831556.5117512     
   4527672120.1185102     
   4373447245.9298391     
   4224130605.0383520     
   4079834158.3373532     
   4406413246.0485659     
   4259023107.8424473     
   4115675720.4545960     
   3976543797.2241850     
   3841886263.0866795     
   4136067934.1963425     
   4002556647.9285169     
   3872836705.8057442     
   3747180518.2163572     
   3625945704.3605251     
   3878145722.0773163     
   3761158605.3541803     
   3648404756.2015119     
   3540144268.0967841     
   3436783936.7514153     
   3636014111.3448772     
   3538616234.8636928     
   3446643866.1878524     
   3360206405.7479315     
   3279695395.8125925     
   4079834158.3373532     
   3956134292.9110870     
   3833875483.1935086     
   3713239429.4265575     
   3594460072.7649708     
   3841886263.0866795     
   3728612268.8348951     
   3617674148.4671741     
   3509318954.6463652     
   3403855553.1132226     
   3625945704.3605251     
   3524189392.3550286     
   3425794089.5431967     
   3331066691.2128291     
   3240381699.3282509     
   3436783936.7514153     
   3347406655.2670326     
   3262519202.4326930     
   3182470003.0563307     
   3107674614.4337840     
   3279695395.8125925     
   3203168143.7064047     
   3132318182.6880374     
   3067504012.5393186     
   3009143657.8945618     
   3594460072.7649708     
   3445518959.6463542     
   3299758172.1643462     
   3157538713.9042687     
   3019342287.9031005     
   3403855553.1132226     
   3269372447.2989259     
   3138847201.4278011     
   3012723661.3229356     
   2891569387.6094608     
   3240381699.3282509     
   3120954728.5190654     
   3006307965.9576979     
   2896949125.4609432     
   2793502686.3128014     
   3107674614.4337840     
   3003804521.3481097     
   2905528117.7824693     
   2813384289.5384398     
   2728011004.5892215     
   3009143657.8945618     
   2921100219.3837709     
   2839385988.2010813     
   2764528815.8650899     
   2697130014.6084728     
   3019342287.9031005     
   2888638714.1447606     
   2760172623.0168920     
   2634254753.4382939     
   2511280722.1659894     
   2891569387.6094608     
   2772545344.2473273     
   2656916218.7772202     
   2545119863.4800711     
   2437695218.3145800     
   2793502686.3128014     
   2687813908.5734215     
   2586799731.7149801     
   2490997824.1783619     
   2401046068.8074894     
   2728011004.5892215     
   2636870674.2225060     
   2551694369.2071476     
   2473063266.2236705     
   2401639281.8360214     
   2697130014.6084728     
   2621088060.7184200     
   2552190851.1968007     
   2490994112.2444878     
   2438103897.4735065     
   2511280722.1659894     
   2372089781.8870454     
   2236554146.7545075     
   2105189141.3596199     
   1978666228.6790793     
   2437695218.3145800     
   2312812300.0269876     
   2192972024.4688363     
   2078886266.4820809     
   1971434587.1620231     
   2401046068.8074894     
   2292484729.7440367     
   2190395085.2499208     
   2095600064.5598085     
   2009059288.3181906     
   2401639281.8360214     
   2310661878.2939982     
   2227418694.9395833     
   2152726309.5766931     
   2087480227.9052734     
   2438103897.4735065     
   2365043295.0975127     
   2300668001.1339645     
   2245689442.1688881     
   2200841612.1992569     
   1978666228.6790793     
   1848017839.2263784     
   1717402093.6714432     
   1587162307.6716681     
   1457797904.1712656     
   1971434587.1620231     
   1855331926.8828363     
   1743594008.1928570     
   1637137369.6358793     
   1537086709.6776123     
   2009059288.3181906     
   1912653010.9993572     
   1825019203.9026444     
   1747356456.8803096     
   1680954957.3032084     
   2087480227.9052734     
   2012376705.4232905     
   1949637963.7232873     
   1900345353.5485930     
   1865530122.5808661     
   2200841612.1992569     
   2145639487.9365098     
   2105397086.9515622     
   2080886405.5828497     
   2072789007.3668954     
   1457797904.1712656     
   1348712743.4640689     
   1274613308.1958294     
   1243638920.1431732     
   1262840218.0198016     
   1537086709.6776123     
   1476197012.2335672     
   1448002990.7591345     
   1456474847.5534024     
   1504907093.4338191     
   1680954957.3032084     
   1652464521.1174226     
   1651690598.4288111     
   1681001445.5083065     
   1743003141.0537376     
   1865530122.5808661     
   1855039764.7079694     
   1867506848.2673042     
   1905138468.3087091     
   1970963738.3353620     
   2072789007.3668954     
   2069305487.6069794     
   2085032871.1513076     
   2122601156.0942702     
   2185821947.9718337     
   1262840218.0198016     
   1446661157.6741860     
   1715683441.7418001     
   2110494947.9453869     
   2663549883.3522840     
   1504907093.4338191     
   1613300766.0271232     
   1788881197.0238383     
   2066408103.5886695     
   2476101691.1556458     
   1743003141.0537376     
   1787775485.7561696     
   1884690483.1092112     
   2060665904.4791451     
   2340943241.3556819     
   1970963738.3353620     
   1969045448.8837931     
   2003676406.2608666     
   2093536466.9797068     
   2257292663.9916153     
   2185821947.9718337     
   2156396248.8877892     
   2146579883.4890063     
   2166898308.9837375     
   2228424413.1054859     
   3636014111.3448772     
   3538616234.8636928     
   3446643866.1878524     
   3360206405.7479315     
   3279695395.8125925     
   3364491052.2209234     
   3289866023.7690511     
   3221406256.5840378     
   3159476000.4625225     
   3104587453.9778543     
   3139378586.5695896     
   3084324182.4420915     
   3036112362.5040545     
   2995130099.1338935     
   2961814644.3035126     
   2966748738.0198803     
   2927529959.9774961     
   2895628297.5613871     
   2871217975.7274814     
   2854495237.4153495     
   2851908546.1428432     
   2824183374.1066809     
   2803937605.0299907     
   2790922577.9965858     
   2784976978.0086274     
   3279695395.8125925     
   3203168143.7064047     
   3132318182.6880374     
   3067504012.5393186     
   3009143657.8945618     
   3104587453.9778543     
   3042622050.1412816     
   2986500022.1370945     
   2936532780.6728768     
   2893070146.9518914     
   2961814644.3035126     
   2913480261.3243876     
   2870994057.5707331     
   2834605181.4977717     
   2804583206.1810622     
   2854495237.4153495     
   2818667934.5310674     
   2788507555.0846415     
   2764193962.2422371     
   2745914530.5583296     
   2784976978.0086274     
   2760319346.5616922     
   2740955076.5511894     
   2726997760.3400459     
   2718561274.4415450     
   3009143657.8945618     
   2921100219.3837709     
   2839385988.2010813     
   2764528815.8650899     
   2697130014.6084728     
   2893070146.9518914     
   2819856128.2737136     
   2753830323.3487902     
   2695491813.1686039     
   2645391474.5380936     
   2804583206.1810622     
   2745963525.6835461     
   2695287340.5050650     
   2652986523.7102132     
   2619522386.4323244     
   2745914530.5583296     
   2701071797.6268697     
   2664791574.7254996     
   2637411137.2396479     
   2619279378.9151607     
   2718561274.4415450     
   2686043731.8660755     
   2662569527.5246186     
   2648371477.7240081     
   2643683583.3998880     
   2697130014.6084728     
   2621088060.7184200     
   2552190851.1968007     
   2490994112.2444878     
   2438103897.4735065     
   2645391474.5380936     
   2584437470.3963032     
   2531273631.1229405     
   2486384961.4023232     
   2450280489.5626497     
   2619522386.4323244     
   2573082977.9306350     
   2534912660.3539572     
   2505398659.6284742     
   2484932483.0506473     
   2619279378.9151607     
   2586269252.9953737     
   2561848788.3483858     
   2546299405.0131135     
   2539896171.5094151     
   2643683583.3998880     
   2622569546.1478062     
   2610247157.4698124     
   2606900869.6765757     
   2612706169.5597501     
   2438103897.4735065     
   2365043295.0975127     
   2300668001.1339645     
   2245689442.1688881     
   2200841612.1992569     
   2450280489.5626497     
   2393632654.4287152     
   2346404357.9668622     
   2309154793.2026911     
   2282427434.5809402     
   2484932483.0506473     
   2443404500.1684618     
   2411751551.9980097     
   2390368881.6933408     
   2379618401.5293288     
   2539896171.5094151     
   2511670214.5809469     
   2493572707.6592112     
   2485852864.9510179     
   2488725736.9432974     
   2612706169.5597501     
   2595623556.0459566     
   2588817521.7980180     
   2592423949.2490630     
   2606553395.6441031     
   2200841612.1992569     
   2145639487.9365098     
   2105397086.9515622     
   2080886405.5828497     
   2072789007.3668954     
   2282427434.5809402     
   2242113422.3704028     
   2215699400.9453506     
   2203635890.0407495     
   2206310333.7021532     
   2379618401.5293288     
   2351228896.5718002     
   2335655462.9759083     
   2333147067.3536420     
   2343922697.8749127     
   2488725736.9432974     
   2469601767.1835766     
   2462301925.1862688     
   2466960600.9953952     
   2483709525.3334208     
   2606553395.6441031     
   2594412133.9222879     
   2593254692.5541048     
   2603158209.2307301     
   2624215949.8943939     
   2072789007.3668954     
   2069305487.6069794     
   2085032871.1513076     
   2122601156.0942702     
   2185821947.9718337     
   2206310333.7021532     
   2191944733.5806122     
   2192564202.7671885     
   2210137427.5018854     
   2247585079.6973505     
   2343922697.8749127     
   2319484933.0746799     
   2306589231.2340331     
   2306640942.7605758     
   2321729984.3917460     
   2483709525.3334208     
   2450958245.3175769     
   2426791681.4728603     
   2412155173.5895777     
   2408427227.2077446     
   2624215949.8943939     
   2585588327.0103488     
   2552889598.1117520     
   2526701327.0953255     
   2507833845.0271788     
   2185821947.9718337     
   2156396248.8877892     
   2146579883.4890063     
   2166898308.9837375     
   2228424413.1054859     
   2247585079.6973505     
   2182803197.3520346     
   2134464397.7290118     
   2112236678.3556693     
   2127056190.7228265     
   2321729984.3917460     
   2224931903.5337887     
   2141460357.7253532     
   2079680901.2892952     
   2049766436.7176139     
   2408427227.2077446     
   2283075895.2790890     
   2168214950.6649189     
   2070583724.3722122     
   1998950803.7714279     
   2507833845.0271788     
   2357443947.7197361     
   2215198794.3228312     
   2086077510.8239555     
   1976955589.5966682     
   2851908546.1428432     
   2824183374.1066809     
   2803937605.0299907     
   2790922577.9965858     
   2784976978.0086274     
   2800283748.6241121     
   2770618673.2998800     
   2748179511.5316176     
   2733007681.5019741     
   2725164635.4146175     
   2783458047.2767792     
   2749292008.5806732     
   2723398296.6221442     
   2705835462.8942428     
   2696666596.8516297     
   2807134097.5286398     
   2765867787.6892667     
   2735055187.6307936     
   2714530673.1847529     
   2704165028.8246222     
   2876283581.7717314     
   2825256310.8852363     
   2787765246.8398366     
   2763238358.4543777     
   2751208083.8116584     
   2784976978.0086274     
   2760319346.5616922     
   2740955076.5511894     
   2726997760.3400459     
   2718561274.4415450     
   2725164635.4146175     
   2702191332.0520597     
   2685889628.9556479     
   2676361500.5026326     
   2673710848.9267449     
   2696666596.8516297     
   2674300721.0593424     
   2660190924.4922390     
   2654391502.6500478     
   2656963295.4292583     
   2704165028.8246222     
   2680478590.2382431     
   2666800631.1563487     
   2663121156.6288433     
   2669443391.8414850     
   2751208083.8116584     
   2723478426.9570570     
   2707630404.6735802     
   2703601921.7121844     
   2711351298.9000220     
   2718561274.4415450     
   2686043731.8660755     
   2662569527.5246186     
   2648371477.7240081     
   2643683583.3998880     
   2673710848.9267449     
   2649275058.4501491     
   2634103769.3146782     
   2628332704.0468731     
   2632095782.5651803     
   2656963295.4292583     
   2638031440.5975809     
   2628551583.2662873     
   2628584008.4326768     
   2638187406.1849375     
   2669443391.8414850     
   2653101567.7908058     
   2646396005.6418319     
   2649340686.2856841     
   2661949134.6657085     
   2711351298.9000220     
   2694517568.7512126     
   2687520863.6678710     
   2690361866.3173394     
   2703041337.8801279     
   2643683583.3998880     
   2622569546.1478062     
   2610247157.4698124     
   2606900869.6765757     
   2612706169.5597501     
   2632095782.5651803     
   2618089303.1155362     
   2612805576.5940528     
   2616343666.3113832     
   2628795704.5887833     
   2638187406.1849375     
   2628906634.1878338     
   2628289560.0999498     
   2636376684.3479061     
   2653204896.8014212     
   2661949134.6657085     
   2654887273.8287296     
   2656469401.4479280     
   2666704536.4880772     
   2685600916.5576544     
   2703041337.8801279     
   2695662717.6113329     
   2696963619.8362317     
   2706947683.9319410     
   2725619249.7597589     
   2612706169.5597501     
   2595623556.0459566     
   2588817521.7980180     
   2592423949.2490630     
   2606553395.6441031     
   2628795704.5887833     
   2617352642.0394201     
   2616133209.6622252     
   2625218876.5496125     
   2644675076.4838781     
   2653204896.8014212     
   2646041810.1829290     
   2649168989.1223388     
   2662626324.5146208     
   2686446188.4726806     
   2685600916.5576544     
   2681272256.3372250     
   2687447007.5680337     
   2704135914.4536557     
   2731348861.7523913     
   2725619249.7597589     
   2722616371.1277623     
   2730498304.0645580     
   2749259245.0382633     
   2778896373.0902925     
   2606553395.6441031     
   2594412133.9222879     
   2593254692.5541048     
   2603158209.2307301     
   2624215949.8943939     
   2644675076.4838781     
   2633923124.7056570     
   2633395497.4192376     
   2643130637.7331719     
   2663178279.4532790     
   2686446188.4726806     
   2676738010.7753067     
   2676670977.7530708     
   2686259816.7542315     
   2705525528.4880853     
   2731348861.7523913     
   2722473533.9368086     
   2722815123.0395136     
   2732376385.3747225     
   2751162359.8290219     
   2778896373.0902925     
   2770765745.2276177     
   2771571345.7488227     
   2781313036.7174921     
   2799990799.7758231     
   2624215949.8943939     
   2585588327.0103488     
   2552889598.1117520     
   2526701327.0953255     
   2507833845.0271788     
   2663178279.4532790     
   2617568018.5795565     
   2577659995.8389320     
   2543784708.9209266     
   2516404313.7514825     
   2705525528.4880853     
   2655054845.7033782     
   2610203516.1528745     
   2571118346.4248934     
   2538004564.5492058     
   2751162359.8290219     
   2697958731.5670433     
   2650434834.6031947     
   2608626796.5470552     
   2572584684.2796488     
   2799990799.7758231     
   2746180827.0460567     
   2698253870.8020587     
   2656209898.9380441     
   2620048901.3661361     
   2507833845.0271788     
   2357443947.7197361     
   2215198794.3228312     
   2086077510.8239555     
   1976955589.5966682     
   2516404313.7514825     
   2348469400.7159247     
   2184076905.2546520     
   2026325537.6288409     
   1879779246.3946004     
   2538004564.5492058     
   2357610771.1059027     
   2176953309.5608459     
   1997502637.4299958     
   1821535793.3008831     
   2572584684.2796488     
   2384972451.8132482     
   2194295161.3178306     
   2000930417.1689537     
   1805481609.9764392     
   2620048901.3661361     
   2430523668.6187682     
   2236244702.2792611     
   2037211999.0015931     
   1833425555.7237139     
   2876283581.7717314     
   2825256310.8852363     
   2787765246.8398366     
   2763238358.4543777     
   2751208083.8116584     
   2709021155.0825410     
   2682915829.4979868     
   2667511890.4045024     
   2662691224.3101864     
   2668361276.2619796     
   2625256332.3215280     
   2614495054.9566984     
   2612213860.9345241     
   2618499124.6586909     
   2633438602.0187073     
   2616298453.5390201     
   2611817641.3340993     
   2614451266.2691693     
   2624139097.1564841     
   2640882073.2674170     
   2667999324.5176053     
   2662499827.7041655     
   2663594435.0145159     
   2670695084.4823823     
   2683424145.3912954     
   2751208083.8116584     
   2723478426.9570570     
   2707630404.6735802     
   2703601921.7121844     
   2711351298.9000220     
   2668361276.2619796     
   2652120927.4709353     
   2645345798.1133451     
   2648046784.5589700     
   2660236023.0528374     
   2633438602.0187073     
   2623889455.0266886     
   2621392396.3185730     
   2626014300.2021594     
   2637820562.9474001     
   2640882073.2674170     
   2634446070.4221163     
   2632686491.6480851     
   2635678198.1928916     
   2643509860.1903844     
   2683424145.3912954     
   2677976068.0325651     
   2674875962.7866297     
   2674144132.9266739     
   2675847184.0606146     
   2711351298.9000220     
   2694517568.7512126     
   2687520863.6678710     
   2690361866.3173394     
   2703041337.8801279     
   2660236023.0528374     
   2644721896.4694409     
   2638659276.8143921     
   2642066725.4498830     
   2654962127.0519595     
   2637820562.9474001     
   2620811755.7818117     
   2612899795.7434435     
   2614149162.0826755     
   2624621977.5202737     
   2643509860.1903844     
   2622404512.1252708     
   2610059550.6783066     
   2606607868.0678520     
   2612178624.4901133     
   2675847184.0606146     
   2648400053.9016271     
   2629373060.9251833     
   2618982256.8534079     
   2617440576.3888941     
   2703041337.8801279     
   2695662717.6113329     
   2696963619.8362317     
   2706947683.9319410     
   2725619249.7597589     
   2654962127.0519595     
   2647688531.4243355     
   2649068420.9411578     
   2659115014.9677024     
   2677840766.4291444     
   2624621977.5202737     
   2615602976.7805920     
   2615284603.3827906     
   2623708432.0728412     
   2640912319.3870449     
   2612178624.4901133     
   2599563038.6282148     
   2595761270.6647038     
   2600863082.7233710     
   2614950500.1456175     
   2617440576.3888941     
   2599445267.7560792     
   2590427363.7977700     
   2590545196.1771836     
   2599945205.5011430     
   2725619249.7597589     
   2722616371.1277623     
   2730498304.0645580     
   2749259245.0382633     
   2778896373.0902925     
   2677840766.4291444     
   2675738343.9776506     
   2684005469.9789610     
   2702647858.8976102     
   2731669547.5585446     
   2640912319.3870449     
   2637313715.2561612     
   2643687909.7697735     
   2660072694.9653916     
   2686497480.5835128     
   2614950500.1456175     
   2607597182.5228076     
   2609907748.3884845     
   2621971243.3947706     
   2643861068.2050519     
   2599945205.5011430     
   2586773507.8236914     
   2583003413.2814159     
   2588793235.6907115     
   2604279784.9606867     
   2778896373.0902925     
   2770765745.2276177     
   2771571345.7488227     
   2781313036.7174921     
   2799990799.7758231     
   2731669547.5585446     
   2722511038.9691854     
   2722574351.3221207     
   2731863323.9656167     
   2750382803.6531558     
   2686497480.5835128     
   2676425985.3037329     
   2676010743.6125822     
   2685266872.4714913     
   2704215432.8313332     
   2643861068.2050519     
   2632866046.7474794     
   2632127209.1177444     
   2641680796.9736619     
   2661577235.4866509     
   2604279784.9606867     
   2592209384.3715167     
   2591180550.4755559     
   2601263428.7630353     
   2622552656.5942636     
   2799990799.7758231     
   2746180827.0460567     
   2698253870.8020587     
   2656209898.9380441     
   2620048901.3661361     
   2750382803.6531558     
   2697405576.6299319     
   2650086146.7979908     
   2608461458.8947878     
   2572583729.8492470     
   2704215432.8313332     
   2654118144.3749757     
   2609595649.9185038     
   2570795333.2387271     
   2537923605.3928676     
   2661577235.4866509     
   2616411335.0674877     
   2576879279.5870090     
   2543310745.4026151     
   2516164876.5440450     
   2622552656.5942636     
   2584368275.8634987     
   2552018655.9312148     
   2526081998.3646545     
   2507358370.7143388     
   2620048901.3661361     
   2430523668.6187682     
   2236244702.2792611     
   2037211999.0015931     
   1833425555.7237139     
   2572583729.8492470     
   2384953177.8978419     
   2194269843.5148401     
   2000913908.1218426     
   1805492192.9552915     
   2537923605.3928676     
   2357521046.2211919     
   2176878885.4633565     
   1997475036.2678463     
   1821597846.8281114     
   2516164876.5440450     
   2348258041.5711641     
   2183928580.2426839     
   2026289098.3216519     
   1879924906.7946618     
   2507358370.7143388     
   2357060268.1327038     
   2214951609.2737060     
   2086032521.9158823     
   1977209780.5823309     
   2667999324.5176053     
   2662499827.7041655     
   2663594435.0145159     
   2670695084.4823823     
   2683424145.3912954     
   2892829972.0153270     
   2858313831.3805819     
   2829986556.1469188     
   2807928049.3321290     
   2792296396.4983888     
   3148535646.5721817     
   3083911513.5450354     
   3026335797.4147797     
   2976117540.7484298     
   2933621017.8413453     
   3436087335.7835717     
   3340744260.2340221     
   3254129884.0331640     
   3176500017.6360097     
   3108205255.4416995     
   3756514961.2003036     
   3629970850.1057792     
   3514327522.0524483     
   3409611044.9628320     
   3316018231.5500622     
   2683424145.3912954     
   2677976068.0325651     
   2674875962.7866297     
   2674144132.9266739     
   2675847184.0606146     
   2792296396.4983888     
   2767317702.5375142     
   2746171346.6864462     
   2729001951.6443052     
   2715978995.4845672     
   2933621017.8413453     
   2888919558.8282194     
   2849492075.9064970     
   2815565545.2960882     
   2787392932.4688525     
   3108205255.4416995     
   3043260241.7466049     
   2984912054.3858776     
   2933438379.7210560     
   2889164652.9609294     
   3316018231.5500622     
   3229956477.4892101     
   3151644744.1178970     
   3081388863.3774385     
   3019582926.0130124     
   2675847184.0606146     
   2648400053.9016271     
   2629373060.9251833     
   2618982256.8534079     
   2617440576.3888941     
   2715978995.4845672     
   2674654390.8376784     
   2641561487.5141053     
   2617019144.6222658     
   2601353671.6342535     
   2787392932.4688525     
   2730793893.4935999     
   2682060906.1593871     
   2641610333.5083833     
   2609885189.8412862     
   2889164652.9609294     
   2816437295.0457664     
   2751033872.4192867     
   2693444515.7081265     
   2644211417.0960684     
   3019582926.0130124     
   2930373331.8890185     
   2847802049.5423346     
   2772396195.7484326     
   2704761293.0502095     
   2617440576.3888941     
   2599445267.7560792     
   2590427363.7977700     
   2590545196.1771836     
   2599945205.5011430     
   2601353671.6342535     
   2571098007.7143064     
   2549575223.8908010     
   2537049240.5071278     
   2533773305.2830067     
   2609885189.8412862     
   2565353831.4733238     
   2529143867.6253791     
   2501639226.7954030     
   2483225325.7343507     
   2644211417.0960684     
   2583945420.1867537     
   2531371642.4860396     
   2486986424.8047986     
   2451312492.1245408     
   2704761293.0502095     
   2627948549.2212076     
   2557972115.7922115     
   2495407591.9945788     
   2440891215.8970160     
   2599945205.5011430     
   2586773507.8236914     
   2583003413.2814159     
   2588793235.6907115     
   2604279784.9606867     
   2533773305.2830067     
   2507175391.7039204     
   2490146673.1245565     
   2482949375.8151069     
   2485816573.2608652     
   2483225325.7343507     
   2441650456.0936685     
   2409747089.9574323     
   2387910908.3220286     
   2376508809.9089847     
   2451312492.1245408     
   2393379852.2441525     
   2345069537.3623447     
   2306931224.9032750     
   2279500723.4367876     
   2440891215.8970160     
   2365543759.7584419     
   2299541621.6238856     
   2243586676.0113063     
   2198401309.1648579     
   2604279784.9606867     
   2592209384.3715167     
   2591180550.4755559     
   2601263428.7630353     
   2622552656.5942636     
   2485816573.2608652     
   2467100978.5174322     
   2460222779.1027770     
   2465310356.2015009     
   2482494118.5132227     
   2376508809.9089847     
   2348731504.8408098     
   2333729973.9606438     
   2331749251.4897590     
   2343005410.6147304     
   2279500723.4367876     
   2239894073.9147582     
   2214079969.9110909     
   2202507409.1362653     
   2205560078.9345636     
   2198401309.1648579     
   2143929429.8092301     
   2104224193.1109800     
   2080056920.1693223     
   2072104055.0587981     
   2622552656.5942636     
   2584368275.8634987     
   2552018655.9312148     
   2526081998.3646545     
   2507358370.7143388     
   2482494118.5132227     
   2449967775.1615524     
   2425973274.9347186     
   2411454925.1054358     
   2407784269.6671653     
   2343005410.6147304     
   2318628061.6561360     
   2305780821.7697973     
   2305870371.9601665     
   2320985294.4173145     
   2205560078.9345636     
   2191136401.5424957     
   2191727626.6633511     
   2209306693.7815981     
   2246801273.7867498     
   2072104055.0587981     
   2068476543.0457065     
   2084135700.8090684     
   2121719999.0185425     
   2185059136.9420266     
   2507358370.7143388     
   2357060268.1327038     
   2214951609.2737060     
   2086032521.9158823     
   1977209780.5823309     
   2407784269.6671653     
   2282634244.7927704     
   2167998832.9693918     
   2070630666.5815463     
   1999314766.7929406     
   2320985294.4173145     
   2224462372.7931938     
   2141267990.6406238     
   2079769855.4458165     
   2050139980.9234459     
   2246801273.7867498     
   2182333673.1424322     
   2134287712.7069914     
   2112320579.8545828     
   2127351059.0496902     
   2185059136.9420266     
   2155952695.0120907     
   2146410448.6038861     
   2166933902.5176969     
   2228564940.6368742     
   3756514961.2003036     
   3629970850.1057792     
   3514327522.0524483     
   3409611044.9628320     
   3316018231.5500622     
   3929091851.9194603     
   3802648820.4601240     
   3682842876.1869721     
   3570007210.5086799     
   3464591465.4827499     
   4141877178.9775310     
   4012657745.0054836     
   3886681095.6433349     
   3764300152.1493678     
   3645958582.2799225     
   4378713863.9757872     
   4246164485.9424334     
   4114209748.1010985     
   3982990416.0255346     
   3852747410.7305331     
   4626809213.4772415     
   4492109577.2603283     
   4355970313.2695618     
   4218155412.7592821     
   4078579255.0815887     
   3316018231.5500622     
   3229956477.4892101     
   3151644744.1178970     
   3081388863.3774385     
   3019582926.0130124     
   3464591465.4827499     
   3368312739.1164808     
   3277832344.1369576     
   3193485400.5254908     
   3115691350.4049292     
   3645958582.2799225     
   3539540704.8882513     
   3437197383.9017425     
   3339239326.3795877     
   3246049899.5637403     
   3852747410.7305331     
   3737113659.2611809     
   3624079971.9095807     
   3513898657.7286048     
   3406877961.3114452     
   4078579255.0815887     
   3955233602.2181935     
   3833267631.3365097     
   3712861499.4514050     
   3594233808.8529429     
   3019582926.0130124     
   2930373331.8890185     
   2847802049.5423346     
   2772396195.7484326     
   2704761293.0502095     
   3115691350.4049292     
   3011039879.3852062     
   2912149838.9801130     
   2819562556.2046676     
   2733923150.5303507     
   3246049899.5637403     
   3126125089.4672003     
   3011018743.8090844     
   2901241473.8770990     
   2797424135.9640441     
   3406877961.3114452     
   3272169535.0565529     
   3141342218.5761604     
   3014840974.3565044     
   2893235626.0642428     
   3594233808.8529429     
   3445404986.4190726     
   3299581847.1710000     
   3157123602.5887032     
   3018508125.0778575     
   2704761293.0502095     
   2627948549.2212076     
   2557972115.7922115     
   2495407591.9945788     
   2440891215.8970160     
   2733923150.5303507     
   2641940003.4465451     
   2555704153.6922164     
   2475800748.5341558     
   2402902044.9802470     
   2797424135.9640441     
   2691021495.3256946     
   2589201704.9972849     
   2492497569.9775901     
   2401544184.2858715     
   2893235626.0642428     
   2773712813.6401086     
   2657642420.7415061     
   2545456987.1490464     
   2437689424.1902208     
   3018508125.0778575     
   2887497288.3589110     
   2758939873.8637509     
   2633146872.1547003     
   2510512945.7677474     
   2440891215.8970160     
   2365543759.7584419     
   2299541621.6238856     
   2243586676.0113063     
   2198401309.1648579     
   2402902044.9802470     
   2310498045.2241488     
   2226271815.6599827     
   2151044961.5820117     
   2085718183.4192312     
   2401544184.2858715     
   2292210727.0962834     
   2189564123.0583959     
   2094437294.7187769     
   2007801635.6721025     
   2437689424.1902208     
   2312629732.1255980     
   2192598390.1683598     
   2078311512.8576796     
   1970652779.3473740     
   2510512945.7677474     
   2371819779.4908943     
   2236556058.0258923     
   2105229882.3029833     
   1978499168.1459889     
   2198401309.1648579     
   2143929429.8092301     
   2104224193.1109800     
   2080056920.1693223     
   2072104055.0587981     
   2085718183.4192312     
   2011067846.7853849     
   1948656786.5152037     
   1899560821.0889406     
   1864804804.9751320     
   2007801635.6721025     
   1911614076.3987381     
   1824148280.9808311     
   1746598170.7129140     
   1680249421.5132532     
   1970652779.3473740     
   1854532581.5498521     
   1742806703.8014691     
   1636394217.4966245     
   1536422829.7606735     
   1978499168.1459889     
   1847554920.2061841     
   1716749062.9650917     
   1586435451.0553026     
   1457124252.6281826     
   2072104055.0587981     
   2068476543.0457065     
   2084135700.8090684     
   2121719999.0185425     
   2185059136.9420266     
   1864804804.9751320     
   1854277829.7073479     
   1866756379.3905652     
   1904453444.8627145     
   1970408909.2631803     
   1680249421.5132532     
   1651804082.1685388     
   1651095532.7445636     
   1680495106.5018637     
   1742612370.5540197     
   1536422829.7606735     
   1475650273.7245135     
   1447563649.6805024     
   1456131045.7114739     
   1504641604.7678800     
   1457124252.6281826     
   1348244191.4564621     
   1274309900.8673394     
   1243445182.7459803     
   1262677811.5757232     
   2185059136.9420266     
   2155952695.0120907     
   2146410448.6038861     
   2166933902.5176969     
   2228564940.6368742     
   1970408909.2631803     
   1968697248.5634499     
   2003521976.6166811     
   2093542032.8059928     
   2257393207.8734245     
   1742612370.5540197     
   1787497602.5140343     
   1884539232.1696355     
   2060637799.2463739     
   2341007251.3207188     
   1504641604.7678800     
   1613071915.0008082     
   1788723328.9670148     
   2066344378.2397203     
   2476135934.3346815     
   1262677811.5757232     
   1446466432.1850452     
   1715511151.2793674     
   2110397963.5198634     
   2663571414.9251614     
   4626809213.4772415     
   4492109577.2603283     
   4355970313.2695618     
   4218155412.7592821     
   4078579255.0815887     
   4940123886.2846737     
   4783722685.4404316     
   4628087135.5913668     
   4473305051.7078114     
   4319508047.4126186     
   5289671976.8096094     
   5109106246.8620367     
   4932319150.2761784     
   4759245328.1413021     
   4589943939.9835405     
   5678156697.2149248     
   5469934605.7838364     
   5268835640.0770988     
   5074302562.9162264     
   4886135463.2600470     
   6107892452.6568756     
   5867472755.3965006     
   5637535815.6828537     
   5416820933.5141888     
   5204781668.9932318     
   4078579255.0815887     
   3955233602.2181935     
   3833267631.3365097     
   3712861499.4514050     
   3594233808.8529429     
   4319508047.4126186     
   4185813370.6601448     
   4053027730.0597696     
   3921295080.7085118     
   3790804692.1604104     
   4589943939.9835405     
   4445580102.6683807     
   4301598489.1331892     
   4158090225.2007532     
   4015196959.1144972     
   4886135463.2600470     
   4730631032.9066858     
   4574952163.4585123     
   4419124013.6424770     
   4263225765.4906516     
   5204781668.9932318     
   5037533581.7450733     
   4869546868.2286882     
   4700770664.7861328     
   4531210059.7892618     
   3594233808.8529429     
   3445404986.4190726     
   3299581847.1710000     
   3157123602.5887032     
   3018508125.0778575     
   3790804692.1604104     
   3628295804.5464425     
   3467865357.5807390     
   3309757767.5484290     
   3154317721.7061672     
   4015196959.1144972     
   3840180516.4897184     
   3666482314.3695602     
   3494241114.7822471     
   3323673550.8747506     
   4263225765.4906516     
   4076773994.7757978     
   3891049423.7514176     
   3706103839.5267606     
   3522045493.8244748     
   4531210059.7892618     
   4334255157.2388344     
   4137590403.6235499     
   3941202062.9372520     
   3745115143.5855255     
   3018508125.0778575     
   2887497288.3589110     
   2758939873.8637509     
   2633146872.1547003     
   2510512945.7677474     
   3154317721.7061672     
   3012467021.8377452     
   2872512497.0672255     
   2734683506.3126149     
   2599290474.0149980     
   3323673550.8747506     
   3171344586.5979095     
   3020362602.1588202     
   2870869328.7714119     
   2723080374.0727339     
   3522045493.8244748     
   3359383474.4586568     
   3197546571.9649496     
   3036591496.3181562     
   2876639780.4376864     
   3745115143.5855255     
   3572041503.2748952     
   3399305374.1952395     
   3226885776.2401390     
   3054817609.0646429     
   2510512945.7677474     
   2371819779.4908943     
   2236556058.0258923     
   2105229882.3029833     
   1978499168.1459889     
   2599290474.0149980     
   2450577322.4170351     
   2303842416.4358201     
   2159396262.0989714     
   2017656906.9020076     
   2723080374.0727339     
   2566595104.0664296     
   2410965264.6777420     
   2256328826.1488051     
   2102880460.5994167     
   2876639780.4376864     
   2714679221.7440772     
   2552823438.5513673     
   2391101083.2353435     
   2229560841.9528465     
   3054817609.0646429     
   2889521185.2950721     
   2723918372.0237279     
   2557996458.8514318     
   2391747736.2180262     
   1978499168.1459889     
   1847554920.2061841     
   1716749062.9650917     
   1586435451.0553026     
   1457124252.6281826     
   2017656906.9020076     
   1880633537.9803078     
   1743989577.1678920     
   1607855265.6315830     
   1472409433.5132987     
   2102880460.5994167     
   1962420926.3991253     
   1822934270.3368411     
   1684450984.3659194     
   1547030502.2195470     
   2229560841.9528465     
   2086607421.7691102     
   1945289651.1283309     
   1805608855.3432865     
   1667641433.9272151     
   2391747736.2180262     
   2245629886.4716277     
   2101663542.6214597     
   1959852796.8135111     
   1820363594.7109721     
   1457124252.6281826     
   1348244191.4564621     
   1274309900.8673394     
   1243445182.7459803     
   1262677811.5757232     
   1472409433.5132987     
   1328280654.1736407     
   1198592055.9395194     
   1087819490.3449705     
   1001858939.6238571     
   1547030502.2195470     
   1397247295.6252322     
   1243894983.8962100     
   1084704508.3167000     
   917647212.19062352     
   1667641433.9272151     
   1552290212.7104070     
   1427835690.9253433     
   1294644003.8275626     
   1158837622.3337955     
   1820363594.7109721     
   1779710608.6167316     
   1735568424.4381952     
   1696567900.3039680     
   1681176571.4706986     
   1262677811.5757232     
   1446466432.1850452     
   1715511151.2793674     
   2110397963.5198634     
   2663571414.9251614     
   1001858939.6238571     
   1164552264.6283729     
   1425309910.7639372     
   1808705512.5777619     
   2334816159.7441363     
   917647212.19062352     
   963042671.72496414     
   1144875946.7307539     
   1476471638.0813775     
   1957490691.7457991     
   1158837622.3337955     
   1008398630.5949185     
   985215443.74740779     
   1161504275.5363545     
   1544116416.3731589     
   1681176571.4706986     
   1383690973.2007043     
   1129477259.0497782     
   1010207294.6438671     
   1153034857.4799514     
 </DataArray>
 <DataArray  type="Float64" Name="strain" NumberOfComponents="3" format="ascii">
  0.10016097072374941       -2.7629876609654547E-002   3.2175586077938245E-003
   9.6847406773522660E-002  -2.8100834650397477E-002   2.1441949636595847E-003
   9.3533842823296021E-002  -2.8085636222191568E-002   1.3136909984799994E-003
   9.0220278873069382E-002  -2.7584281325037055E-002   7.2604671225462436E-004
   8.6906714922842632E-002  -2.6596769958934008E-002   3.8126210498390378E-004
   9.3760608462393757E-002  -2.6681080525888246E-002   8.5636109498576918E-003
   9.0674245968627887E-002  -2.6676498946753169E-002   8.0422502492646375E-003
   8.7587883474861794E-002  -2.6366930367061059E-002   7.7324327826385209E-003
   8.4501520981095868E-002  -2.5752374786812027E-002   7.6341585499792863E-003
   8.1415158487329886E-002  -2.4832832206005739E-002   7.7474275512871560E-003
   8.7532335632320379E-002  -2.5732284442121833E-002   1.4475787645995275E-002
   8.4641858150027505E-002  -2.5252163243108972E-002   1.4325260420551822E-002
   8.1751380667734685E-002  -2.4648224511930522E-002   1.4354959984087895E-002
   7.8860903185441894E-002  -2.3920468248586714E-002   1.4564886336603064E-002
   7.5970425703149047E-002  -2.3068894453077471E-002   1.4955039478097815E-002
   8.1476152233528887E-002  -2.4783488358355532E-002   2.0954088696206616E-002
   7.8750243317721721E-002  -2.3827827539464649E-002   2.0993225477520916E-002
   7.6024334401914556E-002  -2.2929518656800055E-002   2.1181272602827352E-002
   7.3298425486107391E-002  -2.2088561710361432E-002   2.1518230072125628E-002
   7.0572516570300226E-002  -2.1304956700149202E-002   2.2004097885415665E-002
   7.5592058266019557E-002  -2.3834692274589175E-002   2.7998514100491367E-002
   7.2999401471710523E-002  -2.2403491835820466E-002   2.8046145420172475E-002
   7.0406744677401489E-002  -2.1210812801669476E-002   2.8211370638857369E-002
   6.7814087883092483E-002  -2.0256655172136373E-002   2.8494189756546967E-002
   6.5221431088783477E-002  -1.9541018947220934E-002   2.8894602773241018E-002
   8.6906714922842632E-002  -2.6596769958934008E-002   3.8126210498390378E-004
   8.4034955525920108E-002  -2.5415538100887425E-002   1.7214597564557677E-004
   8.1163196128997750E-002  -2.4333021727901943E-002   1.9985978692033113E-004
   7.8291436732075309E-002  -2.3349220839977834E-002   4.6440353880794483E-004
   7.5419677335152868E-002  -2.2464135437115562E-002   9.6577723130875093E-004
   8.1415158487329886E-002  -2.4832832206005739E-002   7.7474275512871560E-003
   7.8768171401913084E-002  -2.3793373450701982E-002   7.4911423758621254E-003
   7.6121184316496338E-002  -2.2819069346960152E-002   7.4475718828352078E-003
   7.3474197231079605E-002  -2.1909919894780180E-002   7.6167160722066807E-003
   7.0827210145662789E-002  -2.1065925094162163E-002   7.9985749439766551E-003
   7.5970425703149047E-002  -2.3068894453077471E-002   1.4955039478097815E-002
   7.3524095671023415E-002  -2.2171208800516734E-002   1.4685146090085172E-002
   7.1077765638897769E-002  -2.1305116966018264E-002   1.4603852126256256E-002
   6.8631435606772151E-002  -2.0470618949582419E-002   1.4711157586611380E-002
   6.6185105574646491E-002  -1.9667714751208654E-002   1.5007062471150273E-002
   7.0572516570300226E-002  -2.1304956700149202E-002   2.2004097885415665E-002
   6.8302728333251128E-002  -2.0549044150331389E-002   2.1754157118315048E-002
   6.6032940096202017E-002  -1.9791164585076536E-002   2.1668700517183736E-002
   6.3763151859152878E-002  -1.9031318004384491E-002   2.1747728082021744E-002
   6.1493363622103801E-002  -1.8269504408255199E-002   2.1991239812828904E-002
   6.5221431088783477E-002  -1.9541018947220934E-002   2.8894602773241018E-002
   6.3104069388596307E-002  -1.8926879500146154E-002   2.8698175460552061E-002
   6.0986707688409109E-002  -1.8277212204134641E-002   2.8642117055617478E-002
   5.8869345988221980E-002  -1.7592017059186546E-002   2.8726427558438183E-002
   5.6751984288034796E-002  -1.6871294065301745E-002   2.8951106969013041E-002
   7.5419677335152868E-002  -2.2464135437115562E-002   9.6577723130875093E-004
   7.2175060831223936E-002  -2.1614314641474286E-002   6.7926689200381585E-004
   6.8930444327294949E-002  -2.0736307575214302E-002   5.4634578476570050E-004
   6.5685827823365933E-002  -1.9830114238335479E-002   5.6701390959401632E-004
   6.2441211319437029E-002  -1.8895734630837935E-002   7.4127126648881880E-004
   7.0827210145662789E-002  -2.1065925094162163E-002   7.9985749439766551E-003
   6.7742115088907651E-002  -2.0244831608763614E-002   7.6921285841239362E-003
   6.4657020032152568E-002  -1.9404386102242627E-002   7.5511358865522904E-003
   6.1571924975397485E-002  -1.8544588574598737E-002   7.5755968512619537E-003
   5.8486829918642347E-002  -1.7665439025831731E-002   7.7655114782527734E-003
   6.6185105574646491E-002  -1.9667714751208654E-002   1.5007062471150273E-002
   6.3271396395279955E-002  -1.8875348576052914E-002   1.4671845841253056E-002
   6.0357687215913516E-002  -1.8072464629270382E-002   1.4513947303852165E-002
   5.7443978036547015E-002  -1.7259062910861104E-002   1.4533366858947121E-002
   5.4530268857180542E-002  -1.6435143420825582E-002   1.4730104506538250E-002
   6.1493363622103801E-002  -1.8269504408255199E-002   2.1991239812828904E-002
   5.8762904750340780E-002  -1.7505865543342117E-002   2.1618418663391585E-002
   5.6032445878577739E-002  -1.6740543156298422E-002   2.1434780036665064E-002
   5.3301987006814690E-002  -1.5973537247124137E-002   2.1440323932649337E-002
   5.0571528135051655E-002  -1.5204847815819406E-002   2.1635050351344588E-002
   5.6751984288034796E-002  -1.6871294065301745E-002   2.8951106969013041E-002
   5.4216640154090001E-002  -1.6136382510631431E-002   2.8531847050539239E-002
   5.1681296020145207E-002  -1.5408621683326407E-002   2.8313634084991268E-002
   4.9145951886200412E-002  -1.4688011583387076E-002   2.8296468072368838E-002
   4.6610607752255617E-002  -1.3974552210813118E-002   2.8480349012671935E-002
   6.2441211319437029E-002  -1.8895734630837935E-002   7.4127126648881880E-004
   5.9546768648703008E-002  -1.7965025938812995E-002   4.3490630663867158E-004
   5.6652325977969042E-002  -1.7069845348350737E-002   3.3414602246578662E-004
   5.3757883307235077E-002  -1.6210192859452598E-002   4.3899041397113536E-004
   5.0863440636501056E-002  -1.5386068472117209E-002   7.4943948115380188E-004
   5.8486829918642347E-002  -1.7665439025831731E-002   7.7655114782527734E-003
   5.5787502919978860E-002  -1.6787582866469974E-002   7.4177444033803330E-003
   5.3088175921315428E-002  -1.5931665507040671E-002   7.2546039969713649E-003
   5.0388848922651969E-002  -1.5097686947543196E-002   7.2760902590262855E-003
   4.7689521923988509E-002  -1.4285647187978645E-002   7.4822031895440677E-003
   5.4530268857180542E-002  -1.6435143420825582E-002   1.4730104506538250E-002
   5.2005079523373299E-002  -1.5610139794127231E-002   1.4354524618275077E-002
   4.9479890189566167E-002  -1.4793485665729952E-002   1.4142593391260630E-002
   4.6954700855758952E-002  -1.3985181035634241E-002   1.4094310825495705E-002
   4.4429511521951820E-002  -1.3185225903839637E-002   1.4209676920979741E-002
   5.0571528135051655E-002  -1.5204847815819406E-002   2.1635050351344588E-002
   4.8199498458886436E-002  -1.4432696721784349E-002   2.1245246951321503E-002
   4.5827468782721301E-002  -1.3655305824419560E-002   2.0998114205332697E-002
   4.3455439106556144E-002  -1.2872675123724952E-002   2.0893652113379228E-002
   4.1083409430390946E-002  -1.2084804619700629E-002   2.0931860675460490E-002
   4.6610607752255617E-002  -1.3974552210813118E-002   2.8480349012671935E-002
   4.4370759726518216E-002  -1.3255253649441523E-002   2.8089911402519763E-002
   4.2130911700780760E-002  -1.2517125983109112E-002   2.7821166439188194E-002
   3.9891063675043331E-002  -1.1760169211815594E-002   2.7674114122677312E-002
   3.7651215649305902E-002  -1.0984383335561843E-002   2.7648754452986535E-002
   5.0863440636501056E-002  -1.5386068472117209E-002   7.4943948115380188E-004
   4.8114969803938479E-002  -1.4567070445402619E-002   5.0063277559897479E-004
   4.5366498971375790E-002  -1.3722797038364876E-002   2.9579198523355110E-004
   4.2618028138813102E-002  -1.2853248251004257E-002   1.3491711005803042E-004
   3.9869557306250525E-002  -1.1958424083320818E-002   1.8008150071580076E-005
   4.7689521923988509E-002  -1.4285647187978645E-002   7.4822031895440677E-003
   4.4995723077110805E-002  -1.3478059321319846E-002   7.1771660621816613E-003
   4.2301924230233129E-002  -1.2657436440541348E-002   6.9375069909992648E-003
   3.9608125383355383E-002  -1.1823778545642968E-002   6.7632259759975444E-003
   3.6914326536477748E-002  -1.0977085636625583E-002   6.6543230171761669E-003
   4.4429511521951820E-002  -1.3185225903839637E-002   1.4209676920979741E-002
   4.1811796801749790E-002  -1.2389048197237185E-002   1.3836169005606885E-002
   3.9194082081547676E-002  -1.1592075842718264E-002   1.3549451287404618E-002
   3.6576367361345619E-002  -1.0794308840282790E-002   1.3349523766373689E-002
   3.3958652641143533E-002  -9.9957471899305705E-003   1.3236386442513848E-002
   4.1083409430390946E-002  -1.2084804619700629E-002   2.0931860675460490E-002
   3.8563190977855211E-002  -1.1300037073154690E-002   2.0477641605873731E-002
   3.6042972525319489E-002  -1.0526715244895402E-002   2.0131624874448570E-002
   3.3522754072783836E-002  -9.7648391349222791E-003   1.9893810481185534E-002
   3.1002535620248080E-002  -9.0144087432352249E-003   1.9764198426083845E-002
   3.7651215649305902E-002  -1.0984383335561843E-002   2.7648754452986535E-002
   3.5249905605427234E-002  -1.0211025949072083E-002   2.7101583862983114E-002
   3.2848595561548621E-002  -9.4613546470719012E-003   2.6684027752131911E-002
   3.0447285517669939E-002  -8.7353694295613862E-003   2.6396086120433232E-002
   2.8045975473791340E-002  -8.0330702965404344E-003   2.6237758967887159E-002
   3.9869557306250525E-002  -1.1958424083320818E-002   1.8008150071580076E-005
   3.7455941307848795E-002  -1.1130768270383284E-002  -2.7662758397672960E-004
   3.5042325309447231E-002  -1.0462724547262270E-002  -4.7963742287915334E-004
   3.2628709311045528E-002  -9.9542929139563585E-003  -5.9102136663585769E-004
   3.0215093312643937E-002  -9.6054733704664663E-003  -6.1077941524589896E-004
   3.6914326536477748E-002  -1.0977085636625583E-002   6.6543230171761669E-003
   3.4573925926757954E-002  -1.0176533946708144E-002   6.2083688800340653E-003
   3.2233525317038270E-002  -9.4812997091109352E-003   5.8172196251095598E-003
   2.9893124707318502E-002  -8.8913829238345121E-003   5.4808752524029003E-003
   2.7552724097598735E-002  -8.4067835908776534E-003   5.1993357619137814E-003
   3.3958652641143533E-002  -9.9957471899305705E-003   1.3236386442513848E-002
   3.1654646407177189E-002  -9.2222996230323928E-003   1.2693408539773521E-002
   2.9350640173210860E-002  -8.4998748709595451E-003   1.2168414506321779E-002
   2.7046633939244495E-002  -7.8284729337119857E-003   1.1661404342159801E-002
   2.4742627705278186E-002  -7.2080938112892845E-003   1.1172378047286435E-002
   3.1002535620248080E-002  -9.0144087432352249E-003   1.9764198426083845E-002
   2.8698102749106613E-002  -8.2680652993570580E-003   1.9178491395240332E-002
   2.6393669877965101E-002  -7.5184500328084047E-003   1.8573947220757406E-002
   2.4089237006823666E-002  -6.7655629435897993E-003   1.7950565902635121E-002
   2.1784804135682123E-002  -6.0094040317010267E-003   1.7308347440873284E-002
   2.8045975473791340E-002  -8.0330702965404344E-003   2.6237758967887159E-002
   2.5704294952546169E-002  -7.3138309756815012E-003   2.5663617446435638E-002
   2.3362614431301026E-002  -6.5370251946570701E-003   2.5033817768416233E-002
   2.1020933910055870E-002  -5.7026529534675643E-003   2.4348359933829222E-002
   1.8679253388810713E-002  -4.8107142521124358E-003   2.3607243942673772E-002
   3.0215093312643937E-002  -9.6054733704664663E-003  -6.1077941524589896E-004
   2.9606099947652953E-002  -9.1337053505138321E-003  -3.6419890848948810E-004
   2.8997106582661858E-002  -8.2564282878208051E-003  -1.7991046855347914E-003
   2.8388113217670818E-002  -6.9736421823876626E-003  -4.9154967463828636E-003
   2.7779119852679779E-002  -5.2853470342149045E-003  -9.7133750910327610E-003
   2.7552724097598735E-002  -8.4067835908776534E-003   5.1993357619137814E-003
   2.5531705761731860E-002  -7.8701832505776448E-003   5.8750646591942957E-003
   2.3510687425865012E-002  -7.1242634432706065E-003   5.4082298985251853E-003
   2.1489669089998095E-002  -6.1690241689555253E-003   3.7988314799067835E-003
   1.9468650754131178E-002  -5.0044654276335532E-003   1.0468694033380910E-003
   2.4742627705278186E-002  -7.2080938112892845E-003   1.1172378047286435E-002
   2.1848507024387759E-002  -6.6066611506419015E-003   1.2081065759358911E-002
   1.8954386343497248E-002  -5.9920985987199638E-003   1.2386112439333880E-002
   1.6060265662606779E-002  -5.3644061555236100E-003   1.2087518087211452E-002
   1.3166144981716310E-002  -4.7235838210524239E-003   1.1185282702991906E-002
   2.1784804135682123E-002  -6.0094040317010267E-003   1.7308347440873284E-002
   1.8556503735620337E-002  -5.3431390507061582E-003   1.8253804392004636E-002
   1.5328203335558656E-002  -4.8599337541693211E-003   1.9134542936890694E-002
   1.2099902935496894E-002  -4.5597881420911396E-003   1.9950563075531849E-002
   8.8716025354351885E-003  -4.4427022144711836E-003   2.0701864807927489E-002
   1.8679253388810713E-002  -4.8107142521124358E-003   2.3607243942673772E-002
   1.5655695895429922E-002  -4.0796169507702484E-003   2.4393280557131303E-002
   1.2632138402049131E-002  -3.7277689096193445E-003   2.5653521391195588E-002
   9.6085809086683405E-003  -3.7551701286589467E-003   2.7387966444867462E-002
   6.5850234152875498E-003  -4.1618206078898323E-003   2.9596615718146535E-002
   2.7779119852679779E-002  -5.2853470342149045E-003  -9.7133750910327610E-003
   2.3352981630908598E-002  -4.2068427894714766E-003  -4.1866975176130250E-003
   1.8926843409137306E-002  -4.7534293943266581E-003   2.6041952467885654E-003
   1.4500705187366070E-002  -6.9251068487807543E-003   1.0659303202172010E-002
   1.0074566965594833E-002  -1.0721875152833960E-002   1.9978626348537531E-002
   1.9468650754131178E-002  -5.0044654276335532E-003   1.0468694033380910E-003
   1.6234289619963427E-002  -4.6909150549236944E-003   6.7408586725978825E-003
   1.2999928485795675E-002  -6.2887008864450644E-003   1.3554186926082679E-002
   9.7655673516278685E-003  -9.7978229221974689E-003   2.1486854163792035E-002
   6.5312062174602836E-003  -1.5218281162181491E-002   3.0538860385727951E-002
   1.3166144981716310E-002  -4.7235838210524239E-003   1.1185282702991906E-002
   1.0978684728395138E-002  -5.1749873203756902E-003   1.6760338313459355E-002
   8.7912244750738555E-003  -7.8239723785628601E-003   2.3309856701394682E-002
   6.6037642217526976E-003  -1.2670538995614086E-002   3.0833837866798691E-002
   4.4163039684312899E-003  -1.9714687171529022E-002   3.9332281809669745E-002
   8.8716025354351885E-003  -4.4427022144711836E-003   2.0701864807927489E-002
   7.5861669562035383E-003  -5.6590595858282411E-003   2.5871741404970255E-002
   6.3007313769719367E-003  -9.3592438706814052E-003   3.1871204572724188E-002
   5.0152957977403941E-003  -1.5543255069031196E-002   3.8700254311189265E-002
   3.7298602185086849E-003  -2.4211093180876997E-002   4.6358890620365134E-002
   6.5850234152875498E-003  -4.1618206078898323E-003   2.9596615718146535E-002
   6.0567363033887101E-003  -6.1431318512805699E-003   3.4075067947131776E-002
   5.5284491914898704E-003  -1.0894515362799645E-002   3.9238230540071084E-002
   5.0001620795910307E-003  -1.8415971142447841E-002   4.5086103496965596E-002
   4.4718749676921909E-003  -2.8707499190224528E-002   5.1618686817813675E-002
   7.5592058266019557E-002  -2.3834692274589175E-002   2.7998514100491367E-002
   7.2999401471710523E-002  -2.2403491835820466E-002   2.8046145420172475E-002
   7.0406744677401489E-002  -2.1210812801669476E-002   2.8211370638857369E-002
   6.7814087883092483E-002  -2.0256655172136373E-002   2.8494189756546967E-002
   6.5221431088783477E-002  -1.9541018947220934E-002   2.8894602773241018E-002
   6.9674730267333423E-002  -2.1275452718343857E-002   3.4471353067150601E-002
   6.7223698154910166E-002  -2.0265035092220440E-002   3.4123780937689169E-002
   6.4772666042486923E-002  -1.9377449538254821E-002   3.3941864272995198E-002
   6.2321633930063673E-002  -1.8612696056446984E-002   3.3925603073068272E-002
   5.9870601817640451E-002  -1.7970774646796916E-002   3.4074997337908697E-002
   6.3518844775011296E-002  -1.8716213162098483E-002   4.0465564554934497E-002
   6.1257498910236852E-002  -1.8126578348620415E-002   3.9838478308791059E-002
   5.8996153045462255E-002  -1.7544086274840165E-002   3.9425109093177632E-002
   5.6734807180687720E-002  -1.6968736940757678E-002   3.9225456908094314E-002
   5.4473461315913199E-002  -1.6400530346372955E-002   3.9239521753541257E-002
   5.7124401789053557E-002  -1.6156973605853137E-002   4.5981148563843055E-002
   5.5100803737690565E-002  -1.5988121605020444E-002   4.5190237533477437E-002
   5.3077205686327553E-002  -1.5710723011425454E-002   4.4661105099404678E-002
   5.1053607634964561E-002  -1.5324777825068248E-002   4.4393751261624904E-002
   4.9030009583601555E-002  -1.4830286045948937E-002   4.4388176020138156E-002
   5.0491401309459893E-002  -1.3597734049607790E-002   5.1018105093876331E-002
   4.8753612637271293E-002  -1.3849664861420391E-002   5.0179058611748262E-002
   4.7015823965082748E-002  -1.3877359748010840E-002   4.9649852291676316E-002
   4.5278035292894189E-002  -1.3680818709379008E-002   4.9430486133660398E-002
   4.3540246620705630E-002  -1.3260041745524975E-002   4.9520960137699910E-002
   6.5221431088783477E-002  -1.9541018947220934E-002   2.8894602773241018E-002
   6.3104069388596307E-002  -1.8926879500146154E-002   2.8698175460552061E-002
   6.0986707688409109E-002  -1.8277212204134641E-002   2.8642117055617478E-002
   5.8869345988221980E-002  -1.7592017059186546E-002   2.8726427558438183E-002
   5.6751984288034796E-002  -1.6871294065301745E-002   2.8951106969013041E-002
   5.9870601817640451E-002  -1.7970774646796916E-002   3.4074997337908697E-002
   5.7901019110610824E-002  -1.7377526562325260E-002   3.3870175515407178E-002
   5.5931436403581225E-002  -1.6758793056052171E-002   3.3820542771466081E-002
   5.3961853696551633E-002  -1.6114574127978194E-002   3.3926099106085433E-002
   5.1992270989521999E-002  -1.5444869778102888E-002   3.4186844519265236E-002
   5.4473461315913199E-002  -1.6400530346372955E-002   3.9239521753541257E-002
   5.2666477772846845E-002  -1.5828173624504283E-002   3.9016262994091749E-002
   5.0859494229780512E-002  -1.5240373907969867E-002   3.8963013484008407E-002
   4.9052510686714193E-002  -1.4637131196769897E-002   3.9079773223291245E-002
   4.7245527143647825E-002  -1.4018445490904030E-002   3.9366542211940247E-002
   4.9030009583601555E-002  -1.4830286045948937E-002   4.4388176020138156E-002
   4.7400445375304287E-002  -1.4278820686683402E-002   4.4136437896605304E-002
   4.5770881167006991E-002  -1.3721954759887592E-002   4.4069529193244313E-002
   4.4141316958709736E-002  -1.3159688265561503E-002   4.4187449910055132E-002
   4.2511752750412482E-002  -1.2592021203705062E-002   4.4490200047038173E-002
   4.3540246620705630E-002  -1.3260041745524975E-002   4.9520960137699910E-002
   4.2102921917983149E-002  -1.2729467748862411E-002   4.9230700222948148E-002
   4.0665597215260696E-002  -1.2203535611805177E-002   4.9140089899173955E-002
   3.9228272512538222E-002  -1.1682245334353296E-002   4.9249129166377595E-002
   3.7790947809815789E-002  -1.1165596916506315E-002   4.9557818024558664E-002
   5.6751984288034796E-002  -1.6871294065301745E-002   2.8951106969013041E-002
   5.4216640154090001E-002  -1.6136382510631431E-002   2.8531847050539239E-002
   5.1681296020145207E-002  -1.5408621683326407E-002   2.8313634084991268E-002
   4.9145951886200412E-002  -1.4688011583387076E-002   2.8296468072368838E-002
   4.6610607752255617E-002  -1.3974552210813118E-002   2.8480349012671935E-002
   5.1992270989521999E-002  -1.5444869778102888E-002   3.4186844519265236E-002
   4.9656525708901209E-002  -1.4763307631491057E-002   3.3774645675981846E-002
   4.7320780428280418E-002  -1.4083515313207326E-002   3.3560597586420882E-002
   4.4985035147659627E-002  -1.3405492823251607E-002   3.3544700250582107E-002
   4.2649289867038864E-002  -1.2729240161624078E-002   3.3726953668465731E-002
   4.7245527143647825E-002  -1.4018445490904030E-002   3.9366542211940247E-002
   4.5106484517147813E-002  -1.3390232752350684E-002   3.8966785342884516E-002
   4.2967441890647745E-002  -1.2758408943088079E-002   3.8762283028347666E-002
   4.0828399264147636E-002  -1.2122974063116194E-002   3.8753035268330169E-002
   3.8689356637647596E-002  -1.1483928112434982E-002   3.8939042062831608E-002
   4.2511752750412482E-002  -1.2592021203705062E-002   4.4490200047038173E-002
   4.0566516578829842E-002  -1.2017157873210338E-002   4.4108266051247305E-002
   3.8621280407247209E-002  -1.1433302572968804E-002   4.3918690410772405E-002
   3.6676044235664576E-002  -1.0840455302980671E-002   4.3921473125613217E-002
   3.4730808064081992E-002  -1.0238616063245970E-002   4.4116614195769996E-002
   3.7790947809815789E-002  -1.1165596916506315E-002   4.9557818024558664E-002
   3.6036621893947268E-002  -1.0644082994069937E-002   4.9199087801070407E-002
   3.4282295978078803E-002  -1.0108196202849778E-002   4.9029819733694691E-002
   3.2527970062210296E-002  -9.5579365428453758E-003   4.9050013822431210E-002
   3.0773644146341816E-002  -8.9933040140568465E-003   4.9259670067280381E-002
   4.6610607752255617E-002  -1.3974552210813118E-002   2.8480349012671935E-002
   4.4370759726518216E-002  -1.3255253649441523E-002   2.8089911402519763E-002
   4.2130911700780760E-002  -1.2517125983109112E-002   2.7821166439188194E-002
   3.9891063675043331E-002  -1.1760169211815594E-002   2.7674114122677312E-002
   3.7651215649305902E-002  -1.0984383335561843E-002   2.7648754452986535E-002
   4.2649289867038864E-002  -1.2729240161624078E-002   3.3726953668465731E-002
   4.0538484586896795E-002  -1.2046308209643947E-002   3.3362229569910945E-002
   3.8427679306754794E-002  -1.1348247848630769E-002   3.3133898315726162E-002
   3.6316874026612773E-002  -1.0635059078583978E-002   3.3041959905911564E-002
   3.4206068746470725E-002  -9.9067418995042456E-003   3.3086414340467607E-002
   3.8689356637647596E-002  -1.1483928112434982E-002   3.8939042062831608E-002
   3.6722294300650604E-002  -1.0837362769846398E-002   3.8596330779946550E-002
   3.4755231963653599E-002  -1.0179369714152203E-002   3.8404712538981228E-002
   3.2788169626656614E-002  -9.5099489453522520E-003   3.8364187339935754E-002
   3.0821107289659616E-002  -8.8291004634467596E-003   3.8474755182810405E-002
   3.4730808064081992E-002  -1.0238616063245970E-002   4.4116614195769996E-002
   3.2922188867779617E-002  -9.6284173300488357E-003   4.3792215032626813E-002
   3.1113569671477243E-002  -9.0104915796737489E-003   4.3633609108953510E-002
   2.9304950475174930E-002  -8.3848388121204147E-003   4.3640796424749412E-002
   2.7496331278872497E-002  -7.7514590273892736E-003   4.3813776980014769E-002
   3.0773644146341816E-002  -8.9933040140568465E-003   4.9259670067280381E-002
   2.9138168288283750E-002  -8.4194718902513288E-003   4.8949882327952110E-002
   2.7502692430225656E-002  -7.8416134451953223E-003   4.8820588025642764E-002
   2.5867216572167562E-002  -7.2597286788886953E-003   4.8871787160352537E-002
   2.4231740714109495E-002  -6.6738175913316766E-003   4.9103479732081401E-002
   3.7651215649305902E-002  -1.0984383335561843E-002   2.7648754452986535E-002
   3.5249905605427234E-002  -1.0211025949072083E-002   2.7101583862983114E-002
   3.2848595561548621E-002  -9.4613546470719012E-003   2.6684027752131911E-002
   3.0447285517669939E-002  -8.7353694295613862E-003   2.6396086120433232E-002
   2.8045975473791340E-002  -8.0330702965404344E-003   2.6237758967887159E-002
   3.4206068746470725E-002  -9.9067418995042456E-003   3.3086414340467607E-002
   3.1939883689676013E-002  -9.1787586953563371E-003   3.2585198482726230E-002
   2.9673698632881232E-002  -8.4665718501048814E-003   3.2224618120000159E-002
   2.7407513576086513E-002  -7.7701813637501213E-003   3.2004673252289784E-002
   2.5141328519291739E-002  -7.0895872362920498E-003   3.1925363879594493E-002
   3.0821107289659616E-002  -8.8291004634467596E-003   3.8474755182810405E-002
   2.8701068235811658E-002  -8.1464914416403134E-003   3.8027383782924390E-002
   2.6581029181963596E-002  -7.4717890531378478E-003   3.7731668893916478E-002
   2.4460990128115614E-002  -6.8049932979388529E-003   3.7587610515787052E-002
   2.2340951074267576E-002  -6.1461041760438317E-003   3.7595208648535550E-002
   2.7496331278872497E-002  -7.7514590273892736E-003   4.3813776980014769E-002
   2.5533459243834201E-002  -7.1142241879246504E-003   4.3428139763577046E-002
   2.3570587208795762E-002  -6.4770062561708211E-003   4.3205180073880273E-002
   2.1607715173757383E-002  -5.8398052321276973E-003   4.3144897910924421E-002
   1.9644843138718972E-002  -5.2026211157956970E-003   4.3247293274709865E-002
   2.4231740714109495E-002  -6.6738175913316766E-003   4.9103479732081401E-002
   2.2437056713743575E-002  -6.0819569342084878E-003   4.8787466424684456E-002
   2.0642372713377655E-002  -5.4822234592037666E-003   4.8645151659891694E-002
   1.8847688713011762E-002  -4.8746171663163126E-003   4.8676535437702867E-002
   1.7053004712645869E-002  -4.2591380555473402E-003   4.8881617758117613E-002
   2.8045975473791340E-002  -8.0330702965404344E-003   2.6237758967887159E-002
   2.5704294952546169E-002  -7.3138309756815012E-003   2.5663617446435638E-002
   2.3362614431301026E-002  -6.5370251946570701E-003   2.5033817768416233E-002
   2.1020933910055870E-002  -5.7026529534675643E-003   2.4348359933829222E-002
   1.8679253388810713E-002  -4.8107142521124358E-003   2.3607243942673772E-002
   2.5141328519291739E-002  -7.0895872362920498E-003   3.1925363879594493E-002
   2.2783073518086672E-002  -6.4098244544206207E-003   3.1530425608171153E-002
   2.0424818516881660E-002  -5.7159280048262040E-003   3.1157996533395738E-002
   1.8066563515676648E-002  -5.0078978875082933E-003   3.0808076655268246E-002
   1.5708308514471581E-002  -4.2857341024675755E-003   3.0480665973789678E-002
   2.2340951074267576E-002  -6.1461041760438317E-003   3.7595208648535550E-002
   2.0044288946318822E-002  -5.5058179331601842E-003   3.7336040834697631E-002
   1.7747626818370048E-002  -4.8948308149953240E-003   3.7177549570724153E-002
   1.5450964690421325E-002  -4.3131428215494629E-003   3.7119734856615134E-002
   1.3154302562472520E-002  -3.7607539528224376E-003   3.7162596692370320E-002
   1.9644843138718972E-002  -5.2026211157956970E-003   4.3247293274709865E-002
   1.7487941237242611E-002  -4.6018114118996922E-003   4.3080463126015579E-002
   1.5331039335766272E-002  -4.0737336251647285E-003   4.3092476880402020E-002
   1.3174137434289922E-002  -3.6183877555905231E-003   4.3283334537868472E-002
   1.1017235532813571E-002  -3.2357738031774386E-003   4.3653036098415948E-002
   1.7053004712645869E-002  -4.2591380555473402E-003   4.8881617758117613E-002
   1.5114030390858069E-002  -3.6978048906389227E-003   4.8763692482124865E-002
   1.3175056069070240E-002  -3.2526364353334947E-003   4.8902778462428853E-002
   1.1236081747282453E-002  -2.9236326896313405E-003   4.9298875699029132E-002
   9.2971074254946662E-003  -2.7107936535324395E-003   4.9951984191926257E-002
   1.8679253388810713E-002  -4.8107142521124358E-003   2.3607243942673772E-002
   1.5655695895429922E-002  -4.0796169507702484E-003   2.4393280557131303E-002
   1.2632138402049131E-002  -3.7277689096193445E-003   2.5653521391195588E-002
   9.6085809086683405E-003  -3.7551701286589467E-003   2.7387966444867462E-002
   6.5850234152875498E-003  -4.1618206078898323E-003   2.9596615718146535E-002
   1.5708308514471581E-002  -4.2857341024675755E-003   3.0480665973789678E-002
   1.3140420642884926E-002  -3.7745479773668711E-003   3.1257437788876907E-002
   1.0572532771298243E-002  -3.6994508398697223E-003   3.2471344627945181E-002
   8.0046448997115605E-003  -4.0604426899766149E-003   3.4122386490994541E-002
   5.4367570281249056E-003  -4.8575235276873130E-003   3.6210563378025418E-002
   1.3154302562472520E-002  -3.7607539528224376E-003   3.7162596692370320E-002
   1.1005015117054012E-002  -3.4694790039632439E-003   3.7873263980674365E-002
   8.8557276716355743E-003  -3.6711327701205443E-003   3.8983997097333745E-002
   6.7064402262170530E-003  -4.3657152512945052E-003   4.0494796042348111E-002
   4.5571527807985734E-003  -5.5532264474848492E-003   4.2405660815717700E-002
   1.1017235532813571E-002  -3.2357738031774386E-003   4.3653036098415948E-002
   9.2494793179372578E-003  -3.1644100305599082E-003   4.4240759132524191E-002
   7.4817231030609409E-003  -3.6428147003714217E-003   4.5191478799361640E-002
   5.7139668881846239E-003  -4.6709878126120624E-003   4.6505195098928143E-002
   3.9462106733083105E-003  -6.2489293672824686E-003   4.8181908031223873E-002
   9.2971074254946662E-003  -2.7107936535324395E-003   4.9951984191926257E-002
   7.8738132455345999E-003  -2.8593410571561284E-003   5.0359923244425953E-002
   6.4505190655745059E-003  -3.6144966306218551E-003   5.1093789734028783E-002
   5.0272248856144258E-003  -4.9762603739299249E-003   5.2153583660735026E-002
   3.6039307056542902E-003  -6.9446322870798660E-003   5.3539305024544070E-002
   6.5850234152875498E-003  -4.1618206078898323E-003   2.9596615718146535E-002
   6.0567363033887101E-003  -6.1431318512805699E-003   3.4075067947131776E-002
   5.5284491914898704E-003  -1.0894515362799645E-002   3.9238230540071084E-002
   5.0001620795910307E-003  -1.8415971142447841E-002   4.5086103496965596E-002
   4.4718749676921909E-003  -2.8707499190224528E-002   5.1618686817813675E-002
   5.4367570281249056E-003  -4.8575235276873130E-003   3.6210563378025418E-002
   5.4894790327170151E-003  -6.9909997721825379E-003   3.8350589452336215E-002
   5.5422010373091801E-003  -1.1361177842643178E-002   4.0967923395675343E-002
   5.5949230419012341E-003  -1.7968057739069662E-002   4.4062565208041277E-002
   5.6476450464935102E-003  -2.6811639461461478E-002   4.7634514889435708E-002
   4.5571527807985734E-003  -5.5532264474848492E-003   4.2405660815717700E-002
   4.9834814069549954E-003  -7.8388676930848389E-003   4.2740631177517696E-002
   5.4098100331114035E-003  -1.1827840322487029E-002   4.3345506913418694E-002
   5.8361386592678949E-003  -1.7520144335691590E-002   4.4220288023420894E-002
   6.2624672854242891E-003  -2.4915779732698429E-002   4.5364974507523637E-002
   3.9462106733083105E-003  -6.2489293672824686E-003   4.8181908031223873E-002
   4.5387434261024602E-003  -8.6867356139870844E-003   4.7245193122676429E-002
   5.1312761788966342E-003  -1.2294502802330610E-002   4.6370981093303121E-002
   5.7238089316906417E-003  -1.7072230932313241E-002   4.5559271943103406E-002
   6.3163416844849579E-003  -2.3019920003935379E-002   4.4810065672079152E-002
   3.6039307056542902E-003  -6.9446322870798660E-003   5.3539305024544070E-002
   4.1552650901595101E-003  -9.5346035348892189E-003   5.1864275287811346E-002
   4.7065994746646744E-003  -1.2761165282174247E-002   5.0044345935326917E-002
   5.2579338591697972E-003  -1.6624317528935298E-002   4.8079516967089786E-002
   5.8092682436750032E-003  -2.1124060275172329E-002   4.5969788383100507E-002
   5.0491401309459893E-002  -1.3597734049607790E-002   5.1018105093876331E-002
   4.8753612637271293E-002  -1.3849664861420391E-002   5.0179058611748262E-002
   4.7015823965082748E-002  -1.3877359748010840E-002   4.9649852291676316E-002
   4.5278035292894189E-002  -1.3680818709379008E-002   4.9430486133660398E-002
   4.3540246620705630E-002  -1.3260041745524975E-002   4.9520960137699910E-002
   4.3868007008677434E-002  -1.2617973788394798E-002   5.2649531784584702E-002
   4.2417589808297754E-002  -1.2565679469675739E-002   5.2219433223838291E-002
   4.0967172607918087E-002  -1.2390327555438577E-002   5.2054237444653706E-002
   3.9516755407538399E-002  -1.2091918045683093E-002   5.2153944447031211E-002
   3.8066338207158712E-002  -1.1670450940409444E-002   5.2518554230970377E-002
   3.7502382559153308E-002  -1.1638213527181834E-002   5.4635772770676702E-002
   3.6294399450088541E-002  -1.1281694077931184E-002   5.4513443801607872E-002
   3.5086416341023739E-002  -1.0903295362866265E-002   5.4611080233606869E-002
   3.3878433231958952E-002  -1.0503017381987180E-002   5.4928682066673784E-002
   3.2670450122894178E-002  -1.0080860135293856E-002   5.5466249300808720E-002
   3.1394527960887486E-002  -1.0658453265968856E-002   5.6976828052152387E-002
   3.0384041562643595E-002  -9.9977086861866363E-003   5.7061090345057117E-002
   2.9373555164399753E-002  -9.4162631702940057E-003   5.7320380658535577E-002
   2.8363068766155880E-002  -8.9141167182912665E-003   5.7754698992588192E-002
   2.7352582367912021E-002  -8.4912693301782971E-003   5.8364045347214517E-002
   2.5544443213879942E-002  -9.6786930047558783E-003   5.9672697629011617E-002
   2.4686516145962983E-002  -8.7137232944419774E-003   5.9862372854185830E-002
   2.3828589078046053E-002  -7.9292309777217462E-003   6.0182138719440004E-002
   2.2970662010129116E-002  -7.3252160545954209E-003   6.0631995224774055E-002
   2.2112734942212164E-002  -6.9016785250627377E-003   6.1211942370188011E-002
   4.3540246620705630E-002  -1.3260041745524975E-002   4.9520960137699910E-002
   4.2102921917983149E-002  -1.2729467748862411E-002   4.9230700222948148E-002
   4.0665597215260696E-002  -1.2203535611805177E-002   4.9140089899173955E-002
   3.9228272512538222E-002  -1.1682245334353296E-002   4.9249129166377595E-002
   3.7790947809815789E-002  -1.1165596916506315E-002   4.9557818024558664E-002
   3.8066338207158712E-002  -1.1670450940409444E-002   5.2518554230970377E-002
   3.6819681227188247E-002  -1.1191198758757737E-002   5.2291268126091695E-002
   3.5573024247217769E-002  -1.0719434019867559E-002   5.2245667875739366E-002
   3.4326367267247297E-002  -1.0255156723739592E-002   5.2381753479913362E-002
   3.3079710287276812E-002  -9.7983668703733873E-003   5.2699524938613462E-002
   3.2670450122894178E-002  -1.0080860135293856E-002   5.5466249300808720E-002
   3.1596497129224299E-002  -9.6529297686526738E-003   5.5299091422646378E-002
   3.0522544135554431E-002  -9.2353324279301069E-003   5.5295655662558993E-002
   2.9448591141884563E-002  -8.8280681131259996E-003   5.5455942020546566E-002
   2.8374638148214684E-002  -8.4311368242405704E-003   5.5779950496608971E-002
   2.7352582367912021E-002  -8.4912693301782971E-003   5.8364045347214517E-002
   2.6433369624091332E-002  -8.1146607785477776E-003   5.8254170112612004E-002
   2.5514156880270679E-002  -7.7512308359926549E-003   5.8290053259633060E-002
   2.4594944136450029E-002  -7.4009795025124069E-003   5.8471694788277628E-002
   2.3675731392629362E-002  -7.0639067781077536E-003   5.8799094698545808E-002
   2.2112734942212164E-002  -6.9016785250627377E-003   6.1211942370188011E-002
   2.1330298711789347E-002  -6.5763917884428813E-003   6.1156504195988559E-002
   2.0547862481366516E-002  -6.2671292440550364E-003   6.1228860666961454E-002
   1.9765426250943699E-002  -5.9738908918989808E-003   6.1429011783106224E-002
   1.8982990020520882E-002  -5.6966767319748812E-003   6.1756957544423341E-002
   3.7790947809815789E-002  -1.1165596916506315E-002   4.9557818024558664E-002
   3.6036621893947268E-002  -1.0644082994069937E-002   4.9199087801070407E-002
   3.4282295978078803E-002  -1.0108196202849778E-002   4.9029819733694691E-002
   3.2527970062210296E-002  -9.5579365428453758E-003   4.9050013822431210E-002
   3.0773644146341816E-002  -8.9933040140568465E-003   4.9259670067280381E-002
   3.3079710287276812E-002  -9.7983668703733873E-003   5.2699524938613462E-002
   3.1519287447456301E-002  -9.3386001402896990E-003   5.2365308051027903E-002
   2.9958864607635784E-002  -8.8653922140088104E-003   5.2229435159425991E-002
   2.8398441767815290E-002  -8.3787430915306590E-003   5.2291906263807364E-002
   2.6838018927994756E-002  -7.8786527728555988E-003   5.2552721364172161E-002
   2.8374638148214684E-002  -8.4311368242405704E-003   5.5779950496608971E-002
   2.7017000224313109E-002  -8.0331172865092948E-003   5.5469315272339448E-002
   2.5659362300411499E-002  -7.6225882251678839E-003   5.5365905883924274E-002
   2.4301724376509914E-002  -7.1995496402162164E-003   5.5469722331363498E-002
   2.2944086452608314E-002  -6.7640015316544622E-003   5.5780764614657169E-002
   2.3675731392629362E-002  -7.0639067781077536E-003   5.8799094698545808E-002
   2.2529760224517630E-002  -6.7276344327289184E-003   5.8511109465005116E-002
   2.1383789056405908E-002  -6.3797842363268534E-003   5.8439231907189956E-002
   2.0237817888294186E-002  -6.0203561889016922E-003   5.8583462025099953E-002
   1.9091846720182451E-002  -5.6493502904532145E-003   5.8943799818735258E-002
   1.8982990020520882E-002  -5.6966767319748812E-003   6.1756957544423341E-002
   1.8057567448069953E-002  -5.4221515789486530E-003   6.1490690629024736E-002
   1.7132144875619031E-002  -5.1369802474860171E-003   6.1449413229222483E-002
   1.6206722303168105E-002  -4.8411627375871194E-003   6.1633125345016498E-002
   1.5281299730717179E-002  -4.5346990492520223E-003   6.2041826976406755E-002
   3.0773644146341816E-002  -8.9933040140568465E-003   4.9259670067280381E-002
   2.9138168288283750E-002  -8.4194718902513288E-003   4.8949882327952110E-002
   2.7502692430225656E-002  -7.8416134451953223E-003   4.8820588025642764E-002
   2.5867216572167562E-002  -7.2597286788886953E-003   4.8871787160352537E-002
   2.4231740714109495E-002  -6.6738175913316766E-003   4.9103479732081401E-002
   2.6838018927994756E-002  -7.8786527728555988E-003   5.2552721364172161E-002
   2.5386677020038828E-002  -7.3686154298100714E-003   5.2293506467784551E-002
   2.3935335112082901E-002  -6.8521252342208794E-003   5.2222066034582321E-002
   2.2483993204126973E-002  -6.3291821860874467E-003   5.2338400064565221E-002
   2.1032651296171045E-002  -5.7997862854103355E-003   5.2642508557733225E-002
   2.2944086452608314E-002  -6.7640015316544622E-003   5.5780764614657169E-002
   2.1684159520920690E-002  -6.3177589693689529E-003   5.5574549092503811E-002
   2.0424232589233059E-002  -5.8626370232463115E-003   5.5563389059701804E-002
   1.9164305657545427E-002  -5.3986356932862502E-003   5.5747284516251307E-002
   1.7904378725857803E-002  -4.9257549794889943E-003   5.6126235462152091E-002
   1.9091846720182451E-002  -5.6493502904532145E-003   5.8943799818735258E-002
   1.8030615790929284E-002  -5.2669025089278204E-003   5.8793010202109676E-002
   1.6969384861676116E-002  -4.8731488122717506E-003   5.8844557101001338E-002
   1.5908153932422932E-002  -4.4680892004851386E-003   5.9098440515410702E-002
   1.4846923003169751E-002  -4.0517236735676532E-003   5.9554660445337644E-002
   1.5281299730717179E-002  -4.5346990492520223E-003   6.2041826976406755E-002
   1.4426045830064627E-002  -4.2160460484866324E-003   6.1948889796602125E-002
   1.3570791929412046E-002  -3.8836606012973979E-003   6.2065570158481048E-002
   1.2715538028759493E-002  -3.5375427076838849E-003   6.2391868062043651E-002
   1.1860284128106913E-002  -3.1776923676462010E-003   6.2927783507290114E-002
   2.4231740714109495E-002  -6.6738175913316766E-003   4.9103479732081401E-002
   2.2437056713743575E-002  -6.0819569342084878E-003   4.8787466424684456E-002
   2.0642372713377655E-002  -5.4822234592037666E-003   4.8645151659891694E-002
   1.8847688713011762E-002  -4.8746171663163126E-003   4.8676535437702867E-002
   1.7053004712645869E-002  -4.2591380555473402E-003   4.8881617758117613E-002
   2.1032651296171045E-002  -5.7997862854103355E-003   5.2642508557733225E-002
   1.9418616922935700E-002  -5.2673212062526731E-003   5.2408042343638106E-002
   1.7804582549700368E-002  -4.7351706226777812E-003   5.2361176841199980E-002
   1.6190548176465036E-002  -4.2033345346850146E-003   5.2501912050418945E-002
   1.4576513803229690E-002  -3.6718129422749213E-003   5.2830247971295596E-002
   1.7904378725857803E-002  -4.9257549794889943E-003   5.6126235462152091E-002
   1.6484896148806327E-002  -4.4526854782967751E-003   5.5965129027893940E-002
   1.5065413571754858E-002  -3.9881177861518097E-003   5.6005525474346105E-002
   1.3645930994703376E-002  -3.5320519030534979E-003   5.6247424801508968E-002
   1.2226448417651914E-002  -3.0844878290024469E-003   5.6690827009382327E-002
   1.4846923003169751E-002  -4.0517236735676532E-003   5.9554660445337644E-002
   1.3635894391355461E-002  -3.6380497503409742E-003   5.9458726477451825E-002
   1.2424865779541140E-002  -3.2410649496256091E-003   5.9578197559330068E-002
   1.1213837167726852E-002  -2.8607692714219795E-003   5.9913073690971735E-002
   1.0002808555912526E-002  -2.4971627157301668E-003   6.0463354872377618E-002
   1.1860284128106913E-002  -3.1776923676462010E-003   6.2927783507290114E-002
   1.0871611650583077E-002  -2.8234140223850623E-003   6.2888834692312101E-002
   9.8829391730592409E-003  -2.4940121130997417E-003   6.3079193096151620E-002
   8.8942666955354049E-003  -2.1894866397904889E-003   6.3498858718807977E-002
   7.9055942180115690E-003  -1.9098376024574426E-003   6.4147831560281698E-002
   1.7053004712645869E-002  -4.2591380555473402E-003   4.8881617758117613E-002
   1.5114030390858069E-002  -3.6978048906389227E-003   4.8763692482124865E-002
   1.3175056069070240E-002  -3.2526364353334947E-003   4.8902778462428853E-002
   1.1236081747282453E-002  -2.9236326896313405E-003   4.9298875699029132E-002
   9.2971074254946662E-003  -2.7107936535324395E-003   4.9951984191926257E-002
   1.4576513803229690E-002  -3.6718129422749213E-003   5.2830247971295596E-002
   1.2893018496417816E-002  -3.1977012964194418E-003   5.2721880924255726E-002
   1.1209523189605941E-002  -2.8380950480910161E-003   5.2867460650871140E-002
   9.5260278827940803E-003  -2.5929941972882981E-003   5.3266987151141296E-002
   7.8425325759821918E-003  -2.4623987440125505E-003   5.3920460425067485E-002
   1.2226448417651914E-002  -3.0844878290024469E-003   5.6690827009382327E-002
   1.0795367643174555E-002  -2.6975977022000441E-003   5.6593677503371714E-002
   9.3642868686971831E-003  -2.4235536608476355E-003   5.6747410288375169E-002
   7.9332060942198072E-003  -2.2623557049450300E-003   5.7152025364392157E-002
   6.5021253197424522E-003  -2.2140038344925506E-003   5.7807522731423200E-002
   1.0002808555912526E-002  -2.4971627157301668E-003   6.0463354872377618E-002
   8.8210778311283086E-003  -2.1974941079806048E-003   6.0379082219473107E-002
   7.6393471063440285E-003  -2.0090122736043728E-003   6.0542627374941149E-002
   6.4576163815598065E-003  -1.9317172126016528E-003   6.0953990338781426E-002
   5.2758856567755585E-003  -1.9656089249726061E-003   6.1613171110994083E-002
   7.9055942180115690E-003  -1.9098376024574426E-003   6.4147831560281698E-002
   6.9701490602790128E-003  -1.6973905137611101E-003   6.4078095072559793E-002
   6.0347039025464566E-003  -1.5944708863615265E-003   6.4253111910568927E-002
   5.0992587448139004E-003  -1.6010787202584906E-003   6.4672882074308990E-002
   4.1638135870813719E-003  -1.7172140154526616E-003   6.5337405563780315E-002
   9.2971074254946662E-003  -2.7107936535324395E-003   4.9951984191926257E-002
   7.8738132455345999E-003  -2.8593410571561284E-003   5.0359923244425953E-002
   6.4505190655745059E-003  -3.6144966306218551E-003   5.1093789734028783E-002
   5.0272248856144258E-003  -4.9762603739299249E-003   5.2153583660735026E-002
   3.6039307056542902E-003  -6.9446322870798660E-003   5.3539305024544070E-002
   7.8425325759821918E-003  -2.4623987440125505E-003   5.3920460425067485E-002
   6.7194033495114741E-003  -2.6457765576390346E-003   5.3856779934165822E-002
   5.5962741230408120E-003  -3.3425955075437053E-003   5.4067501913139637E-002
   4.4731448965701498E-003  -4.5528555937263196E-003   5.4552626361989043E-002
   3.3500156700994044E-003  -6.2765568161873286E-003   5.5312153280714260E-002
   6.5021253197424522E-003  -2.2140038344925506E-003   5.7807522731423200E-002
   5.6276360795334962E-003  -2.4322120581221074E-003   5.7365389730684613E-002
   4.7531468393245263E-003  -3.0706943844656664E-003   5.7146134232593571E-002
   3.8786575991155529E-003  -4.1294508135229363E-003   5.7149756237150365E-002
   3.0041683589065726E-003  -5.6084813452945692E-003   5.7376255744355287E-002
   5.2758856567755585E-003  -1.9656089249726061E-003   6.1613171110994083E-002
   4.5985114356005934E-003  -2.2186475586051524E-003   6.0885752633982361E-002
   3.9211372144256525E-003  -2.7987932613874056E-003   6.0329686692390680E-002
   3.2437629932507072E-003  -3.7060460333198861E-003   5.9944973286219110E-002
   2.5663887720757464E-003  -4.9404058744019208E-003   5.9731612415467872E-002
   4.1638135870813719E-003  -1.7172140154526616E-003   6.5337405563780315E-002
   3.6320294177127621E-003  -2.0050830590881974E-003   6.4417868644059295E-002
   3.1002452483441661E-003  -2.5268921383093668E-003   6.3618159292531007E-002
   2.5684610789755632E-003  -3.2826412531160865E-003   6.2938277509195228E-002
   2.0366769096069604E-003  -4.2723304035092724E-003   6.2378223294051960E-002
   3.6039307056542902E-003  -6.9446322870798660E-003   5.3539305024544070E-002
   4.1552650901595101E-003  -9.5346035348892189E-003   5.1864275287811346E-002
   4.7065994746646744E-003  -1.2761165282174247E-002   5.0044345935326917E-002
   5.2579338591697972E-003  -1.6624317528935298E-002   4.8079516967089786E-002
   5.8092682436750032E-003  -2.1124060275172329E-002   4.5969788383100507E-002
   3.3500156700994044E-003  -6.2765568161873286E-003   5.5312153280714260E-002
   3.7738144752604980E-003  -8.5447466064075273E-003   5.2956492055393600E-002
   4.1976132804215777E-003  -1.1388472395868710E-002   5.0490659287137085E-002
   4.6214120855826296E-003  -1.4807734184570570E-002   4.7914654975944271E-002
   5.0452108907437232E-003  -1.8802531972512693E-002   4.5228479121816267E-002
   3.0041683589065726E-003  -5.6084813452945692E-003   5.7376255744355287E-002
   3.3351596575398740E-003  -7.5548896779261132E-003   5.4401017530681745E-002
   3.6661509561731753E-003  -1.0015779509562700E-002   5.1350335846888751E-002
   3.9971422548064524E-003  -1.2991150840205391E-002   4.8224210692975611E-002
   4.3281335534397503E-003  -1.6481003669853500E-002   4.5022642068943575E-002
   2.5663887720757464E-003  -4.9404058744019208E-003   5.9731612415467872E-002
   2.8393006369976347E-003  -6.5650327494444494E-003   5.6197851713676569E-002
   3.1122125019195333E-003  -8.6430866232570375E-003   5.2623375614581878E-002
   3.3851243668413982E-003  -1.1174567495840105E-002   4.9008184118183862E-002
   3.6580362317632925E-003  -1.4159475367194196E-002   4.5352277224483067E-002
   2.0366769096069604E-003  -4.2723304035092724E-003   6.2378223294051960E-002
   2.2862374136337904E-003  -5.5751758209632296E-003   5.8346994604377977E-002
   2.5357979176606066E-003  -7.2703937369510419E-003   5.4309778590217128E-002
   2.7853584216874019E-003  -9.3579841514754014E-003   5.0266575251569301E-002
   3.0349189257142251E-003  -1.1837947064534671E-002   4.6217384588434829E-002
   2.5544443213879942E-002  -9.6786930047558783E-003   5.9672697629011617E-002
   2.4686516145962983E-002  -8.7137232944419774E-003   5.9862372854185830E-002
   2.3828589078046053E-002  -7.9292309777217462E-003   6.0182138719440004E-002
   2.2970662010129116E-002  -7.3252160545954209E-003   6.0631995224774055E-002
   2.2112734942212164E-002  -6.9016785250627377E-003   6.1211942370188011E-002
   1.9637724546098551E-002  -6.1538499650802270E-003   6.3513961633503313E-002
   1.8930078244562304E-002  -5.7014573826178472E-003   6.3221149232831897E-002
   1.8222431943026036E-002  -5.3318675252427145E-003   6.3098807724841777E-002
   1.7514785641489786E-002  -5.0450803929546310E-003   6.3146937109533147E-002
   1.6807139339953522E-002  -4.8410959857537739E-003   6.3365537386906007E-002
   1.3359968185511155E-002  -2.6290069254046033E-003   6.6793811175890394E-002
   1.2842982902957087E-002  -2.6891914707937170E-003   6.6116185817879605E-002
   1.2325997620403022E-002  -2.7345040727634051E-003   6.5649411605151892E-002
   1.1809012337848977E-002  -2.7649447313137579E-003   6.5393488537707170E-002
   1.1292027055294911E-002  -2.7805134464446435E-003   6.5348416615545246E-002
   6.7111741321177355E-003   8.9583611427102028E-004   6.9512246256172347E-002
   6.4252301211473704E-003   3.2307444103046867E-004   6.8547482609329177E-002
   6.1392861101770202E-003  -1.3714062028420682E-004   6.7833950360370376E-002
   5.8533420992066647E-003  -4.8480906967295415E-004   6.7371649509296111E-002
   5.5673980882362997E-003  -7.1993090713567964E-004   6.7160580056106256E-002
  -3.0865761408170600E-004   4.4206791539466717E-003   7.1669266874349824E-002
  -3.2318010086684890E-004   3.3353403528545433E-003   7.0515039607180474E-002
  -3.3770258765199179E-004   2.4602228321949915E-003   6.9652423990497259E-002
  -3.5222507443712948E-004   1.7953265919678912E-003   6.9081420024299900E-002
  -3.6674756122227065E-004   1.3406516321734507E-003   6.8802027708588620E-002
   2.2112734942212164E-002  -6.9016785250627377E-003   6.1211942370188011E-002
   2.1330298711789347E-002  -6.5763917884428813E-003   6.1156504195988559E-002
   2.0547862481366516E-002  -6.2671292440550364E-003   6.1228860666961454E-002
   1.9765426250943699E-002  -5.9738908918989808E-003   6.1429011783106224E-002
   1.8982990020520882E-002  -5.6966767319748812E-003   6.1756957544423341E-002
   1.6807139339953522E-002  -4.8410959857537739E-003   6.3365537386906007E-002
   1.6173092725639979E-002  -4.6744632787163315E-003   6.3117215067507851E-002
   1.5539046111326428E-002  -4.4997312469185480E-003   6.3037877335156256E-002
   1.4904999497012874E-002  -4.3168998903605899E-003   6.3127524189851028E-002
   1.4270952882699327E-002  -4.1259692090423461E-003   6.3386155631592112E-002
   1.1292027055294911E-002  -2.7805134464446435E-003   6.5348416615545246E-002
   1.0847559998964897E-002  -2.7725347689896707E-003   6.4931333667940822E-002
   1.0403092942634883E-002  -2.7323332497821706E-003   6.4724425249256937E-002
   9.9586258863048737E-003  -2.6599088888221989E-003   6.4727691359493758E-002
   9.5141588299748579E-003  -2.5552616861097832E-003   6.4941131998651286E-002
   5.5673980882362997E-003  -7.1993090713567964E-004   6.7160580056106256E-002
   5.3537005317641044E-003  -8.7060625926303759E-004   6.6598859997287402E-002
   5.1400029752919065E-003  -9.6493525264576552E-004   6.6288504409263496E-002
   4.9263054188197035E-003  -1.0029178872837524E-003   6.6229513292034636E-002
   4.7126078623475056E-003  -9.8455416317709543E-004   6.6421886645600503E-002
  -3.6674756122227065E-004   1.3406516321734507E-003   6.8802027708588620E-002
  -3.0848567596239093E-004   1.0313222504635122E-003   6.8119794055547689E-002
  -2.5022379070251469E-004   8.0246274449068122E-004   6.7730114815176046E-002
  -1.9196190544263844E-004   6.5407311425446854E-004   6.7632989987473621E-002
  -1.3370002018275873E-004   5.8615335975531480E-004   6.7828419572440402E-002
   1.8982990020520882E-002  -5.6966767319748812E-003   6.1756957544423341E-002
   1.8057567448069953E-002  -5.4221515789486530E-003   6.1490690629024736E-002
   1.7132144875619031E-002  -5.1369802474860171E-003   6.1449413229222483E-002
   1.6206722303168105E-002  -4.8411627375871194E-003   6.1633125345016498E-002
   1.5281299730717179E-002  -4.5346990492520223E-003   6.2041826976406755E-002
   1.4270952882699327E-002  -4.1259692090423461E-003   6.3386155631592112E-002
   1.3573165614644785E-002  -3.9274462647556074E-003   6.3086643279897242E-002
   1.2875378346590239E-002  -3.7218381192924699E-003   6.3017412021398739E-002
   1.2177591078535699E-002  -3.5091447726525934E-003   6.3178461856096824E-002
   1.1479803810481151E-002  -3.2893662248361655E-003   6.3569792783991386E-002
   9.5141588299748579E-003  -2.5552616861097832E-003   6.4941131998651286E-002
   9.0492984439168866E-003  -2.4327409505626729E-003   6.4604813233400282E-002
   8.5844380578589240E-003  -2.3066959910986867E-003   6.4504067138945867E-002
   8.1195776718009510E-003  -2.1771268077180085E-003   6.4638893715288054E-002
   7.6547172857429902E-003  -2.0440334004204475E-003   6.5009292962427176E-002
   4.7126078623475056E-003  -9.8455416317709543E-004   6.6421886645600503E-002
   4.4859659358862962E-003  -9.3803563636971066E-004   6.6045200489533801E-002
   4.2593240094250962E-003  -8.9155386290499378E-004   6.5909378581863839E-002
   4.0326820829638919E-003  -8.4510884278328653E-004   6.6014420922590619E-002
   3.8060401565026859E-003  -7.9870057600460453E-004   6.6360327511714501E-002
  -1.3370002018275873E-004   5.8615335975531480E-004   6.7828419572440402E-002
  -1.1683190944700508E-004   5.5666967782333487E-004   6.7407805048297798E-002
  -9.9963798711251439E-005   5.2358826528860203E-004   6.7233346350152406E-002
  -8.3095687975497795E-005   4.8690912215120299E-004   6.7305043478004131E-002
  -6.6227577239744151E-005   4.4663224841107185E-004   6.7622896431852764E-002
   1.5281299730717179E-002  -4.5346990492520223E-003   6.2041826976406755E-002
   1.4426045830064627E-002  -4.2160460484866324E-003   6.1948889796602125E-002
   1.3570791929412046E-002  -3.8836606012973979E-003   6.2065570158481048E-002
   1.2715538028759493E-002  -3.5375427076838849E-003   6.2391868062043651E-002
   1.1860284128106913E-002  -3.1776923676462010E-003   6.2927783507290114E-002
   1.1479803810481151E-002  -3.2893662248361655E-003   6.3569792783991386E-002
   1.0835119140013255E-002  -3.0626411540218557E-003   6.3464486833807038E-002
   1.0190434469545338E-002  -2.8291082383883476E-003   6.3570701802308421E-002
   9.5457497990774423E-003  -2.5887674779357418E-003   6.3888437689495467E-002
   8.9010651286095394E-003  -2.3416188726639309E-003   6.4417694495368105E-002
   7.6547172857429902E-003  -2.0440334004204475E-003   6.5009292962427176E-002
   7.2225052224616990E-003  -1.9092362595572177E-003   6.4884693640258492E-002
   6.7902931591804216E-003  -1.7745558754796373E-003   6.4973518613777564E-002
   6.3580810958991374E-003  -1.6399922481878226E-003   6.5275767882984184E-002
   5.9258690326178531E-003  -1.5055453776814942E-003   6.5791441447878324E-002
   3.8060401565026859E-003  -7.9870057600460453E-004   6.6360327511714501E-002
   3.5882040774099823E-003  -7.5583136509267679E-004   6.6209510215956613E-002
   3.3703679983172717E-003  -7.2000351257092352E-004   6.6274020592888325E-002
   3.1525319192245611E-003  -6.9121701843984692E-004   6.6553858642509622E-002
   2.9346958401318575E-003  -6.6947188269902980E-004   6.7049024364820395E-002
  -6.6227577239744151E-005   4.4663224841107185E-004   6.7622896431852764E-002
  -6.7784295141919138E-005   3.9757352937208612E-004   6.7438936560900997E-002
  -6.9341013044094124E-005   3.3454885033805393E-004   6.7472207739640716E-002
  -7.0897730946267376E-005   2.5755821130827791E-004   6.7722709968072017E-002
  -7.2454448848444097E-005   1.6660161228332360E-004   6.8190443246194610E-002
   1.1860284128106913E-002  -3.1776923676462010E-003   6.2927783507290114E-002
   1.0871611650583077E-002  -2.8234140223850623E-003   6.2888834692312101E-002
   9.8829391730592409E-003  -2.4940121130997417E-003   6.3079193096151620E-002
   8.8942666955354049E-003  -2.1894866397904889E-003   6.3498858718807977E-002
   7.9055942180115690E-003  -1.9098376024574426E-003   6.4147831560281698E-002
   8.9010651286095394E-003  -2.3416188726639309E-003   6.4417694495368105E-002
   8.1470478034728344E-003  -2.0968679243191790E-003   6.4349876720141364E-002
   7.3930304783361295E-003  -1.8637201346479448E-003   6.4522062030871602E-002
   6.6390131531994245E-003  -1.6421755036502492E-003   6.4934250427559126E-002
   5.8849958280627196E-003  -1.4322340313261961E-003   6.5586441910203630E-002
   5.9258690326178531E-003  -1.5055453776814942E-003   6.5791441447878324E-002
   5.4172027270083349E-003  -1.3703218262535177E-003   6.5708027989704987E-002
   4.9085364213988063E-003  -1.2334281561962590E-003   6.5875313484628717E-002
   4.3998701157892880E-003  -1.0948643675100650E-003   6.6293297932649681E-002
   3.8912038101797594E-003  -9.5463046019478304E-004   6.6961981333767989E-002
   2.9346958401318575E-003  -6.6947188269902980E-004   6.7049024364820395E-002
   2.6820764211895635E-003  -6.4377572818763440E-004   6.6963288501003304E-002
   2.4294570022472704E-003  -6.0313617774440664E-004   6.7138947457423118E-002
   2.1768375833049773E-003  -5.4755323136974204E-004   6.7576001234080363E-002
   1.9242181643626833E-003  -4.7702688906350876E-004   6.8274449830974776E-002
  -7.2454448848444097E-005   1.6660161228332360E-004   6.8190443246194610E-002
  -5.8331113983463301E-005   8.2770369878026884E-005   6.8115658254036093E-002
  -4.4207779118485974E-005   2.7155800707112654E-005   6.8312963949254790E-002
  -3.0084444253512116E-005  -2.4209522966889274E-007   6.8782360331850811E-002
  -1.5961109388527850E-005   5.7668206798755506E-007   6.9523847401824046E-002
   7.9055942180115690E-003  -1.9098376024574426E-003   6.4147831560281698E-002
   6.9701490602790128E-003  -1.6973905137611101E-003   6.4078095072559793E-002
   6.0347039025464566E-003  -1.5944708863615265E-003   6.4253111910568927E-002
   5.0992587448139004E-003  -1.6010787202584906E-003   6.4672882074308990E-002
   4.1638135870813719E-003  -1.7172140154526616E-003   6.5337405563780315E-002
   5.8849958280627196E-003  -1.4322340313261961E-003   6.5586441910203630E-002
   5.1916561009345344E-003  -1.2698707020326605E-003   6.5444323605078736E-002
   4.4983163738063353E-003  -1.1910605001261565E-003   6.5541662835431530E-002
   3.8049766466781432E-003  -1.1958034256074820E-003   6.5878459601262360E-002
   3.1116369195499372E-003  -1.2840994784759641E-003   6.6454713902570517E-002
   3.8912038101797594E-003  -9.5463046019478304E-004   6.6961981333767989E-002
   3.4346737234026425E-003  -8.4235089030401666E-004   6.6773455545149768E-002
   2.9781436366255153E-003  -7.8765011389113349E-004   6.6819091501755953E-002
   2.5216135498483984E-003  -7.9052813095625493E-004   6.7098889203586753E-002
   2.0650834630712711E-003  -8.5098494149926651E-004   6.7612848650641599E-002
   1.9242181643626833E-003  -4.7702688906350876E-004   6.8274449830974776E-002
   1.6992019276833494E-003  -4.1483107857546997E-004   6.8065490892772446E-002
   1.4741856910040234E-003  -3.8423972765582598E-004   6.8085397909541392E-002
   1.2491694543246964E-003  -3.8525283630491507E-004   6.8334170881281464E-002
   1.0241532176453634E-003  -4.1787040452256896E-004   6.8811809807992869E-002
  -1.5961109388527850E-005   5.7668206798755506E-007   6.9523847401824046E-002
  -1.4759286223346713E-005   1.2688733153021214E-005   6.9320429647947379E-002
  -1.3557463058165575E-005   1.9170658579398259E-005   6.9340582058788292E-002
  -1.2355639892986173E-005   2.0022458346070915E-005   6.9584304634347172E-002
  -1.1153816727803301E-005   1.5244132454128589E-005   7.0051597374624075E-002
   4.1638135870813719E-003  -1.7172140154526616E-003   6.5337405563780315E-002
   3.6320294177127621E-003  -2.0050830590881974E-003   6.4417868644059295E-002
   3.1002452483441661E-003  -2.5268921383093668E-003   6.3618159292531007E-002
   2.5684610789755632E-003  -3.2826412531160865E-003   6.2938277509195228E-002
   2.0366769096069604E-003  -4.2723304035092724E-003   6.2378223294051960E-002
   3.1116369195499372E-003  -1.2840994784759641E-003   6.6454713902570517E-002
   2.7030997202671381E-003  -1.5015868640640972E-003   6.5339834808977093E-002
   2.2945625209843112E-003  -1.8939037877041265E-003   6.4351622087362392E-002
   1.8860253217015018E-003  -2.4610502493959616E-003   6.3490075737727053E-002
   1.4774881224186853E-003  -3.2030262491402617E-003   6.2755195760070603E-002
   2.0650834630712711E-003  -8.5098494149926651E-004   6.7612848650641599E-002
   1.7866320376607805E-003  -9.9809066904027466E-004   6.6361737880709121E-002
   1.5081806122502935E-003  -1.2609154370992193E-003   6.5244132286542245E-002
   1.2297291868398046E-003  -1.6394592456761697E-003   6.4260031868140985E-002
   9.5127776142931580E-004  -2.1337220947710289E-003   6.3409436625505078E-002
   1.0241532176453634E-003  -4.1787040452256896E-004   6.8811809807992869E-002
   8.8262636989374157E-004  -4.9459447401625778E-004   6.7483577859255156E-002
   7.4109952214212061E-004  -6.2792708649425655E-004   6.6295689890069939E-002
   5.9957267439049227E-004  -8.1786824195587832E-004   6.5248145900436844E-002
   4.5804582663889169E-004  -1.0644179404017962E-003   6.4340945890355550E-002
  -1.1153816727803301E-005   1.5244132454128589E-005   7.0051597374624075E-002
  -8.9172830340100706E-006   8.9017210076480779E-006   6.8705354744615588E-002
  -6.6807493402133711E-006   5.0612641105951539E-006   6.7506294897945851E-002
  -4.4442156464201410E-006   3.7227617641633071E-006   6.6454417834614810E-002
  -2.2076819526234415E-006   4.8862139672145588E-006   6.5549723554622075E-002
   2.0366769096069604E-003  -4.2723304035092724E-003   6.2378223294051960E-002
   2.2862374136337904E-003  -5.5751758209632296E-003   5.8346994604377977E-002
   2.5357979176606066E-003  -7.2703937369510419E-003   5.4309778590217128E-002
   2.7853584216874019E-003  -9.3579841514754014E-003   5.0266575251569301E-002
   3.0349189257142251E-003  -1.1837947064534671E-002   4.6217384588434829E-002
   1.4774881224186853E-003  -3.2030262491402617E-003   6.2755195760070603E-002
   1.7069432905174320E-003  -4.1796259367326560E-003   5.8399432317063849E-002
   1.9363984586162133E-003  -5.4506434619717437E-003   5.4009445526687627E-002
   2.1658536267149878E-003  -7.0160788248565739E-003   4.9585235388942217E-002
   2.3953087948137275E-003  -8.8759320253872787E-003   4.5126801903828007E-002
   9.5127776142931580E-004  -2.1337220947710289E-003   6.3409436625505078E-002
   1.1323915707177300E-003  -2.7840760525031927E-003   5.8827093090054600E-002
   1.3135053800061545E-003  -3.6308931869918903E-003   5.4182290184352694E-002
   1.4946191892945635E-003  -4.6741734982375799E-003   4.9475027908399055E-002
   1.6757329985829794E-003  -5.9139169862398866E-003   4.4705306262194267E-002
   4.5804582663889169E-004  -1.0644179404017962E-003   6.4340945890355550E-002
   5.6258225423463665E-004  -1.3885261682735073E-003   5.9629976923350959E-002
   6.6711868183040157E-004  -1.8111429120124256E-003   5.4828312563212508E-002
   7.7165510942614869E-004  -2.3322681716185581E-003   4.9935952809940141E-002
   8.7619153702191144E-004  -2.9519019470924945E-003   4.4952897663534025E-002
  -2.2076819526234415E-006   4.8862139672145588E-006   6.5549723554622075E-002
  -2.4846589318228141E-006   7.0237159564001672E-006   6.0808083816952685E-002
  -2.7616359110325950E-006   8.6073629673721896E-006   5.5947512663266918E-002
  -3.0386128902267634E-006   9.6371550002694040E-006   5.0968010093564386E-002
  -3.3155898694348096E-006   1.0113092054897521E-005   4.5869576107846921E-002
  -3.0865761408170600E-004   4.4206791539466717E-003   7.1669266874349824E-002
  -3.2318010086684890E-004   3.3353403528545433E-003   7.0515039607180474E-002
  -3.3770258765199179E-004   2.4602228321949915E-003   6.9652423990497259E-002
  -3.5222507443712948E-004   1.7953265919678912E-003   6.9081420024299900E-002
  -3.6674756122227065E-004   1.3406516321734507E-003   6.8802027708588620E-002
  -7.2789707563991404E-003   3.9034135310378471E-003   6.6748760704055110E-002
  -7.0208736750273296E-003   3.3443341975357144E-003   6.6200156883895050E-002
  -6.7627765936555291E-003   2.8841148411379997E-003   6.5905180549563347E-002
  -6.5046795122837286E-003   2.5227554618446092E-003   6.5863831701059375E-002
  -6.2465824309119178E-003   2.2602560596555743E-003   6.6076110338383232E-002
  -1.3779208998146530E-002   3.3861479081290502E-003   6.2410194653014228E-002
  -1.3286476513275830E-002   3.3533280422169964E-003   6.2355852976535800E-002
  -1.2793744028405128E-002   3.3080068500810633E-003   6.2517154621227075E-002
  -1.2301011543534444E-002   3.2501843317213550E-003   6.2894099587088359E-002
  -1.1808279058663742E-002   3.1798604871378089E-003   6.3486687874119416E-002
  -1.9809372339323904E-002   2.8688822852202256E-003   5.8653568721227733E-002
  -1.9119988615612364E-002   3.3623218868982507E-003   5.8982127885102278E-002
  -1.8430604891900813E-002   3.7318988590241825E-003   5.9488346205488686E-002
  -1.7741221168189283E-002   3.9776132015980591E-003   6.0172223682386825E-002
  -1.7051837444477736E-002   4.0994649146200157E-003   6.1033760315796756E-002
  -2.5369460779931234E-002   2.3516166623114287E-003   5.5478882908695237E-002
  -2.4521409982036890E-002   3.3713157315794495E-003   5.6078981609594791E-002
  -2.3673359184142564E-002   4.1557908679671490E-003   5.6818755302347951E-002
  -2.2825308386248237E-002   4.7050420714747666E-003   5.7698203986954980E-002
  -2.1977257588353900E-002   5.0190693421022226E-003   5.8717327663415697E-002
  -3.6674756122227065E-004   1.3406516321734507E-003   6.8802027708588620E-002
  -3.0848567596239093E-004   1.0313222504635122E-003   6.8119794055547689E-002
  -2.5022379070251469E-004   8.0246274449068122E-004   6.7730114815176046E-002
  -1.9196190544263844E-004   6.5407311425446854E-004   6.7632989987473621E-002
  -1.3370002018275873E-004   5.8615335975531480E-004   6.7828419572440402E-002
  -6.2465824309119178E-003   2.2602560596555743E-003   6.6076110338383232E-002
  -5.9252492354410673E-003   2.0635854492621342E-003   6.5739165565933788E-002
  -5.6039160399702064E-003   1.8997124453551811E-003   6.5635809001236986E-002
  -5.2825828444993464E-003   1.7686370479350032E-003   6.5766040644292978E-002
  -4.9612496490284951E-003   1.6703592570014303E-003   6.6129860495101750E-002
  -1.1808279058663742E-002   3.1798604871378089E-003   6.3486687874119416E-002
  -1.1282840757898375E-002   3.0958486480605479E-003   6.3447359713010951E-002
  -1.0757402457133004E-002   2.9969621462197435E-003   6.3582653554738966E-002
  -1.0231964156367627E-002   2.8832009816153730E-003   6.3892569399303059E-002
  -9.7065258556022511E-003   2.7545651542475458E-003   6.4377107246703549E-002
  -1.7051837444477736E-002   4.0994649146200157E-003   6.1033760315796756E-002
  -1.6381260243334323E-002   4.1281118468591213E-003   6.1244376496779412E-002
  -1.5710683042190896E-002   4.0942118470842746E-003   6.1570648475681777E-002
  -1.5040105841047475E-002   3.9977649152959640E-003   6.2012576252504045E-002
  -1.4369528639904063E-002   3.8387710514936613E-003   6.2570159827246077E-002
  -2.1977257588353900E-002   5.0190693421022226E-003   5.8717327663415697E-002
  -2.1220507691748887E-002   5.1603750456575559E-003   5.9130215917239048E-002
  -2.0463757795143887E-002   5.1914615479488196E-003   5.9599793764065656E-002
  -1.9707007898538877E-002   5.1123288489762254E-003   6.0126061203895645E-002
  -1.8950258001933874E-002   4.9229769487397212E-003   6.0709018236728973E-002
  -1.3370002018275873E-004   5.8615335975531480E-004   6.7828419572440402E-002
  -1.1683190944700508E-004   5.5666967782333487E-004   6.7407805048297798E-002
  -9.9963798711251439E-005   5.2358826528860203E-004   6.7233346350152406E-002
  -8.3095687975497795E-005   4.8690912215120299E-004   6.7305043478004131E-002
  -6.6227577239744151E-005   4.4663224841107185E-004   6.7622896431852764E-002
  -4.9612496490284951E-003   1.6703592570014303E-003   6.6129860495101750E-002
  -4.7032982192635169E-003   1.5863788316710092E-003   6.5782546583321749E-002
  -4.4453467894985423E-003   1.4981955310598705E-003   6.5671243483603245E-002
  -4.1873953597335641E-003   1.4058093551683956E-003   6.5795951195945973E-002
  -3.9294439299685964E-003   1.3092203039961614E-003   6.6156669720350281E-002
  -9.7065258556022511E-003   2.7545651542475458E-003   6.4377107246703549E-002
  -9.2176361207437253E-003   2.6160879855186697E-003   6.4102488802608271E-002
  -8.7287463858852082E-003   2.4728027968312430E-003   6.4053736156638785E-002
  -8.2398566510266807E-003   2.3247095881855865E-003   6.4230849308794927E-002
  -7.7509669161681585E-003   2.1718083595813897E-003   6.4633828259076806E-002
  -1.4369528639904063E-002   3.8387710514936613E-003   6.2570159827246077E-002
  -1.3659845613887649E-002   3.6457971393663649E-003   6.2367631706157507E-002
  -1.2950162587871236E-002   3.4474100626026190E-003   6.2380824369259021E-002
  -1.2240479561854832E-002   3.2436098212028338E-003   6.2609737816550728E-002
  -1.1530796535838418E-002   3.0343964151664932E-003   6.3054372048032256E-002
  -1.8950258001933874E-002   4.9229769487397212E-003   6.0709018236728973E-002
  -1.8029926698695256E-002   4.6755062932138935E-003   6.0577975293969410E-002
  -1.7109595395456648E-002   4.4220173283739395E-003   6.0652508121464110E-002
  -1.6189264092218034E-002   4.1625100542199839E-003   6.0932616719213240E-002
  -1.5268932788979415E-002   3.8969844707516521E-003   6.1418301087216742E-002
  -6.6227577239744151E-005   4.4663224841107185E-004   6.7622896431852764E-002
  -6.7784295141919138E-005   3.9757352937208612E-004   6.7438936560900997E-002
  -6.9341013044094124E-005   3.3454885033805393E-004   6.7472207739640716E-002
  -7.0897730946267376E-005   2.5755821130827791E-004   6.7722709968072017E-002
  -7.2454448848444097E-005   1.6660161228332360E-004   6.8190443246194610E-002
  -3.9294439299685964E-003   1.3092203039961614E-003   6.6156669720350281E-002
  -3.7145004084084068E-003   1.2072445379259500E-003   6.6003404148443051E-002
  -3.4995568868482173E-003   1.0986982173398774E-003   6.6065908005769058E-002
  -3.2846133652880338E-003   9.8358134223794358E-004   6.6344181292328330E-002
  -3.0696698437278382E-003   8.6189391262025961E-004   6.6838224008120672E-002
  -7.7509669161681585E-003   2.1718083595813897E-003   6.4633828259076806E-002
  -7.3209847756039118E-003   2.0169155464797028E-003   6.4518652391693659E-002
  -6.8910026350396617E-003   1.8628475843418188E-003   6.4617784333085404E-002
  -6.4610204944754134E-003   1.7096044731676110E-003   6.4931224083252026E-002
  -6.0310383539111511E-003   1.5571862129569181E-003   6.5458971642193664E-002
  -1.1530796535838418E-002   3.0343964151664932E-003   6.3054372048032256E-002
  -1.0887237396728415E-002   2.8265865550336222E-003   6.2984681290652600E-002
  -1.0243678257618398E-002   2.6269969513439233E-003   6.3127836721589572E-002
  -9.6001191185083826E-003   2.4356276040972775E-003   6.3483838340843229E-002
  -8.9565599793983812E-003   2.2524785132938263E-003   6.4052686148413335E-002
  -1.5268932788979415E-002   3.8969844707516521E-003   6.1418301087216742E-002
  -1.4413258271781932E-002   3.6362575635874306E-003   6.1401490845320039E-002
  -1.3557583754584455E-002   3.3911463183456253E-003   6.1596065171281716E-002
  -1.2701909237386982E-002   3.1616507350269545E-003   6.2002024065101566E-002
  -1.1846234720189495E-002   2.9477708136304015E-003   6.2619367526779990E-002
  -7.2454448848444097E-005   1.6660161228332360E-004   6.8190443246194610E-002
  -5.8331113983463301E-005   8.2770369878026884E-005   6.8115658254036093E-002
  -4.4207779118485974E-005   2.7155800707112654E-005   6.8312963949254790E-002
  -3.0084444253512116E-005  -2.4209522966889274E-007   6.8782360331850811E-002
  -1.5961109388527850E-005   5.7668206798755506E-007   6.9523847401824046E-002
  -3.0696698437278382E-003   8.6189391262025961E-004   6.6838224008120672E-002
  -2.7910793682392743E-003   7.4468172870389981E-004   6.6813531213480992E-002
  -2.5124888927506965E-003   6.4299059070607734E-004   6.7045682012711105E-002
  -2.2338984172621257E-003   5.5682049862718769E-004   6.7534676405811178E-002
  -1.9553079417735410E-003   4.8617145246676596E-004   6.8280514392780989E-002
  -6.0310383539111511E-003   1.5571862129569181E-003   6.5458971642193664E-002
  -5.5032278313063921E-003   1.4065930875296617E-003   6.5471675417757197E-002
  -4.9754173087016192E-003   1.2588253807052641E-003   6.5725975693682992E-002
  -4.4476067860968393E-003   1.1138830924839332E-003   6.6221872469971479E-002
  -3.9197962634920733E-003   9.7176622286548886E-004   6.6959365746622451E-002
  -8.9565599793983812E-003   2.2524785132938263E-003   6.4052686148413335E-002
  -8.1947765031848002E-003   2.0685044463555347E-003   6.4090090866864402E-002
  -7.4329930269712271E-003   1.8746601707044508E-003   6.4353844992170436E-002
  -6.6712095507576539E-003   1.6709456863406233E-003   6.4843948524331674E-002
  -5.9094260745440729E-003   1.4573609932641840E-003   6.5560401463347906E-002
  -1.1846234720189495E-002   2.9477708136304015E-003   6.2619367526779990E-002
  -1.0865725383874522E-002   2.7304158051812411E-003   6.2668777560802913E-002
  -9.8852160475595453E-003   2.4904949607034155E-003   6.2929289908173369E-002
  -8.9047067112445807E-003   2.2280082801974799E-003   6.3400904568891608E-002
  -7.9241973749295952E-003   1.9429557636629902E-003   6.4083621542957658E-002
  -1.5961109388527850E-005   5.7668206798755506E-007   6.9523847401824046E-002
  -1.4759286223346713E-005   1.2688733153021214E-005   6.9320429647947379E-002
  -1.3557463058165575E-005   1.9170658579398259E-005   6.9340582058788292E-002
  -1.2355639892986173E-005   2.0022458346070915E-005   6.9584304634347172E-002
  -1.1153816727803301E-005   1.5244132454128589E-005   7.0051597374624075E-002
  -1.9553079417735410E-003   4.8617145246676596E-004   6.8280514392780989E-002
  -1.7278108127289325E-003   4.3612025264017085E-004   6.8064702551277445E-002
  -1.5003136836843275E-003   4.1174369956259449E-004   6.8077911156814636E-002
  -1.2728165546397200E-003   4.1304179323410628E-004   6.8320140209392990E-002
  -1.0453194255951002E-003   4.4001453365494214E-004   6.8791389709012218E-002
  -3.9197962634920733E-003   9.7176622286548886E-004   6.6959365746622451E-002
  -3.4605535462449034E-003   8.5955177212712619E-004   6.6762464589899873E-002
  -3.0013108289977403E-003   8.0431674054610991E-004   6.6800034162541447E-002
  -2.5420681117505812E-003   8.0606112812213818E-004   6.7072074464547188E-002
  -2.0828253945034073E-003   8.6478493485553365E-004   6.7578585495916943E-002
  -5.9094260745440729E-003   1.4573609932641840E-003   6.5560401463347906E-002
  -5.2129874867712514E-003   1.2829832916141232E-003   6.5413715763814800E-002
  -4.5165488989984143E-003   1.1968897815294657E-003   6.5506951075968906E-002
  -3.8201103112255994E-003   1.1990804630101718E-003   6.5840107399810124E-002
  -3.1236717234527562E-003   1.2895553360561807E-003   6.6413184735338776E-002
  -7.9241973749295952E-003   1.9429557636629902E-003   6.4083621542957658E-002
  -6.9851126343079689E-003   1.7064148111011757E-003   6.4018456073021923E-002
  -6.0460278936863565E-003   1.5894628225129048E-003   6.4198661897096554E-002
  -5.1069431530647372E-003   1.5920997978982263E-003   6.4624239015181689E-002
  -4.1678584124431178E-003   1.7143257372569387E-003   6.5295187427277024E-002
  -1.1153816727803301E-005   1.5244132454128589E-005   7.0051597374624075E-002
  -8.9172830340100706E-006   8.9017210076480779E-006   6.8705354744615588E-002
  -6.6807493402133711E-006   5.0612641105951539E-006   6.7506294897945851E-002
  -4.4442156464201410E-006   3.7227617641633071E-006   6.6454417834614810E-002
  -2.2076819526234415E-006   4.8862139672145588E-006   6.5549723554622075E-002
  -1.0453194255951002E-003   4.4001453365494214E-004   6.8791389709012218E-002
  -8.9962307741208586E-004   5.0955211717140791E-004   6.7469062247109690E-002
  -7.5392672922908015E-004   6.3854474013105844E-004   6.6286471630847055E-002
  -6.0823038104606923E-004   8.2699240253384515E-004   6.5243617860223951E-002
  -4.6253403286306005E-004   1.0748951043797472E-003   6.4340500935240907E-002
  -2.0828253945034073E-003   8.6478493485553365E-004   6.7578585495916943E-002
  -1.8011151695301259E-003   1.0102025133356118E-003   6.6337126287013576E-002
  -1.5194049445568306E-003   1.2720282161516328E-003   6.5227957986050994E-002
  -1.2376947195835422E-003   1.6502620433038601E-003   6.4251080593029392E-002
  -9.5598449461025380E-004   2.1449039947920578E-003   6.3406494107948241E-002
  -3.1236717234527562E-003   1.2895553360561807E-003   6.6413184735338776E-002
  -2.7133935593881327E-003   1.5108529094995937E-003   6.5309546864327384E-002
  -2.3031153953235097E-003   1.9055116921719295E-003   6.4330753963557918E-002
  -1.8928372312588830E-003   2.4735316840737084E-003   6.3476806033030436E-002
  -1.4825590671942632E-003   3.2149128852045905E-003   6.2747703072744687E-002
  -4.1678584124431178E-003   1.7143257372569387E-003   6.5295187427277024E-002
  -3.6364582469860865E-003   2.0115033056635201E-003   6.4386323979050974E-002
  -3.1050580815290725E-003   2.5389951681924761E-003   6.3594859563367856E-002
  -2.5736579160720481E-003   3.2968013248434527E-003   6.2920794180227807E-002
  -2.0422577506150272E-003   4.2849217756167901E-003   6.2364127829630411E-002
  -2.2076819526234415E-006   4.8862139672145588E-006   6.5549723554622075E-002
  -2.4846589318228141E-006   7.0237159564001672E-006   6.0808083816952685E-002
  -2.7616359110325950E-006   8.6073629673721896E-006   5.5947512663266918E-002
  -3.0386128902267634E-006   9.6371550002694040E-006   5.0968010093564386E-002
  -3.3155898694348096E-006   1.0113092054897521E-005   4.5869576107846921E-002
  -4.6253403286306005E-004   1.0748951043797472E-003   6.4340500935240907E-002
  -5.6755272123614614E-004   1.4016448411679483E-003   5.9628769379088287E-002
  -6.7257140960923917E-004   1.8266336083986034E-003   5.4826485816164561E-002
  -7.7759009798234694E-004   2.3498614060710951E-003   4.9933650246468592E-002
  -8.8260878635543216E-004   2.9713282341861103E-003   4.4950262670001351E-002
  -9.5598449461025380E-004   2.1449039947920578E-003   6.3406494107948241E-002
  -1.1373654851327998E-003   2.7962659663796074E-003   5.8823463618733779E-002
  -1.3187464756553450E-003   3.6446598538296127E-003   5.4178260531991929E-002
  -1.5001274661778758E-003   4.6900856571423649E-003   4.9470884847722996E-002
  -1.6815084567004361E-003   5.9325433763173230E-003   4.4701336565926675E-002
  -1.4825590671942632E-003   3.2149128852045905E-003   6.2747703072744687E-002
  -1.7119229506217966E-003   4.1908870915911001E-003   5.8392166535888378E-002
  -1.9412868340493372E-003   5.4626860992609549E-003   5.4002836810749202E-002
  -2.1706507174768705E-003   7.0303099082135237E-003   4.9579713897327203E-002
  -2.4000146009044250E-003   8.8937585184486467E-003   4.5122797795622505E-002
  -2.0422577506150272E-003   4.2849217756167901E-003   6.2364127829630411E-002
  -2.2912251177031259E-003   5.5855082168029258E-003   5.8334878130552381E-002
  -2.5401924847912212E-003   7.2807123446918254E-003   5.4300214652435896E-002
  -2.7891598518793026E-003   9.3705341592843425E-003   5.0260137395281373E-002
  -3.0381272189674152E-003   1.1854973660579748E-002   4.6214646359088007E-002
  -2.5369460779931234E-002   2.3516166623114287E-003   5.5478882908695237E-002
  -2.4521409982036890E-002   3.3713157315794495E-003   5.6078981609594791E-002
  -2.3673359184142564E-002   4.1557908679671490E-003   5.6818755302347951E-002
  -2.2825308386248237E-002   4.7050420714747666E-003   5.7698203986954980E-002
  -2.1977257588353900E-002   5.0190693421022226E-003   5.8717327663415697E-002
  -3.0923594401916252E-002   6.3600969914162642E-003   5.6163161635766845E-002
  -2.9913131677376307E-002   6.7634964090083349E-003   5.6147166251447334E-002
  -2.8902668952836413E-002   7.0407882461098886E-003   5.6316319728565239E-002
  -2.7892206228296468E-002   7.1919725027209010E-003   5.6670622067120674E-002
  -2.6881743503756550E-002   7.2170491788414171E-003   5.7210073267113470E-002
  -3.6935893287226733E-002   1.0368577320521100E-002   5.6176582534967642E-002
  -3.5717544766457512E-002   1.0155677086437276E-002   5.5653609417818842E-002
  -3.4499196245688327E-002   9.9257856242525103E-003   5.5361259031691194E-002
  -3.3280847724919134E-002   9.6789029339669781E-003   5.5299531376584568E-002
  -3.2062499204149941E-002   9.4150290155805838E-003   5.5468426452499150E-002
  -4.3406357435862568E-002   1.4377057649625921E-002   5.5519145606297532E-002
  -4.1934649249280434E-002   1.3547857763866133E-002   5.4598311108709302E-002
  -4.0462941062698390E-002   1.2810783002395191E-002   5.3953573211725642E-002
  -3.8991232876116257E-002   1.2165833365213027E-002   5.3584931915346856E-002
  -3.7519524689534151E-002   1.1613008852319764E-002   5.3492387219572668E-002
  -5.0334986847823865E-002   1.8385537978730770E-002   5.4190850849756889E-002
  -4.8564445125845179E-002   1.6940038441295102E-002   5.2981271324118673E-002
  -4.6793903403866480E-002   1.5695780380537830E-002   5.2093262268668700E-002
  -4.5023361681887787E-002   1.4652763796459137E-002   5.1526823683407261E-002
  -4.3252819959909095E-002   1.3810988689058945E-002   5.1281955568334203E-002
  -2.1977257588353900E-002   5.0190693421022226E-003   5.8717327663415697E-002
  -2.1220507691748887E-002   5.1603750456575559E-003   5.9130215917239048E-002
  -2.0463757795143887E-002   5.1914615479488196E-003   5.9599793764065656E-002
  -1.9707007898538877E-002   5.1123288489762254E-003   6.0126061203895645E-002
  -1.8950258001933874E-002   4.9229769487397212E-003   6.0709018236728973E-002
  -2.6881743503756550E-002   7.2170491788414171E-003   5.7210073267113470E-002
  -2.6042380827037845E-002   7.1451466873061614E-003   5.7283579945013915E-002
  -2.5203018150319154E-002   7.0053934409502611E-003   5.7465622590138418E-002
  -2.4363655473600459E-002   6.7977894397735390E-003   5.7756201202486888E-002
  -2.3524292796881761E-002   6.5223346837759988E-003   5.8155315782059402E-002
  -3.2062499204149941E-002   9.4150290155805838E-003   5.5468426452499150E-002
  -3.1088677373096903E-002   9.1299183289549196E-003   5.5244920000919920E-002
  -3.0114855542043881E-002   8.8193253339516400E-003   5.5181795890785389E-002
  -2.9141033710990846E-002   8.4832500305707954E-003   5.5279054122095536E-002
  -2.8167211879937794E-002   8.1216924188123041E-003   5.5536694694850341E-002
  -3.7519524689534151E-002   1.1613008852319764E-002   5.3492387219572668E-002
  -3.6359397329926088E-002   1.1114689970603657E-002   5.3014236084956992E-002
  -3.5199269970318046E-002   1.0633257226953133E-002   5.2748313666006671E-002
  -3.4039142610710012E-002   1.0168710621368107E-002   5.2694619962721685E-002
  -3.2879015251101942E-002   9.7210501538485955E-003   5.2853154975102054E-002
  -4.3252819959909095E-002   1.3810988689058945E-002   5.1281955568334203E-002
  -4.1854540697525394E-002   1.3099461612252339E-002   5.0591528197125257E-002
  -4.0456261435141680E-002   1.2447189119954405E-002   5.0165175915802246E-002
  -3.9057982172757966E-002   1.1854171212165324E-002   5.0002898724365225E-002
  -3.7659702910374251E-002   1.1320407888884942E-002   5.0104696622814249E-002
  -1.8950258001933874E-002   4.9229769487397212E-003   6.0709018236728973E-002
  -1.8029926698695256E-002   4.6755062932138935E-003   6.0577975293969410E-002
  -1.7109595395456648E-002   4.4220173283739395E-003   6.0652508121464110E-002
  -1.6189264092218034E-002   4.1625100542199839E-003   6.0932616719213240E-002
  -1.5268932788979415E-002   3.8969844707516521E-003   6.1418301087216742E-002
  -2.3524292796881761E-002   6.5223346837759988E-003   5.8155315782059402E-002
  -2.2398664573614738E-002   6.2091174922821180E-003   5.7948263488222657E-002
  -2.1273036350347690E-002   5.8882261846165268E-003   5.7946229264188381E-002
  -2.0147408127080654E-002   5.5596607607788610E-003   5.8149213109956674E-002
  -1.9021779903813648E-002   5.2234212207696862E-003   5.8557215025527298E-002
  -2.8167211879937794E-002   8.1216924188123041E-003   5.5536694694850341E-002
  -2.6836844437094252E-002   7.7427286913502313E-003   5.5251977243078898E-002
  -2.5506476994250675E-002   7.3544350408587811E-003   5.5171720160658133E-002
  -2.4176109551407109E-002   6.9568114673380713E-003   5.5295923447587964E-002
  -2.2845742108563553E-002   6.5498579707878590E-003   5.5624587103868320E-002
  -3.2879015251101942E-002   9.7210501538485955E-003   5.2853154975102054E-002
  -3.1344466289133767E-002   9.2763398904183447E-003   5.2489116558538274E-002
  -2.9809917327165578E-002   8.8206438971012574E-003   5.2328980810873386E-002
  -2.8275368365197368E-002   8.3539621738970594E-003   5.2372747732107094E-002
  -2.6740819403229216E-002   7.8762947208059070E-003   5.2620417322239321E-002
  -3.7659702910374251E-002   1.1320407888884942E-002   5.0104696622814249E-002
  -3.5921530129733342E-002   1.0809951089486597E-002   4.9659681434600644E-002
  -3.4183357349092398E-002   1.0286852753343512E-002   4.9418011214834023E-002
  -3.2445184568451482E-002   9.7511128804561864E-003   4.9379685963514136E-002
  -3.0707011787810545E-002   9.2027314708241215E-003   4.9544705680640899E-002
  -1.5268932788979415E-002   3.8969844707516521E-003   6.1418301087216742E-002
  -1.4413258271781932E-002   3.6362575635874306E-003   6.1401490845320039E-002
  -1.3557583754584455E-002   3.3911463183456253E-003   6.1596065171281716E-002
  -1.2701909237386982E-002   3.1616507350269545E-003   6.2002024065101566E-002
  -1.1846234720189495E-002   2.9477708136304015E-003   6.2619367526779990E-002
  -1.9021779903813648E-002   5.2234212207696862E-003   5.8557215025527298E-002
  -1.7958872684524736E-002   4.8856265132675714E-003   5.8475227549502184E-002
  -1.6895965465235842E-002   4.5523955869506694E-003   5.8596320909801491E-002
  -1.5833058245946951E-002   4.2237284418198198E-003   5.8920495106425413E-002
  -1.4770151026658036E-002   3.8996250778745578E-003   5.9447750139373867E-002
  -2.2845742108563553E-002   6.5498579707878590E-003   5.5624587103868320E-002
  -2.1583905918717044E-002   6.1349954629473236E-003   5.5466370512977758E-002
  -2.0322069728870559E-002   5.7136448555554983E-003   5.5502931026877846E-002
  -1.9060233539024078E-002   5.2858061486126314E-003   5.5734268645568727E-002
  -1.7798397349177569E-002   4.8514793421185476E-003   5.6160383369050215E-002
  -2.6740819403229216E-002   7.8762947208059070E-003   5.2620417322239321E-002
  -2.5288357974358900E-002   7.3843644126273256E-003   5.2374919735746588E-002
  -2.3835896545488611E-002   6.8748941241604349E-003   5.2315895522510696E-002
  -2.2383435116618323E-002   6.3478838554055254E-003   5.2443344682531520E-002
  -2.0930973687748038E-002   5.8033336063625096E-003   5.2757267215809311E-002
  -3.0707011787810545E-002   9.2027314708241215E-003   4.9544705680640899E-002
  -2.9072228851450277E-002   8.6337333623073276E-003   4.9200875217808859E-002
  -2.7437445915090009E-002   8.0361433927651632E-003   4.9035214396699917E-002
  -2.5802662978729768E-002   7.4099615621983951E-003   4.9047723217314029E-002
  -2.4167880042369472E-002   6.7551878706065827E-003   4.9238401679651211E-002
  -1.1846234720189495E-002   2.9477708136304015E-003   6.2619367526779990E-002
  -1.0865725383874522E-002   2.7304158051812411E-003   6.2668777560802913E-002
  -9.8852160475595453E-003   2.4904949607034155E-003   6.2929289908173369E-002
  -8.9047067112445807E-003   2.2280082801974799E-003   6.3400904568891608E-002
  -7.9241973749295952E-003   1.9429557636629902E-003   6.4083621542957658E-002
  -1.4770151026658036E-002   3.8996250778745578E-003   5.9447750139373867E-002
  -1.3581119269195186E-002   3.5715981568416599E-003   5.9372761899451176E-002
  -1.2392087511732279E-002   3.2311603404474032E-003   5.9503716188476607E-002
  -1.1203055754269411E-002   2.8783116286925231E-003   5.9840613006450258E-002
  -1.0014023996806523E-002   2.5130520215767005E-003   6.0383452353371780E-002
  -1.7798397349177569E-002   4.8514793421185476E-003   5.6160383369050215E-002
  -1.6406002954966387E-002   4.4127805085019955E-003   5.5971151795849522E-002
  -1.5013608560755180E-002   3.9718257201916130E-003   5.5982702967197456E-002
  -1.3621214166543981E-002   3.5286149771878994E-003   5.6195036883093769E-002
  -1.2228819772332793E-002   3.0831482794904108E-003   5.6608153543538625E-002
  -2.0930973687748038E-002   5.8033336063625096E-003   5.2757267215809311E-002
  -1.9340376441188141E-002   5.2539628601623173E-003   5.2463947249997936E-002
  -1.7749779194628217E-002   4.7124910999357117E-003   5.2366250244335569E-002
  -1.6159181948068320E-002   4.1789183256829426E-003   5.2464176198822064E-002
  -1.4568584701508397E-002   3.6532445374041767E-003   5.2757725113457270E-002
  -2.4167880042369472E-002   6.7551878706065827E-003   4.9238401679651211E-002
  -2.2384239727860453E-002   6.0951452118225835E-003   4.8851148261896571E-002
  -2.0600599413351406E-002   5.4531564796798659E-003   4.8654358019891153E-002
  -1.8816959098842401E-002   4.8292216741782773E-003   4.8648030953635096E-002
  -1.7033318784333340E-002   4.2233407953178315E-003   4.8832167063128429E-002
  -7.9241973749295952E-003   1.9429557636629902E-003   6.4083621542957658E-002
  -6.9851126343079689E-003   1.7064148111011757E-003   6.4018456073021923E-002
  -6.0460278936863565E-003   1.5894628225129048E-003   6.4198661897096554E-002
  -5.1069431530647372E-003   1.5920997978982263E-003   6.4624239015181689E-002
  -4.1678584124431178E-003   1.7143257372569387E-003   6.5295187427277024E-002
  -1.0014023996806523E-002   2.5130520215767005E-003   6.0383452353371780E-002
  -8.8286460103063243E-003   2.2001223168564010E-003   6.0312569513718162E-002
  -7.6432680238061358E-003   2.0042633122878128E-003   6.0488901871811024E-002
  -6.4578900373059387E-003   1.9254750078715049E-003   6.0912449427650575E-002
  -5.2725120508057485E-003   1.9637574036073246E-003   6.1583212181237246E-002
  -1.2228819772332793E-002   3.0831482794904108E-003   5.6608153543538625E-002
  -1.0795304636217541E-002   2.6938298226114321E-003   5.6529035070344819E-002
  -9.3617895001023126E-003   2.4190638020629568E-003   5.6698975698634427E-002
  -7.9282743639870583E-003   2.2588502178450091E-003   5.7117975428407304E-002
  -6.4947592278718318E-003   2.2131890699577106E-003   5.7786034259663249E-002
  -1.4568584701508397E-002   3.6532445374041767E-003   5.2757725113457270E-002
  -1.2885088512041645E-002   3.1875373283663938E-003   5.2667852742902324E-002
  -1.1201592322574918E-002   2.8338642918379273E-003   5.2828883377567054E-002
  -9.5180961331081549E-003   2.5922254278185116E-003   5.3240817017451446E-002
  -7.8345999436414369E-003   2.4626207363080410E-003   5.3903653662555791E-002
  -1.7033318784333340E-002   4.2233407953178315E-003   4.8832167063128429E-002
  -1.5097997637778610E-002   3.6812448341216331E-003   4.8729022531390664E-002
  -1.3162676491223921E-002   3.2486647816130365E-003   4.8878624908608892E-002
  -1.1227355344669211E-002   2.9256006377919100E-003   4.9280974194783472E-002
  -9.2920341981145016E-003   2.7120524026584825E-003   4.9936070389914211E-002
  -4.1678584124431178E-003   1.7143257372569387E-003   6.5295187427277024E-002
  -3.6364582469860865E-003   2.0115033056635201E-003   6.4386323979050974E-002
  -3.1050580815290725E-003   2.5389951681924761E-003   6.3594859563367856E-002
  -2.5736579160720481E-003   3.2968013248434527E-003   6.2920794180227807E-002
  -2.0422577506150272E-003   4.2849217756167901E-003   6.2364127829630411E-002
  -5.2725120508057485E-003   1.9637574036073246E-003   6.1583212181237246E-002
  -4.5973976514903751E-003   2.2230245657553493E-003   6.0860676959020255E-002
  -3.9222832521750815E-003   2.8071905605763503E-003   6.0308171171977482E-002
  -3.2471688528597532E-003   3.7162553880701124E-003   5.9925694820108191E-002
  -2.5720544535444215E-003   4.9502190482368924E-003   5.9713247903412481E-002
  -6.4947592278718318E-003   2.2131890699577106E-003   5.7786034259663249E-002
  -5.6233001920674552E-003   2.4345458258473174E-003   5.7344411802006667E-002
  -4.7518411562630525E-003   3.0753859529603217E-003   5.7125449182154411E-002
  -3.8803821204586751E-003   4.1357094512969907E-003   5.7129146400106641E-002
  -3.0089230846542733E-003   5.6155163208568282E-003   5.7355503455863460E-002
  -7.8345999436414369E-003   2.4626207363080410E-003   5.3903653662555791E-002
  -6.7141658687171922E-003   2.6460670859388830E-003   5.3837528508009623E-002
  -5.5937317937929908E-003   3.3435813453443555E-003   5.4046693593898673E-002
  -4.4732977188687824E-003   4.5551635145235376E-003   5.4531148920223135E-002
  -3.3528636439445463E-003   6.2808135934767362E-003   5.5290894486982357E-002
  -9.2920341981145016E-003   2.7120524026584825E-003   4.9936070389914211E-002
  -7.8699946814396876E-003   2.8575883460311147E-003   5.0340027077029337E-002
  -6.4479551647649153E-003   3.6117767377283616E-003   5.1071904407210489E-002
  -5.0259156480901221E-003   4.9746175777503551E-003   5.2131702380457584E-002
  -3.6038761314153289E-003   6.9461108660967552E-003   5.3519420996770539E-002
  -2.0422577506150272E-003   4.2849217756167901E-003   6.2364127829630411E-002
  -2.2912251177031259E-003   5.5855082168029258E-003   5.8334878130552381E-002
  -2.5401924847912212E-003   7.2807123446918254E-003   5.4300214652435896E-002
  -2.7891598518793026E-003   9.3705341592843425E-003   5.0260137395281373E-002
  -3.0381272189674152E-003   1.1854973660579748E-002   4.6214646359088007E-002
  -2.5720544535444215E-003   4.9502190482368924E-003   5.9713247903412481E-002
  -2.8440214909675951E-003   6.5739897819835913E-003   5.6184006885452831E-002
  -3.1159885283907288E-003   8.6524758302186366E-003   5.2614180305861347E-002
  -3.3879555658138704E-003   1.1185677192941050E-002   4.9003768164638251E-002
  -3.6599226032370882E-003   1.4173593870151713E-002   4.5352770461783098E-002
  -3.0089230846542733E-003   5.6155163208568282E-003   5.7355503455863460E-002
  -3.3390615750059551E-003   7.5624713471647564E-003   5.4386368746806413E-002
  -3.6692000653576369E-003   1.0024239315745018E-002   5.1341476693524749E-002
  -3.9993385557092996E-003   1.3000820226598039E-002   4.8220827296017406E-002
  -4.3294770460610039E-003   1.6492214079723677E-002   4.5024420554285238E-002
  -3.3528636439445463E-003   6.2808135934767362E-003   5.5290894486982357E-002
  -3.7763453698182294E-003   8.5509529123456718E-003   5.2941963714613675E-002
  -4.1998270956919272E-003   1.1396002801271836E-002   5.0482103815425977E-002
  -4.6233088215655764E-003   1.4815963260254998E-002   4.7911314789419665E-002
  -5.0467905474392812E-003   1.8810834289295641E-002   4.5229596636594649E-002
  -3.6038761314153289E-003   6.9461108660967552E-003   5.3519420996770539E-002
  -4.1558728754044483E-003   9.5394344775264761E-003   5.1850791788874084E-002
  -4.7078696193935676E-003   1.2767766286798349E-002   5.0036061671565324E-002
  -5.2598663633827009E-003   1.6631106293911825E-002   4.8075230644844563E-002
  -5.8118631073718063E-003   2.1129454498867606E-002   4.5968298708711330E-002
  -5.0334986847823865E-002   1.8385537978730770E-002   5.4190850849756889E-002
  -4.8564445125845179E-002   1.6940038441295102E-002   5.2981271324118673E-002
  -4.6793903403866480E-002   1.5695780380537830E-002   5.2093262268668700E-002
  -4.5023361681887787E-002   1.4652763796459137E-002   5.1526823683407261E-002
  -4.3252819959909095E-002   1.3810988689058945E-002   5.1281955568334203E-002
  -5.7278910645021941E-002   1.8819718557289589E-002   4.6598517362098191E-002
  -5.5218241517166741E-002   1.7804480550003193E-002   4.5927938595954426E-002
  -5.3157572389311555E-002   1.6873735727947717E-002   4.5516044171375419E-002
  -5.1096903261456342E-002   1.6027484091123274E-002   4.5362834088360934E-002
  -4.9036234133601142E-002   1.5265725639529659E-002   4.5468308346911068E-002
  -6.3795257949368245E-002   1.9253899135848407E-002   3.9494819550312435E-002
  -6.1507347544260411E-002   1.8668922658711340E-002   3.9246493252215839E-002
  -5.9219437139152453E-002   1.8051691075357625E-002   3.9193965167060037E-002
  -5.6931526734044530E-002   1.7402204385787295E-002   3.9337235294845063E-002
  -5.4643616328936551E-002   1.6720462590000373E-002   3.9676303635570898E-002
  -6.9884028760862762E-002   1.9688079714407211E-002   3.2879757414399954E-002
  -6.7431763207125933E-002   1.9533364767419514E-002   3.2936935292902689E-002
  -6.4979497653389048E-002   1.9229646422767577E-002   3.3127025255722579E-002
  -6.2527232099652261E-002   1.8776924680451459E-002   3.3450027302859606E-002
  -6.0074966545915431E-002   1.8175199540471143E-002   3.3905941434313455E-002
  -7.5545223079505508E-002   2.0122260292966043E-002   2.6753330954360388E-002
  -7.2991488505763563E-002   2.0397806876127633E-002   2.6999264718015170E-002
  -7.0437753932021591E-002   2.0407601770177378E-002   2.7315224437363256E-002
  -6.7884019358279563E-002   2.0151644975115488E-002   2.7701210112404520E-002
  -6.5330284784537618E-002   1.9629936490941802E-002   2.8157221743139005E-002
  -4.3252819959909095E-002   1.3810988689058945E-002   5.1281955568334203E-002
  -4.1854540697525394E-002   1.3099461612252339E-002   5.0591528197125257E-002
  -4.0456261435141680E-002   1.2447189119954405E-002   5.0165175915802246E-002
  -3.9057982172757966E-002   1.1854171212165324E-002   5.0002898724365225E-002
  -3.7659702910374251E-002   1.1320407888884942E-002   5.0104696622814249E-002
  -4.9036234133601142E-002   1.5265725639529659E-002   4.5468308346911068E-002
  -4.7393532751197877E-002   1.4566143331778497E-002   4.4983816827673606E-002
  -4.5750831368794584E-002   1.3906420126481231E-002   4.4724094458589228E-002
  -4.4108129986391305E-002   1.3286556023637704E-002   4.4689141239657990E-002
  -4.2465428603988019E-002   1.2706551023248192E-002   4.4878957170879946E-002
  -5.4643616328936551E-002   1.6720462590000373E-002   3.9676303635570898E-002
  -5.2795798766246599E-002   1.6032825051304683E-002   3.9378352486249990E-002
  -5.0947981203556605E-002   1.5365651133007890E-002   3.9265864547349399E-002
  -4.9100163640866612E-002   1.4718940835110252E-002   3.9338839818869084E-002
  -4.7252346078176605E-002   1.4092694157611524E-002   3.9597278300809002E-002
  -6.0074966545915431E-002   1.8175199540471143E-002   3.3905941434313455E-002
  -5.8061338742671574E-002   1.7499506770830855E-002   3.3775135172854340E-002
  -5.6047710939427745E-002   1.6824882139534689E-002   3.3790486182082684E-002
  -5.4034083136183894E-002   1.6151325646582660E-002   3.3951994461998355E-002
  -5.2020455332940051E-002   1.5478837291974759E-002   3.4259660012601528E-002
  -6.5330284784537618E-002   1.9629936490941802E-002   2.8157221743139005E-002
  -6.3190152680472789E-002   1.8966188490357000E-002   2.8174164887486808E-002
  -6.1050020576407960E-002   1.8284113146061376E-002   2.8297959362789143E-002
  -5.8909888472343158E-002   1.7583710458055152E-002   2.8528605169045998E-002
  -5.6769756368278329E-002   1.6864980426338161E-002   2.8866102306257524E-002
  -3.7659702910374251E-002   1.1320407888884942E-002   5.0104696622814249E-002
  -3.5921530129733342E-002   1.0809951089486597E-002   4.9659681434600644E-002
  -3.4183357349092398E-002   1.0286852753343512E-002   4.9418011214834023E-002
  -3.2445184568451482E-002   9.7511128804561864E-003   4.9379685963514136E-002
  -3.0707011787810545E-002   9.2027314708241215E-003   4.9544705680640899E-002
  -4.2465428603988019E-002   1.2706551023248192E-002   4.4878957170879946E-002
  -4.0524764171673673E-002   1.2141430373501239E-002   4.4440530916361548E-002
  -3.8584099739359307E-002   1.1566219322585586E-002   4.4203742996743275E-002
  -3.6643435307044933E-002   1.0980917870501088E-002   4.4168593412025177E-002
  -3.4702770874730574E-002   1.0385526017248070E-002   4.4335082162206940E-002
  -4.7252346078176605E-002   1.4092694157611524E-002   3.9597278300809002E-002
  -4.5110896627735514E-002   1.3472909657515922E-002   3.9167992115561656E-002
  -4.2969447177294486E-002   1.2845585891827382E-002   3.8938637631667744E-002
  -4.0827997726853374E-002   1.2210722860546044E-002   3.8909214849127204E-002
  -3.8686548276412311E-002   1.1568320563671880E-002   3.9079723767940042E-002
  -5.2020455332940051E-002   1.5478837291974759E-002   3.4259660012601528E-002
  -4.9679927497918969E-002   1.4804388941530612E-002   3.3842065032201114E-002
  -4.7339399662897831E-002   1.4124952461069318E-002   3.3622695119607401E-002
  -4.4998871827876694E-002   1.3440527850590973E-002   3.3601550274820306E-002
  -4.2658343992855612E-002   1.2751115110095815E-002   3.3778630497839746E-002
  -5.6769756368278329E-002   1.6864980426338161E-002   2.8866102306257524E-002
  -5.4231856782223919E-002   1.6135868225545247E-002   2.8462749666279763E-002
  -5.1693957196169454E-002   1.5404319030311198E-002   2.8255915460562109E-002
  -4.9156057610115045E-002   1.4670332840635916E-002   2.8245599689104214E-002
  -4.6618158024060580E-002   1.3933909656519694E-002   2.8431802351906621E-002
  -3.0707011787810545E-002   9.2027314708241215E-003   4.9544705680640899E-002
  -2.9072228851450277E-002   8.6337333623073276E-003   4.9200875217808859E-002
  -2.7437445915090009E-002   8.0361433927651632E-003   4.9035214396699917E-002
  -2.5802662978729768E-002   7.4099615621983951E-003   4.9047723217314029E-002
  -2.4167880042369472E-002   6.7551878706065827E-003   4.9238401679651211E-002
  -3.4702770874730574E-002   1.0385526017248070E-002   4.4335082162206940E-002
  -3.2896494247873026E-002   9.7737231306224970E-003   4.3970895670087190E-002
  -3.1090217621015437E-002   9.1391885784215948E-003   4.3771526917238873E-002
  -2.9283940994157903E-002   8.4819223606449438E-003   4.3736975903662045E-002
  -2.7477664367300300E-002   7.8019244772927210E-003   4.3867242629356928E-002
  -3.8686548276412311E-002   1.1568320563671880E-002   3.9079723767940042E-002
  -3.6722129861508974E-002   1.0913712898938221E-002   3.8701041441981707E-002
  -3.4757711446605666E-002   1.0242233764077964E-002   3.8473824952843495E-002
  -3.2793293031702309E-002   9.5538831590916019E-003   3.8398074300525206E-002
  -3.0828874616799021E-002   8.8486610839788038E-003   3.8473789485026888E-002
  -4.2658343992855612E-002   1.2751115110095815E-002   3.3778630497839746E-002
  -4.0549135692358108E-002   1.2053702667253613E-002   3.3391312533492479E-002
  -3.8439927391860612E-002   1.1345278949734420E-002   3.3142108503513575E-002
  -3.6330719091363074E-002   1.0625843957538204E-002   3.3031018407903172E-002
  -3.4221510790865536E-002   9.8953976906649144E-003   3.3058042246661146E-002
  -4.6618158024060580E-002   1.3933909656519694E-002   2.8431802351906621E-002
  -4.4377511740420456E-002   1.3193692435569226E-002   2.8041708944619548E-002
  -4.2136865456780290E-002   1.2448324135390723E-002   2.7776377569249305E-002
  -3.9896219173140145E-002   1.1697804755984798E-002   2.7635808225796046E-002
  -3.7655572889499972E-002   1.0942134297351136E-002   2.7620000914259646E-002
  -2.4167880042369472E-002   6.7551878706065827E-003   4.9238401679651211E-002
  -2.2384239727860453E-002   6.0951452118225835E-003   4.8851148261896571E-002
  -2.0600599413351406E-002   5.4531564796798659E-003   4.8654358019891153E-002
  -1.8816959098842401E-002   4.8292216741782773E-003   4.8648030953635096E-002
  -1.7033318784333340E-002   4.2233407953178315E-003   4.8832167063128429E-002
  -2.7477664367300300E-002   7.8019244772927210E-003   4.3867242629356928E-002
  -2.5512286480716496E-002   7.1192711407455089E-003   4.3447575026273444E-002
  -2.3546908594132610E-002   6.4540385633839875E-003   4.3200919391590209E-002
  -2.1581530707548761E-002   5.8062267452087500E-003   4.3127275725307293E-002
  -1.9616152820964919E-002   5.1758356862192656E-003   4.3226644027424876E-002
  -3.0828874616799021E-002   8.8486610839788038E-003   3.8473789485026888E-002
  -2.8699210365489381E-002   8.1433970696681846E-003   3.8021074529159246E-002
  -2.6569546114179630E-002   7.4549206470884422E-003   3.7723920334343103E-002
  -2.4439881862869963E-002   6.7832318162391672E-003   3.7582326900578181E-002
  -2.2310217611560240E-002   6.1283305771208108E-003   3.7596294227864729E-002
  -3.4221510790865536E-002   9.8953976906649144E-003   3.3058042246661146E-002
  -3.1945011382179075E-002   9.1675229985909296E-003   3.2571646770554311E-002
  -2.9668511973492524E-002   8.4558027307926192E-003   3.2223360848149911E-002
  -2.7392012564806015E-002   7.7602368872698342E-003   3.2013184479447801E-002
  -2.5115513156119505E-002   7.0808254680224114E-003   3.1941117664447967E-002
  -3.7655572889499972E-002   1.0942134297351136E-002   2.7620000914259646E-002
  -3.5249689530785611E-002   1.0191648927513897E-002   2.7099291750458332E-002
  -3.2843806172071263E-002   9.4566848144969073E-003   2.6699240933010571E-002
  -3.0437922813356937E-002   8.7372419583001959E-003   2.6419848461915946E-002
  -2.8032039454642554E-002   8.0333203589239011E-003   2.6261114337174596E-002
  -1.7033318784333340E-002   4.2233407953178315E-003   4.8832167063128429E-002
  -1.5097997637778610E-002   3.6812448341216331E-003   4.8729022531390664E-002
  -1.3162676491223921E-002   3.2486647816130365E-003   4.8878624908608892E-002
  -1.1227355344669211E-002   2.9256006377919100E-003   4.9280974194783472E-002
  -9.2920341981145016E-003   2.7120524026584825E-003   4.9936070389914211E-002
  -1.9616152820964919E-002   5.1758356862192656E-003   4.3226644027424876E-002
  -1.7466004657179124E-002   4.5883081026585892E-003   4.3063259900177731E-002
  -1.5315856493393343E-002   4.0690867107701367E-003   4.3076782898436555E-002
  -1.3165708329607589E-002   3.6181715105534709E-003   4.3267213022201226E-002
  -1.1015560165821822E-002   3.2355625020085155E-003   4.3634550271472117E-002
  -2.2310217611560240E-002   6.1283305771208108E-003   3.7596294227864729E-002
  -2.0021082213993770E-002   5.4953713711957952E-003   3.7331460788092713E-002
  -1.7731946816427192E-002   4.8895086399271120E-003   3.7167694690376327E-002
  -1.5442811418860699E-002   4.3107423833149174E-003   3.7104995934715494E-002
  -1.3153676021294143E-002   3.7590726013587705E-003   3.7143364521110417E-002
  -2.5115513156119505E-002   7.0808254680224114E-003   3.1941117664447967E-002
  -2.2763230308222505E-002   6.4024346397331539E-003   3.1533625195135563E-002
  -2.0410947460325509E-002   5.7099305690844274E-003   3.1151360284428314E-002
  -1.8058664612428527E-002   5.0033132560760880E-003   3.0794322932326187E-002
  -1.5706381764531513E-002   4.2825827007088035E-003   3.0462513138829951E-002
  -2.8032039454642554E-002   8.0333203589239011E-003   2.6261114337174596E-002
  -2.5692448939865387E-002   7.3094979082699574E-003   2.5669753121306038E-002
  -2.3352858425088219E-002   6.5303524982413264E-003   2.5027779680592277E-002
  -2.1013267910311065E-002   5.6958841288380704E-003   2.4335194015033396E-002
  -1.8673677395533883E-002   4.8060928000590586E-003   2.3591996124630032E-002
  -9.2920341981145016E-003   2.7120524026584825E-003   4.9936070389914211E-002
  -7.8699946814396876E-003   2.8575883460311147E-003   5.0340027077029337E-002
  -6.4479551647649153E-003   3.6117767377283616E-003   5.1071904407210489E-002
  -5.0259156480901221E-003   4.9746175777503551E-003   5.2131702380457584E-002
  -3.6038761314153289E-003   6.9461108660967552E-003   5.3519420996770539E-002
  -1.1015560165821822E-002   3.2355625020085155E-003   4.3634550271472117E-002
  -9.2475501816084160E-003   3.1626385167452531E-003   4.4221825046902308E-002
  -7.4795401973950237E-003   3.6407783863718068E-003   4.5173120114343934E-002
  -5.7115302131816766E-003   4.6699821108895714E-003   4.6488435473796719E-002
  -3.9435202289682808E-003   6.2502496902976379E-003   4.8167771125260717E-002
  -1.3153676021294143E-002   3.7590726013587705E-003   3.7143364521110417E-002
  -1.1003595920596833E-002   3.4676886874589474E-003   3.7856368791422013E-002
  -8.8535158198995330E-003   3.6697800350158211E-003   3.8969493002690023E-002
  -6.7034357192021967E-003   4.3653466440289022E-003   4.0482737154914482E-002
  -4.5533556185049229E-003   5.5543885144985761E-003   4.2396101248095869E-002
  -1.5706381764531513E-002   4.2825827007088035E-003   3.0462513138829951E-002
  -1.3138131898404957E-002   3.7727388581729748E-003   3.1243658310588319E-002
  -1.0569882032278478E-002   3.6987816836595508E-003   3.2461023072248782E-002
  -8.0016321661519878E-003   4.0607111771683978E-003   3.4114607423810998E-002
  -5.4333823000254980E-003   4.8585273386994865E-003   3.6204411365275461E-002
  -1.8673677395533883E-002   4.8060928000590586E-003   2.3591996124630032E-002
  -1.5651158115032843E-002   4.0777890288867802E-003   2.4383693604401735E-002
  -1.2628638834531830E-002   3.7277833323031695E-003   2.5647710323020378E-002
  -9.6061195540308314E-003   3.7560757103076436E-003   2.7384046280486268E-002
  -6.5836002735297772E-003   4.1626661629003969E-003   2.9592701476799599E-002
  -3.6038761314153289E-003   6.9461108660967552E-003   5.3519420996770539E-002
  -4.1558728754044483E-003   9.5394344775264761E-003   5.1850791788874084E-002
  -4.7078696193935676E-003   1.2767766286798349E-002   5.0036061671565324E-002
  -5.2598663633827009E-003   1.6631106293911825E-002   4.8075230644844563E-002
  -5.8118631073718063E-003   2.1129454498867606E-002   4.5968298708711330E-002
  -3.9435202289682808E-003   6.2502496902976379E-003   4.8167771125260717E-002
  -4.5376035545996174E-003   8.6904706286742850E-003   4.7234890483594694E-002
  -5.1316868802309887E-003   1.2299534430096959E-002   4.6363937588055570E-002
  -5.7257702058624363E-003   1.7077441094566062E-002   4.5554912438644651E-002
  -6.3198535314937521E-003   2.3024190622081164E-002   4.4807815035361243E-002
  -4.5533556185049229E-003   5.5543885144985761E-003   4.2396101248095869E-002
  -4.9814968702387892E-003   7.8415067798218163E-003   4.2732803837863986E-002
  -5.4096381219727180E-003   1.1831302573395888E-002   4.3339462829299444E-002
  -5.8377793737066329E-003   1.7523775895220074E-002   4.4216078222402679E-002
  -6.2659206254405131E-003   2.4918926745294723E-002   4.5362650017172768E-002
  -5.4333823000254980E-003   4.8585273386994865E-003   3.6204411365275461E-002
  -5.4875528223220340E-003   6.9925429309694864E-003   3.8344531851682365E-002
  -5.5417233446185994E-003   1.1363070716694103E-002   4.0962637395296195E-002
  -5.5958938669152447E-003   1.7970110695873974E-002   4.4058727996117687E-002
  -5.6500643892116453E-003   2.6813662868508170E-002   4.7632803654145767E-002
  -6.5836002735297772E-003   4.1626661629003969E-003   2.9592701476799599E-002
  -6.0557714108492311E-003   6.1435790821174896E-003   3.4070074525049288E-002
  -5.5279425481687405E-003   1.0894838859993317E-002   3.9233461286046212E-002
  -5.0001136854882777E-003   1.8416445496528183E-002   4.5082861759789983E-002
  -4.4722848228077039E-003   2.8708398991721840E-002   5.1618275946281322E-002
  -7.5545223079505508E-002   2.0122260292966043E-002   2.6753330954360388E-002
  -7.2991488505763563E-002   2.0397806876127633E-002   2.6999264718015170E-002
  -7.0437753932021591E-002   2.0407601770177378E-002   2.7315224437363256E-002
  -6.7884019358279563E-002   2.0151644975115488E-002   2.7701210112404520E-002
  -6.5330284784537618E-002   1.9629936490941802E-002   2.8157221743139005E-002
  -8.1219123634652696E-002   2.3549648168582904E-002   2.1808578005966417E-002
  -7.8550852332865378E-002   2.3018619689734038E-002   2.1493689333565186E-002
  -7.5882581031077867E-002   2.2448654414902278E-002   2.1337848161561618E-002
  -7.3214309729290439E-002   2.1839752344087356E-002   2.1341054489955880E-002
  -7.0546038427503052E-002   2.1191913477289381E-002   2.1503308318747721E-002
  -8.7346013155660901E-002   2.6977036044199681E-002   1.5943842548997736E-002
  -8.4474183581123519E-002   2.5639432503340581E-002   1.5294946333669165E-002
  -8.1602354006586150E-002   2.4489707059626949E-002   1.4894119163442736E-002
  -7.8730524432048754E-002   2.3527859713059165E-002   1.4741361038318652E-002
  -7.5858694857511330E-002   2.2753890463637072E-002   1.4836671958296521E-002
  -9.3925891642529985E-002   3.0404423919816584E-002   9.1591245834542513E-003
  -9.0761482250538122E-002   2.8260245316947055E-002   8.4030357183271127E-003
  -8.7597072858546343E-002   2.6530759704351873E-002   7.9840374430066325E-003
  -8.4432663466554550E-002   2.5215967082031117E-002   7.9021297574927186E-003
  -8.1268254074562674E-002   2.4315867449984596E-002   8.1573126617854319E-003
 -0.10095875909525986        3.3831811795433375E-002   1.4544241093361610E-003
  -9.7412748341109134E-002   3.0881058130553418E-002   8.1795748753910047E-004
  -9.3866737586958404E-002   2.8571812349076714E-002   6.0760300025297642E-004
  -9.0320726832807785E-002   2.6904074451002853E-002   8.2336064747834392E-004
  -8.6774716078657055E-002   2.5877844436332231E-002   1.4652304292145368E-003
  -6.5330284784537618E-002   1.9629936490941802E-002   2.8157221743139005E-002
  -6.3190152680472789E-002   1.8966188490357000E-002   2.8174164887486808E-002
  -6.1050020576407960E-002   1.8284113146061376E-002   2.8297959362789143E-002
  -5.8909888472343158E-002   1.7583710458055152E-002   2.8528605169045998E-002
  -5.6769756368278329E-002   1.6864980426338161E-002   2.8866102306257524E-002
  -7.0546038427503052E-002   2.1191913477289381E-002   2.1503308318747721E-002
  -6.8284064437474493E-002   2.0509641840256193E-002   2.1414211186962434E-002
  -6.6022090447446002E-002   1.9797441458735215E-002   2.1461946496150075E-002
  -6.3760116457417471E-002   1.9055312332726816E-002   2.1646514246310679E-002
  -6.1498142467388953E-002   1.8283254462230614E-002   2.1967914437443781E-002
  -7.5858694857511330E-002   2.2753890463637072E-002   1.4836671958296521E-002
  -7.3444897871500867E-002   2.2053095190155456E-002   1.4629933149601371E-002
  -7.1031100885490431E-002   2.1310769771409221E-002   1.4590007891897239E-002
  -6.8617303899479967E-002   2.0526914207398647E-002   1.4716896185184354E-002
  -6.6203506913469531E-002   1.9701528498123150E-002   1.5010598029462585E-002
  -8.1268254074562674E-002   2.4315867449984596E-002   8.1573126617854319E-003
  -7.8672652982552008E-002   2.3596548540054878E-002   7.8213307754034823E-003
  -7.6077051890541286E-002   2.2824098084083422E-002   7.6821435500307317E-003
  -7.3481450798530606E-002   2.1998516082070145E-002   7.7397509856673118E-003
  -7.0885849706519857E-002   2.1119802534015644E-002   7.9941530823133544E-003
  -8.6774716078657055E-002   2.5877844436332231E-002   1.4652304292145368E-003
  -8.3967329770627819E-002   2.5140001889953800E-002   9.8840406436856432E-004
  -8.1159943462598583E-002   2.4337426396756956E-002   7.3835347055031808E-004
  -7.8352557154569291E-002   2.3470117956741948E-002   7.1507864775999935E-004
  -7.5545170846540111E-002   2.2538076569908139E-002   9.1857959599672689E-004
  -5.6769756368278329E-002   1.6864980426338161E-002   2.8866102306257524E-002
  -5.4231856782223919E-002   1.6135868225545247E-002   2.8462749666279763E-002
  -5.1693957196169454E-002   1.5404319030311198E-002   2.8255915460562109E-002
  -4.9156057610115045E-002   1.4670332840635916E-002   2.8245599689104214E-002
  -4.6618158024060580E-002   1.3933909656519694E-002   2.8431802351906621E-002
  -6.1498142467388953E-002   1.8283254462230614E-002   2.1967914437443781E-002
  -5.8765967589769472E-002   1.7497552347165463E-002   2.1585441938255540E-002
  -5.6033792712149998E-002   1.6714490487449926E-002   2.1395001587937446E-002
  -5.3301617834530551E-002   1.5934068883083751E-002   2.1396593386489415E-002
  -5.0569442956911057E-002   1.5156287534067059E-002   2.1590217333911588E-002
  -6.6203506913469531E-002   1.9701528498123150E-002   1.5010598029462585E-002
  -6.3281543029674772E-002   1.8859236468785623E-002   1.4654082920854294E-002
  -6.0359579145880103E-002   1.8024661944588377E-002   1.4485113675726573E-002
  -5.7437615262085392E-002   1.7197804925531253E-002   1.4503690294078858E-002
  -5.4515651378290737E-002   1.6378665411614507E-002   1.4709812775911504E-002
  -7.0885849706519857E-002   2.1119802534015644E-002   7.9941530823133544E-003
  -6.7778583101939793E-002   2.0220920590405783E-002   7.6686726140761489E-003
  -6.4671316497359771E-002   1.9334833401726911E-002   7.5262517239292649E-003
  -6.1564049892779665E-002   1.8461540967979143E-002   7.5668904118727856E-003
  -5.8456783288199664E-002   1.7601043289162080E-002   7.7905886779068463E-003
  -7.5545170846540111E-002   2.2538076569908139E-002   9.1857959599672689E-004
  -7.2257087806564479E-002   2.1582604712025999E-002   6.2921101792112744E-004
  -6.8969004766588959E-002   2.0645004858865751E-002   5.1841573254579609E-004
  -6.5680921726613412E-002   1.9725277010426416E-002   5.8619373987113532E-004
  -6.2392838686637808E-002   1.8823421166709209E-002   8.3254503989715900E-004
  -4.6618158024060580E-002   1.3933909656519694E-002   2.8431802351906621E-002
  -4.4377511740420456E-002   1.3193692435569226E-002   2.8041708944619548E-002
  -4.2136865456780290E-002   1.2448324135390723E-002   2.7776377569249305E-002
  -3.9896219173140145E-002   1.1697804755984798E-002   2.7635808225796046E-002
  -3.7655572889499972E-002   1.0942134297351136E-002   2.7620000914259646E-002
  -5.0569442956911057E-002   1.5156287534067059E-002   2.1590217333911588E-002
  -4.8195331030064528E-002   1.4380469435911453E-002   2.1211971632957044E-002
  -4.5821219103217979E-002   1.3605937584127953E-002   2.0975895186498283E-002
  -4.3447107176371486E-002   1.2832691978716941E-002   2.0881987994535639E-002
  -4.1072995249524902E-002   1.2060732619677661E-002   2.0930250057068611E-002
  -5.4515651378290737E-002   1.6378665411614507E-002   1.4709812775911504E-002
  -5.1990666585658790E-002   1.5567246436254123E-002   1.4349852106889216E-002
  -4.9465681793026919E-002   1.4763551032865287E-002   1.4149467914941975E-002
  -4.6940697000395055E-002   1.3967579201448749E-002   1.4108660200069584E-002
  -4.4415712207763115E-002   1.3179330942004130E-002   1.4227428962272082E-002
  -5.8456783288199664E-002   1.7601043289162080E-002   7.7905886779068463E-003
  -5.5763518407203408E-002   1.6754023436596571E-002   7.4553503664166361E-003
  -5.3070253526207117E-002   1.5921164481602735E-002   7.2970957545804866E-003
  -5.0376988645210896E-002   1.5102466424180835E-002   7.3158248423983987E-003
  -4.7683723764214571E-002   1.4297929264330184E-002   7.5115376298698217E-003
  -6.2392838686637808E-002   1.8823421166709209E-002   8.3254503989715900E-004
  -5.9513886494698243E-002   1.7940800436938686E-002   5.2846641153869722E-004
  -5.6634934302758566E-002   1.7078777930339767E-002   4.1877870541362494E-004
  -5.3755982110818890E-002   1.6237353646913012E-002   5.0348192152141480E-004
  -5.0877029918879324E-002   1.5416527586657125E-002   7.8257605986209455E-004
  -3.7655572889499972E-002   1.0942134297351136E-002   2.7620000914259646E-002
  -3.5249689530785611E-002   1.0191648927513897E-002   2.7099291750458332E-002
  -3.2843806172071263E-002   9.4566848144969073E-003   2.6699240933010571E-002
  -3.0437922813356937E-002   8.7372419583001959E-003   2.6419848461915946E-002
  -2.8032039454642554E-002   8.0333203589239011E-003   2.6261114337174596E-002
  -4.1072995249524902E-002   1.2060732619677661E-002   2.0930250057068611E-002
  -3.8554857642998486E-002   1.1291975496758644E-002   2.0486161937857073E-002
  -3.6036720036472056E-002   1.0528336599707505E-002   2.0145923967916424E-002
  -3.3518582429945605E-002   9.7698159285255146E-003   1.9909536147246470E-002
  -3.1000444823419210E-002   9.0164134832108056E-003   1.9776998475847629E-002
  -4.4415712207763115E-002   1.3179330942004130E-002   1.4227428962272082E-002
  -4.1802128550507148E-002   1.2392302066003558E-002   1.3849558856698169E-002
  -3.9188544893251145E-002   1.1599988384918769E-002   1.3558730703312663E-002
  -3.6574961235995185E-002   1.0802389898750667E-002   1.3354944502115357E-002
  -3.3961377578739127E-002   9.9995066074978767E-003   1.3238200253106153E-002
  -4.7683723764214571E-002   1.4297929264330184E-002   7.5115376298698217E-003
  -4.4991502253311597E-002   1.3492628635248555E-002   7.1894825069814192E-003
  -4.2299280742408511E-002   1.2671640170129700E-002   6.9376611391990597E-003
  -3.9607059231505461E-002   1.1834963868975514E-002   6.7560735265220183E-003
  -3.6914837720602459E-002   1.0982599731784976E-002   6.6447196689512281E-003
  -5.0877029918879324E-002   1.5416527586657125E-002   7.8257605986209455E-004
  -4.8122978751411694E-002   1.4592955204493330E-002   5.0593288870698361E-004
  -4.5368927583944174E-002   1.3743291955340353E-002   2.8271527557532927E-004
  -4.2614876416476627E-002   1.2867537839200957E-002   1.1292322046668746E-004
  -3.9860825249009024E-002   1.1965692856072074E-002  -3.4432766183867258E-006
  -2.8032039454642554E-002   8.0333203589239011E-003   2.6261114337174596E-002
  -2.5692448939865387E-002   7.3094979082699574E-003   2.5669753121306038E-002
  -2.3352858425088219E-002   6.5303524982413264E-003   2.5027779680592277E-002
  -2.1013267910311065E-002   5.6958841288380704E-003   2.4335194015033396E-002
  -1.8673677395533883E-002   4.8060928000590586E-003   2.3591996124630032E-002
  -3.1000444823419210E-002   9.0164134832108056E-003   1.9776998475847629E-002
  -2.8694310932180833E-002   8.2650685641234012E-003   1.9182102408347002E-002
  -2.6388177040942595E-002   7.5127204716212148E-003   1.8570905318613440E-002
  -2.4082043149704212E-002   6.7593692057041355E-003   1.7943407206647305E-002
  -2.1775909258465925E-002   6.0050147663728293E-003   1.7299608072448458E-002
  -3.3961377578739127E-002   9.9995066074978767E-003   1.3238200253106153E-002
  -3.1654389108427314E-002   9.2206392199762899E-003   1.2694089119934027E-002
  -2.9347400638115563E-002   8.4950884450005343E-003   1.2167988167141333E-002
  -2.7040412167803746E-002   7.8228542825707521E-003   1.1659897394728259E-002
  -2.4733423697491999E-002   7.2039367326866000E-003   1.1169816802694771E-002
  -3.6914837720602459E-002   1.0982599731784976E-002   6.6447196689512281E-003
  -3.4572683468604898E-002   1.0176209875829623E-002   6.2057132560673980E-003
  -3.2230529216607420E-002   9.4774564183804713E-003   5.8190282261759499E-003
  -2.9888374964609880E-002   8.8863393594373150E-003   5.4846645792760457E-003
  -2.7546220712612372E-002   8.4028586990003706E-003   5.2026223153680967E-003
  -3.9860825249009024E-002   1.1965692856072074E-002  -3.4432766183867258E-006
  -3.7449194012713516E-002   1.1131780531682955E-002  -2.8302518325257209E-004
  -3.5037562776417952E-002   1.0459824391759576E-002  -4.7597450428282784E-004
  -3.2625931540122388E-002   9.9498244363040583E-003  -5.8229123970882091E-004
  -3.0214300303826880E-002   9.6017806653143634E-003  -6.0197538953077334E-004
  -1.8673677395533883E-002   4.8060928000590586E-003   2.3591996124630032E-002
  -1.5651158115032843E-002   4.0777890288867802E-003   2.4383693604401735E-002
  -1.2628638834531830E-002   3.7277833323031695E-003   2.5647710323020378E-002
  -9.6061195540308314E-003   3.7560757103076436E-003   2.7384046280486268E-002
  -6.5836002735297772E-003   4.1626661629003969E-003   2.9592701476799599E-002
  -2.1775909258465925E-002   6.0050147663728293E-003   1.7299608072448458E-002
  -1.8549970602766128E-002   5.3412755810579027E-003   1.8247388990495328E-002
  -1.5324031947066358E-002   4.8597700771896568E-003   1.9129689420092522E-002
  -1.2098093291366546E-002   4.5604982547691533E-003   1.9946509361239900E-002
  -8.8721546356667902E-003   4.4434601137955942E-003   2.0697848813937658E-002
  -2.4733423697491999E-002   7.2039367326866000E-003   1.1169816802694771E-002
  -2.1841865393890325E-002   6.6047621332285811E-003   1.2077616765875626E-002
  -1.8950307090288672E-002   5.9917568220762552E-003   1.2382136513309994E-002
  -1.6058748786687057E-002   5.3649207992304410E-003   1.2083376044997721E-002
  -1.3167190483085400E-002   4.7242540646905695E-003   1.1181335360939015E-002
  -2.7546220712612372E-002   8.4028586990003706E-003   5.2026223153680967E-003
  -2.5526842488405643E-002   7.8682486853997036E-003   5.8743769305419982E-003
  -2.3507464264198911E-002   7.1237435669628535E-003   5.4050516026725032E-003
  -2.1488086039992228E-002   6.1693433436917286E-003   3.7946463317598093E-003
  -1.9468707815785455E-002   5.0050480155851007E-003   1.0431611178034761E-003
  -3.0214300303826880E-002   9.6017806653143634E-003  -6.0197538953077334E-004
  -2.9604901886311930E-002   9.1317352375703820E-003  -3.6233051550488282E-004
  -2.8995503468797035E-002   8.2557303118493963E-003  -1.8015653118192698E-003
  -2.8386105051282168E-002   6.9737658881531411E-003  -4.9196797784742882E-003
  -2.7776706633767190E-002   5.2858419664807421E-003  -9.7166739154690429E-003
  -6.5836002735297772E-003   4.1626661629003969E-003   2.9592701476799599E-002
  -6.0557714108492311E-003   6.1435790821174896E-003   3.4070074525049288E-002
  -5.5279425481687405E-003   1.0894838859993317E-002   3.9233461286046212E-002
  -5.0001136854882777E-003   1.8416445496528183E-002   4.5082861759789983E-002
  -4.4722848228077039E-003   2.8708398991721840E-002   5.1618275946281322E-002
  -8.8721546356667902E-003   4.4434601137955942E-003   2.0697848813937658E-002
  -7.5862490992518461E-003   5.6595192803612915E-003   2.5867957234038730E-002
  -6.3003435628367771E-003   9.3595393805581406E-003   3.1868205288861529E-002
  -5.0144380264219510E-003   1.5543520414385344E-002   3.8698592978406082E-002
  -3.7285324900068750E-003   2.4211462381844351E-002   4.6359120302673196E-002
  -1.3167190483085400E-002   4.7242540646905695E-003   1.1181335360939015E-002
  -1.0979082350960997E-002   5.1754594786057040E-003   1.6757793227862833E-002
  -8.7909742188365947E-003   7.8242399011231867E-003   2.3308516651483480E-002
  -6.6028660867123098E-003   1.2670595332243392E-002   3.0833505631800720E-002
  -4.4147579545877891E-003   1.9714525771967084E-002   3.9332760168815484E-002
  -1.9468707815785455E-002   5.0050480155851007E-003   1.0431611178034761E-003
  -1.6234271165976755E-002   4.6913996768491451E-003   6.7395825065218878E-003
  -1.2999834516167992E-002   6.2889404216880107E-003   1.3554395373912252E-002
  -9.7653978663593006E-003   9.7976702501011079E-003   2.1487599719974521E-002
  -6.5309612165505293E-003   1.5217589162089373E-002   3.0539195544708297E-002
  -2.7776706633767190E-002   5.2858419664807421E-003  -9.7166739154690429E-003
  -2.3351815544299215E-002   4.2073398750932522E-003  -4.1866749299835360E-003
  -1.8926924454831184E-002   4.7536409422532788E-003   2.6058414561484222E-003
  -1.4502033365363182E-002   6.9247451679586569E-003   1.0660875242926783E-002
  -1.0077142275895179E-002   1.0720652552212329E-002   1.9978426430352414E-002
 </DataArray>
 </PointData>
 </Piece>
 </UnstructuredGrid>
 </VTKFile>
