 <VTKFile type="UnstructuredGrid"  version="0.1"   >
 <UnstructuredGrid>
 <Piece  NumberOfPoints="            25 "  NumberOfCells="           16 ">
 <Points>
 <DataArray  type="Float64" NumberOfComponents="3"  format="ascii" >
   0.0000000000000000        0.0000000000000000        0.0000000000000000     
  0.25000000000000000        0.0000000000000000        0.0000000000000000     
  0.50000000000000000        0.0000000000000000        0.0000000000000000     
  0.75000000000000000        0.0000000000000000        0.0000000000000000     
   1.0000000000000000        0.0000000000000000        0.0000000000000000     
   0.0000000000000000       0.25000000000000000        0.0000000000000000     
  0.25000000000000000       0.25000000000000000        0.0000000000000000     
  0.50000000000000000       0.25000000000000000        0.0000000000000000     
  0.75000000000000000       0.25000000000000000        0.0000000000000000     
   1.0000000000000000       0.25000000000000000        0.0000000000000000     
   0.0000000000000000       0.50000000000000000        0.0000000000000000     
  0.25000000000000000       0.50000000000000000        0.0000000000000000     
  0.50000000000000000       0.50000000000000000        0.0000000000000000     
  0.75000000000000000       0.50000000000000000        0.0000000000000000     
   1.0000000000000000       0.50000000000000000        0.0000000000000000     
   0.0000000000000000       0.75000000000000000        0.0000000000000000     
  0.25000000000000000       0.75000000000000000        0.0000000000000000     
  0.50000000000000000       0.75000000000000000        0.0000000000000000     
  0.75000000000000000       0.75000000000000000        0.0000000000000000     
   1.0000000000000000       0.75000000000000000        0.0000000000000000     
   0.0000000000000000        1.0000000000000000        0.0000000000000000     
  0.25000000000000000        1.0000000000000000        0.0000000000000000     
  0.50000000000000000        1.0000000000000000        0.0000000000000000     
  0.75000000000000000        1.0000000000000000        0.0000000000000000     
   1.0000000000000000        1.0000000000000000        0.0000000000000000     
 </DataArray>
 </Points>
 <Cells>
 <DataArray  type="Int32"  Name="connectivity"  format="ascii">
           0           1           6           5
           1           2           7           6
           2           3           8           7
           3           4           9           8
           5           6          11          10
           6           7          12          11
           7           8          13          12
           8           9          14          13
          10          11          16          15
          11          12          17          16
          12          13          18          17
          13          14          19          18
          15          16          21          20
          16          17          22          21
          17          18          23          22
          18          19          24          23
 </DataArray>
 <DataArray  type="Int32"  Name="offsets"  format="ascii"> 
           4
           8
          12
          16
          20
          24
          28
          32
          36
          40
          44
          48
          52
          56
          60
          64
 </DataArray>
 <DataArray  type="UInt8"  Name="types"  format="ascii">
 9
 9
 9
 9
 9
 9
 9
 9
 9
 9
 9
 9
 9
 9
 9
 9
 </DataArray>
 </Cells> 
 <PointData>
 <DataArray  type="Float64" Name="disp" NumberOfComponents="3" format="ascii">
   0.0000000000000000        0.0000000000000000        0.0000000000000000     
   3.0106871731405260E-002   2.4984827797491862E-002   0.0000000000000000     
   5.5189261562040390E-002   5.7627188311567490E-002   0.0000000000000000     
   7.5247169491905380E-002   9.7927081542226901E-002   0.0000000000000000     
   9.0280595521000262E-002  0.14588450748947007        0.0000000000000000     
   0.0000000000000000        0.0000000000000000        0.0000000000000000     
   1.5053435865360544E-002   2.2091962768797394E-002   0.0000000000000000     
   2.7594630781106591E-002   5.3096171624371240E-002   0.0000000000000000     
   3.7623584747238141E-002   9.3012626566721546E-002   0.0000000000000000     
   4.5140297763755194E-002  0.14184132759584833        0.0000000000000000     
   0.0000000000000000        0.0000000000000000        0.0000000000000000     
  -4.8958059828407841E-013   2.1127674425998506E-002   0.0000000000000000     
   5.9563465271139648E-014   5.1585832728633298E-002   0.0000000000000000     
   1.6474304559421782E-012   9.1374474907904374E-002   0.0000000000000000     
   4.2740221084525132E-012  0.14049360096381175        0.0000000000000000     
   0.0000000000000000        0.0000000000000000        0.0000000000000000     
  -1.5053435866145113E-002   2.2091962769095211E-002   0.0000000000000000     
  -2.7594630781100693E-002   5.3096171624353684E-002   0.0000000000000000     
  -3.7623584744866732E-002   9.3012626565775372E-002   0.0000000000000000     
  -4.5140297757443257E-002  0.14184132759336035        0.0000000000000000     
   0.0000000000000000        0.0000000000000000        0.0000000000000000     
  -3.0106871731606054E-002   2.4984827798087500E-002   0.0000000000000000     
  -5.5189261562374178E-002   5.7627188311532358E-002   0.0000000000000000     
  -7.5247169492304380E-002   9.7927081540334568E-002   0.0000000000000000     
  -9.0280595521396653E-002  0.14588450748449414        0.0000000000000000     
 </DataArray>
 <DataArray  type="Float64" Name="stress" NumberOfComponents="3" format="ascii">
   8602842905.0875587        2580852871.5262675        1952867209.7723055     
   6972523455.6995649        1166040227.5157259        1270168457.5053909     
   5474569372.8454790        192445471.95154548        819368869.98372316     
   4108980656.5253015       -339931395.16627526        600468447.20730221     
   2875757306.7390337       -431090373.83773303        613467189.17612767     
   4301421452.3519449        1290426435.7055836        1627923666.9608459     
   3486261727.8670659        583020113.78091717        1061044610.4219880     
   2737284686.6370115        96222736.039000034        726064718.58200002     
   2054490328.6617825       -169965697.52016854        622983991.44088233     
   1437878653.9413769       -215545186.89658737        751802428.99863482     
 -0.26609483847131249       -7.9828451541393758E-002   1519609152.7089567     
   1.9636375858667066E-002   4.1629200087101026E-002   991336661.40589130     
  0.28110867571435932        8.2224497357361745E-002   694963334.75531924     
  0.51832201534481537        4.1956593876835285E-002   630489172.75724125     
  0.73127657775383059       -7.9173206452437084E-002   797914175.41165650     
  -4301421452.7665606       -1290426435.8299682        1627923667.0166388     
  -3486261727.8427243       -583020113.70213819        1061044610.4571016     
  -2737284686.2222300       -96222735.918781877        726064718.50368118     
  -2054490327.9050784        169965697.52010071        622983991.15637827     
  -1437878652.8912683        215545186.61450756        751802428.41519260     
  -8602842905.1494560       -2580852871.5448365        1952867209.8838913     
  -6972523455.7200174       -1166040227.4503851        1270168457.5756185     
  -5474569372.8730049       -192445471.96401954        819368869.82708585     
  -4108980656.6084180        339931394.91426063        600468446.63829458     
  -2875757306.9262581        431090373.18445337        613467188.00924277     
 </DataArray>
 <DataArray  type="Float64" Name="VM" NumberOfComponents="1" format="ascii">
   8361106792.5369625     
   6832676931.2728186     
   5564933515.0007753     
   4413358583.2874851     
   3290069340.7121677     
   4750491063.0216970     
   3720056394.0522871     
   2969866524.8578296     
   2400695501.6062737     
   2029655943.9958539     
   2632040260.1386056     
   1717045464.9607086     
   1203711805.1937108     
   1092039280.8376131     
   1382027891.8924146     
   4750491063.3756390     
   3720056394.0859957     
   2969866524.4763160     
   2400695500.7103858     
   2029655942.4179504     
   8361106792.6654634     
   6832676931.3532982     
   5564933514.9524851     
   4413358582.9990892     
   3290069339.8642435     
 </DataArray>
 <DataArray  type="Float64" Name="strain" NumberOfComponents="3" format="ascii">
  0.13047645072716130        0.0000000000000000        8.4624245756799901E-002
  0.11037852312408078       -1.5428613486569057E-002   5.5040633158566943E-002
   9.0280595521000262E-002  -2.4165422331701637E-002   3.5505984365961335E-002
   7.0182667917919744E-002  -2.6210426535397763E-002   2.6020299378983099E-002
   5.0084740314839227E-002  -2.1563626097657385E-002   2.6583578197632199E-002
   6.5238225360671170E-002   0.0000000000000000        7.0543358901636655E-002
   5.5189261562213182E-002  -7.7143067429867110E-003   4.5978599784952813E-002
   4.5140297763755194E-002  -1.2082711165868391E-002   3.1462804471886666E-002
   3.5091333965297219E-002  -1.3105213268645055E-002   2.6995972962438233E-002
   2.5042370166839217E-002  -1.0781813051316674E-002   3.2578105256607509E-002
  -4.0357717168149065E-012   0.0000000000000000        6.5849729950721456E-002
   1.1912693054227930E-013   5.9563812215834844E-013   4.2957921994255292E-002
   4.2740221084525132E-012  -3.5135089282434251E-014   3.0115077839397167E-002
   8.4289172863627471E-012  -1.8923335121101559E-012   2.7321197486147121E-002
   1.2583808994826029E-011  -4.9759363296431047E-012   3.4576280934505113E-002
  -6.5238225366959501E-002   0.0000000000000000        7.0543358904054346E-002
  -5.5189261562201386E-002   7.7143067441779872E-003   4.5978599786474401E-002
  -4.5140297757443257E-002   1.2082711165798119E-002   3.1462804468492853E-002
  -3.5091333952685141E-002   1.3105213264860402E-002   2.6995972950109727E-002
  -2.5042370147927012E-002   1.0781813041364802E-002   3.2578105231325011E-002
 -0.13047645072810007        0.0000000000000000        8.4624245761635297E-002
 -0.11037852312474836        1.5428613487760333E-002   5.5040633161610134E-002
  -9.0280595521396653E-002   2.4165422331631367E-002   3.5505984359173723E-002
  -7.0182667918044936E-002   2.6210426531613103E-002   2.6020299354326096E-002
  -5.0084740314693232E-002   2.1563626087705512E-002   2.6583578147067188E-002
 </DataArray>
 </PointData>
 </Piece>
 <Piece  NumberOfPoints="            25 "  NumberOfCells="           16 ">
 <Points>
 <DataArray  type="Float64" NumberOfComponents="3"  format="ascii" >
  0.50000000000000000        0.0000000000000000        0.0000000000000000     
  0.75000000000000000        0.0000000000000000        0.0000000000000000     
   1.0000000000000000        0.0000000000000000        0.0000000000000000     
   1.2500000000000000        0.0000000000000000        0.0000000000000000     
   1.5000000000000000        0.0000000000000000        0.0000000000000000     
  0.50000000000000000       0.25000000000000000        0.0000000000000000     
  0.75000000000000000       0.25000000000000000        0.0000000000000000     
   1.0000000000000000       0.25000000000000000        0.0000000000000000     
   1.2500000000000000       0.25000000000000000        0.0000000000000000     
   1.5000000000000000       0.25000000000000000        0.0000000000000000     
  0.50000000000000000       0.50000000000000000        0.0000000000000000     
  0.75000000000000000       0.50000000000000000        0.0000000000000000     
   1.0000000000000000       0.50000000000000000        0.0000000000000000     
   1.2500000000000000       0.50000000000000000        0.0000000000000000     
   1.5000000000000000       0.50000000000000000        0.0000000000000000     
  0.50000000000000000       0.75000000000000000        0.0000000000000000     
  0.75000000000000000       0.75000000000000000        0.0000000000000000     
   1.0000000000000000       0.75000000000000000        0.0000000000000000     
   1.2500000000000000       0.75000000000000000        0.0000000000000000     
   1.5000000000000000       0.75000000000000000        0.0000000000000000     
  0.50000000000000000        1.0000000000000000        0.0000000000000000     
  0.75000000000000000        1.0000000000000000        0.0000000000000000     
   1.0000000000000000        1.0000000000000000        0.0000000000000000     
   1.2500000000000000        1.0000000000000000        0.0000000000000000     
   1.5000000000000000        1.0000000000000000        0.0000000000000000     
 </DataArray>
 </Points>
 <Cells>
 <DataArray  type="Int32"  Name="connectivity"  format="ascii">
           0           1           6           5
           1           2           7           6
           2           3           8           7
           3           4           9           8
           5           6          11          10
           6           7          12          11
           7           8          13          12
           8           9          14          13
          10          11          16          15
          11          12          17          16
          12          13          18          17
          13          14          19          18
          15          16          21          20
          16          17          22          21
          17          18          23          22
          18          19          24          23
 </DataArray>
 <DataArray  type="Int32"  Name="offsets"  format="ascii"> 
           4
           8
          12
          16
          20
          24
          28
          32
          36
          40
          44
          48
          52
          56
          60
          64
 </DataArray>
 <DataArray  type="UInt8"  Name="types"  format="ascii">
 9
 9
 9
 9
 9
 9
 9
 9
 9
 9
 9
 9
 9
 9
 9
 9
 </DataArray>
 </Cells> 
 <PointData>
 <DataArray  type="Float64" Name="disp" NumberOfComponents="3" format="ascii">
   5.5189261564430880E-002   5.7627188315924470E-002   0.0000000000000000     
   7.5247169493292909E-002   9.7927081542307781E-002   0.0000000000000000     
   9.0280595521850443E-002  0.14588450748637380        0.0000000000000000     
  0.10028953965010348       0.20149946614812245        0.0000000000000000     
  0.10527400187805200       0.26477195752755384        0.0000000000000000     
   2.7594630783961616E-002   5.3096171626549435E-002   0.0000000000000000     
   3.7623584747285298E-002   9.3012626566762152E-002   0.0000000000000000     
   4.5140297760826092E-002  0.14184132759429985        0.0000000000000000     
   5.0144769824583997E-002  0.19958227470916245        0.0000000000000000     
   5.2637000938559012E-002  0.26623546791135011        0.0000000000000000     
   3.0694058406055547E-012   5.1585832728633096E-002   0.0000000000000000     
   1.2477839941849034E-012   9.1374474907904471E-002   0.0000000000000000     
   8.5114207348802040E-014  0.14049360096381153        0.0000000000000000     
  -4.1860525462622533E-013  0.19894321089635419        0.0000000000000000     
  -2.6337959591060667E-013  0.26672330470553257        0.0000000000000000     
  -2.7594630778245744E-002   5.3096171622175441E-002   0.0000000000000000     
  -3.7623584744819624E-002   9.3012626565734779E-002   0.0000000000000000     
  -4.5140297760372476E-002  0.14184132759490886        0.0000000000000000     
  -5.0144769824904324E-002  0.19958227470969775        0.0000000000000000     
  -5.2637000938415154E-002  0.26623546791010128        0.0000000000000000     
  -5.5189261559983840E-002   5.7627188307176468E-002   0.0000000000000000     
  -7.5247169490916921E-002   9.7927081540253050E-002   0.0000000000000000     
  -9.0280595520546694E-002  0.14588450748759188        0.0000000000000000     
 -0.10028953964887316       0.20149946614919292        0.0000000000000000     
 -0.10527400187589633       0.26477195752505617        0.0000000000000000     
 </DataArray>
 <DataArray  type="Float64" Name="stress" NumberOfComponents="3" format="ascii">
   5474569372.3471565        192445471.27909756        819368869.59546280     
   4108980656.3190045       -339931395.23780918        600468446.69833744     
   2875757306.7811627       -431090373.45368016        613467188.46842730     
   1774899323.7336309       -81031463.368516445        858365094.90573406     
   806406707.17641008        710245335.01767957        1335162166.0102539     
   2737284685.7463088        96222735.248927951        726064718.38795257     
   2054490327.8958435       -169965697.75964451        622983991.18639624     
   1437878653.2567055       -215545186.73046011        751802428.64469242     
   887449661.82889223       -40515731.663524449        1112520030.7628403     
   403203353.61240780        355122667.44117051        1705136797.5408385     
 -0.74035923911677082      -0.74698791108706653        694963334.75537252     
 -0.43417590951071766      -0.25353707228908157        630489172.75723886     
 -0.19565000947191430        1.4390389063517930E-002   797914175.41159189     
  -2.4781919305122840E-002   5.6792511398801468E-002   1197238342.7184341     
   7.8429204522775534E-002 -0.12633136295312022        1828461674.6777632     
  -2737284687.1128469       -96222736.708649755        726064718.69772387     
  -2054490328.6710541        169965697.28051209        622983991.41086388     
  -1437878653.5759039        215545186.78086895        751802428.76912725     
  -887449661.82739425        40515731.792423487        1112520030.7725151     
  -403203353.42552584       -355122667.68482786        1705136797.4210274     
  -5474569373.3711529       -192445472.63605666        819368870.21500599     
  -4108980656.8147912        339931394.84250522        600468447.14727223     
  -2875757306.8840542        431090373.56898427        613467188.71729839     
  -1774899323.5789437        81031463.543377757        858365094.92508447     
  -806406706.89945722       -710245335.23431396        1335162165.7706318     
 </DataArray>
 <DataArray  type="Float64" Name="VM" NumberOfComponents="1" format="ascii">
   5564933514.6551704     
   4413358582.9185362     
   3290069340.1377106     
   2347557945.0648837     
   2435152488.0446482     
   2969866524.2474909     
   2400695500.8449836     
   2029655943.0046558     
   2130320763.5709803     
   2977914185.7720213     
   1203711805.1938031     
   1092039280.8376091     
   1382027891.8923025     
   2073677638.3578880     
   3166988520.2343616     
   2969866525.0866604     
   2400695501.4716516     
   2029655943.4092202     
   2130320763.6147993     
   2977914185.5646129     
   5564933515.2979574     
   4413358583.3679972     
   3290069340.4390998     
   2347557945.0386257     
   2435152487.6264930     
 </DataArray>
 <DataArray  type="Float64" Name="strain" NumberOfComponents="3" format="ascii">
   9.0280595516057133E-002  -2.4165422340417492E-002   3.5505984349136724E-002
   7.0182667914839125E-002  -2.6210426535558509E-002   2.6020299356927956E-002
   5.0084740313621118E-002  -2.1563626091467152E-002   2.6583578166965181E-002
   2.9986812712403096E-002  -1.0225021008143428E-002   3.7195820779248476E-002
   9.8888851111851028E-003   7.8053887144126088E-003   5.7857027193777666E-002
   4.5140297752860513E-002  -1.2082711174582747E-002   3.1462804463477947E-002
   3.5091333953728952E-002  -1.3105213268806627E-002   2.6995972951410506E-002
   2.5042370154597395E-002  -1.0781813045124530E-002   3.2578105241270007E-002
   1.4993406355465826E-002  -5.1125105035365360E-003   4.8209201333056409E-002
   4.9444425563342775E-003   3.9026943559574701E-003   7.3889261226769670E-002
  -8.6043810965108491E-012  -8.7480023225339210E-012   3.0115077839399474E-002
  -5.9685797970665533E-012  -2.0547383239311046E-012   2.7321197486147017E-002
  -3.3327854365161613E-012   1.2180898650848704E-012   3.4576280934502317E-002
  -6.9699454541272132E-013   1.0704514531723053E-012   5.1880328184465481E-002
   1.9388102234785265E-012  -2.4976687384992147E-012   7.9233339236036412E-002
  -4.5140297768337535E-002   1.2082711157086739E-002   3.1462804476901370E-002
  -3.5091333964253464E-002   1.3105213264697140E-002   2.6995972961137437E-002
  -2.5042370160169410E-002   1.0781813047560668E-002   3.2578105246662180E-002
  -1.4993406356085355E-002   5.1125105056773626E-003   4.8209201333475650E-002
  -4.9444425520012913E-003  -3.9026943609528353E-003   7.3889261221577851E-002
  -9.0280595526338936E-002   2.4165422322921487E-002   3.5505984375983596E-002
  -7.0182667921125708E-002   2.6210426531449040E-002   2.6020299376381797E-002
  -5.0084740315912493E-002   2.1563626093903342E-002   2.6583578177749596E-002
  -2.9986812710699286E-002   1.0225021010284347E-002   3.7195820780086992E-002
  -9.8888851054860505E-003  -7.8053887194079463E-003   5.7857027183394048E-002
 </DataArray>
 </PointData>
 </Piece>
 </UnstructuredGrid>
 </VTKFile>
