 <VTKFile type="UnstructuredGrid"  version="0.1"   >
 <UnstructuredGrid>
 <Piece  NumberOfPoints="          1600 "  NumberOfCells="         1024 ">
 <Points>
 <DataArray  type="Float64" NumberOfComponents="3"  format="ascii" >
   0.0000000000000000        0.0000000000000000        0.0000000000000000     
   3.1250000000000000E-002   0.0000000000000000        0.0000000000000000     
   6.2500000000000000E-002   0.0000000000000000        0.0000000000000000     
   9.3750000000000000E-002   0.0000000000000000        0.0000000000000000     
  0.12500000000000000        0.0000000000000000        0.0000000000000000     
   0.0000000000000000        3.1250000000000000E-002   0.0000000000000000     
   3.1250000000000000E-002   3.1250000000000000E-002   0.0000000000000000     
   6.2500000000000000E-002   3.1250000000000000E-002   0.0000000000000000     
   9.3750000000000000E-002   3.1250000000000000E-002   0.0000000000000000     
  0.12500000000000000        3.1250000000000000E-002   0.0000000000000000     
   0.0000000000000000        6.2500000000000000E-002   0.0000000000000000     
   3.1250000000000000E-002   6.2500000000000000E-002   0.0000000000000000     
   6.2500000000000000E-002   6.2500000000000000E-002   0.0000000000000000     
   9.3750000000000000E-002   6.2500000000000000E-002   0.0000000000000000     
  0.12500000000000000        6.2500000000000000E-002   0.0000000000000000     
   0.0000000000000000        9.3750000000000000E-002   0.0000000000000000     
   3.1250000000000000E-002   9.3750000000000000E-002   0.0000000000000000     
   6.2500000000000000E-002   9.3750000000000000E-002   0.0000000000000000     
   9.3750000000000000E-002   9.3750000000000000E-002   0.0000000000000000     
  0.12500000000000000        9.3750000000000000E-002   0.0000000000000000     
   0.0000000000000000       0.12500000000000000        0.0000000000000000     
   3.1250000000000000E-002  0.12500000000000000        0.0000000000000000     
   6.2500000000000000E-002  0.12500000000000000        0.0000000000000000     
   9.3750000000000000E-002  0.12500000000000000        0.0000000000000000     
  0.12500000000000000       0.12500000000000000        0.0000000000000000     
  0.12500000000000000        0.0000000000000000        0.0000000000000000     
  0.15625000000000000        0.0000000000000000        0.0000000000000000     
  0.18750000000000000        0.0000000000000000        0.0000000000000000     
  0.21875000000000000        0.0000000000000000        0.0000000000000000     
  0.25000000000000000        0.0000000000000000        0.0000000000000000     
  0.12500000000000000        3.1250000000000000E-002   0.0000000000000000     
  0.15625000000000000        3.1250000000000000E-002   0.0000000000000000     
  0.18750000000000000        3.1250000000000000E-002   0.0000000000000000     
  0.21875000000000000        3.1250000000000000E-002   0.0000000000000000     
  0.25000000000000000        3.1250000000000000E-002   0.0000000000000000     
  0.12500000000000000        6.2500000000000000E-002   0.0000000000000000     
  0.15625000000000000        6.2500000000000000E-002   0.0000000000000000     
  0.18750000000000000        6.2500000000000000E-002   0.0000000000000000     
  0.21875000000000000        6.2500000000000000E-002   0.0000000000000000     
  0.25000000000000000        6.2500000000000000E-002   0.0000000000000000     
  0.12500000000000000        9.3750000000000000E-002   0.0000000000000000     
  0.15625000000000000        9.3750000000000000E-002   0.0000000000000000     
  0.18750000000000000        9.3750000000000000E-002   0.0000000000000000     
  0.21875000000000000        9.3750000000000000E-002   0.0000000000000000     
  0.25000000000000000        9.3750000000000000E-002   0.0000000000000000     
  0.12500000000000000       0.12500000000000000        0.0000000000000000     
  0.15625000000000000       0.12500000000000000        0.0000000000000000     
  0.18750000000000000       0.12500000000000000        0.0000000000000000     
  0.21875000000000000       0.12500000000000000        0.0000000000000000     
  0.25000000000000000       0.12500000000000000        0.0000000000000000     
  0.25000000000000000        0.0000000000000000        0.0000000000000000     
  0.28125000000000000        0.0000000000000000        0.0000000000000000     
  0.31250000000000000        0.0000000000000000        0.0000000000000000     
  0.34375000000000000        0.0000000000000000        0.0000000000000000     
  0.37500000000000000        0.0000000000000000        0.0000000000000000     
  0.25000000000000000        3.1250000000000000E-002   0.0000000000000000     
  0.28125000000000000        3.1250000000000000E-002   0.0000000000000000     
  0.31250000000000000        3.1250000000000000E-002   0.0000000000000000     
  0.34375000000000000        3.1250000000000000E-002   0.0000000000000000     
  0.37500000000000000        3.1250000000000000E-002   0.0000000000000000     
  0.25000000000000000        6.2500000000000000E-002   0.0000000000000000     
  0.28125000000000000        6.2500000000000000E-002   0.0000000000000000     
  0.31250000000000000        6.2500000000000000E-002   0.0000000000000000     
  0.34375000000000000        6.2500000000000000E-002   0.0000000000000000     
  0.37500000000000000        6.2500000000000000E-002   0.0000000000000000     
  0.25000000000000000        9.3750000000000000E-002   0.0000000000000000     
  0.28125000000000000        9.3750000000000000E-002   0.0000000000000000     
  0.31250000000000000        9.3750000000000000E-002   0.0000000000000000     
  0.34375000000000000        9.3750000000000000E-002   0.0000000000000000     
  0.37500000000000000        9.3750000000000000E-002   0.0000000000000000     
  0.25000000000000000       0.12500000000000000        0.0000000000000000     
  0.28125000000000000       0.12500000000000000        0.0000000000000000     
  0.31250000000000000       0.12500000000000000        0.0000000000000000     
  0.34375000000000000       0.12500000000000000        0.0000000000000000     
  0.37500000000000000       0.12500000000000000        0.0000000000000000     
  0.37500000000000000        0.0000000000000000        0.0000000000000000     
  0.40625000000000000        0.0000000000000000        0.0000000000000000     
  0.43750000000000000        0.0000000000000000        0.0000000000000000     
  0.46875000000000000        0.0000000000000000        0.0000000000000000     
  0.50000000000000000        0.0000000000000000        0.0000000000000000     
  0.37500000000000000        3.1250000000000000E-002   0.0000000000000000     
  0.40625000000000000        3.1250000000000000E-002   0.0000000000000000     
  0.43750000000000000        3.1250000000000000E-002   0.0000000000000000     
  0.46875000000000000        3.1250000000000000E-002   0.0000000000000000     
  0.50000000000000000        3.1250000000000000E-002   0.0000000000000000     
  0.37500000000000000        6.2500000000000000E-002   0.0000000000000000     
  0.40625000000000000        6.2500000000000000E-002   0.0000000000000000     
  0.43750000000000000        6.2500000000000000E-002   0.0000000000000000     
  0.46875000000000000        6.2500000000000000E-002   0.0000000000000000     
  0.50000000000000000        6.2500000000000000E-002   0.0000000000000000     
  0.37500000000000000        9.3750000000000000E-002   0.0000000000000000     
  0.40625000000000000        9.3750000000000000E-002   0.0000000000000000     
  0.43750000000000000        9.3750000000000000E-002   0.0000000000000000     
  0.46875000000000000        9.3750000000000000E-002   0.0000000000000000     
  0.50000000000000000        9.3750000000000000E-002   0.0000000000000000     
  0.37500000000000000       0.12500000000000000        0.0000000000000000     
  0.40625000000000000       0.12500000000000000        0.0000000000000000     
  0.43750000000000000       0.12500000000000000        0.0000000000000000     
  0.46875000000000000       0.12500000000000000        0.0000000000000000     
  0.50000000000000000       0.12500000000000000        0.0000000000000000     
  0.50000000000000000        0.0000000000000000        0.0000000000000000     
  0.53125000000000000        0.0000000000000000        0.0000000000000000     
  0.56250000000000000        0.0000000000000000        0.0000000000000000     
  0.59375000000000000        0.0000000000000000        0.0000000000000000     
  0.62500000000000000        0.0000000000000000        0.0000000000000000     
  0.50000000000000000        3.1250000000000000E-002   0.0000000000000000     
  0.53125000000000000        3.1250000000000000E-002   0.0000000000000000     
  0.56250000000000000        3.1250000000000000E-002   0.0000000000000000     
  0.59375000000000000        3.1250000000000000E-002   0.0000000000000000     
  0.62500000000000000        3.1250000000000000E-002   0.0000000000000000     
  0.50000000000000000        6.2500000000000000E-002   0.0000000000000000     
  0.53125000000000000        6.2500000000000000E-002   0.0000000000000000     
  0.56250000000000000        6.2500000000000000E-002   0.0000000000000000     
  0.59375000000000000        6.2500000000000000E-002   0.0000000000000000     
  0.62500000000000000        6.2500000000000000E-002   0.0000000000000000     
  0.50000000000000000        9.3750000000000000E-002   0.0000000000000000     
  0.53125000000000000        9.3750000000000000E-002   0.0000000000000000     
  0.56250000000000000        9.3750000000000000E-002   0.0000000000000000     
  0.59375000000000000        9.3750000000000000E-002   0.0000000000000000     
  0.62500000000000000        9.3750000000000000E-002   0.0000000000000000     
  0.50000000000000000       0.12500000000000000        0.0000000000000000     
  0.53125000000000000       0.12500000000000000        0.0000000000000000     
  0.56250000000000000       0.12500000000000000        0.0000000000000000     
  0.59375000000000000       0.12500000000000000        0.0000000000000000     
  0.62500000000000000       0.12500000000000000        0.0000000000000000     
  0.62500000000000000        0.0000000000000000        0.0000000000000000     
  0.65625000000000000        0.0000000000000000        0.0000000000000000     
  0.68750000000000000        0.0000000000000000        0.0000000000000000     
  0.71875000000000000        0.0000000000000000        0.0000000000000000     
  0.75000000000000000        0.0000000000000000        0.0000000000000000     
  0.62500000000000000        3.1250000000000000E-002   0.0000000000000000     
  0.65625000000000000        3.1250000000000000E-002   0.0000000000000000     
  0.68750000000000000        3.1250000000000000E-002   0.0000000000000000     
  0.71875000000000000        3.1250000000000000E-002   0.0000000000000000     
  0.75000000000000000        3.1250000000000000E-002   0.0000000000000000     
  0.62500000000000000        6.2500000000000000E-002   0.0000000000000000     
  0.65625000000000000        6.2500000000000000E-002   0.0000000000000000     
  0.68750000000000000        6.2500000000000000E-002   0.0000000000000000     
  0.71875000000000000        6.2500000000000000E-002   0.0000000000000000     
  0.75000000000000000        6.2500000000000000E-002   0.0000000000000000     
  0.62500000000000000        9.3750000000000000E-002   0.0000000000000000     
  0.65625000000000000        9.3750000000000000E-002   0.0000000000000000     
  0.68750000000000000        9.3750000000000000E-002   0.0000000000000000     
  0.71875000000000000        9.3750000000000000E-002   0.0000000000000000     
  0.75000000000000000        9.3750000000000000E-002   0.0000000000000000     
  0.62500000000000000       0.12500000000000000        0.0000000000000000     
  0.65625000000000000       0.12500000000000000        0.0000000000000000     
  0.68750000000000000       0.12500000000000000        0.0000000000000000     
  0.71875000000000000       0.12500000000000000        0.0000000000000000     
  0.75000000000000000       0.12500000000000000        0.0000000000000000     
  0.75000000000000000        0.0000000000000000        0.0000000000000000     
  0.78125000000000000        0.0000000000000000        0.0000000000000000     
  0.81250000000000000        0.0000000000000000        0.0000000000000000     
  0.84375000000000000        0.0000000000000000        0.0000000000000000     
  0.87500000000000000        0.0000000000000000        0.0000000000000000     
  0.75000000000000000        3.1250000000000000E-002   0.0000000000000000     
  0.78125000000000000        3.1250000000000000E-002   0.0000000000000000     
  0.81250000000000000        3.1250000000000000E-002   0.0000000000000000     
  0.84375000000000000        3.1250000000000000E-002   0.0000000000000000     
  0.87500000000000000        3.1250000000000000E-002   0.0000000000000000     
  0.75000000000000000        6.2500000000000000E-002   0.0000000000000000     
  0.78125000000000000        6.2500000000000000E-002   0.0000000000000000     
  0.81250000000000000        6.2500000000000000E-002   0.0000000000000000     
  0.84375000000000000        6.2500000000000000E-002   0.0000000000000000     
  0.87500000000000000        6.2500000000000000E-002   0.0000000000000000     
  0.75000000000000000        9.3750000000000000E-002   0.0000000000000000     
  0.78125000000000000        9.3750000000000000E-002   0.0000000000000000     
  0.81250000000000000        9.3750000000000000E-002   0.0000000000000000     
  0.84375000000000000        9.3750000000000000E-002   0.0000000000000000     
  0.87500000000000000        9.3750000000000000E-002   0.0000000000000000     
  0.75000000000000000       0.12500000000000000        0.0000000000000000     
  0.78125000000000000       0.12500000000000000        0.0000000000000000     
  0.81250000000000000       0.12500000000000000        0.0000000000000000     
  0.84375000000000000       0.12500000000000000        0.0000000000000000     
  0.87500000000000000       0.12500000000000000        0.0000000000000000     
  0.87500000000000000        0.0000000000000000        0.0000000000000000     
  0.90625000000000000        0.0000000000000000        0.0000000000000000     
  0.93750000000000000        0.0000000000000000        0.0000000000000000     
  0.96875000000000000        0.0000000000000000        0.0000000000000000     
   1.0000000000000000        0.0000000000000000        0.0000000000000000     
  0.87500000000000000        3.1250000000000000E-002   0.0000000000000000     
  0.90625000000000000        3.1250000000000000E-002   0.0000000000000000     
  0.93750000000000000        3.1250000000000000E-002   0.0000000000000000     
  0.96875000000000000        3.1250000000000000E-002   0.0000000000000000     
   1.0000000000000000        3.1250000000000000E-002   0.0000000000000000     
  0.87500000000000000        6.2500000000000000E-002   0.0000000000000000     
  0.90625000000000000        6.2500000000000000E-002   0.0000000000000000     
  0.93750000000000000        6.2500000000000000E-002   0.0000000000000000     
  0.96875000000000000        6.2500000000000000E-002   0.0000000000000000     
   1.0000000000000000        6.2500000000000000E-002   0.0000000000000000     
  0.87500000000000000        9.3750000000000000E-002   0.0000000000000000     
  0.90625000000000000        9.3750000000000000E-002   0.0000000000000000     
  0.93750000000000000        9.3750000000000000E-002   0.0000000000000000     
  0.96875000000000000        9.3750000000000000E-002   0.0000000000000000     
   1.0000000000000000        9.3750000000000000E-002   0.0000000000000000     
  0.87500000000000000       0.12500000000000000        0.0000000000000000     
  0.90625000000000000       0.12500000000000000        0.0000000000000000     
  0.93750000000000000       0.12500000000000000        0.0000000000000000     
  0.96875000000000000       0.12500000000000000        0.0000000000000000     
   1.0000000000000000       0.12500000000000000        0.0000000000000000     
   0.0000000000000000       0.12500000000000000        0.0000000000000000     
   3.1250000000000000E-002  0.12500000000000000        0.0000000000000000     
   6.2500000000000000E-002  0.12500000000000000        0.0000000000000000     
   9.3750000000000000E-002  0.12500000000000000        0.0000000000000000     
  0.12500000000000000       0.12500000000000000        0.0000000000000000     
   0.0000000000000000       0.15625000000000000        0.0000000000000000     
   3.1250000000000000E-002  0.15625000000000000        0.0000000000000000     
   6.2500000000000000E-002  0.15625000000000000        0.0000000000000000     
   9.3750000000000000E-002  0.15625000000000000        0.0000000000000000     
  0.12500000000000000       0.15625000000000000        0.0000000000000000     
   0.0000000000000000       0.18750000000000000        0.0000000000000000     
   3.1250000000000000E-002  0.18750000000000000        0.0000000000000000     
   6.2500000000000000E-002  0.18750000000000000        0.0000000000000000     
   9.3750000000000000E-002  0.18750000000000000        0.0000000000000000     
  0.12500000000000000       0.18750000000000000        0.0000000000000000     
   0.0000000000000000       0.21875000000000000        0.0000000000000000     
   3.1250000000000000E-002  0.21875000000000000        0.0000000000000000     
   6.2500000000000000E-002  0.21875000000000000        0.0000000000000000     
   9.3750000000000000E-002  0.21875000000000000        0.0000000000000000     
  0.12500000000000000       0.21875000000000000        0.0000000000000000     
   0.0000000000000000       0.25000000000000000        0.0000000000000000     
   3.1250000000000000E-002  0.25000000000000000        0.0000000000000000     
   6.2500000000000000E-002  0.25000000000000000        0.0000000000000000     
   9.3750000000000000E-002  0.25000000000000000        0.0000000000000000     
  0.12500000000000000       0.25000000000000000        0.0000000000000000     
  0.12500000000000000       0.12500000000000000        0.0000000000000000     
  0.15625000000000000       0.12500000000000000        0.0000000000000000     
  0.18750000000000000       0.12500000000000000        0.0000000000000000     
  0.21875000000000000       0.12500000000000000        0.0000000000000000     
  0.25000000000000000       0.12500000000000000        0.0000000000000000     
  0.12500000000000000       0.15625000000000000        0.0000000000000000     
  0.15625000000000000       0.15625000000000000        0.0000000000000000     
  0.18750000000000000       0.15625000000000000        0.0000000000000000     
  0.21875000000000000       0.15625000000000000        0.0000000000000000     
  0.25000000000000000       0.15625000000000000        0.0000000000000000     
  0.12500000000000000       0.18750000000000000        0.0000000000000000     
  0.15625000000000000       0.18750000000000000        0.0000000000000000     
  0.18750000000000000       0.18750000000000000        0.0000000000000000     
  0.21875000000000000       0.18750000000000000        0.0000000000000000     
  0.25000000000000000       0.18750000000000000        0.0000000000000000     
  0.12500000000000000       0.21875000000000000        0.0000000000000000     
  0.15625000000000000       0.21875000000000000        0.0000000000000000     
  0.18750000000000000       0.21875000000000000        0.0000000000000000     
  0.21875000000000000       0.21875000000000000        0.0000000000000000     
  0.25000000000000000       0.21875000000000000        0.0000000000000000     
  0.12500000000000000       0.25000000000000000        0.0000000000000000     
  0.15625000000000000       0.25000000000000000        0.0000000000000000     
  0.18750000000000000       0.25000000000000000        0.0000000000000000     
  0.21875000000000000       0.25000000000000000        0.0000000000000000     
  0.25000000000000000       0.25000000000000000        0.0000000000000000     
  0.25000000000000000       0.12500000000000000        0.0000000000000000     
  0.28125000000000000       0.12500000000000000        0.0000000000000000     
  0.31250000000000000       0.12500000000000000        0.0000000000000000     
  0.34375000000000000       0.12500000000000000        0.0000000000000000     
  0.37500000000000000       0.12500000000000000        0.0000000000000000     
  0.25000000000000000       0.15625000000000000        0.0000000000000000     
  0.28125000000000000       0.15625000000000000        0.0000000000000000     
  0.31250000000000000       0.15625000000000000        0.0000000000000000     
  0.34375000000000000       0.15625000000000000        0.0000000000000000     
  0.37500000000000000       0.15625000000000000        0.0000000000000000     
  0.25000000000000000       0.18750000000000000        0.0000000000000000     
  0.28125000000000000       0.18750000000000000        0.0000000000000000     
  0.31250000000000000       0.18750000000000000        0.0000000000000000     
  0.34375000000000000       0.18750000000000000        0.0000000000000000     
  0.37500000000000000       0.18750000000000000        0.0000000000000000     
  0.25000000000000000       0.21875000000000000        0.0000000000000000     
  0.28125000000000000       0.21875000000000000        0.0000000000000000     
  0.31250000000000000       0.21875000000000000        0.0000000000000000     
  0.34375000000000000       0.21875000000000000        0.0000000000000000     
  0.37500000000000000       0.21875000000000000        0.0000000000000000     
  0.25000000000000000       0.25000000000000000        0.0000000000000000     
  0.28125000000000000       0.25000000000000000        0.0000000000000000     
  0.31250000000000000       0.25000000000000000        0.0000000000000000     
  0.34375000000000000       0.25000000000000000        0.0000000000000000     
  0.37500000000000000       0.25000000000000000        0.0000000000000000     
  0.37500000000000000       0.12500000000000000        0.0000000000000000     
  0.40625000000000000       0.12500000000000000        0.0000000000000000     
  0.43750000000000000       0.12500000000000000        0.0000000000000000     
  0.46875000000000000       0.12500000000000000        0.0000000000000000     
  0.50000000000000000       0.12500000000000000        0.0000000000000000     
  0.37500000000000000       0.15625000000000000        0.0000000000000000     
  0.40625000000000000       0.15625000000000000        0.0000000000000000     
  0.43750000000000000       0.15625000000000000        0.0000000000000000     
  0.46875000000000000       0.15625000000000000        0.0000000000000000     
  0.50000000000000000       0.15625000000000000        0.0000000000000000     
  0.37500000000000000       0.18750000000000000        0.0000000000000000     
  0.40625000000000000       0.18750000000000000        0.0000000000000000     
  0.43750000000000000       0.18750000000000000        0.0000000000000000     
  0.46875000000000000       0.18750000000000000        0.0000000000000000     
  0.50000000000000000       0.18750000000000000        0.0000000000000000     
  0.37500000000000000       0.21875000000000000        0.0000000000000000     
  0.40625000000000000       0.21875000000000000        0.0000000000000000     
  0.43750000000000000       0.21875000000000000        0.0000000000000000     
  0.46875000000000000       0.21875000000000000        0.0000000000000000     
  0.50000000000000000       0.21875000000000000        0.0000000000000000     
  0.37500000000000000       0.25000000000000000        0.0000000000000000     
  0.40625000000000000       0.25000000000000000        0.0000000000000000     
  0.43750000000000000       0.25000000000000000        0.0000000000000000     
  0.46875000000000000       0.25000000000000000        0.0000000000000000     
  0.50000000000000000       0.25000000000000000        0.0000000000000000     
  0.50000000000000000       0.12500000000000000        0.0000000000000000     
  0.53125000000000000       0.12500000000000000        0.0000000000000000     
  0.56250000000000000       0.12500000000000000        0.0000000000000000     
  0.59375000000000000       0.12500000000000000        0.0000000000000000     
  0.62500000000000000       0.12500000000000000        0.0000000000000000     
  0.50000000000000000       0.15625000000000000        0.0000000000000000     
  0.53125000000000000       0.15625000000000000        0.0000000000000000     
  0.56250000000000000       0.15625000000000000        0.0000000000000000     
  0.59375000000000000       0.15625000000000000        0.0000000000000000     
  0.62500000000000000       0.15625000000000000        0.0000000000000000     
  0.50000000000000000       0.18750000000000000        0.0000000000000000     
  0.53125000000000000       0.18750000000000000        0.0000000000000000     
  0.56250000000000000       0.18750000000000000        0.0000000000000000     
  0.59375000000000000       0.18750000000000000        0.0000000000000000     
  0.62500000000000000       0.18750000000000000        0.0000000000000000     
  0.50000000000000000       0.21875000000000000        0.0000000000000000     
  0.53125000000000000       0.21875000000000000        0.0000000000000000     
  0.56250000000000000       0.21875000000000000        0.0000000000000000     
  0.59375000000000000       0.21875000000000000        0.0000000000000000     
  0.62500000000000000       0.21875000000000000        0.0000000000000000     
  0.50000000000000000       0.25000000000000000        0.0000000000000000     
  0.53125000000000000       0.25000000000000000        0.0000000000000000     
  0.56250000000000000       0.25000000000000000        0.0000000000000000     
  0.59375000000000000       0.25000000000000000        0.0000000000000000     
  0.62500000000000000       0.25000000000000000        0.0000000000000000     
  0.62500000000000000       0.12500000000000000        0.0000000000000000     
  0.65625000000000000       0.12500000000000000        0.0000000000000000     
  0.68750000000000000       0.12500000000000000        0.0000000000000000     
  0.71875000000000000       0.12500000000000000        0.0000000000000000     
  0.75000000000000000       0.12500000000000000        0.0000000000000000     
  0.62500000000000000       0.15625000000000000        0.0000000000000000     
  0.65625000000000000       0.15625000000000000        0.0000000000000000     
  0.68750000000000000       0.15625000000000000        0.0000000000000000     
  0.71875000000000000       0.15625000000000000        0.0000000000000000     
  0.75000000000000000       0.15625000000000000        0.0000000000000000     
  0.62500000000000000       0.18750000000000000        0.0000000000000000     
  0.65625000000000000       0.18750000000000000        0.0000000000000000     
  0.68750000000000000       0.18750000000000000        0.0000000000000000     
  0.71875000000000000       0.18750000000000000        0.0000000000000000     
  0.75000000000000000       0.18750000000000000        0.0000000000000000     
  0.62500000000000000       0.21875000000000000        0.0000000000000000     
  0.65625000000000000       0.21875000000000000        0.0000000000000000     
  0.68750000000000000       0.21875000000000000        0.0000000000000000     
  0.71875000000000000       0.21875000000000000        0.0000000000000000     
  0.75000000000000000       0.21875000000000000        0.0000000000000000     
  0.62500000000000000       0.25000000000000000        0.0000000000000000     
  0.65625000000000000       0.25000000000000000        0.0000000000000000     
  0.68750000000000000       0.25000000000000000        0.0000000000000000     
  0.71875000000000000       0.25000000000000000        0.0000000000000000     
  0.75000000000000000       0.25000000000000000        0.0000000000000000     
  0.75000000000000000       0.12500000000000000        0.0000000000000000     
  0.78125000000000000       0.12500000000000000        0.0000000000000000     
  0.81250000000000000       0.12500000000000000        0.0000000000000000     
  0.84375000000000000       0.12500000000000000        0.0000000000000000     
  0.87500000000000000       0.12500000000000000        0.0000000000000000     
  0.75000000000000000       0.15625000000000000        0.0000000000000000     
  0.78125000000000000       0.15625000000000000        0.0000000000000000     
  0.81250000000000000       0.15625000000000000        0.0000000000000000     
  0.84375000000000000       0.15625000000000000        0.0000000000000000     
  0.87500000000000000       0.15625000000000000        0.0000000000000000     
  0.75000000000000000       0.18750000000000000        0.0000000000000000     
  0.78125000000000000       0.18750000000000000        0.0000000000000000     
  0.81250000000000000       0.18750000000000000        0.0000000000000000     
  0.84375000000000000       0.18750000000000000        0.0000000000000000     
  0.87500000000000000       0.18750000000000000        0.0000000000000000     
  0.75000000000000000       0.21875000000000000        0.0000000000000000     
  0.78125000000000000       0.21875000000000000        0.0000000000000000     
  0.81250000000000000       0.21875000000000000        0.0000000000000000     
  0.84375000000000000       0.21875000000000000        0.0000000000000000     
  0.87500000000000000       0.21875000000000000        0.0000000000000000     
  0.75000000000000000       0.25000000000000000        0.0000000000000000     
  0.78125000000000000       0.25000000000000000        0.0000000000000000     
  0.81250000000000000       0.25000000000000000        0.0000000000000000     
  0.84375000000000000       0.25000000000000000        0.0000000000000000     
  0.87500000000000000       0.25000000000000000        0.0000000000000000     
  0.87500000000000000       0.12500000000000000        0.0000000000000000     
  0.90625000000000000       0.12500000000000000        0.0000000000000000     
  0.93750000000000000       0.12500000000000000        0.0000000000000000     
  0.96875000000000000       0.12500000000000000        0.0000000000000000     
   1.0000000000000000       0.12500000000000000        0.0000000000000000     
  0.87500000000000000       0.15625000000000000        0.0000000000000000     
  0.90625000000000000       0.15625000000000000        0.0000000000000000     
  0.93750000000000000       0.15625000000000000        0.0000000000000000     
  0.96875000000000000       0.15625000000000000        0.0000000000000000     
   1.0000000000000000       0.15625000000000000        0.0000000000000000     
  0.87500000000000000       0.18750000000000000        0.0000000000000000     
  0.90625000000000000       0.18750000000000000        0.0000000000000000     
  0.93750000000000000       0.18750000000000000        0.0000000000000000     
  0.96875000000000000       0.18750000000000000        0.0000000000000000     
   1.0000000000000000       0.18750000000000000        0.0000000000000000     
  0.87500000000000000       0.21875000000000000        0.0000000000000000     
  0.90625000000000000       0.21875000000000000        0.0000000000000000     
  0.93750000000000000       0.21875000000000000        0.0000000000000000     
  0.96875000000000000       0.21875000000000000        0.0000000000000000     
   1.0000000000000000       0.21875000000000000        0.0000000000000000     
  0.87500000000000000       0.25000000000000000        0.0000000000000000     
  0.90625000000000000       0.25000000000000000        0.0000000000000000     
  0.93750000000000000       0.25000000000000000        0.0000000000000000     
  0.96875000000000000       0.25000000000000000        0.0000000000000000     
   1.0000000000000000       0.25000000000000000        0.0000000000000000     
   0.0000000000000000       0.25000000000000000        0.0000000000000000     
   3.1250000000000000E-002  0.25000000000000000        0.0000000000000000     
   6.2500000000000000E-002  0.25000000000000000        0.0000000000000000     
   9.3750000000000000E-002  0.25000000000000000        0.0000000000000000     
  0.12500000000000000       0.25000000000000000        0.0000000000000000     
   0.0000000000000000       0.28125000000000000        0.0000000000000000     
   3.1250000000000000E-002  0.28125000000000000        0.0000000000000000     
   6.2500000000000000E-002  0.28125000000000000        0.0000000000000000     
   9.3750000000000000E-002  0.28125000000000000        0.0000000000000000     
  0.12500000000000000       0.28125000000000000        0.0000000000000000     
   0.0000000000000000       0.31250000000000000        0.0000000000000000     
   3.1250000000000000E-002  0.31250000000000000        0.0000000000000000     
   6.2500000000000000E-002  0.31250000000000000        0.0000000000000000     
   9.3750000000000000E-002  0.31250000000000000        0.0000000000000000     
  0.12500000000000000       0.31250000000000000        0.0000000000000000     
   0.0000000000000000       0.34375000000000000        0.0000000000000000     
   3.1250000000000000E-002  0.34375000000000000        0.0000000000000000     
   6.2500000000000000E-002  0.34375000000000000        0.0000000000000000     
   9.3750000000000000E-002  0.34375000000000000        0.0000000000000000     
  0.12500000000000000       0.34375000000000000        0.0000000000000000     
   0.0000000000000000       0.37500000000000000        0.0000000000000000     
   3.1250000000000000E-002  0.37500000000000000        0.0000000000000000     
   6.2500000000000000E-002  0.37500000000000000        0.0000000000000000     
   9.3750000000000000E-002  0.37500000000000000        0.0000000000000000     
  0.12500000000000000       0.37500000000000000        0.0000000000000000     
  0.12500000000000000       0.25000000000000000        0.0000000000000000     
  0.15625000000000000       0.25000000000000000        0.0000000000000000     
  0.18750000000000000       0.25000000000000000        0.0000000000000000     
  0.21875000000000000       0.25000000000000000        0.0000000000000000     
  0.25000000000000000       0.25000000000000000        0.0000000000000000     
  0.12500000000000000       0.28125000000000000        0.0000000000000000     
  0.15625000000000000       0.28125000000000000        0.0000000000000000     
  0.18750000000000000       0.28125000000000000        0.0000000000000000     
  0.21875000000000000       0.28125000000000000        0.0000000000000000     
  0.25000000000000000       0.28125000000000000        0.0000000000000000     
  0.12500000000000000       0.31250000000000000        0.0000000000000000     
  0.15625000000000000       0.31250000000000000        0.0000000000000000     
  0.18750000000000000       0.31250000000000000        0.0000000000000000     
  0.21875000000000000       0.31250000000000000        0.0000000000000000     
  0.25000000000000000       0.31250000000000000        0.0000000000000000     
  0.12500000000000000       0.34375000000000000        0.0000000000000000     
  0.15625000000000000       0.34375000000000000        0.0000000000000000     
  0.18750000000000000       0.34375000000000000        0.0000000000000000     
  0.21875000000000000       0.34375000000000000        0.0000000000000000     
  0.25000000000000000       0.34375000000000000        0.0000000000000000     
  0.12500000000000000       0.37500000000000000        0.0000000000000000     
  0.15625000000000000       0.37500000000000000        0.0000000000000000     
  0.18750000000000000       0.37500000000000000        0.0000000000000000     
  0.21875000000000000       0.37500000000000000        0.0000000000000000     
  0.25000000000000000       0.37500000000000000        0.0000000000000000     
  0.25000000000000000       0.25000000000000000        0.0000000000000000     
  0.28125000000000000       0.25000000000000000        0.0000000000000000     
  0.31250000000000000       0.25000000000000000        0.0000000000000000     
  0.34375000000000000       0.25000000000000000        0.0000000000000000     
  0.37500000000000000       0.25000000000000000        0.0000000000000000     
  0.25000000000000000       0.28125000000000000        0.0000000000000000     
  0.28125000000000000       0.28125000000000000        0.0000000000000000     
  0.31250000000000000       0.28125000000000000        0.0000000000000000     
  0.34375000000000000       0.28125000000000000        0.0000000000000000     
  0.37500000000000000       0.28125000000000000        0.0000000000000000     
  0.25000000000000000       0.31250000000000000        0.0000000000000000     
  0.28125000000000000       0.31250000000000000        0.0000000000000000     
  0.31250000000000000       0.31250000000000000        0.0000000000000000     
  0.34375000000000000       0.31250000000000000        0.0000000000000000     
  0.37500000000000000       0.31250000000000000        0.0000000000000000     
  0.25000000000000000       0.34375000000000000        0.0000000000000000     
  0.28125000000000000       0.34375000000000000        0.0000000000000000     
  0.31250000000000000       0.34375000000000000        0.0000000000000000     
  0.34375000000000000       0.34375000000000000        0.0000000000000000     
  0.37500000000000000       0.34375000000000000        0.0000000000000000     
  0.25000000000000000       0.37500000000000000        0.0000000000000000     
  0.28125000000000000       0.37500000000000000        0.0000000000000000     
  0.31250000000000000       0.37500000000000000        0.0000000000000000     
  0.34375000000000000       0.37500000000000000        0.0000000000000000     
  0.37500000000000000       0.37500000000000000        0.0000000000000000     
  0.37500000000000000       0.25000000000000000        0.0000000000000000     
  0.40625000000000000       0.25000000000000000        0.0000000000000000     
  0.43750000000000000       0.25000000000000000        0.0000000000000000     
  0.46875000000000000       0.25000000000000000        0.0000000000000000     
  0.50000000000000000       0.25000000000000000        0.0000000000000000     
  0.37500000000000000       0.28125000000000000        0.0000000000000000     
  0.40625000000000000       0.28125000000000000        0.0000000000000000     
  0.43750000000000000       0.28125000000000000        0.0000000000000000     
  0.46875000000000000       0.28125000000000000        0.0000000000000000     
  0.50000000000000000       0.28125000000000000        0.0000000000000000     
  0.37500000000000000       0.31250000000000000        0.0000000000000000     
  0.40625000000000000       0.31250000000000000        0.0000000000000000     
  0.43750000000000000       0.31250000000000000        0.0000000000000000     
  0.46875000000000000       0.31250000000000000        0.0000000000000000     
  0.50000000000000000       0.31250000000000000        0.0000000000000000     
  0.37500000000000000       0.34375000000000000        0.0000000000000000     
  0.40625000000000000       0.34375000000000000        0.0000000000000000     
  0.43750000000000000       0.34375000000000000        0.0000000000000000     
  0.46875000000000000       0.34375000000000000        0.0000000000000000     
  0.50000000000000000       0.34375000000000000        0.0000000000000000     
  0.37500000000000000       0.37500000000000000        0.0000000000000000     
  0.40625000000000000       0.37500000000000000        0.0000000000000000     
  0.43750000000000000       0.37500000000000000        0.0000000000000000     
  0.46875000000000000       0.37500000000000000        0.0000000000000000     
  0.50000000000000000       0.37500000000000000        0.0000000000000000     
  0.50000000000000000       0.25000000000000000        0.0000000000000000     
  0.53125000000000000       0.25000000000000000        0.0000000000000000     
  0.56250000000000000       0.25000000000000000        0.0000000000000000     
  0.59375000000000000       0.25000000000000000        0.0000000000000000     
  0.62500000000000000       0.25000000000000000        0.0000000000000000     
  0.50000000000000000       0.28125000000000000        0.0000000000000000     
  0.53125000000000000       0.28125000000000000        0.0000000000000000     
  0.56250000000000000       0.28125000000000000        0.0000000000000000     
  0.59375000000000000       0.28125000000000000        0.0000000000000000     
  0.62500000000000000       0.28125000000000000        0.0000000000000000     
  0.50000000000000000       0.31250000000000000        0.0000000000000000     
  0.53125000000000000       0.31250000000000000        0.0000000000000000     
  0.56250000000000000       0.31250000000000000        0.0000000000000000     
  0.59375000000000000       0.31250000000000000        0.0000000000000000     
  0.62500000000000000       0.31250000000000000        0.0000000000000000     
  0.50000000000000000       0.34375000000000000        0.0000000000000000     
  0.53125000000000000       0.34375000000000000        0.0000000000000000     
  0.56250000000000000       0.34375000000000000        0.0000000000000000     
  0.59375000000000000       0.34375000000000000        0.0000000000000000     
  0.62500000000000000       0.34375000000000000        0.0000000000000000     
  0.50000000000000000       0.37500000000000000        0.0000000000000000     
  0.53125000000000000       0.37500000000000000        0.0000000000000000     
  0.56250000000000000       0.37500000000000000        0.0000000000000000     
  0.59375000000000000       0.37500000000000000        0.0000000000000000     
  0.62500000000000000       0.37500000000000000        0.0000000000000000     
  0.62500000000000000       0.25000000000000000        0.0000000000000000     
  0.65625000000000000       0.25000000000000000        0.0000000000000000     
  0.68750000000000000       0.25000000000000000        0.0000000000000000     
  0.71875000000000000       0.25000000000000000        0.0000000000000000     
  0.75000000000000000       0.25000000000000000        0.0000000000000000     
  0.62500000000000000       0.28125000000000000        0.0000000000000000     
  0.65625000000000000       0.28125000000000000        0.0000000000000000     
  0.68750000000000000       0.28125000000000000        0.0000000000000000     
  0.71875000000000000       0.28125000000000000        0.0000000000000000     
  0.75000000000000000       0.28125000000000000        0.0000000000000000     
  0.62500000000000000       0.31250000000000000        0.0000000000000000     
  0.65625000000000000       0.31250000000000000        0.0000000000000000     
  0.68750000000000000       0.31250000000000000        0.0000000000000000     
  0.71875000000000000       0.31250000000000000        0.0000000000000000     
  0.75000000000000000       0.31250000000000000        0.0000000000000000     
  0.62500000000000000       0.34375000000000000        0.0000000000000000     
  0.65625000000000000       0.34375000000000000        0.0000000000000000     
  0.68750000000000000       0.34375000000000000        0.0000000000000000     
  0.71875000000000000       0.34375000000000000        0.0000000000000000     
  0.75000000000000000       0.34375000000000000        0.0000000000000000     
  0.62500000000000000       0.37500000000000000        0.0000000000000000     
  0.65625000000000000       0.37500000000000000        0.0000000000000000     
  0.68750000000000000       0.37500000000000000        0.0000000000000000     
  0.71875000000000000       0.37500000000000000        0.0000000000000000     
  0.75000000000000000       0.37500000000000000        0.0000000000000000     
  0.75000000000000000       0.25000000000000000        0.0000000000000000     
  0.78125000000000000       0.25000000000000000        0.0000000000000000     
  0.81250000000000000       0.25000000000000000        0.0000000000000000     
  0.84375000000000000       0.25000000000000000        0.0000000000000000     
  0.87500000000000000       0.25000000000000000        0.0000000000000000     
  0.75000000000000000       0.28125000000000000        0.0000000000000000     
  0.78125000000000000       0.28125000000000000        0.0000000000000000     
  0.81250000000000000       0.28125000000000000        0.0000000000000000     
  0.84375000000000000       0.28125000000000000        0.0000000000000000     
  0.87500000000000000       0.28125000000000000        0.0000000000000000     
  0.75000000000000000       0.31250000000000000        0.0000000000000000     
  0.78125000000000000       0.31250000000000000        0.0000000000000000     
  0.81250000000000000       0.31250000000000000        0.0000000000000000     
  0.84375000000000000       0.31250000000000000        0.0000000000000000     
  0.87500000000000000       0.31250000000000000        0.0000000000000000     
  0.75000000000000000       0.34375000000000000        0.0000000000000000     
  0.78125000000000000       0.34375000000000000        0.0000000000000000     
  0.81250000000000000       0.34375000000000000        0.0000000000000000     
  0.84375000000000000       0.34375000000000000        0.0000000000000000     
  0.87500000000000000       0.34375000000000000        0.0000000000000000     
  0.75000000000000000       0.37500000000000000        0.0000000000000000     
  0.78125000000000000       0.37500000000000000        0.0000000000000000     
  0.81250000000000000       0.37500000000000000        0.0000000000000000     
  0.84375000000000000       0.37500000000000000        0.0000000000000000     
  0.87500000000000000       0.37500000000000000        0.0000000000000000     
  0.87500000000000000       0.25000000000000000        0.0000000000000000     
  0.90625000000000000       0.25000000000000000        0.0000000000000000     
  0.93750000000000000       0.25000000000000000        0.0000000000000000     
  0.96875000000000000       0.25000000000000000        0.0000000000000000     
   1.0000000000000000       0.25000000000000000        0.0000000000000000     
  0.87500000000000000       0.28125000000000000        0.0000000000000000     
  0.90625000000000000       0.28125000000000000        0.0000000000000000     
  0.93750000000000000       0.28125000000000000        0.0000000000000000     
  0.96875000000000000       0.28125000000000000        0.0000000000000000     
   1.0000000000000000       0.28125000000000000        0.0000000000000000     
  0.87500000000000000       0.31250000000000000        0.0000000000000000     
  0.90625000000000000       0.31250000000000000        0.0000000000000000     
  0.93750000000000000       0.31250000000000000        0.0000000000000000     
  0.96875000000000000       0.31250000000000000        0.0000000000000000     
   1.0000000000000000       0.31250000000000000        0.0000000000000000     
  0.87500000000000000       0.34375000000000000        0.0000000000000000     
  0.90625000000000000       0.34375000000000000        0.0000000000000000     
  0.93750000000000000       0.34375000000000000        0.0000000000000000     
  0.96875000000000000       0.34375000000000000        0.0000000000000000     
   1.0000000000000000       0.34375000000000000        0.0000000000000000     
  0.87500000000000000       0.37500000000000000        0.0000000000000000     
  0.90625000000000000       0.37500000000000000        0.0000000000000000     
  0.93750000000000000       0.37500000000000000        0.0000000000000000     
  0.96875000000000000       0.37500000000000000        0.0000000000000000     
   1.0000000000000000       0.37500000000000000        0.0000000000000000     
   0.0000000000000000       0.37500000000000000        0.0000000000000000     
   3.1250000000000000E-002  0.37500000000000000        0.0000000000000000     
   6.2500000000000000E-002  0.37500000000000000        0.0000000000000000     
   9.3750000000000000E-002  0.37500000000000000        0.0000000000000000     
  0.12500000000000000       0.37500000000000000        0.0000000000000000     
   0.0000000000000000       0.40625000000000000        0.0000000000000000     
   3.1250000000000000E-002  0.40625000000000000        0.0000000000000000     
   6.2500000000000000E-002  0.40625000000000000        0.0000000000000000     
   9.3750000000000000E-002  0.40625000000000000        0.0000000000000000     
  0.12500000000000000       0.40625000000000000        0.0000000000000000     
   0.0000000000000000       0.43750000000000000        0.0000000000000000     
   3.1250000000000000E-002  0.43750000000000000        0.0000000000000000     
   6.2500000000000000E-002  0.43750000000000000        0.0000000000000000     
   9.3750000000000000E-002  0.43750000000000000        0.0000000000000000     
  0.12500000000000000       0.43750000000000000        0.0000000000000000     
   0.0000000000000000       0.46875000000000000        0.0000000000000000     
   3.1250000000000000E-002  0.46875000000000000        0.0000000000000000     
   6.2500000000000000E-002  0.46875000000000000        0.0000000000000000     
   9.3750000000000000E-002  0.46875000000000000        0.0000000000000000     
  0.12500000000000000       0.46875000000000000        0.0000000000000000     
   0.0000000000000000       0.50000000000000000        0.0000000000000000     
   3.1250000000000000E-002  0.50000000000000000        0.0000000000000000     
   6.2500000000000000E-002  0.50000000000000000        0.0000000000000000     
   9.3750000000000000E-002  0.50000000000000000        0.0000000000000000     
  0.12500000000000000       0.50000000000000000        0.0000000000000000     
  0.12500000000000000       0.37500000000000000        0.0000000000000000     
  0.15625000000000000       0.37500000000000000        0.0000000000000000     
  0.18750000000000000       0.37500000000000000        0.0000000000000000     
  0.21875000000000000       0.37500000000000000        0.0000000000000000     
  0.25000000000000000       0.37500000000000000        0.0000000000000000     
  0.12500000000000000       0.40625000000000000        0.0000000000000000     
  0.15625000000000000       0.40625000000000000        0.0000000000000000     
  0.18750000000000000       0.40625000000000000        0.0000000000000000     
  0.21875000000000000       0.40625000000000000        0.0000000000000000     
  0.25000000000000000       0.40625000000000000        0.0000000000000000     
  0.12500000000000000       0.43750000000000000        0.0000000000000000     
  0.15625000000000000       0.43750000000000000        0.0000000000000000     
  0.18750000000000000       0.43750000000000000        0.0000000000000000     
  0.21875000000000000       0.43750000000000000        0.0000000000000000     
  0.25000000000000000       0.43750000000000000        0.0000000000000000     
  0.12500000000000000       0.46875000000000000        0.0000000000000000     
  0.15625000000000000       0.46875000000000000        0.0000000000000000     
  0.18750000000000000       0.46875000000000000        0.0000000000000000     
  0.21875000000000000       0.46875000000000000        0.0000000000000000     
  0.25000000000000000       0.46875000000000000        0.0000000000000000     
  0.12500000000000000       0.50000000000000000        0.0000000000000000     
  0.15625000000000000       0.50000000000000000        0.0000000000000000     
  0.18750000000000000       0.50000000000000000        0.0000000000000000     
  0.21875000000000000       0.50000000000000000        0.0000000000000000     
  0.25000000000000000       0.50000000000000000        0.0000000000000000     
  0.25000000000000000       0.37500000000000000        0.0000000000000000     
  0.28125000000000000       0.37500000000000000        0.0000000000000000     
  0.31250000000000000       0.37500000000000000        0.0000000000000000     
  0.34375000000000000       0.37500000000000000        0.0000000000000000     
  0.37500000000000000       0.37500000000000000        0.0000000000000000     
  0.25000000000000000       0.40625000000000000        0.0000000000000000     
  0.28125000000000000       0.40625000000000000        0.0000000000000000     
  0.31250000000000000       0.40625000000000000        0.0000000000000000     
  0.34375000000000000       0.40625000000000000        0.0000000000000000     
  0.37500000000000000       0.40625000000000000        0.0000000000000000     
  0.25000000000000000       0.43750000000000000        0.0000000000000000     
  0.28125000000000000       0.43750000000000000        0.0000000000000000     
  0.31250000000000000       0.43750000000000000        0.0000000000000000     
  0.34375000000000000       0.43750000000000000        0.0000000000000000     
  0.37500000000000000       0.43750000000000000        0.0000000000000000     
  0.25000000000000000       0.46875000000000000        0.0000000000000000     
  0.28125000000000000       0.46875000000000000        0.0000000000000000     
  0.31250000000000000       0.46875000000000000        0.0000000000000000     
  0.34375000000000000       0.46875000000000000        0.0000000000000000     
  0.37500000000000000       0.46875000000000000        0.0000000000000000     
  0.25000000000000000       0.50000000000000000        0.0000000000000000     
  0.28125000000000000       0.50000000000000000        0.0000000000000000     
  0.31250000000000000       0.50000000000000000        0.0000000000000000     
  0.34375000000000000       0.50000000000000000        0.0000000000000000     
  0.37500000000000000       0.50000000000000000        0.0000000000000000     
  0.37500000000000000       0.37500000000000000        0.0000000000000000     
  0.40625000000000000       0.37500000000000000        0.0000000000000000     
  0.43750000000000000       0.37500000000000000        0.0000000000000000     
  0.46875000000000000       0.37500000000000000        0.0000000000000000     
  0.50000000000000000       0.37500000000000000        0.0000000000000000     
  0.37500000000000000       0.40625000000000000        0.0000000000000000     
  0.40625000000000000       0.40625000000000000        0.0000000000000000     
  0.43750000000000000       0.40625000000000000        0.0000000000000000     
  0.46875000000000000       0.40625000000000000        0.0000000000000000     
  0.50000000000000000       0.40625000000000000        0.0000000000000000     
  0.37500000000000000       0.43750000000000000        0.0000000000000000     
  0.40625000000000000       0.43750000000000000        0.0000000000000000     
  0.43750000000000000       0.43750000000000000        0.0000000000000000     
  0.46875000000000000       0.43750000000000000        0.0000000000000000     
  0.50000000000000000       0.43750000000000000        0.0000000000000000     
  0.37500000000000000       0.46875000000000000        0.0000000000000000     
  0.40625000000000000       0.46875000000000000        0.0000000000000000     
  0.43750000000000000       0.46875000000000000        0.0000000000000000     
  0.46875000000000000       0.46875000000000000        0.0000000000000000     
  0.50000000000000000       0.46875000000000000        0.0000000000000000     
  0.37500000000000000       0.50000000000000000        0.0000000000000000     
  0.40625000000000000       0.50000000000000000        0.0000000000000000     
  0.43750000000000000       0.50000000000000000        0.0000000000000000     
  0.46875000000000000       0.50000000000000000        0.0000000000000000     
  0.50000000000000000       0.50000000000000000        0.0000000000000000     
  0.50000000000000000       0.37500000000000000        0.0000000000000000     
  0.53125000000000000       0.37500000000000000        0.0000000000000000     
  0.56250000000000000       0.37500000000000000        0.0000000000000000     
  0.59375000000000000       0.37500000000000000        0.0000000000000000     
  0.62500000000000000       0.37500000000000000        0.0000000000000000     
  0.50000000000000000       0.40625000000000000        0.0000000000000000     
  0.53125000000000000       0.40625000000000000        0.0000000000000000     
  0.56250000000000000       0.40625000000000000        0.0000000000000000     
  0.59375000000000000       0.40625000000000000        0.0000000000000000     
  0.62500000000000000       0.40625000000000000        0.0000000000000000     
  0.50000000000000000       0.43750000000000000        0.0000000000000000     
  0.53125000000000000       0.43750000000000000        0.0000000000000000     
  0.56250000000000000       0.43750000000000000        0.0000000000000000     
  0.59375000000000000       0.43750000000000000        0.0000000000000000     
  0.62500000000000000       0.43750000000000000        0.0000000000000000     
  0.50000000000000000       0.46875000000000000        0.0000000000000000     
  0.53125000000000000       0.46875000000000000        0.0000000000000000     
  0.56250000000000000       0.46875000000000000        0.0000000000000000     
  0.59375000000000000       0.46875000000000000        0.0000000000000000     
  0.62500000000000000       0.46875000000000000        0.0000000000000000     
  0.50000000000000000       0.50000000000000000        0.0000000000000000     
  0.53125000000000000       0.50000000000000000        0.0000000000000000     
  0.56250000000000000       0.50000000000000000        0.0000000000000000     
  0.59375000000000000       0.50000000000000000        0.0000000000000000     
  0.62500000000000000       0.50000000000000000        0.0000000000000000     
  0.62500000000000000       0.37500000000000000        0.0000000000000000     
  0.65625000000000000       0.37500000000000000        0.0000000000000000     
  0.68750000000000000       0.37500000000000000        0.0000000000000000     
  0.71875000000000000       0.37500000000000000        0.0000000000000000     
  0.75000000000000000       0.37500000000000000        0.0000000000000000     
  0.62500000000000000       0.40625000000000000        0.0000000000000000     
  0.65625000000000000       0.40625000000000000        0.0000000000000000     
  0.68750000000000000       0.40625000000000000        0.0000000000000000     
  0.71875000000000000       0.40625000000000000        0.0000000000000000     
  0.75000000000000000       0.40625000000000000        0.0000000000000000     
  0.62500000000000000       0.43750000000000000        0.0000000000000000     
  0.65625000000000000       0.43750000000000000        0.0000000000000000     
  0.68750000000000000       0.43750000000000000        0.0000000000000000     
  0.71875000000000000       0.43750000000000000        0.0000000000000000     
  0.75000000000000000       0.43750000000000000        0.0000000000000000     
  0.62500000000000000       0.46875000000000000        0.0000000000000000     
  0.65625000000000000       0.46875000000000000        0.0000000000000000     
  0.68750000000000000       0.46875000000000000        0.0000000000000000     
  0.71875000000000000       0.46875000000000000        0.0000000000000000     
  0.75000000000000000       0.46875000000000000        0.0000000000000000     
  0.62500000000000000       0.50000000000000000        0.0000000000000000     
  0.65625000000000000       0.50000000000000000        0.0000000000000000     
  0.68750000000000000       0.50000000000000000        0.0000000000000000     
  0.71875000000000000       0.50000000000000000        0.0000000000000000     
  0.75000000000000000       0.50000000000000000        0.0000000000000000     
  0.75000000000000000       0.37500000000000000        0.0000000000000000     
  0.78125000000000000       0.37500000000000000        0.0000000000000000     
  0.81250000000000000       0.37500000000000000        0.0000000000000000     
  0.84375000000000000       0.37500000000000000        0.0000000000000000     
  0.87500000000000000       0.37500000000000000        0.0000000000000000     
  0.75000000000000000       0.40625000000000000        0.0000000000000000     
  0.78125000000000000       0.40625000000000000        0.0000000000000000     
  0.81250000000000000       0.40625000000000000        0.0000000000000000     
  0.84375000000000000       0.40625000000000000        0.0000000000000000     
  0.87500000000000000       0.40625000000000000        0.0000000000000000     
  0.75000000000000000       0.43750000000000000        0.0000000000000000     
  0.78125000000000000       0.43750000000000000        0.0000000000000000     
  0.81250000000000000       0.43750000000000000        0.0000000000000000     
  0.84375000000000000       0.43750000000000000        0.0000000000000000     
  0.87500000000000000       0.43750000000000000        0.0000000000000000     
  0.75000000000000000       0.46875000000000000        0.0000000000000000     
  0.78125000000000000       0.46875000000000000        0.0000000000000000     
  0.81250000000000000       0.46875000000000000        0.0000000000000000     
  0.84375000000000000       0.46875000000000000        0.0000000000000000     
  0.87500000000000000       0.46875000000000000        0.0000000000000000     
  0.75000000000000000       0.50000000000000000        0.0000000000000000     
  0.78125000000000000       0.50000000000000000        0.0000000000000000     
  0.81250000000000000       0.50000000000000000        0.0000000000000000     
  0.84375000000000000       0.50000000000000000        0.0000000000000000     
  0.87500000000000000       0.50000000000000000        0.0000000000000000     
  0.87500000000000000       0.37500000000000000        0.0000000000000000     
  0.90625000000000000       0.37500000000000000        0.0000000000000000     
  0.93750000000000000       0.37500000000000000        0.0000000000000000     
  0.96875000000000000       0.37500000000000000        0.0000000000000000     
   1.0000000000000000       0.37500000000000000        0.0000000000000000     
  0.87500000000000000       0.40625000000000000        0.0000000000000000     
  0.90625000000000000       0.40625000000000000        0.0000000000000000     
  0.93750000000000000       0.40625000000000000        0.0000000000000000     
  0.96875000000000000       0.40625000000000000        0.0000000000000000     
   1.0000000000000000       0.40625000000000000        0.0000000000000000     
  0.87500000000000000       0.43750000000000000        0.0000000000000000     
  0.90625000000000000       0.43750000000000000        0.0000000000000000     
  0.93750000000000000       0.43750000000000000        0.0000000000000000     
  0.96875000000000000       0.43750000000000000        0.0000000000000000     
   1.0000000000000000       0.43750000000000000        0.0000000000000000     
  0.87500000000000000       0.46875000000000000        0.0000000000000000     
  0.90625000000000000       0.46875000000000000        0.0000000000000000     
  0.93750000000000000       0.46875000000000000        0.0000000000000000     
  0.96875000000000000       0.46875000000000000        0.0000000000000000     
   1.0000000000000000       0.46875000000000000        0.0000000000000000     
  0.87500000000000000       0.50000000000000000        0.0000000000000000     
  0.90625000000000000       0.50000000000000000        0.0000000000000000     
  0.93750000000000000       0.50000000000000000        0.0000000000000000     
  0.96875000000000000       0.50000000000000000        0.0000000000000000     
   1.0000000000000000       0.50000000000000000        0.0000000000000000     
   0.0000000000000000       0.50000000000000000        0.0000000000000000     
   3.1250000000000000E-002  0.50000000000000000        0.0000000000000000     
   6.2500000000000000E-002  0.50000000000000000        0.0000000000000000     
   9.3750000000000000E-002  0.50000000000000000        0.0000000000000000     
  0.12500000000000000       0.50000000000000000        0.0000000000000000     
   0.0000000000000000       0.53125000000000000        0.0000000000000000     
   3.1250000000000000E-002  0.53125000000000000        0.0000000000000000     
   6.2500000000000000E-002  0.53125000000000000        0.0000000000000000     
   9.3750000000000000E-002  0.53125000000000000        0.0000000000000000     
  0.12500000000000000       0.53125000000000000        0.0000000000000000     
   0.0000000000000000       0.56250000000000000        0.0000000000000000     
   3.1250000000000000E-002  0.56250000000000000        0.0000000000000000     
   6.2500000000000000E-002  0.56250000000000000        0.0000000000000000     
   9.3750000000000000E-002  0.56250000000000000        0.0000000000000000     
  0.12500000000000000       0.56250000000000000        0.0000000000000000     
   0.0000000000000000       0.59375000000000000        0.0000000000000000     
   3.1250000000000000E-002  0.59375000000000000        0.0000000000000000     
   6.2500000000000000E-002  0.59375000000000000        0.0000000000000000     
   9.3750000000000000E-002  0.59375000000000000        0.0000000000000000     
  0.12500000000000000       0.59375000000000000        0.0000000000000000     
   0.0000000000000000       0.62500000000000000        0.0000000000000000     
   3.1250000000000000E-002  0.62500000000000000        0.0000000000000000     
   6.2500000000000000E-002  0.62500000000000000        0.0000000000000000     
   9.3750000000000000E-002  0.62500000000000000        0.0000000000000000     
  0.12500000000000000       0.62500000000000000        0.0000000000000000     
  0.12500000000000000       0.50000000000000000        0.0000000000000000     
  0.15625000000000000       0.50000000000000000        0.0000000000000000     
  0.18750000000000000       0.50000000000000000        0.0000000000000000     
  0.21875000000000000       0.50000000000000000        0.0000000000000000     
  0.25000000000000000       0.50000000000000000        0.0000000000000000     
  0.12500000000000000       0.53125000000000000        0.0000000000000000     
  0.15625000000000000       0.53125000000000000        0.0000000000000000     
  0.18750000000000000       0.53125000000000000        0.0000000000000000     
  0.21875000000000000       0.53125000000000000        0.0000000000000000     
  0.25000000000000000       0.53125000000000000        0.0000000000000000     
  0.12500000000000000       0.56250000000000000        0.0000000000000000     
  0.15625000000000000       0.56250000000000000        0.0000000000000000     
  0.18750000000000000       0.56250000000000000        0.0000000000000000     
  0.21875000000000000       0.56250000000000000        0.0000000000000000     
  0.25000000000000000       0.56250000000000000        0.0000000000000000     
  0.12500000000000000       0.59375000000000000        0.0000000000000000     
  0.15625000000000000       0.59375000000000000        0.0000000000000000     
  0.18750000000000000       0.59375000000000000        0.0000000000000000     
  0.21875000000000000       0.59375000000000000        0.0000000000000000     
  0.25000000000000000       0.59375000000000000        0.0000000000000000     
  0.12500000000000000       0.62500000000000000        0.0000000000000000     
  0.15625000000000000       0.62500000000000000        0.0000000000000000     
  0.18750000000000000       0.62500000000000000        0.0000000000000000     
  0.21875000000000000       0.62500000000000000        0.0000000000000000     
  0.25000000000000000       0.62500000000000000        0.0000000000000000     
  0.25000000000000000       0.50000000000000000        0.0000000000000000     
  0.28125000000000000       0.50000000000000000        0.0000000000000000     
  0.31250000000000000       0.50000000000000000        0.0000000000000000     
  0.34375000000000000       0.50000000000000000        0.0000000000000000     
  0.37500000000000000       0.50000000000000000        0.0000000000000000     
  0.25000000000000000       0.53125000000000000        0.0000000000000000     
  0.28125000000000000       0.53125000000000000        0.0000000000000000     
  0.31250000000000000       0.53125000000000000        0.0000000000000000     
  0.34375000000000000       0.53125000000000000        0.0000000000000000     
  0.37500000000000000       0.53125000000000000        0.0000000000000000     
  0.25000000000000000       0.56250000000000000        0.0000000000000000     
  0.28125000000000000       0.56250000000000000        0.0000000000000000     
  0.31250000000000000       0.56250000000000000        0.0000000000000000     
  0.34375000000000000       0.56250000000000000        0.0000000000000000     
  0.37500000000000000       0.56250000000000000        0.0000000000000000     
  0.25000000000000000       0.59375000000000000        0.0000000000000000     
  0.28125000000000000       0.59375000000000000        0.0000000000000000     
  0.31250000000000000       0.59375000000000000        0.0000000000000000     
  0.34375000000000000       0.59375000000000000        0.0000000000000000     
  0.37500000000000000       0.59375000000000000        0.0000000000000000     
  0.25000000000000000       0.62500000000000000        0.0000000000000000     
  0.28125000000000000       0.62500000000000000        0.0000000000000000     
  0.31250000000000000       0.62500000000000000        0.0000000000000000     
  0.34375000000000000       0.62500000000000000        0.0000000000000000     
  0.37500000000000000       0.62500000000000000        0.0000000000000000     
  0.37500000000000000       0.50000000000000000        0.0000000000000000     
  0.40625000000000000       0.50000000000000000        0.0000000000000000     
  0.43750000000000000       0.50000000000000000        0.0000000000000000     
  0.46875000000000000       0.50000000000000000        0.0000000000000000     
  0.50000000000000000       0.50000000000000000        0.0000000000000000     
  0.37500000000000000       0.53125000000000000        0.0000000000000000     
  0.40625000000000000       0.53125000000000000        0.0000000000000000     
  0.43750000000000000       0.53125000000000000        0.0000000000000000     
  0.46875000000000000       0.53125000000000000        0.0000000000000000     
  0.50000000000000000       0.53125000000000000        0.0000000000000000     
  0.37500000000000000       0.56250000000000000        0.0000000000000000     
  0.40625000000000000       0.56250000000000000        0.0000000000000000     
  0.43750000000000000       0.56250000000000000        0.0000000000000000     
  0.46875000000000000       0.56250000000000000        0.0000000000000000     
  0.50000000000000000       0.56250000000000000        0.0000000000000000     
  0.37500000000000000       0.59375000000000000        0.0000000000000000     
  0.40625000000000000       0.59375000000000000        0.0000000000000000     
  0.43750000000000000       0.59375000000000000        0.0000000000000000     
  0.46875000000000000       0.59375000000000000        0.0000000000000000     
  0.50000000000000000       0.59375000000000000        0.0000000000000000     
  0.37500000000000000       0.62500000000000000        0.0000000000000000     
  0.40625000000000000       0.62500000000000000        0.0000000000000000     
  0.43750000000000000       0.62500000000000000        0.0000000000000000     
  0.46875000000000000       0.62500000000000000        0.0000000000000000     
  0.50000000000000000       0.62500000000000000        0.0000000000000000     
  0.50000000000000000       0.50000000000000000        0.0000000000000000     
  0.53125000000000000       0.50000000000000000        0.0000000000000000     
  0.56250000000000000       0.50000000000000000        0.0000000000000000     
  0.59375000000000000       0.50000000000000000        0.0000000000000000     
  0.62500000000000000       0.50000000000000000        0.0000000000000000     
  0.50000000000000000       0.53125000000000000        0.0000000000000000     
  0.53125000000000000       0.53125000000000000        0.0000000000000000     
  0.56250000000000000       0.53125000000000000        0.0000000000000000     
  0.59375000000000000       0.53125000000000000        0.0000000000000000     
  0.62500000000000000       0.53125000000000000        0.0000000000000000     
  0.50000000000000000       0.56250000000000000        0.0000000000000000     
  0.53125000000000000       0.56250000000000000        0.0000000000000000     
  0.56250000000000000       0.56250000000000000        0.0000000000000000     
  0.59375000000000000       0.56250000000000000        0.0000000000000000     
  0.62500000000000000       0.56250000000000000        0.0000000000000000     
  0.50000000000000000       0.59375000000000000        0.0000000000000000     
  0.53125000000000000       0.59375000000000000        0.0000000000000000     
  0.56250000000000000       0.59375000000000000        0.0000000000000000     
  0.59375000000000000       0.59375000000000000        0.0000000000000000     
  0.62500000000000000       0.59375000000000000        0.0000000000000000     
  0.50000000000000000       0.62500000000000000        0.0000000000000000     
  0.53125000000000000       0.62500000000000000        0.0000000000000000     
  0.56250000000000000       0.62500000000000000        0.0000000000000000     
  0.59375000000000000       0.62500000000000000        0.0000000000000000     
  0.62500000000000000       0.62500000000000000        0.0000000000000000     
  0.62500000000000000       0.50000000000000000        0.0000000000000000     
  0.65625000000000000       0.50000000000000000        0.0000000000000000     
  0.68750000000000000       0.50000000000000000        0.0000000000000000     
  0.71875000000000000       0.50000000000000000        0.0000000000000000     
  0.75000000000000000       0.50000000000000000        0.0000000000000000     
  0.62500000000000000       0.53125000000000000        0.0000000000000000     
  0.65625000000000000       0.53125000000000000        0.0000000000000000     
  0.68750000000000000       0.53125000000000000        0.0000000000000000     
  0.71875000000000000       0.53125000000000000        0.0000000000000000     
  0.75000000000000000       0.53125000000000000        0.0000000000000000     
  0.62500000000000000       0.56250000000000000        0.0000000000000000     
  0.65625000000000000       0.56250000000000000        0.0000000000000000     
  0.68750000000000000       0.56250000000000000        0.0000000000000000     
  0.71875000000000000       0.56250000000000000        0.0000000000000000     
  0.75000000000000000       0.56250000000000000        0.0000000000000000     
  0.62500000000000000       0.59375000000000000        0.0000000000000000     
  0.65625000000000000       0.59375000000000000        0.0000000000000000     
  0.68750000000000000       0.59375000000000000        0.0000000000000000     
  0.71875000000000000       0.59375000000000000        0.0000000000000000     
  0.75000000000000000       0.59375000000000000        0.0000000000000000     
  0.62500000000000000       0.62500000000000000        0.0000000000000000     
  0.65625000000000000       0.62500000000000000        0.0000000000000000     
  0.68750000000000000       0.62500000000000000        0.0000000000000000     
  0.71875000000000000       0.62500000000000000        0.0000000000000000     
  0.75000000000000000       0.62500000000000000        0.0000000000000000     
  0.75000000000000000       0.50000000000000000        0.0000000000000000     
  0.78125000000000000       0.50000000000000000        0.0000000000000000     
  0.81250000000000000       0.50000000000000000        0.0000000000000000     
  0.84375000000000000       0.50000000000000000        0.0000000000000000     
  0.87500000000000000       0.50000000000000000        0.0000000000000000     
  0.75000000000000000       0.53125000000000000        0.0000000000000000     
  0.78125000000000000       0.53125000000000000        0.0000000000000000     
  0.81250000000000000       0.53125000000000000        0.0000000000000000     
  0.84375000000000000       0.53125000000000000        0.0000000000000000     
  0.87500000000000000       0.53125000000000000        0.0000000000000000     
  0.75000000000000000       0.56250000000000000        0.0000000000000000     
  0.78125000000000000       0.56250000000000000        0.0000000000000000     
  0.81250000000000000       0.56250000000000000        0.0000000000000000     
  0.84375000000000000       0.56250000000000000        0.0000000000000000     
  0.87500000000000000       0.56250000000000000        0.0000000000000000     
  0.75000000000000000       0.59375000000000000        0.0000000000000000     
  0.78125000000000000       0.59375000000000000        0.0000000000000000     
  0.81250000000000000       0.59375000000000000        0.0000000000000000     
  0.84375000000000000       0.59375000000000000        0.0000000000000000     
  0.87500000000000000       0.59375000000000000        0.0000000000000000     
  0.75000000000000000       0.62500000000000000        0.0000000000000000     
  0.78125000000000000       0.62500000000000000        0.0000000000000000     
  0.81250000000000000       0.62500000000000000        0.0000000000000000     
  0.84375000000000000       0.62500000000000000        0.0000000000000000     
  0.87500000000000000       0.62500000000000000        0.0000000000000000     
  0.87500000000000000       0.50000000000000000        0.0000000000000000     
  0.90625000000000000       0.50000000000000000        0.0000000000000000     
  0.93750000000000000       0.50000000000000000        0.0000000000000000     
  0.96875000000000000       0.50000000000000000        0.0000000000000000     
   1.0000000000000000       0.50000000000000000        0.0000000000000000     
  0.87500000000000000       0.53125000000000000        0.0000000000000000     
  0.90625000000000000       0.53125000000000000        0.0000000000000000     
  0.93750000000000000       0.53125000000000000        0.0000000000000000     
  0.96875000000000000       0.53125000000000000        0.0000000000000000     
   1.0000000000000000       0.53125000000000000        0.0000000000000000     
  0.87500000000000000       0.56250000000000000        0.0000000000000000     
  0.90625000000000000       0.56250000000000000        0.0000000000000000     
  0.93750000000000000       0.56250000000000000        0.0000000000000000     
  0.96875000000000000       0.56250000000000000        0.0000000000000000     
   1.0000000000000000       0.56250000000000000        0.0000000000000000     
  0.87500000000000000       0.59375000000000000        0.0000000000000000     
  0.90625000000000000       0.59375000000000000        0.0000000000000000     
  0.93750000000000000       0.59375000000000000        0.0000000000000000     
  0.96875000000000000       0.59375000000000000        0.0000000000000000     
   1.0000000000000000       0.59375000000000000        0.0000000000000000     
  0.87500000000000000       0.62500000000000000        0.0000000000000000     
  0.90625000000000000       0.62500000000000000        0.0000000000000000     
  0.93750000000000000       0.62500000000000000        0.0000000000000000     
  0.96875000000000000       0.62500000000000000        0.0000000000000000     
   1.0000000000000000       0.62500000000000000        0.0000000000000000     
   0.0000000000000000       0.62500000000000000        0.0000000000000000     
   3.1250000000000000E-002  0.62500000000000000        0.0000000000000000     
   6.2500000000000000E-002  0.62500000000000000        0.0000000000000000     
   9.3750000000000000E-002  0.62500000000000000        0.0000000000000000     
  0.12500000000000000       0.62500000000000000        0.0000000000000000     
   0.0000000000000000       0.65625000000000000        0.0000000000000000     
   3.1250000000000000E-002  0.65625000000000000        0.0000000000000000     
   6.2500000000000000E-002  0.65625000000000000        0.0000000000000000     
   9.3750000000000000E-002  0.65625000000000000        0.0000000000000000     
  0.12500000000000000       0.65625000000000000        0.0000000000000000     
   0.0000000000000000       0.68750000000000000        0.0000000000000000     
   3.1250000000000000E-002  0.68750000000000000        0.0000000000000000     
   6.2500000000000000E-002  0.68750000000000000        0.0000000000000000     
   9.3750000000000000E-002  0.68750000000000000        0.0000000000000000     
  0.12500000000000000       0.68750000000000000        0.0000000000000000     
   0.0000000000000000       0.71875000000000000        0.0000000000000000     
   3.1250000000000000E-002  0.71875000000000000        0.0000000000000000     
   6.2500000000000000E-002  0.71875000000000000        0.0000000000000000     
   9.3750000000000000E-002  0.71875000000000000        0.0000000000000000     
  0.12500000000000000       0.71875000000000000        0.0000000000000000     
   0.0000000000000000       0.75000000000000000        0.0000000000000000     
   3.1250000000000000E-002  0.75000000000000000        0.0000000000000000     
   6.2500000000000000E-002  0.75000000000000000        0.0000000000000000     
   9.3750000000000000E-002  0.75000000000000000        0.0000000000000000     
  0.12500000000000000       0.75000000000000000        0.0000000000000000     
  0.12500000000000000       0.62500000000000000        0.0000000000000000     
  0.15625000000000000       0.62500000000000000        0.0000000000000000     
  0.18750000000000000       0.62500000000000000        0.0000000000000000     
  0.21875000000000000       0.62500000000000000        0.0000000000000000     
  0.25000000000000000       0.62500000000000000        0.0000000000000000     
  0.12500000000000000       0.65625000000000000        0.0000000000000000     
  0.15625000000000000       0.65625000000000000        0.0000000000000000     
  0.18750000000000000       0.65625000000000000        0.0000000000000000     
  0.21875000000000000       0.65625000000000000        0.0000000000000000     
  0.25000000000000000       0.65625000000000000        0.0000000000000000     
  0.12500000000000000       0.68750000000000000        0.0000000000000000     
  0.15625000000000000       0.68750000000000000        0.0000000000000000     
  0.18750000000000000       0.68750000000000000        0.0000000000000000     
  0.21875000000000000       0.68750000000000000        0.0000000000000000     
  0.25000000000000000       0.68750000000000000        0.0000000000000000     
  0.12500000000000000       0.71875000000000000        0.0000000000000000     
  0.15625000000000000       0.71875000000000000        0.0000000000000000     
  0.18750000000000000       0.71875000000000000        0.0000000000000000     
  0.21875000000000000       0.71875000000000000        0.0000000000000000     
  0.25000000000000000       0.71875000000000000        0.0000000000000000     
  0.12500000000000000       0.75000000000000000        0.0000000000000000     
  0.15625000000000000       0.75000000000000000        0.0000000000000000     
  0.18750000000000000       0.75000000000000000        0.0000000000000000     
  0.21875000000000000       0.75000000000000000        0.0000000000000000     
  0.25000000000000000       0.75000000000000000        0.0000000000000000     
  0.25000000000000000       0.62500000000000000        0.0000000000000000     
  0.28125000000000000       0.62500000000000000        0.0000000000000000     
  0.31250000000000000       0.62500000000000000        0.0000000000000000     
  0.34375000000000000       0.62500000000000000        0.0000000000000000     
  0.37500000000000000       0.62500000000000000        0.0000000000000000     
  0.25000000000000000       0.65625000000000000        0.0000000000000000     
  0.28125000000000000       0.65625000000000000        0.0000000000000000     
  0.31250000000000000       0.65625000000000000        0.0000000000000000     
  0.34375000000000000       0.65625000000000000        0.0000000000000000     
  0.37500000000000000       0.65625000000000000        0.0000000000000000     
  0.25000000000000000       0.68750000000000000        0.0000000000000000     
  0.28125000000000000       0.68750000000000000        0.0000000000000000     
  0.31250000000000000       0.68750000000000000        0.0000000000000000     
  0.34375000000000000       0.68750000000000000        0.0000000000000000     
  0.37500000000000000       0.68750000000000000        0.0000000000000000     
  0.25000000000000000       0.71875000000000000        0.0000000000000000     
  0.28125000000000000       0.71875000000000000        0.0000000000000000     
  0.31250000000000000       0.71875000000000000        0.0000000000000000     
  0.34375000000000000       0.71875000000000000        0.0000000000000000     
  0.37500000000000000       0.71875000000000000        0.0000000000000000     
  0.25000000000000000       0.75000000000000000        0.0000000000000000     
  0.28125000000000000       0.75000000000000000        0.0000000000000000     
  0.31250000000000000       0.75000000000000000        0.0000000000000000     
  0.34375000000000000       0.75000000000000000        0.0000000000000000     
  0.37500000000000000       0.75000000000000000        0.0000000000000000     
  0.37500000000000000       0.62500000000000000        0.0000000000000000     
  0.40625000000000000       0.62500000000000000        0.0000000000000000     
  0.43750000000000000       0.62500000000000000        0.0000000000000000     
  0.46875000000000000       0.62500000000000000        0.0000000000000000     
  0.50000000000000000       0.62500000000000000        0.0000000000000000     
  0.37500000000000000       0.65625000000000000        0.0000000000000000     
  0.40625000000000000       0.65625000000000000        0.0000000000000000     
  0.43750000000000000       0.65625000000000000        0.0000000000000000     
  0.46875000000000000       0.65625000000000000        0.0000000000000000     
  0.50000000000000000       0.65625000000000000        0.0000000000000000     
  0.37500000000000000       0.68750000000000000        0.0000000000000000     
  0.40625000000000000       0.68750000000000000        0.0000000000000000     
  0.43750000000000000       0.68750000000000000        0.0000000000000000     
  0.46875000000000000       0.68750000000000000        0.0000000000000000     
  0.50000000000000000       0.68750000000000000        0.0000000000000000     
  0.37500000000000000       0.71875000000000000        0.0000000000000000     
  0.40625000000000000       0.71875000000000000        0.0000000000000000     
  0.43750000000000000       0.71875000000000000        0.0000000000000000     
  0.46875000000000000       0.71875000000000000        0.0000000000000000     
  0.50000000000000000       0.71875000000000000        0.0000000000000000     
  0.37500000000000000       0.75000000000000000        0.0000000000000000     
  0.40625000000000000       0.75000000000000000        0.0000000000000000     
  0.43750000000000000       0.75000000000000000        0.0000000000000000     
  0.46875000000000000       0.75000000000000000        0.0000000000000000     
  0.50000000000000000       0.75000000000000000        0.0000000000000000     
  0.50000000000000000       0.62500000000000000        0.0000000000000000     
  0.53125000000000000       0.62500000000000000        0.0000000000000000     
  0.56250000000000000       0.62500000000000000        0.0000000000000000     
  0.59375000000000000       0.62500000000000000        0.0000000000000000     
  0.62500000000000000       0.62500000000000000        0.0000000000000000     
  0.50000000000000000       0.65625000000000000        0.0000000000000000     
  0.53125000000000000       0.65625000000000000        0.0000000000000000     
  0.56250000000000000       0.65625000000000000        0.0000000000000000     
  0.59375000000000000       0.65625000000000000        0.0000000000000000     
  0.62500000000000000       0.65625000000000000        0.0000000000000000     
  0.50000000000000000       0.68750000000000000        0.0000000000000000     
  0.53125000000000000       0.68750000000000000        0.0000000000000000     
  0.56250000000000000       0.68750000000000000        0.0000000000000000     
  0.59375000000000000       0.68750000000000000        0.0000000000000000     
  0.62500000000000000       0.68750000000000000        0.0000000000000000     
  0.50000000000000000       0.71875000000000000        0.0000000000000000     
  0.53125000000000000       0.71875000000000000        0.0000000000000000     
  0.56250000000000000       0.71875000000000000        0.0000000000000000     
  0.59375000000000000       0.71875000000000000        0.0000000000000000     
  0.62500000000000000       0.71875000000000000        0.0000000000000000     
  0.50000000000000000       0.75000000000000000        0.0000000000000000     
  0.53125000000000000       0.75000000000000000        0.0000000000000000     
  0.56250000000000000       0.75000000000000000        0.0000000000000000     
  0.59375000000000000       0.75000000000000000        0.0000000000000000     
  0.62500000000000000       0.75000000000000000        0.0000000000000000     
  0.62500000000000000       0.62500000000000000        0.0000000000000000     
  0.65625000000000000       0.62500000000000000        0.0000000000000000     
  0.68750000000000000       0.62500000000000000        0.0000000000000000     
  0.71875000000000000       0.62500000000000000        0.0000000000000000     
  0.75000000000000000       0.62500000000000000        0.0000000000000000     
  0.62500000000000000       0.65625000000000000        0.0000000000000000     
  0.65625000000000000       0.65625000000000000        0.0000000000000000     
  0.68750000000000000       0.65625000000000000        0.0000000000000000     
  0.71875000000000000       0.65625000000000000        0.0000000000000000     
  0.75000000000000000       0.65625000000000000        0.0000000000000000     
  0.62500000000000000       0.68750000000000000        0.0000000000000000     
  0.65625000000000000       0.68750000000000000        0.0000000000000000     
  0.68750000000000000       0.68750000000000000        0.0000000000000000     
  0.71875000000000000       0.68750000000000000        0.0000000000000000     
  0.75000000000000000       0.68750000000000000        0.0000000000000000     
  0.62500000000000000       0.71875000000000000        0.0000000000000000     
  0.65625000000000000       0.71875000000000000        0.0000000000000000     
  0.68750000000000000       0.71875000000000000        0.0000000000000000     
  0.71875000000000000       0.71875000000000000        0.0000000000000000     
  0.75000000000000000       0.71875000000000000        0.0000000000000000     
  0.62500000000000000       0.75000000000000000        0.0000000000000000     
  0.65625000000000000       0.75000000000000000        0.0000000000000000     
  0.68750000000000000       0.75000000000000000        0.0000000000000000     
  0.71875000000000000       0.75000000000000000        0.0000000000000000     
  0.75000000000000000       0.75000000000000000        0.0000000000000000     
  0.75000000000000000       0.62500000000000000        0.0000000000000000     
  0.78125000000000000       0.62500000000000000        0.0000000000000000     
  0.81250000000000000       0.62500000000000000        0.0000000000000000     
  0.84375000000000000       0.62500000000000000        0.0000000000000000     
  0.87500000000000000       0.62500000000000000        0.0000000000000000     
  0.75000000000000000       0.65625000000000000        0.0000000000000000     
  0.78125000000000000       0.65625000000000000        0.0000000000000000     
  0.81250000000000000       0.65625000000000000        0.0000000000000000     
  0.84375000000000000       0.65625000000000000        0.0000000000000000     
  0.87500000000000000       0.65625000000000000        0.0000000000000000     
  0.75000000000000000       0.68750000000000000        0.0000000000000000     
  0.78125000000000000       0.68750000000000000        0.0000000000000000     
  0.81250000000000000       0.68750000000000000        0.0000000000000000     
  0.84375000000000000       0.68750000000000000        0.0000000000000000     
  0.87500000000000000       0.68750000000000000        0.0000000000000000     
  0.75000000000000000       0.71875000000000000        0.0000000000000000     
  0.78125000000000000       0.71875000000000000        0.0000000000000000     
  0.81250000000000000       0.71875000000000000        0.0000000000000000     
  0.84375000000000000       0.71875000000000000        0.0000000000000000     
  0.87500000000000000       0.71875000000000000        0.0000000000000000     
  0.75000000000000000       0.75000000000000000        0.0000000000000000     
  0.78125000000000000       0.75000000000000000        0.0000000000000000     
  0.81250000000000000       0.75000000000000000        0.0000000000000000     
  0.84375000000000000       0.75000000000000000        0.0000000000000000     
  0.87500000000000000       0.75000000000000000        0.0000000000000000     
  0.87500000000000000       0.62500000000000000        0.0000000000000000     
  0.90625000000000000       0.62500000000000000        0.0000000000000000     
  0.93750000000000000       0.62500000000000000        0.0000000000000000     
  0.96875000000000000       0.62500000000000000        0.0000000000000000     
   1.0000000000000000       0.62500000000000000        0.0000000000000000     
  0.87500000000000000       0.65625000000000000        0.0000000000000000     
  0.90625000000000000       0.65625000000000000        0.0000000000000000     
  0.93750000000000000       0.65625000000000000        0.0000000000000000     
  0.96875000000000000       0.65625000000000000        0.0000000000000000     
   1.0000000000000000       0.65625000000000000        0.0000000000000000     
  0.87500000000000000       0.68750000000000000        0.0000000000000000     
  0.90625000000000000       0.68750000000000000        0.0000000000000000     
  0.93750000000000000       0.68750000000000000        0.0000000000000000     
  0.96875000000000000       0.68750000000000000        0.0000000000000000     
   1.0000000000000000       0.68750000000000000        0.0000000000000000     
  0.87500000000000000       0.71875000000000000        0.0000000000000000     
  0.90625000000000000       0.71875000000000000        0.0000000000000000     
  0.93750000000000000       0.71875000000000000        0.0000000000000000     
  0.96875000000000000       0.71875000000000000        0.0000000000000000     
   1.0000000000000000       0.71875000000000000        0.0000000000000000     
  0.87500000000000000       0.75000000000000000        0.0000000000000000     
  0.90625000000000000       0.75000000000000000        0.0000000000000000     
  0.93750000000000000       0.75000000000000000        0.0000000000000000     
  0.96875000000000000       0.75000000000000000        0.0000000000000000     
   1.0000000000000000       0.75000000000000000        0.0000000000000000     
   0.0000000000000000       0.75000000000000000        0.0000000000000000     
   3.1250000000000000E-002  0.75000000000000000        0.0000000000000000     
   6.2500000000000000E-002  0.75000000000000000        0.0000000000000000     
   9.3750000000000000E-002  0.75000000000000000        0.0000000000000000     
  0.12500000000000000       0.75000000000000000        0.0000000000000000     
   0.0000000000000000       0.78125000000000000        0.0000000000000000     
   3.1250000000000000E-002  0.78125000000000000        0.0000000000000000     
   6.2500000000000000E-002  0.78125000000000000        0.0000000000000000     
   9.3750000000000000E-002  0.78125000000000000        0.0000000000000000     
  0.12500000000000000       0.78125000000000000        0.0000000000000000     
   0.0000000000000000       0.81250000000000000        0.0000000000000000     
   3.1250000000000000E-002  0.81250000000000000        0.0000000000000000     
   6.2500000000000000E-002  0.81250000000000000        0.0000000000000000     
   9.3750000000000000E-002  0.81250000000000000        0.0000000000000000     
  0.12500000000000000       0.81250000000000000        0.0000000000000000     
   0.0000000000000000       0.84375000000000000        0.0000000000000000     
   3.1250000000000000E-002  0.84375000000000000        0.0000000000000000     
   6.2500000000000000E-002  0.84375000000000000        0.0000000000000000     
   9.3750000000000000E-002  0.84375000000000000        0.0000000000000000     
  0.12500000000000000       0.84375000000000000        0.0000000000000000     
   0.0000000000000000       0.87500000000000000        0.0000000000000000     
   3.1250000000000000E-002  0.87500000000000000        0.0000000000000000     
   6.2500000000000000E-002  0.87500000000000000        0.0000000000000000     
   9.3750000000000000E-002  0.87500000000000000        0.0000000000000000     
  0.12500000000000000       0.87500000000000000        0.0000000000000000     
  0.12500000000000000       0.75000000000000000        0.0000000000000000     
  0.15625000000000000       0.75000000000000000        0.0000000000000000     
  0.18750000000000000       0.75000000000000000        0.0000000000000000     
  0.21875000000000000       0.75000000000000000        0.0000000000000000     
  0.25000000000000000       0.75000000000000000        0.0000000000000000     
  0.12500000000000000       0.78125000000000000        0.0000000000000000     
  0.15625000000000000       0.78125000000000000        0.0000000000000000     
  0.18750000000000000       0.78125000000000000        0.0000000000000000     
  0.21875000000000000       0.78125000000000000        0.0000000000000000     
  0.25000000000000000       0.78125000000000000        0.0000000000000000     
  0.12500000000000000       0.81250000000000000        0.0000000000000000     
  0.15625000000000000       0.81250000000000000        0.0000000000000000     
  0.18750000000000000       0.81250000000000000        0.0000000000000000     
  0.21875000000000000       0.81250000000000000        0.0000000000000000     
  0.25000000000000000       0.81250000000000000        0.0000000000000000     
  0.12500000000000000       0.84375000000000000        0.0000000000000000     
  0.15625000000000000       0.84375000000000000        0.0000000000000000     
  0.18750000000000000       0.84375000000000000        0.0000000000000000     
  0.21875000000000000       0.84375000000000000        0.0000000000000000     
  0.25000000000000000       0.84375000000000000        0.0000000000000000     
  0.12500000000000000       0.87500000000000000        0.0000000000000000     
  0.15625000000000000       0.87500000000000000        0.0000000000000000     
  0.18750000000000000       0.87500000000000000        0.0000000000000000     
  0.21875000000000000       0.87500000000000000        0.0000000000000000     
  0.25000000000000000       0.87500000000000000        0.0000000000000000     
  0.25000000000000000       0.75000000000000000        0.0000000000000000     
  0.28125000000000000       0.75000000000000000        0.0000000000000000     
  0.31250000000000000       0.75000000000000000        0.0000000000000000     
  0.34375000000000000       0.75000000000000000        0.0000000000000000     
  0.37500000000000000       0.75000000000000000        0.0000000000000000     
  0.25000000000000000       0.78125000000000000        0.0000000000000000     
  0.28125000000000000       0.78125000000000000        0.0000000000000000     
  0.31250000000000000       0.78125000000000000        0.0000000000000000     
  0.34375000000000000       0.78125000000000000        0.0000000000000000     
  0.37500000000000000       0.78125000000000000        0.0000000000000000     
  0.25000000000000000       0.81250000000000000        0.0000000000000000     
  0.28125000000000000       0.81250000000000000        0.0000000000000000     
  0.31250000000000000       0.81250000000000000        0.0000000000000000     
  0.34375000000000000       0.81250000000000000        0.0000000000000000     
  0.37500000000000000       0.81250000000000000        0.0000000000000000     
  0.25000000000000000       0.84375000000000000        0.0000000000000000     
  0.28125000000000000       0.84375000000000000        0.0000000000000000     
  0.31250000000000000       0.84375000000000000        0.0000000000000000     
  0.34375000000000000       0.84375000000000000        0.0000000000000000     
  0.37500000000000000       0.84375000000000000        0.0000000000000000     
  0.25000000000000000       0.87500000000000000        0.0000000000000000     
  0.28125000000000000       0.87500000000000000        0.0000000000000000     
  0.31250000000000000       0.87500000000000000        0.0000000000000000     
  0.34375000000000000       0.87500000000000000        0.0000000000000000     
  0.37500000000000000       0.87500000000000000        0.0000000000000000     
  0.37500000000000000       0.75000000000000000        0.0000000000000000     
  0.40625000000000000       0.75000000000000000        0.0000000000000000     
  0.43750000000000000       0.75000000000000000        0.0000000000000000     
  0.46875000000000000       0.75000000000000000        0.0000000000000000     
  0.50000000000000000       0.75000000000000000        0.0000000000000000     
  0.37500000000000000       0.78125000000000000        0.0000000000000000     
  0.40625000000000000       0.78125000000000000        0.0000000000000000     
  0.43750000000000000       0.78125000000000000        0.0000000000000000     
  0.46875000000000000       0.78125000000000000        0.0000000000000000     
  0.50000000000000000       0.78125000000000000        0.0000000000000000     
  0.37500000000000000       0.81250000000000000        0.0000000000000000     
  0.40625000000000000       0.81250000000000000        0.0000000000000000     
  0.43750000000000000       0.81250000000000000        0.0000000000000000     
  0.46875000000000000       0.81250000000000000        0.0000000000000000     
  0.50000000000000000       0.81250000000000000        0.0000000000000000     
  0.37500000000000000       0.84375000000000000        0.0000000000000000     
  0.40625000000000000       0.84375000000000000        0.0000000000000000     
  0.43750000000000000       0.84375000000000000        0.0000000000000000     
  0.46875000000000000       0.84375000000000000        0.0000000000000000     
  0.50000000000000000       0.84375000000000000        0.0000000000000000     
  0.37500000000000000       0.87500000000000000        0.0000000000000000     
  0.40625000000000000       0.87500000000000000        0.0000000000000000     
  0.43750000000000000       0.87500000000000000        0.0000000000000000     
  0.46875000000000000       0.87500000000000000        0.0000000000000000     
  0.50000000000000000       0.87500000000000000        0.0000000000000000     
  0.50000000000000000       0.75000000000000000        0.0000000000000000     
  0.53125000000000000       0.75000000000000000        0.0000000000000000     
  0.56250000000000000       0.75000000000000000        0.0000000000000000     
  0.59375000000000000       0.75000000000000000        0.0000000000000000     
  0.62500000000000000       0.75000000000000000        0.0000000000000000     
  0.50000000000000000       0.78125000000000000        0.0000000000000000     
  0.53125000000000000       0.78125000000000000        0.0000000000000000     
  0.56250000000000000       0.78125000000000000        0.0000000000000000     
  0.59375000000000000       0.78125000000000000        0.0000000000000000     
  0.62500000000000000       0.78125000000000000        0.0000000000000000     
  0.50000000000000000       0.81250000000000000        0.0000000000000000     
  0.53125000000000000       0.81250000000000000        0.0000000000000000     
  0.56250000000000000       0.81250000000000000        0.0000000000000000     
  0.59375000000000000       0.81250000000000000        0.0000000000000000     
  0.62500000000000000       0.81250000000000000        0.0000000000000000     
  0.50000000000000000       0.84375000000000000        0.0000000000000000     
  0.53125000000000000       0.84375000000000000        0.0000000000000000     
  0.56250000000000000       0.84375000000000000        0.0000000000000000     
  0.59375000000000000       0.84375000000000000        0.0000000000000000     
  0.62500000000000000       0.84375000000000000        0.0000000000000000     
  0.50000000000000000       0.87500000000000000        0.0000000000000000     
  0.53125000000000000       0.87500000000000000        0.0000000000000000     
  0.56250000000000000       0.87500000000000000        0.0000000000000000     
  0.59375000000000000       0.87500000000000000        0.0000000000000000     
  0.62500000000000000       0.87500000000000000        0.0000000000000000     
  0.62500000000000000       0.75000000000000000        0.0000000000000000     
  0.65625000000000000       0.75000000000000000        0.0000000000000000     
  0.68750000000000000       0.75000000000000000        0.0000000000000000     
  0.71875000000000000       0.75000000000000000        0.0000000000000000     
  0.75000000000000000       0.75000000000000000        0.0000000000000000     
  0.62500000000000000       0.78125000000000000        0.0000000000000000     
  0.65625000000000000       0.78125000000000000        0.0000000000000000     
  0.68750000000000000       0.78125000000000000        0.0000000000000000     
  0.71875000000000000       0.78125000000000000        0.0000000000000000     
  0.75000000000000000       0.78125000000000000        0.0000000000000000     
  0.62500000000000000       0.81250000000000000        0.0000000000000000     
  0.65625000000000000       0.81250000000000000        0.0000000000000000     
  0.68750000000000000       0.81250000000000000        0.0000000000000000     
  0.71875000000000000       0.81250000000000000        0.0000000000000000     
  0.75000000000000000       0.81250000000000000        0.0000000000000000     
  0.62500000000000000       0.84375000000000000        0.0000000000000000     
  0.65625000000000000       0.84375000000000000        0.0000000000000000     
  0.68750000000000000       0.84375000000000000        0.0000000000000000     
  0.71875000000000000       0.84375000000000000        0.0000000000000000     
  0.75000000000000000       0.84375000000000000        0.0000000000000000     
  0.62500000000000000       0.87500000000000000        0.0000000000000000     
  0.65625000000000000       0.87500000000000000        0.0000000000000000     
  0.68750000000000000       0.87500000000000000        0.0000000000000000     
  0.71875000000000000       0.87500000000000000        0.0000000000000000     
  0.75000000000000000       0.87500000000000000        0.0000000000000000     
  0.75000000000000000       0.75000000000000000        0.0000000000000000     
  0.78125000000000000       0.75000000000000000        0.0000000000000000     
  0.81250000000000000       0.75000000000000000        0.0000000000000000     
  0.84375000000000000       0.75000000000000000        0.0000000000000000     
  0.87500000000000000       0.75000000000000000        0.0000000000000000     
  0.75000000000000000       0.78125000000000000        0.0000000000000000     
  0.78125000000000000       0.78125000000000000        0.0000000000000000     
  0.81250000000000000       0.78125000000000000        0.0000000000000000     
  0.84375000000000000       0.78125000000000000        0.0000000000000000     
  0.87500000000000000       0.78125000000000000        0.0000000000000000     
  0.75000000000000000       0.81250000000000000        0.0000000000000000     
  0.78125000000000000       0.81250000000000000        0.0000000000000000     
  0.81250000000000000       0.81250000000000000        0.0000000000000000     
  0.84375000000000000       0.81250000000000000        0.0000000000000000     
  0.87500000000000000       0.81250000000000000        0.0000000000000000     
  0.75000000000000000       0.84375000000000000        0.0000000000000000     
  0.78125000000000000       0.84375000000000000        0.0000000000000000     
  0.81250000000000000       0.84375000000000000        0.0000000000000000     
  0.84375000000000000       0.84375000000000000        0.0000000000000000     
  0.87500000000000000       0.84375000000000000        0.0000000000000000     
  0.75000000000000000       0.87500000000000000        0.0000000000000000     
  0.78125000000000000       0.87500000000000000        0.0000000000000000     
  0.81250000000000000       0.87500000000000000        0.0000000000000000     
  0.84375000000000000       0.87500000000000000        0.0000000000000000     
  0.87500000000000000       0.87500000000000000        0.0000000000000000     
  0.87500000000000000       0.75000000000000000        0.0000000000000000     
  0.90625000000000000       0.75000000000000000        0.0000000000000000     
  0.93750000000000000       0.75000000000000000        0.0000000000000000     
  0.96875000000000000       0.75000000000000000        0.0000000000000000     
   1.0000000000000000       0.75000000000000000        0.0000000000000000     
  0.87500000000000000       0.78125000000000000        0.0000000000000000     
  0.90625000000000000       0.78125000000000000        0.0000000000000000     
  0.93750000000000000       0.78125000000000000        0.0000000000000000     
  0.96875000000000000       0.78125000000000000        0.0000000000000000     
   1.0000000000000000       0.78125000000000000        0.0000000000000000     
  0.87500000000000000       0.81250000000000000        0.0000000000000000     
  0.90625000000000000       0.81250000000000000        0.0000000000000000     
  0.93750000000000000       0.81250000000000000        0.0000000000000000     
  0.96875000000000000       0.81250000000000000        0.0000000000000000     
   1.0000000000000000       0.81250000000000000        0.0000000000000000     
  0.87500000000000000       0.84375000000000000        0.0000000000000000     
  0.90625000000000000       0.84375000000000000        0.0000000000000000     
  0.93750000000000000       0.84375000000000000        0.0000000000000000     
  0.96875000000000000       0.84375000000000000        0.0000000000000000     
   1.0000000000000000       0.84375000000000000        0.0000000000000000     
  0.87500000000000000       0.87500000000000000        0.0000000000000000     
  0.90625000000000000       0.87500000000000000        0.0000000000000000     
  0.93750000000000000       0.87500000000000000        0.0000000000000000     
  0.96875000000000000       0.87500000000000000        0.0000000000000000     
   1.0000000000000000       0.87500000000000000        0.0000000000000000     
   0.0000000000000000       0.87500000000000000        0.0000000000000000     
   3.1250000000000000E-002  0.87500000000000000        0.0000000000000000     
   6.2500000000000000E-002  0.87500000000000000        0.0000000000000000     
   9.3750000000000000E-002  0.87500000000000000        0.0000000000000000     
  0.12500000000000000       0.87500000000000000        0.0000000000000000     
   0.0000000000000000       0.90625000000000000        0.0000000000000000     
   3.1250000000000000E-002  0.90625000000000000        0.0000000000000000     
   6.2500000000000000E-002  0.90625000000000000        0.0000000000000000     
   9.3750000000000000E-002  0.90625000000000000        0.0000000000000000     
  0.12500000000000000       0.90625000000000000        0.0000000000000000     
   0.0000000000000000       0.93750000000000000        0.0000000000000000     
   3.1250000000000000E-002  0.93750000000000000        0.0000000000000000     
   6.2500000000000000E-002  0.93750000000000000        0.0000000000000000     
   9.3750000000000000E-002  0.93750000000000000        0.0000000000000000     
  0.12500000000000000       0.93750000000000000        0.0000000000000000     
   0.0000000000000000       0.96875000000000000        0.0000000000000000     
   3.1250000000000000E-002  0.96875000000000000        0.0000000000000000     
   6.2500000000000000E-002  0.96875000000000000        0.0000000000000000     
   9.3750000000000000E-002  0.96875000000000000        0.0000000000000000     
  0.12500000000000000       0.96875000000000000        0.0000000000000000     
   0.0000000000000000        1.0000000000000000        0.0000000000000000     
   3.1250000000000000E-002   1.0000000000000000        0.0000000000000000     
   6.2500000000000000E-002   1.0000000000000000        0.0000000000000000     
   9.3750000000000000E-002   1.0000000000000000        0.0000000000000000     
  0.12500000000000000        1.0000000000000000        0.0000000000000000     
  0.12500000000000000       0.87500000000000000        0.0000000000000000     
  0.15625000000000000       0.87500000000000000        0.0000000000000000     
  0.18750000000000000       0.87500000000000000        0.0000000000000000     
  0.21875000000000000       0.87500000000000000        0.0000000000000000     
  0.25000000000000000       0.87500000000000000        0.0000000000000000     
  0.12500000000000000       0.90625000000000000        0.0000000000000000     
  0.15625000000000000       0.90625000000000000        0.0000000000000000     
  0.18750000000000000       0.90625000000000000        0.0000000000000000     
  0.21875000000000000       0.90625000000000000        0.0000000000000000     
  0.25000000000000000       0.90625000000000000        0.0000000000000000     
  0.12500000000000000       0.93750000000000000        0.0000000000000000     
  0.15625000000000000       0.93750000000000000        0.0000000000000000     
  0.18750000000000000       0.93750000000000000        0.0000000000000000     
  0.21875000000000000       0.93750000000000000        0.0000000000000000     
  0.25000000000000000       0.93750000000000000        0.0000000000000000     
  0.12500000000000000       0.96875000000000000        0.0000000000000000     
  0.15625000000000000       0.96875000000000000        0.0000000000000000     
  0.18750000000000000       0.96875000000000000        0.0000000000000000     
  0.21875000000000000       0.96875000000000000        0.0000000000000000     
  0.25000000000000000       0.96875000000000000        0.0000000000000000     
  0.12500000000000000        1.0000000000000000        0.0000000000000000     
  0.15625000000000000        1.0000000000000000        0.0000000000000000     
  0.18750000000000000        1.0000000000000000        0.0000000000000000     
  0.21875000000000000        1.0000000000000000        0.0000000000000000     
  0.25000000000000000        1.0000000000000000        0.0000000000000000     
  0.25000000000000000       0.87500000000000000        0.0000000000000000     
  0.28125000000000000       0.87500000000000000        0.0000000000000000     
  0.31250000000000000       0.87500000000000000        0.0000000000000000     
  0.34375000000000000       0.87500000000000000        0.0000000000000000     
  0.37500000000000000       0.87500000000000000        0.0000000000000000     
  0.25000000000000000       0.90625000000000000        0.0000000000000000     
  0.28125000000000000       0.90625000000000000        0.0000000000000000     
  0.31250000000000000       0.90625000000000000        0.0000000000000000     
  0.34375000000000000       0.90625000000000000        0.0000000000000000     
  0.37500000000000000       0.90625000000000000        0.0000000000000000     
  0.25000000000000000       0.93750000000000000        0.0000000000000000     
  0.28125000000000000       0.93750000000000000        0.0000000000000000     
  0.31250000000000000       0.93750000000000000        0.0000000000000000     
  0.34375000000000000       0.93750000000000000        0.0000000000000000     
  0.37500000000000000       0.93750000000000000        0.0000000000000000     
  0.25000000000000000       0.96875000000000000        0.0000000000000000     
  0.28125000000000000       0.96875000000000000        0.0000000000000000     
  0.31250000000000000       0.96875000000000000        0.0000000000000000     
  0.34375000000000000       0.96875000000000000        0.0000000000000000     
  0.37500000000000000       0.96875000000000000        0.0000000000000000     
  0.25000000000000000        1.0000000000000000        0.0000000000000000     
  0.28125000000000000        1.0000000000000000        0.0000000000000000     
  0.31250000000000000        1.0000000000000000        0.0000000000000000     
  0.34375000000000000        1.0000000000000000        0.0000000000000000     
  0.37500000000000000        1.0000000000000000        0.0000000000000000     
  0.37500000000000000       0.87500000000000000        0.0000000000000000     
  0.40625000000000000       0.87500000000000000        0.0000000000000000     
  0.43750000000000000       0.87500000000000000        0.0000000000000000     
  0.46875000000000000       0.87500000000000000        0.0000000000000000     
  0.50000000000000000       0.87500000000000000        0.0000000000000000     
  0.37500000000000000       0.90625000000000000        0.0000000000000000     
  0.40625000000000000       0.90625000000000000        0.0000000000000000     
  0.43750000000000000       0.90625000000000000        0.0000000000000000     
  0.46875000000000000       0.90625000000000000        0.0000000000000000     
  0.50000000000000000       0.90625000000000000        0.0000000000000000     
  0.37500000000000000       0.93750000000000000        0.0000000000000000     
  0.40625000000000000       0.93750000000000000        0.0000000000000000     
  0.43750000000000000       0.93750000000000000        0.0000000000000000     
  0.46875000000000000       0.93750000000000000        0.0000000000000000     
  0.50000000000000000       0.93750000000000000        0.0000000000000000     
  0.37500000000000000       0.96875000000000000        0.0000000000000000     
  0.40625000000000000       0.96875000000000000        0.0000000000000000     
  0.43750000000000000       0.96875000000000000        0.0000000000000000     
  0.46875000000000000       0.96875000000000000        0.0000000000000000     
  0.50000000000000000       0.96875000000000000        0.0000000000000000     
  0.37500000000000000        1.0000000000000000        0.0000000000000000     
  0.40625000000000000        1.0000000000000000        0.0000000000000000     
  0.43750000000000000        1.0000000000000000        0.0000000000000000     
  0.46875000000000000        1.0000000000000000        0.0000000000000000     
  0.50000000000000000        1.0000000000000000        0.0000000000000000     
  0.50000000000000000       0.87500000000000000        0.0000000000000000     
  0.53125000000000000       0.87500000000000000        0.0000000000000000     
  0.56250000000000000       0.87500000000000000        0.0000000000000000     
  0.59375000000000000       0.87500000000000000        0.0000000000000000     
  0.62500000000000000       0.87500000000000000        0.0000000000000000     
  0.50000000000000000       0.90625000000000000        0.0000000000000000     
  0.53125000000000000       0.90625000000000000        0.0000000000000000     
  0.56250000000000000       0.90625000000000000        0.0000000000000000     
  0.59375000000000000       0.90625000000000000        0.0000000000000000     
  0.62500000000000000       0.90625000000000000        0.0000000000000000     
  0.50000000000000000       0.93750000000000000        0.0000000000000000     
  0.53125000000000000       0.93750000000000000        0.0000000000000000     
  0.56250000000000000       0.93750000000000000        0.0000000000000000     
  0.59375000000000000       0.93750000000000000        0.0000000000000000     
  0.62500000000000000       0.93750000000000000        0.0000000000000000     
  0.50000000000000000       0.96875000000000000        0.0000000000000000     
  0.53125000000000000       0.96875000000000000        0.0000000000000000     
  0.56250000000000000       0.96875000000000000        0.0000000000000000     
  0.59375000000000000       0.96875000000000000        0.0000000000000000     
  0.62500000000000000       0.96875000000000000        0.0000000000000000     
  0.50000000000000000        1.0000000000000000        0.0000000000000000     
  0.53125000000000000        1.0000000000000000        0.0000000000000000     
  0.56250000000000000        1.0000000000000000        0.0000000000000000     
  0.59375000000000000        1.0000000000000000        0.0000000000000000     
  0.62500000000000000        1.0000000000000000        0.0000000000000000     
  0.62500000000000000       0.87500000000000000        0.0000000000000000     
  0.65625000000000000       0.87500000000000000        0.0000000000000000     
  0.68750000000000000       0.87500000000000000        0.0000000000000000     
  0.71875000000000000       0.87500000000000000        0.0000000000000000     
  0.75000000000000000       0.87500000000000000        0.0000000000000000     
  0.62500000000000000       0.90625000000000000        0.0000000000000000     
  0.65625000000000000       0.90625000000000000        0.0000000000000000     
  0.68750000000000000       0.90625000000000000        0.0000000000000000     
  0.71875000000000000       0.90625000000000000        0.0000000000000000     
  0.75000000000000000       0.90625000000000000        0.0000000000000000     
  0.62500000000000000       0.93750000000000000        0.0000000000000000     
  0.65625000000000000       0.93750000000000000        0.0000000000000000     
  0.68750000000000000       0.93750000000000000        0.0000000000000000     
  0.71875000000000000       0.93750000000000000        0.0000000000000000     
  0.75000000000000000       0.93750000000000000        0.0000000000000000     
  0.62500000000000000       0.96875000000000000        0.0000000000000000     
  0.65625000000000000       0.96875000000000000        0.0000000000000000     
  0.68750000000000000       0.96875000000000000        0.0000000000000000     
  0.71875000000000000       0.96875000000000000        0.0000000000000000     
  0.75000000000000000       0.96875000000000000        0.0000000000000000     
  0.62500000000000000        1.0000000000000000        0.0000000000000000     
  0.65625000000000000        1.0000000000000000        0.0000000000000000     
  0.68750000000000000        1.0000000000000000        0.0000000000000000     
  0.71875000000000000        1.0000000000000000        0.0000000000000000     
  0.75000000000000000        1.0000000000000000        0.0000000000000000     
  0.75000000000000000       0.87500000000000000        0.0000000000000000     
  0.78125000000000000       0.87500000000000000        0.0000000000000000     
  0.81250000000000000       0.87500000000000000        0.0000000000000000     
  0.84375000000000000       0.87500000000000000        0.0000000000000000     
  0.87500000000000000       0.87500000000000000        0.0000000000000000     
  0.75000000000000000       0.90625000000000000        0.0000000000000000     
  0.78125000000000000       0.90625000000000000        0.0000000000000000     
  0.81250000000000000       0.90625000000000000        0.0000000000000000     
  0.84375000000000000       0.90625000000000000        0.0000000000000000     
  0.87500000000000000       0.90625000000000000        0.0000000000000000     
  0.75000000000000000       0.93750000000000000        0.0000000000000000     
  0.78125000000000000       0.93750000000000000        0.0000000000000000     
  0.81250000000000000       0.93750000000000000        0.0000000000000000     
  0.84375000000000000       0.93750000000000000        0.0000000000000000     
  0.87500000000000000       0.93750000000000000        0.0000000000000000     
  0.75000000000000000       0.96875000000000000        0.0000000000000000     
  0.78125000000000000       0.96875000000000000        0.0000000000000000     
  0.81250000000000000       0.96875000000000000        0.0000000000000000     
  0.84375000000000000       0.96875000000000000        0.0000000000000000     
  0.87500000000000000       0.96875000000000000        0.0000000000000000     
  0.75000000000000000        1.0000000000000000        0.0000000000000000     
  0.78125000000000000        1.0000000000000000        0.0000000000000000     
  0.81250000000000000        1.0000000000000000        0.0000000000000000     
  0.84375000000000000        1.0000000000000000        0.0000000000000000     
  0.87500000000000000        1.0000000000000000        0.0000000000000000     
  0.87500000000000000       0.87500000000000000        0.0000000000000000     
  0.90625000000000000       0.87500000000000000        0.0000000000000000     
  0.93750000000000000       0.87500000000000000        0.0000000000000000     
  0.96875000000000000       0.87500000000000000        0.0000000000000000     
   1.0000000000000000       0.87500000000000000        0.0000000000000000     
  0.87500000000000000       0.90625000000000000        0.0000000000000000     
  0.90625000000000000       0.90625000000000000        0.0000000000000000     
  0.93750000000000000       0.90625000000000000        0.0000000000000000     
  0.96875000000000000       0.90625000000000000        0.0000000000000000     
   1.0000000000000000       0.90625000000000000        0.0000000000000000     
  0.87500000000000000       0.93750000000000000        0.0000000000000000     
  0.90625000000000000       0.93750000000000000        0.0000000000000000     
  0.93750000000000000       0.93750000000000000        0.0000000000000000     
  0.96875000000000000       0.93750000000000000        0.0000000000000000     
   1.0000000000000000       0.93750000000000000        0.0000000000000000     
  0.87500000000000000       0.96875000000000000        0.0000000000000000     
  0.90625000000000000       0.96875000000000000        0.0000000000000000     
  0.93750000000000000       0.96875000000000000        0.0000000000000000     
  0.96875000000000000       0.96875000000000000        0.0000000000000000     
   1.0000000000000000       0.96875000000000000        0.0000000000000000     
  0.87500000000000000        1.0000000000000000        0.0000000000000000     
  0.90625000000000000        1.0000000000000000        0.0000000000000000     
  0.93750000000000000        1.0000000000000000        0.0000000000000000     
  0.96875000000000000        1.0000000000000000        0.0000000000000000     
   1.0000000000000000        1.0000000000000000        0.0000000000000000     
 </DataArray>
 </Points>
 <Cells>
 <DataArray  type="Int32"  Name="connectivity"  format="ascii">
           0           1           6           5
           1           2           7           6
           2           3           8           7
           3           4           9           8
           5           6          11          10
           6           7          12          11
           7           8          13          12
           8           9          14          13
          10          11          16          15
          11          12          17          16
          12          13          18          17
          13          14          19          18
          15          16          21          20
          16          17          22          21
          17          18          23          22
          18          19          24          23
          25          26          31          30
          26          27          32          31
          27          28          33          32
          28          29          34          33
          30          31          36          35
          31          32          37          36
          32          33          38          37
          33          34          39          38
          35          36          41          40
          36          37          42          41
          37          38          43          42
          38          39          44          43
          40          41          46          45
          41          42          47          46
          42          43          48          47
          43          44          49          48
          50          51          56          55
          51          52          57          56
          52          53          58          57
          53          54          59          58
          55          56          61          60
          56          57          62          61
          57          58          63          62
          58          59          64          63
          60          61          66          65
          61          62          67          66
          62          63          68          67
          63          64          69          68
          65          66          71          70
          66          67          72          71
          67          68          73          72
          68          69          74          73
          75          76          81          80
          76          77          82          81
          77          78          83          82
          78          79          84          83
          80          81          86          85
          81          82          87          86
          82          83          88          87
          83          84          89          88
          85          86          91          90
          86          87          92          91
          87          88          93          92
          88          89          94          93
          90          91          96          95
          91          92          97          96
          92          93          98          97
          93          94          99          98
         100         101         106         105
         101         102         107         106
         102         103         108         107
         103         104         109         108
         105         106         111         110
         106         107         112         111
         107         108         113         112
         108         109         114         113
         110         111         116         115
         111         112         117         116
         112         113         118         117
         113         114         119         118
         115         116         121         120
         116         117         122         121
         117         118         123         122
         118         119         124         123
         125         126         131         130
         126         127         132         131
         127         128         133         132
         128         129         134         133
         130         131         136         135
         131         132         137         136
         132         133         138         137
         133         134         139         138
         135         136         141         140
         136         137         142         141
         137         138         143         142
         138         139         144         143
         140         141         146         145
         141         142         147         146
         142         143         148         147
         143         144         149         148
         150         151         156         155
         151         152         157         156
         152         153         158         157
         153         154         159         158
         155         156         161         160
         156         157         162         161
         157         158         163         162
         158         159         164         163
         160         161         166         165
         161         162         167         166
         162         163         168         167
         163         164         169         168
         165         166         171         170
         166         167         172         171
         167         168         173         172
         168         169         174         173
         175         176         181         180
         176         177         182         181
         177         178         183         182
         178         179         184         183
         180         181         186         185
         181         182         187         186
         182         183         188         187
         183         184         189         188
         185         186         191         190
         186         187         192         191
         187         188         193         192
         188         189         194         193
         190         191         196         195
         191         192         197         196
         192         193         198         197
         193         194         199         198
         200         201         206         205
         201         202         207         206
         202         203         208         207
         203         204         209         208
         205         206         211         210
         206         207         212         211
         207         208         213         212
         208         209         214         213
         210         211         216         215
         211         212         217         216
         212         213         218         217
         213         214         219         218
         215         216         221         220
         216         217         222         221
         217         218         223         222
         218         219         224         223
         225         226         231         230
         226         227         232         231
         227         228         233         232
         228         229         234         233
         230         231         236         235
         231         232         237         236
         232         233         238         237
         233         234         239         238
         235         236         241         240
         236         237         242         241
         237         238         243         242
         238         239         244         243
         240         241         246         245
         241         242         247         246
         242         243         248         247
         243         244         249         248
         250         251         256         255
         251         252         257         256
         252         253         258         257
         253         254         259         258
         255         256         261         260
         256         257         262         261
         257         258         263         262
         258         259         264         263
         260         261         266         265
         261         262         267         266
         262         263         268         267
         263         264         269         268
         265         266         271         270
         266         267         272         271
         267         268         273         272
         268         269         274         273
         275         276         281         280
         276         277         282         281
         277         278         283         282
         278         279         284         283
         280         281         286         285
         281         282         287         286
         282         283         288         287
         283         284         289         288
         285         286         291         290
         286         287         292         291
         287         288         293         292
         288         289         294         293
         290         291         296         295
         291         292         297         296
         292         293         298         297
         293         294         299         298
         300         301         306         305
         301         302         307         306
         302         303         308         307
         303         304         309         308
         305         306         311         310
         306         307         312         311
         307         308         313         312
         308         309         314         313
         310         311         316         315
         311         312         317         316
         312         313         318         317
         313         314         319         318
         315         316         321         320
         316         317         322         321
         317         318         323         322
         318         319         324         323
         325         326         331         330
         326         327         332         331
         327         328         333         332
         328         329         334         333
         330         331         336         335
         331         332         337         336
         332         333         338         337
         333         334         339         338
         335         336         341         340
         336         337         342         341
         337         338         343         342
         338         339         344         343
         340         341         346         345
         341         342         347         346
         342         343         348         347
         343         344         349         348
         350         351         356         355
         351         352         357         356
         352         353         358         357
         353         354         359         358
         355         356         361         360
         356         357         362         361
         357         358         363         362
         358         359         364         363
         360         361         366         365
         361         362         367         366
         362         363         368         367
         363         364         369         368
         365         366         371         370
         366         367         372         371
         367         368         373         372
         368         369         374         373
         375         376         381         380
         376         377         382         381
         377         378         383         382
         378         379         384         383
         380         381         386         385
         381         382         387         386
         382         383         388         387
         383         384         389         388
         385         386         391         390
         386         387         392         391
         387         388         393         392
         388         389         394         393
         390         391         396         395
         391         392         397         396
         392         393         398         397
         393         394         399         398
         400         401         406         405
         401         402         407         406
         402         403         408         407
         403         404         409         408
         405         406         411         410
         406         407         412         411
         407         408         413         412
         408         409         414         413
         410         411         416         415
         411         412         417         416
         412         413         418         417
         413         414         419         418
         415         416         421         420
         416         417         422         421
         417         418         423         422
         418         419         424         423
         425         426         431         430
         426         427         432         431
         427         428         433         432
         428         429         434         433
         430         431         436         435
         431         432         437         436
         432         433         438         437
         433         434         439         438
         435         436         441         440
         436         437         442         441
         437         438         443         442
         438         439         444         443
         440         441         446         445
         441         442         447         446
         442         443         448         447
         443         444         449         448
         450         451         456         455
         451         452         457         456
         452         453         458         457
         453         454         459         458
         455         456         461         460
         456         457         462         461
         457         458         463         462
         458         459         464         463
         460         461         466         465
         461         462         467         466
         462         463         468         467
         463         464         469         468
         465         466         471         470
         466         467         472         471
         467         468         473         472
         468         469         474         473
         475         476         481         480
         476         477         482         481
         477         478         483         482
         478         479         484         483
         480         481         486         485
         481         482         487         486
         482         483         488         487
         483         484         489         488
         485         486         491         490
         486         487         492         491
         487         488         493         492
         488         489         494         493
         490         491         496         495
         491         492         497         496
         492         493         498         497
         493         494         499         498
         500         501         506         505
         501         502         507         506
         502         503         508         507
         503         504         509         508
         505         506         511         510
         506         507         512         511
         507         508         513         512
         508         509         514         513
         510         511         516         515
         511         512         517         516
         512         513         518         517
         513         514         519         518
         515         516         521         520
         516         517         522         521
         517         518         523         522
         518         519         524         523
         525         526         531         530
         526         527         532         531
         527         528         533         532
         528         529         534         533
         530         531         536         535
         531         532         537         536
         532         533         538         537
         533         534         539         538
         535         536         541         540
         536         537         542         541
         537         538         543         542
         538         539         544         543
         540         541         546         545
         541         542         547         546
         542         543         548         547
         543         544         549         548
         550         551         556         555
         551         552         557         556
         552         553         558         557
         553         554         559         558
         555         556         561         560
         556         557         562         561
         557         558         563         562
         558         559         564         563
         560         561         566         565
         561         562         567         566
         562         563         568         567
         563         564         569         568
         565         566         571         570
         566         567         572         571
         567         568         573         572
         568         569         574         573
         575         576         581         580
         576         577         582         581
         577         578         583         582
         578         579         584         583
         580         581         586         585
         581         582         587         586
         582         583         588         587
         583         584         589         588
         585         586         591         590
         586         587         592         591
         587         588         593         592
         588         589         594         593
         590         591         596         595
         591         592         597         596
         592         593         598         597
         593         594         599         598
         600         601         606         605
         601         602         607         606
         602         603         608         607
         603         604         609         608
         605         606         611         610
         606         607         612         611
         607         608         613         612
         608         609         614         613
         610         611         616         615
         611         612         617         616
         612         613         618         617
         613         614         619         618
         615         616         621         620
         616         617         622         621
         617         618         623         622
         618         619         624         623
         625         626         631         630
         626         627         632         631
         627         628         633         632
         628         629         634         633
         630         631         636         635
         631         632         637         636
         632         633         638         637
         633         634         639         638
         635         636         641         640
         636         637         642         641
         637         638         643         642
         638         639         644         643
         640         641         646         645
         641         642         647         646
         642         643         648         647
         643         644         649         648
         650         651         656         655
         651         652         657         656
         652         653         658         657
         653         654         659         658
         655         656         661         660
         656         657         662         661
         657         658         663         662
         658         659         664         663
         660         661         666         665
         661         662         667         666
         662         663         668         667
         663         664         669         668
         665         666         671         670
         666         667         672         671
         667         668         673         672
         668         669         674         673
         675         676         681         680
         676         677         682         681
         677         678         683         682
         678         679         684         683
         680         681         686         685
         681         682         687         686
         682         683         688         687
         683         684         689         688
         685         686         691         690
         686         687         692         691
         687         688         693         692
         688         689         694         693
         690         691         696         695
         691         692         697         696
         692         693         698         697
         693         694         699         698
         700         701         706         705
         701         702         707         706
         702         703         708         707
         703         704         709         708
         705         706         711         710
         706         707         712         711
         707         708         713         712
         708         709         714         713
         710         711         716         715
         711         712         717         716
         712         713         718         717
         713         714         719         718
         715         716         721         720
         716         717         722         721
         717         718         723         722
         718         719         724         723
         725         726         731         730
         726         727         732         731
         727         728         733         732
         728         729         734         733
         730         731         736         735
         731         732         737         736
         732         733         738         737
         733         734         739         738
         735         736         741         740
         736         737         742         741
         737         738         743         742
         738         739         744         743
         740         741         746         745
         741         742         747         746
         742         743         748         747
         743         744         749         748
         750         751         756         755
         751         752         757         756
         752         753         758         757
         753         754         759         758
         755         756         761         760
         756         757         762         761
         757         758         763         762
         758         759         764         763
         760         761         766         765
         761         762         767         766
         762         763         768         767
         763         764         769         768
         765         766         771         770
         766         767         772         771
         767         768         773         772
         768         769         774         773
         775         776         781         780
         776         777         782         781
         777         778         783         782
         778         779         784         783
         780         781         786         785
         781         782         787         786
         782         783         788         787
         783         784         789         788
         785         786         791         790
         786         787         792         791
         787         788         793         792
         788         789         794         793
         790         791         796         795
         791         792         797         796
         792         793         798         797
         793         794         799         798
         800         801         806         805
         801         802         807         806
         802         803         808         807
         803         804         809         808
         805         806         811         810
         806         807         812         811
         807         808         813         812
         808         809         814         813
         810         811         816         815
         811         812         817         816
         812         813         818         817
         813         814         819         818
         815         816         821         820
         816         817         822         821
         817         818         823         822
         818         819         824         823
         825         826         831         830
         826         827         832         831
         827         828         833         832
         828         829         834         833
         830         831         836         835
         831         832         837         836
         832         833         838         837
         833         834         839         838
         835         836         841         840
         836         837         842         841
         837         838         843         842
         838         839         844         843
         840         841         846         845
         841         842         847         846
         842         843         848         847
         843         844         849         848
         850         851         856         855
         851         852         857         856
         852         853         858         857
         853         854         859         858
         855         856         861         860
         856         857         862         861
         857         858         863         862
         858         859         864         863
         860         861         866         865
         861         862         867         866
         862         863         868         867
         863         864         869         868
         865         866         871         870
         866         867         872         871
         867         868         873         872
         868         869         874         873
         875         876         881         880
         876         877         882         881
         877         878         883         882
         878         879         884         883
         880         881         886         885
         881         882         887         886
         882         883         888         887
         883         884         889         888
         885         886         891         890
         886         887         892         891
         887         888         893         892
         888         889         894         893
         890         891         896         895
         891         892         897         896
         892         893         898         897
         893         894         899         898
         900         901         906         905
         901         902         907         906
         902         903         908         907
         903         904         909         908
         905         906         911         910
         906         907         912         911
         907         908         913         912
         908         909         914         913
         910         911         916         915
         911         912         917         916
         912         913         918         917
         913         914         919         918
         915         916         921         920
         916         917         922         921
         917         918         923         922
         918         919         924         923
         925         926         931         930
         926         927         932         931
         927         928         933         932
         928         929         934         933
         930         931         936         935
         931         932         937         936
         932         933         938         937
         933         934         939         938
         935         936         941         940
         936         937         942         941
         937         938         943         942
         938         939         944         943
         940         941         946         945
         941         942         947         946
         942         943         948         947
         943         944         949         948
         950         951         956         955
         951         952         957         956
         952         953         958         957
         953         954         959         958
         955         956         961         960
         956         957         962         961
         957         958         963         962
         958         959         964         963
         960         961         966         965
         961         962         967         966
         962         963         968         967
         963         964         969         968
         965         966         971         970
         966         967         972         971
         967         968         973         972
         968         969         974         973
         975         976         981         980
         976         977         982         981
         977         978         983         982
         978         979         984         983
         980         981         986         985
         981         982         987         986
         982         983         988         987
         983         984         989         988
         985         986         991         990
         986         987         992         991
         987         988         993         992
         988         989         994         993
         990         991         996         995
         991         992         997         996
         992         993         998         997
         993         994         999         998
        1000        1001        1006        1005
        1001        1002        1007        1006
        1002        1003        1008        1007
        1003        1004        1009        1008
        1005        1006        1011        1010
        1006        1007        1012        1011
        1007        1008        1013        1012
        1008        1009        1014        1013
        1010        1011        1016        1015
        1011        1012        1017        1016
        1012        1013        1018        1017
        1013        1014        1019        1018
        1015        1016        1021        1020
        1016        1017        1022        1021
        1017        1018        1023        1022
        1018        1019        1024        1023
        1025        1026        1031        1030
        1026        1027        1032        1031
        1027        1028        1033        1032
        1028        1029        1034        1033
        1030        1031        1036        1035
        1031        1032        1037        1036
        1032        1033        1038        1037
        1033        1034        1039        1038
        1035        1036        1041        1040
        1036        1037        1042        1041
        1037        1038        1043        1042
        1038        1039        1044        1043
        1040        1041        1046        1045
        1041        1042        1047        1046
        1042        1043        1048        1047
        1043        1044        1049        1048
        1050        1051        1056        1055
        1051        1052        1057        1056
        1052        1053        1058        1057
        1053        1054        1059        1058
        1055        1056        1061        1060
        1056        1057        1062        1061
        1057        1058        1063        1062
        1058        1059        1064        1063
        1060        1061        1066        1065
        1061        1062        1067        1066
        1062        1063        1068        1067
        1063        1064        1069        1068
        1065        1066        1071        1070
        1066        1067        1072        1071
        1067        1068        1073        1072
        1068        1069        1074        1073
        1075        1076        1081        1080
        1076        1077        1082        1081
        1077        1078        1083        1082
        1078        1079        1084        1083
        1080        1081        1086        1085
        1081        1082        1087        1086
        1082        1083        1088        1087
        1083        1084        1089        1088
        1085        1086        1091        1090
        1086        1087        1092        1091
        1087        1088        1093        1092
        1088        1089        1094        1093
        1090        1091        1096        1095
        1091        1092        1097        1096
        1092        1093        1098        1097
        1093        1094        1099        1098
        1100        1101        1106        1105
        1101        1102        1107        1106
        1102        1103        1108        1107
        1103        1104        1109        1108
        1105        1106        1111        1110
        1106        1107        1112        1111
        1107        1108        1113        1112
        1108        1109        1114        1113
        1110        1111        1116        1115
        1111        1112        1117        1116
        1112        1113        1118        1117
        1113        1114        1119        1118
        1115        1116        1121        1120
        1116        1117        1122        1121
        1117        1118        1123        1122
        1118        1119        1124        1123
        1125        1126        1131        1130
        1126        1127        1132        1131
        1127        1128        1133        1132
        1128        1129        1134        1133
        1130        1131        1136        1135
        1131        1132        1137        1136
        1132        1133        1138        1137
        1133        1134        1139        1138
        1135        1136        1141        1140
        1136        1137        1142        1141
        1137        1138        1143        1142
        1138        1139        1144        1143
        1140        1141        1146        1145
        1141        1142        1147        1146
        1142        1143        1148        1147
        1143        1144        1149        1148
        1150        1151        1156        1155
        1151        1152        1157        1156
        1152        1153        1158        1157
        1153        1154        1159        1158
        1155        1156        1161        1160
        1156        1157        1162        1161
        1157        1158        1163        1162
        1158        1159        1164        1163
        1160        1161        1166        1165
        1161        1162        1167        1166
        1162        1163        1168        1167
        1163        1164        1169        1168
        1165        1166        1171        1170
        1166        1167        1172        1171
        1167        1168        1173        1172
        1168        1169        1174        1173
        1175        1176        1181        1180
        1176        1177        1182        1181
        1177        1178        1183        1182
        1178        1179        1184        1183
        1180        1181        1186        1185
        1181        1182        1187        1186
        1182        1183        1188        1187
        1183        1184        1189        1188
        1185        1186        1191        1190
        1186        1187        1192        1191
        1187        1188        1193        1192
        1188        1189        1194        1193
        1190        1191        1196        1195
        1191        1192        1197        1196
        1192        1193        1198        1197
        1193        1194        1199        1198
        1200        1201        1206        1205
        1201        1202        1207        1206
        1202        1203        1208        1207
        1203        1204        1209        1208
        1205        1206        1211        1210
        1206        1207        1212        1211
        1207        1208        1213        1212
        1208        1209        1214        1213
        1210        1211        1216        1215
        1211        1212        1217        1216
        1212        1213        1218        1217
        1213        1214        1219        1218
        1215        1216        1221        1220
        1216        1217        1222        1221
        1217        1218        1223        1222
        1218        1219        1224        1223
        1225        1226        1231        1230
        1226        1227        1232        1231
        1227        1228        1233        1232
        1228        1229        1234        1233
        1230        1231        1236        1235
        1231        1232        1237        1236
        1232        1233        1238        1237
        1233        1234        1239        1238
        1235        1236        1241        1240
        1236        1237        1242        1241
        1237        1238        1243        1242
        1238        1239        1244        1243
        1240        1241        1246        1245
        1241        1242        1247        1246
        1242        1243        1248        1247
        1243        1244        1249        1248
        1250        1251        1256        1255
        1251        1252        1257        1256
        1252        1253        1258        1257
        1253        1254        1259        1258
        1255        1256        1261        1260
        1256        1257        1262        1261
        1257        1258        1263        1262
        1258        1259        1264        1263
        1260        1261        1266        1265
        1261        1262        1267        1266
        1262        1263        1268        1267
        1263        1264        1269        1268
        1265        1266        1271        1270
        1266        1267        1272        1271
        1267        1268        1273        1272
        1268        1269        1274        1273
        1275        1276        1281        1280
        1276        1277        1282        1281
        1277        1278        1283        1282
        1278        1279        1284        1283
        1280        1281        1286        1285
        1281        1282        1287        1286
        1282        1283        1288        1287
        1283        1284        1289        1288
        1285        1286        1291        1290
        1286        1287        1292        1291
        1287        1288        1293        1292
        1288        1289        1294        1293
        1290        1291        1296        1295
        1291        1292        1297        1296
        1292        1293        1298        1297
        1293        1294        1299        1298
        1300        1301        1306        1305
        1301        1302        1307        1306
        1302        1303        1308        1307
        1303        1304        1309        1308
        1305        1306        1311        1310
        1306        1307        1312        1311
        1307        1308        1313        1312
        1308        1309        1314        1313
        1310        1311        1316        1315
        1311        1312        1317        1316
        1312        1313        1318        1317
        1313        1314        1319        1318
        1315        1316        1321        1320
        1316        1317        1322        1321
        1317        1318        1323        1322
        1318        1319        1324        1323
        1325        1326        1331        1330
        1326        1327        1332        1331
        1327        1328        1333        1332
        1328        1329        1334        1333
        1330        1331        1336        1335
        1331        1332        1337        1336
        1332        1333        1338        1337
        1333        1334        1339        1338
        1335        1336        1341        1340
        1336        1337        1342        1341
        1337        1338        1343        1342
        1338        1339        1344        1343
        1340        1341        1346        1345
        1341        1342        1347        1346
        1342        1343        1348        1347
        1343        1344        1349        1348
        1350        1351        1356        1355
        1351        1352        1357        1356
        1352        1353        1358        1357
        1353        1354        1359        1358
        1355        1356        1361        1360
        1356        1357        1362        1361
        1357        1358        1363        1362
        1358        1359        1364        1363
        1360        1361        1366        1365
        1361        1362        1367        1366
        1362        1363        1368        1367
        1363        1364        1369        1368
        1365        1366        1371        1370
        1366        1367        1372        1371
        1367        1368        1373        1372
        1368        1369        1374        1373
        1375        1376        1381        1380
        1376        1377        1382        1381
        1377        1378        1383        1382
        1378        1379        1384        1383
        1380        1381        1386        1385
        1381        1382        1387        1386
        1382        1383        1388        1387
        1383        1384        1389        1388
        1385        1386        1391        1390
        1386        1387        1392        1391
        1387        1388        1393        1392
        1388        1389        1394        1393
        1390        1391        1396        1395
        1391        1392        1397        1396
        1392        1393        1398        1397
        1393        1394        1399        1398
        1400        1401        1406        1405
        1401        1402        1407        1406
        1402        1403        1408        1407
        1403        1404        1409        1408
        1405        1406        1411        1410
        1406        1407        1412        1411
        1407        1408        1413        1412
        1408        1409        1414        1413
        1410        1411        1416        1415
        1411        1412        1417        1416
        1412        1413        1418        1417
        1413        1414        1419        1418
        1415        1416        1421        1420
        1416        1417        1422        1421
        1417        1418        1423        1422
        1418        1419        1424        1423
        1425        1426        1431        1430
        1426        1427        1432        1431
        1427        1428        1433        1432
        1428        1429        1434        1433
        1430        1431        1436        1435
        1431        1432        1437        1436
        1432        1433        1438        1437
        1433        1434        1439        1438
        1435        1436        1441        1440
        1436        1437        1442        1441
        1437        1438        1443        1442
        1438        1439        1444        1443
        1440        1441        1446        1445
        1441        1442        1447        1446
        1442        1443        1448        1447
        1443        1444        1449        1448
        1450        1451        1456        1455
        1451        1452        1457        1456
        1452        1453        1458        1457
        1453        1454        1459        1458
        1455        1456        1461        1460
        1456        1457        1462        1461
        1457        1458        1463        1462
        1458        1459        1464        1463
        1460        1461        1466        1465
        1461        1462        1467        1466
        1462        1463        1468        1467
        1463        1464        1469        1468
        1465        1466        1471        1470
        1466        1467        1472        1471
        1467        1468        1473        1472
        1468        1469        1474        1473
        1475        1476        1481        1480
        1476        1477        1482        1481
        1477        1478        1483        1482
        1478        1479        1484        1483
        1480        1481        1486        1485
        1481        1482        1487        1486
        1482        1483        1488        1487
        1483        1484        1489        1488
        1485        1486        1491        1490
        1486        1487        1492        1491
        1487        1488        1493        1492
        1488        1489        1494        1493
        1490        1491        1496        1495
        1491        1492        1497        1496
        1492        1493        1498        1497
        1493        1494        1499        1498
        1500        1501        1506        1505
        1501        1502        1507        1506
        1502        1503        1508        1507
        1503        1504        1509        1508
        1505        1506        1511        1510
        1506        1507        1512        1511
        1507        1508        1513        1512
        1508        1509        1514        1513
        1510        1511        1516        1515
        1511        1512        1517        1516
        1512        1513        1518        1517
        1513        1514        1519        1518
        1515        1516        1521        1520
        1516        1517        1522        1521
        1517        1518        1523        1522
        1518        1519        1524        1523
        1525        1526        1531        1530
        1526        1527        1532        1531
        1527        1528        1533        1532
        1528        1529        1534        1533
        1530        1531        1536        1535
        1531        1532        1537        1536
        1532        1533        1538        1537
        1533        1534        1539        1538
        1535        1536        1541        1540
        1536        1537        1542        1541
        1537        1538        1543        1542
        1538        1539        1544        1543
        1540        1541        1546        1545
        1541        1542        1547        1546
        1542        1543        1548        1547
        1543        1544        1549        1548
        1550        1551        1556        1555
        1551        1552        1557        1556
        1552        1553        1558        1557
        1553        1554        1559        1558
        1555        1556        1561        1560
        1556        1557        1562        1561
        1557        1558        1563        1562
        1558        1559        1564        1563
        1560        1561        1566        1565
        1561        1562        1567        1566
        1562        1563        1568        1567
        1563        1564        1569        1568
        1565        1566        1571        1570
        1566        1567        1572        1571
        1567        1568        1573        1572
        1568        1569        1574        1573
        1575        1576        1581        1580
        1576        1577        1582        1581
        1577        1578        1583        1582
        1578        1579        1584        1583
        1580        1581        1586        1585
        1581        1582        1587        1586
        1582        1583        1588        1587
        1583        1584        1589        1588
        1585        1586        1591        1590
        1586        1587        1592        1591
        1587        1588        1593        1592
        1588        1589        1594        1593
        1590        1591        1596        1595
        1591        1592        1597        1596
        1592        1593        1598        1597
        1593        1594        1599        1598
 </DataArray>
 <DataArray  type="Int32"  Name="offsets"  format="ascii"> 
           4
           8
          12
          16
          20
          24
          28
          32
          36
          40
          44
          48
          52
          56
          60
          64
          68
          72
          76
          80
          84
          88
          92
          96
         100
         104
         108
         112
         116
         120
         124
         128
         132
         136
         140
         144
         148
         152
         156
         160
         164
         168
         172
         176
         180
         184
         188
         192
         196
         200
         204
         208
         212
         216
         220
         224
         228
         232
         236
         240
         244
         248
         252
         256
         260
         264
         268
         272
         276
         280
         284
         288
         292
         296
         300
         304
         308
         312
         316
         320
         324
         328
         332
         336
         340
         344
         348
         352
         356
         360
         364
         368
         372
         376
         380
         384
         388
         392
         396
         400
         404
         408
         412
         416
         420
         424
         428
         432
         436
         440
         444
         448
         452
         456
         460
         464
         468
         472
         476
         480
         484
         488
         492
         496
         500
         504
         508
         512
         516
         520
         524
         528
         532
         536
         540
         544
         548
         552
         556
         560
         564
         568
         572
         576
         580
         584
         588
         592
         596
         600
         604
         608
         612
         616
         620
         624
         628
         632
         636
         640
         644
         648
         652
         656
         660
         664
         668
         672
         676
         680
         684
         688
         692
         696
         700
         704
         708
         712
         716
         720
         724
         728
         732
         736
         740
         744
         748
         752
         756
         760
         764
         768
         772
         776
         780
         784
         788
         792
         796
         800
         804
         808
         812
         816
         820
         824
         828
         832
         836
         840
         844
         848
         852
         856
         860
         864
         868
         872
         876
         880
         884
         888
         892
         896
         900
         904
         908
         912
         916
         920
         924
         928
         932
         936
         940
         944
         948
         952
         956
         960
         964
         968
         972
         976
         980
         984
         988
         992
         996
        1000
        1004
        1008
        1012
        1016
        1020
        1024
        1028
        1032
        1036
        1040
        1044
        1048
        1052
        1056
        1060
        1064
        1068
        1072
        1076
        1080
        1084
        1088
        1092
        1096
        1100
        1104
        1108
        1112
        1116
        1120
        1124
        1128
        1132
        1136
        1140
        1144
        1148
        1152
        1156
        1160
        1164
        1168
        1172
        1176
        1180
        1184
        1188
        1192
        1196
        1200
        1204
        1208
        1212
        1216
        1220
        1224
        1228
        1232
        1236
        1240
        1244
        1248
        1252
        1256
        1260
        1264
        1268
        1272
        1276
        1280
        1284
        1288
        1292
        1296
        1300
        1304
        1308
        1312
        1316
        1320
        1324
        1328
        1332
        1336
        1340
        1344
        1348
        1352
        1356
        1360
        1364
        1368
        1372
        1376
        1380
        1384
        1388
        1392
        1396
        1400
        1404
        1408
        1412
        1416
        1420
        1424
        1428
        1432
        1436
        1440
        1444
        1448
        1452
        1456
        1460
        1464
        1468
        1472
        1476
        1480
        1484
        1488
        1492
        1496
        1500
        1504
        1508
        1512
        1516
        1520
        1524
        1528
        1532
        1536
        1540
        1544
        1548
        1552
        1556
        1560
        1564
        1568
        1572
        1576
        1580
        1584
        1588
        1592
        1596
        1600
        1604
        1608
        1612
        1616
        1620
        1624
        1628
        1632
        1636
        1640
        1644
        1648
        1652
        1656
        1660
        1664
        1668
        1672
        1676
        1680
        1684
        1688
        1692
        1696
        1700
        1704
        1708
        1712
        1716
        1720
        1724
        1728
        1732
        1736
        1740
        1744
        1748
        1752
        1756
        1760
        1764
        1768
        1772
        1776
        1780
        1784
        1788
        1792
        1796
        1800
        1804
        1808
        1812
        1816
        1820
        1824
        1828
        1832
        1836
        1840
        1844
        1848
        1852
        1856
        1860
        1864
        1868
        1872
        1876
        1880
        1884
        1888
        1892
        1896
        1900
        1904
        1908
        1912
        1916
        1920
        1924
        1928
        1932
        1936
        1940
        1944
        1948
        1952
        1956
        1960
        1964
        1968
        1972
        1976
        1980
        1984
        1988
        1992
        1996
        2000
        2004
        2008
        2012
        2016
        2020
        2024
        2028
        2032
        2036
        2040
        2044
        2048
        2052
        2056
        2060
        2064
        2068
        2072
        2076
        2080
        2084
        2088
        2092
        2096
        2100
        2104
        2108
        2112
        2116
        2120
        2124
        2128
        2132
        2136
        2140
        2144
        2148
        2152
        2156
        2160
        2164
        2168
        2172
        2176
        2180
        2184
        2188
        2192
        2196
        2200
        2204
        2208
        2212
        2216
        2220
        2224
        2228
        2232
        2236
        2240
        2244
        2248
        2252
        2256
        2260
        2264
        2268
        2272
        2276
        2280
        2284
        2288
        2292
        2296
        2300
        2304
        2308
        2312
        2316
        2320
        2324
        2328
        2332
        2336
        2340
        2344
        2348
        2352
        2356
        2360
        2364
        2368
        2372
        2376
        2380
        2384
        2388
        2392
        2396
        2400
        2404
        2408
        2412
        2416
        2420
        2424
        2428
        2432
        2436
        2440
        2444
        2448
        2452
        2456
        2460
        2464
        2468
        2472
        2476
        2480
        2484
        2488
        2492
        2496
        2500
        2504
        2508
        2512
        2516
        2520
        2524
        2528
        2532
        2536
        2540
        2544
        2548
        2552
        2556
        2560
        2564
        2568
        2572
        2576
        2580
        2584
        2588
        2592
        2596
        2600
        2604
        2608
        2612
        2616
        2620
        2624
        2628
        2632
        2636
        2640
        2644
        2648
        2652
        2656
        2660
        2664
        2668
        2672
        2676
        2680
        2684
        2688
        2692
        2696
        2700
        2704
        2708
        2712
        2716
        2720
        2724
        2728
        2732
        2736
        2740
        2744
        2748
        2752
        2756
        2760
        2764
        2768
        2772
        2776
        2780
        2784
        2788
        2792
        2796
        2800
        2804
        2808
        2812
        2816
        2820
        2824
        2828
        2832
        2836
        2840
        2844
        2848
        2852
        2856
        2860
        2864
        2868
        2872
        2876
        2880
        2884
        2888
        2892
        2896
        2900
        2904
        2908
        2912
        2916
        2920
        2924
        2928
        2932
        2936
        2940
        2944
        2948
        2952
        2956
        2960
        2964
        2968
        2972
        2976
        2980
        2984
        2988
        2992
        2996
        3000
        3004
        3008
        3012
        3016
        3020
        3024
        3028
        3032
        3036
        3040
        3044
        3048
        3052
        3056
        3060
        3064
        3068
        3072
        3076
        3080
        3084
        3088
        3092
        3096
        3100
        3104
        3108
        3112
        3116
        3120
        3124
        3128
        3132
        3136
        3140
        3144
        3148
        3152
        3156
        3160
        3164
        3168
        3172
        3176
        3180
        3184
        3188
        3192
        3196
        3200
        3204
        3208
        3212
        3216
        3220
        3224
        3228
        3232
        3236
        3240
        3244
        3248
        3252
        3256
        3260
        3264
        3268
        3272
        3276
        3280
        3284
        3288
        3292
        3296
        3300
        3304
        3308
        3312
        3316
        3320
        3324
        3328
        3332
        3336
        3340
        3344
        3348
        3352
        3356
        3360
        3364
        3368
        3372
        3376
        3380
        3384
        3388
        3392
        3396
        3400
        3404
        3408
        3412
        3416
        3420
        3424
        3428
        3432
        3436
        3440
        3444
        3448
        3452
        3456
        3460
        3464
        3468
        3472
        3476
        3480
        3484
        3488
        3492
        3496
        3500
        3504
        3508
        3512
        3516
        3520
        3524
        3528
        3532
        3536
        3540
        3544
        3548
        3552
        3556
        3560
        3564
        3568
        3572
        3576
        3580
        3584
        3588
        3592
        3596
        3600
        3604
        3608
        3612
        3616
        3620
        3624
        3628
        3632
        3636
        3640
        3644
        3648
        3652
        3656
        3660
        3664
        3668
        3672
        3676
        3680
        3684
        3688
        3692
        3696
        3700
        3704
        3708
        3712
        3716
        3720
        3724
        3728
        3732
        3736
        3740
        3744
        3748
        3752
        3756
        3760
        3764
        3768
        3772
        3776
        3780
        3784
        3788
        3792
        3796
        3800
        3804
        3808
        3812
        3816
        3820
        3824
        3828
        3832
        3836
        3840
        3844
        3848
        3852
        3856
        3860
        3864
        3868
        3872
        3876
        3880
        3884
        3888
        3892
        3896
        3900
        3904
        3908
        3912
        3916
        3920
        3924
        3928
        3932
        3936
        3940
        3944
        3948
        3952
        3956
        3960
        3964
        3968
        3972
        3976
        3980
        3984
        3988
        3992
        3996
        4000
        4004
        4008
        4012
        4016
        4020
        4024
        4028
        4032
        4036
        4040
        4044
        4048
        4052
        4056
        4060
        4064
        4068
        4072
        4076
        4080
        4084
        4088
        4092
        4096
 </DataArray>
 <DataArray  type="UInt8"  Name="types"  format="ascii">
 9
 9
 9
 9
 9
 9
 9
 9
 9
 9
 9
 9
 9
 9
 9
 9
 9
 9
 9
 9
 9
 9
 9
 9
 9
 9
 9
 9
 9
 9
 9
 9
 9
 9
 9
 9
 9
 9
 9
 9
 9
 9
 9
 9
 9
 9
 9
 9
 9
 9
 9
 9
 9
 9
 9
 9
 9
 9
 9
 9
 9
 9
 9
 9
 9
 9
 9
 9
 9
 9
 9
 9
 9
 9
 9
 9
 9
 9
 9
 9
 9
 9
 9
 9
 9
 9
 9
 9
 9
 9
 9
 9
 9
 9
 9
 9
 9
 9
 9
 9
 9
 9
 9
 9
 9
 9
 9
 9
 9
 9
 9
 9
 9
 9
 9
 9
 9
 9
 9
 9
 9
 9
 9
 9
 9
 9
 9
 9
 9
 9
 9
 9
 9
 9
 9
 9
 9
 9
 9
 9
 9
 9
 9
 9
 9
 9
 9
 9
 9
 9
 9
 9
 9
 9
 9
 9
 9
 9
 9
 9
 9
 9
 9
 9
 9
 9
 9
 9
 9
 9
 9
 9
 9
 9
 9
 9
 9
 9
 9
 9
 9
 9
 9
 9
 9
 9
 9
 9
 9
 9
 9
 9
 9
 9
 9
 9
 9
 9
 9
 9
 9
 9
 9
 9
 9
 9
 9
 9
 9
 9
 9
 9
 9
 9
 9
 9
 9
 9
 9
 9
 9
 9
 9
 9
 9
 9
 9
 9
 9
 9
 9
 9
 9
 9
 9
 9
 9
 9
 9
 9
 9
 9
 9
 9
 9
 9
 9
 9
 9
 9
 9
 9
 9
 9
 9
 9
 9
 9
 9
 9
 9
 9
 9
 9
 9
 9
 9
 9
 9
 9
 9
 9
 9
 9
 9
 9
 9
 9
 9
 9
 9
 9
 9
 9
 9
 9
 9
 9
 9
 9
 9
 9
 9
 9
 9
 9
 9
 9
 9
 9
 9
 9
 9
 9
 9
 9
 9
 9
 9
 9
 9
 9
 9
 9
 9
 9
 9
 9
 9
 9
 9
 9
 9
 9
 9
 9
 9
 9
 9
 9
 9
 9
 9
 9
 9
 9
 9
 9
 9
 9
 9
 9
 9
 9
 9
 9
 9
 9
 9
 9
 9
 9
 9
 9
 9
 9
 9
 9
 9
 9
 9
 9
 9
 9
 9
 9
 9
 9
 9
 9
 9
 9
 9
 9
 9
 9
 9
 9
 9
 9
 9
 9
 9
 9
 9
 9
 9
 9
 9
 9
 9
 9
 9
 9
 9
 9
 9
 9
 9
 9
 9
 9
 9
 9
 9
 9
 9
 9
 9
 9
 9
 9
 9
 9
 9
 9
 9
 9
 9
 9
 9
 9
 9
 9
 9
 9
 9
 9
 9
 9
 9
 9
 9
 9
 9
 9
 9
 9
 9
 9
 9
 9
 9
 9
 9
 9
 9
 9
 9
 9
 9
 9
 9
 9
 9
 9
 9
 9
 9
 9
 9
 9
 9
 9
 9
 9
 9
 9
 9
 9
 9
 9
 9
 9
 9
 9
 9
 9
 9
 9
 9
 9
 9
 9
 9
 9
 9
 9
 9
 9
 9
 9
 9
 9
 9
 9
 9
 9
 9
 9
 9
 9
 9
 9
 9
 9
 9
 9
 9
 9
 9
 9
 9
 9
 9
 9
 9
 9
 9
 9
 9
 9
 9
 9
 9
 9
 9
 9
 9
 9
 9
 9
 9
 9
 9
 9
 9
 9
 9
 9
 9
 9
 9
 9
 9
 9
 9
 9
 9
 9
 9
 9
 9
 9
 9
 9
 9
 9
 9
 9
 9
 9
 9
 9
 9
 9
 9
 9
 9
 9
 9
 9
 9
 9
 9
 9
 9
 9
 9
 9
 9
 9
 9
 9
 9
 9
 9
 9
 9
 9
 9
 9
 9
 9
 9
 9
 9
 9
 9
 9
 9
 9
 9
 9
 9
 9
 9
 9
 9
 9
 9
 9
 9
 9
 9
 9
 9
 9
 9
 9
 9
 9
 9
 9
 9
 9
 9
 9
 9
 9
 9
 9
 9
 9
 9
 9
 9
 9
 9
 9
 9
 9
 9
 9
 9
 9
 9
 9
 9
 9
 9
 9
 9
 9
 9
 9
 9
 9
 9
 9
 9
 9
 9
 9
 9
 9
 9
 9
 9
 9
 9
 9
 9
 9
 9
 9
 9
 9
 9
 9
 9
 9
 9
 9
 9
 9
 9
 9
 9
 9
 9
 9
 9
 9
 9
 9
 9
 9
 9
 9
 9
 9
 9
 9
 9
 9
 9
 9
 9
 9
 9
 9
 9
 9
 9
 9
 9
 9
 9
 9
 9
 9
 9
 9
 9
 9
 9
 9
 9
 9
 9
 9
 9
 9
 9
 9
 9
 9
 9
 9
 9
 9
 9
 9
 9
 9
 9
 9
 9
 9
 9
 9
 9
 9
 9
 9
 9
 9
 9
 9
 9
 9
 9
 9
 9
 9
 9
 9
 9
 9
 9
 9
 9
 9
 9
 9
 9
 9
 9
 9
 9
 9
 9
 9
 9
 9
 9
 9
 9
 9
 9
 9
 9
 9
 9
 9
 9
 9
 9
 9
 9
 9
 9
 9
 9
 9
 9
 9
 9
 9
 9
 9
 9
 9
 9
 9
 9
 9
 9
 9
 9
 9
 9
 9
 9
 9
 9
 9
 9
 9
 9
 9
 9
 9
 9
 9
 9
 9
 9
 9
 9
 9
 9
 9
 9
 9
 9
 9
 9
 9
 9
 9
 9
 9
 9
 9
 9
 9
 9
 9
 9
 9
 9
 9
 9
 9
 9
 9
 9
 9
 9
 9
 9
 9
 9
 9
 9
 9
 9
 9
 9
 9
 9
 9
 9
 9
 9
 9
 9
 9
 9
 9
 9
 9
 9
 9
 9
 9
 9
 9
 9
 9
 9
 9
 9
 9
 9
 9
 9
 9
 9
 9
 9
 9
 9
 9
 9
 9
 9
 9
 9
 9
 9
 9
 9
 9
 9
 9
 9
 9
 9
 9
 9
 9
 9
 9
 9
 9
 9
 9
 9
 9
 9
 9
 9
 9
 9
 9
 9
 9
 9
 9
 9
 9
 9
 9
 9
 9
 9
 9
 9
 9
 9
 9
 9
 9
 9
 9
 9
 9
 9
 9
 9
 9
 9
 9
 9
 9
 9
 9
 9
 9
 9
 9
 9
 9
 9
 9
 9
 9
 9
 9
 9
 9
 9
 9
 9
 9
 9
 9
 9
 9
 9
 9
 9
 9
 9
 9
 9
 9
 9
 9
 9
 9
 9
 9
 9
 9
 9
 9
 9
 9
 9
 9
 </DataArray>
 </Cells> 
 <PointData>
 <DataArray  type="Float64" Name="disp" NumberOfComponents="3" format="ascii">
   0.0000000000000000        0.0000000000000000        0.0000000000000000     
   6.0959565620202823E-003   3.7905276396727715E-003   0.0000000000000000     
   1.1665984569170390E-002   7.3239906098757183E-003   0.0000000000000000     
   1.6710084021450328E-002   1.0600388910608841E-002   0.0000000000000000     
   2.1228254918860094E-002   1.3619722541872138E-002   0.0000000000000000     
   0.0000000000000000        0.0000000000000000        0.0000000000000000     
   4.8911364112391113E-003   3.0222164585518192E-003   0.0000000000000000     
   9.5736051152062098E-003   6.0606560007460154E-003   0.0000000000000000     
   1.4047406111901296E-002   9.1153186265825869E-003   0.0000000000000000     
   1.8312539401324369E-002   1.2186204336061535E-002   0.0000000000000000     
   0.0000000000000000        0.0000000000000000        0.0000000000000000     
   3.9535478914198207E-003   2.4251711409974631E-003   0.0000000000000000     
   7.9105891500603036E-003   5.0629981451687477E-003   0.0000000000000000     
   1.1871123775921453E-002   7.9134810125138545E-003   0.0000000000000000     
   1.5835151769003263E-002   1.0976619743032779E-002   0.0000000000000000     
   0.0000000000000000        0.0000000000000000        0.0000000000000000     
   3.2831910025624116E-003   1.9993916870097031E-003   0.0000000000000000     
   6.6769366737326787E-003   4.3310170431439159E-003   0.0000000000000000     
   1.0181237013510801E-002   6.9948760684026383E-003   0.0000000000000000     
   1.3796092021896777E-002   9.9909687627858720E-003   0.0000000000000000     
   0.0000000000000000        0.0000000000000000        0.0000000000000000     
   2.8800657446668835E-003   1.7448780965885397E-003   0.0000000000000000     
   5.8726476862233298E-003   3.8647126946715210E-003   0.0000000000000000     
   8.9777458246693420E-003   6.3595037942489442E-003   0.0000000000000000     
   1.2195360160004914E-002   9.2292513953208099E-003   0.0000000000000000     
   2.1228254918860094E-002   1.3619722541872138E-002   0.0000000000000000     
   2.5433336073267730E-002   1.6612661626487280E-002   0.0000000000000000     
   2.9538166296541300E-002   1.9809876287275929E-002   0.0000000000000000     
   3.3542745588680777E-002   2.3211366524238095E-002   0.0000000000000000     
   3.7447073949686188E-002   2.6817132337373768E-002   0.0000000000000000     
   1.8312539401324369E-002   1.2186204336061535E-002   0.0000000000000000     
   2.2407180662209369E-002   1.5341695872629410E-002   0.0000000000000000     
   2.6369505573290233E-002   1.8650175979732758E-002   0.0000000000000000     
   3.0199514134566958E-002   2.2111644657371577E-002   0.0000000000000000     
   3.3897206346039550E-002   2.5726101905545872E-002   0.0000000000000000     
   1.5835151769003263E-002   1.0976619743032779E-002   0.0000000000000000     
   1.9730862715668106E-002   1.4211243068373076E-002   0.0000000000000000     
   2.3486446202278348E-002   1.7576179720182290E-002   0.0000000000000000     
   2.7101902228833991E-002   2.1071429698460421E-002   0.0000000000000000     
   3.0577230795335034E-002   2.4696993003207469E-002   0.0000000000000000     
   1.3796092021896777E-002   9.9909687627858720E-003   0.0000000000000000     
   1.7404382233643951E-002   1.3221303213718279E-002   0.0000000000000000     
   2.0888988183505649E-002   1.6587887508624530E-002   0.0000000000000000     
   2.4249909871481873E-002   2.0090721647504625E-002   0.0000000000000000     
   2.7487147297572630E-002   2.3729805630358564E-002   0.0000000000000000     
   1.2195360160004914E-002   9.2292513953208099E-003   0.0000000000000000     
   1.5427739216136899E-002   1.2371876308665021E-002   0.0000000000000000     
   1.8577131516972128E-002   1.5685299345059481E-002   0.0000000000000000     
   2.1643537062510619E-002   1.9169520504504191E-002   0.0000000000000000     
   2.4626955852752357E-002   2.2824539786999155E-002   0.0000000000000000     
   3.7447073949686188E-002   2.6817132337373768E-002   0.0000000000000000     
   4.1255540216674061E-002   3.0622391171206031E-002   0.0000000000000000     
   4.4972533226760932E-002   3.4622360470257969E-002   0.0000000000000000     
   4.8598052979946814E-002   3.8817040234529580E-002   0.0000000000000000     
   5.2132099476231708E-002   4.3206430464020867E-002   0.0000000000000000     
   3.3897206346039550E-002   2.5726101905545872E-002   0.0000000000000000     
   3.7485805005900055E-002   2.9522332251843864E-002   0.0000000000000000     
   4.0988532912340524E-002   3.3529120223853771E-002   0.0000000000000000     
   4.4405390065360956E-002   3.7746465821575599E-002   0.0000000000000000     
   4.7736376464961365E-002   4.2174369045009347E-002   0.0000000000000000     
   3.0577230795335034E-002   2.4696993003207469E-002   0.0000000000000000     
   3.3941916452950513E-002   2.8497429572053368E-002   0.0000000000000000     
   3.7225443752849481E-002   3.2517299342628044E-002   0.0000000000000000     
   4.0427812695031935E-002   3.6756602314931483E-002   0.0000000000000000     
   4.3549023279497882E-002   4.1215338488963707E-002   0.0000000000000000     
   2.7487147297572630E-002   2.3729805630358564E-002   0.0000000000000000     
   3.0623874557825441E-002   2.7547683131834550E-002   0.0000000000000000     
   3.3683265748287818E-002   3.1586897826580772E-002   0.0000000000000000     
   3.6665320868959773E-002   3.5847449714597232E-002   0.0000000000000000     
   3.9570039919841281E-002   4.0329338795883941E-002   0.0000000000000000     
   2.4626955852752357E-002   2.2824539786999155E-002   0.0000000000000000     
   2.7531679320524825E-002   2.6673092931187400E-002   0.0000000000000000     
   3.0361998898655519E-002   3.0737915675711967E-002   0.0000000000000000     
   3.3117914587144429E-002   3.5019008020572839E-002   0.0000000000000000     
   3.5799426385991553E-002   3.9516369965770050E-002   0.0000000000000000     
   5.2132099476231708E-002   4.3206430464020867E-002   0.0000000000000000     
   5.5571846308023642E-002   4.7795197901810360E-002   0.0000000000000000     
   5.8914467067730687E-002   5.2588009290976595E-002   0.0000000000000000     
   6.2159961755352815E-002   5.7584864631519600E-002   0.0000000000000000     
   6.5308330370890066E-002   6.2785763923439333E-002   0.0000000000000000     
   4.7736376464961365E-002   4.2174369045009347E-002   0.0000000000000000     
   5.0977032162210764E-002   4.6806313640449938E-002   0.0000000000000000     
   5.4122897208178242E-002   5.1635783354192298E-002   0.0000000000000000     
   5.7173971602863770E-002   5.6662778186236433E-002   0.0000000000000000     
   6.0130255346267356E-002   6.1887298136582336E-002   0.0000000000000000     
   4.3549023279497882E-002   4.1215338488963707E-002   0.0000000000000000     
   4.6584451810653876E-002   4.5880918245523587E-002   0.0000000000000000     
   4.9529474592906512E-002   5.0740751965409982E-002   0.0000000000000000     
   5.2384091626255777E-002   5.5794839648622939E-002   0.0000000000000000     
   5.5148302910701656E-002   6.1043181295162410E-002   0.0000000000000000     
   3.9570039919841281E-002   4.0329338795883941E-002   0.0000000000000000     
   4.2394105253352993E-002   4.5019011717031286E-002   0.0000000000000000     
   4.5134199221915507E-002   4.9902915124629681E-002   0.0000000000000000     
   4.7790321825528830E-002   5.4981049018679104E-002   0.0000000000000000     
   5.0362473064192954E-002   6.0253413399179584E-002   0.0000000000000000     
   3.5799426385991553E-002   3.9516369965770050E-002   0.0000000000000000     
   3.8405992490308086E-002   4.4220594054973056E-002   0.0000000000000000     
   4.0937071095205217E-002   4.9122272831851360E-002   0.0000000000000000     
   4.3392662200682948E-002   5.4221406296404949E-002   0.0000000000000000     
   4.5772765806741264E-002   5.9517994448633836E-002   0.0000000000000000     
   6.5308330370890066E-002   6.2785763923439333E-002   0.0000000000000000     
   6.8363838085755191E-002   6.8177169781749952E-002   0.0000000000000000     
   7.1330750071360999E-002   7.3745544821465572E-002   0.0000000000000000     
   7.4209066327707462E-002   7.9490889042586194E-002   0.0000000000000000     
   7.6998786854794610E-002   8.5413202445111802E-002   0.0000000000000000     
   6.0130255346267356E-002   6.1887298136582336E-002   0.0000000000000000     
   6.2997248442113907E-002   6.7300477265181957E-002   0.0000000000000000     
   6.5780450894128303E-002   7.2893449631987239E-002   0.0000000000000000     
   6.8479862702310546E-002   7.8666215236998210E-002   0.0000000000000000     
   7.1095483866660633E-002   8.4618774080214842E-002   0.0000000000000000     
   5.5148302910701656E-002   6.1043181295162410E-002   0.0000000000000000     
   5.7827753984296515E-002   6.6479309395385114E-002   0.0000000000000000     
   6.0428090385092691E-002   7.2096756439647719E-002   0.0000000000000000     
   6.2949312113090183E-002   7.7895522427950212E-002   0.0000000000000000     
   6.5391419168288986E-002   8.3875607360292606E-002   0.0000000000000000     
   5.0362473064192954E-002   6.0253413399179584E-002   0.0000000000000000     
   5.2855354712303036E-002   6.5713666172359422E-002   0.0000000000000000     
   5.5273668544254181E-002   7.1355465244446969E-002   0.0000000000000000     
   5.7617414560046390E-002   7.7178810615442212E-002   0.0000000000000000     
   5.9886592759679683E-002   8.3183702285345149E-002   0.0000000000000000     
   4.5772765806741264E-002   5.9517994448633836E-002   0.0000000000000000     
   4.8080050626133450E-002   6.5003547596104910E-002   0.0000000000000000     
   5.0317185371612755E-002   7.0669576046385019E-002   0.0000000000000000     
   5.2484170043179179E-002   7.6516079799474182E-002   0.0000000000000000     
   5.4581004640832716E-002   8.2543058855372387E-002   0.0000000000000000     
   7.6998786854794610E-002   8.5413202445111802E-002   0.0000000000000000     
   7.9690974272824136E-002   9.1504146367749506E-002   0.0000000000000000     
   8.2276691201997709E-002   9.7755382149206399E-002   0.0000000000000000     
   8.4755937642315371E-002  0.10416690978948245        0.0000000000000000     
   8.7128713593777080E-002  0.11073872928857770        0.0000000000000000     
   7.1095483866660633E-002   8.4618774080214842E-002   0.0000000000000000     
   7.3619428192147382E-002   9.0740609271184131E-002   0.0000000000000000     
   7.6043809483739538E-002   9.7021203919453111E-002   0.0000000000000000     
   7.8368627741437130E-002  0.10346055802502176        0.0000000000000000     
   8.0593882965240157E-002  0.11005867158789005        0.0000000000000000     
   6.5391419168288986E-002   8.3875607360292606E-002   0.0000000000000000     
   6.7747563047822049E-002   9.0025336485824475E-002   0.0000000000000000     
   7.0010895248822300E-002   9.6333035053695337E-002   0.0000000000000000     
   7.2181415771289711E-002  0.10279870306390518        0.0000000000000000     
   7.4259124615224298E-002  0.10942234051645404        0.0000000000000000     
   5.9886592759679683E-002   8.3183702285345149E-002   0.0000000000000000     
   6.2075378839848164E-002   8.9358328011670513E-002   0.0000000000000000     
   6.4177948497245965E-002   9.5690875551933036E-002   0.0000000000000000     
   6.6194301731873073E-002  0.10218134490613279        0.0000000000000000     
   6.8124438543729474E-002  0.10882973607426967        0.0000000000000000     
   5.4581004640832716E-002   8.2543058855372387E-002   0.0000000000000000     
   5.6602875568225741E-002   8.8739583848722242E-002   0.0000000000000000     
   5.8544969229010570E-002   9.5094725414166290E-002   0.0000000000000000     
   6.0407285623187243E-002  0.10160848355170454        0.0000000000000000     
   6.2189824750755740E-002  0.10828085826133696        0.0000000000000000     
   8.7128713593777080E-002  0.11073872928857770        0.0000000000000000     
   8.9406934642422983E-002  0.11745637636573439        0.0000000000000000     
   9.1602516374293189E-002  0.12430538674019480        0.0000000000000000     
   9.3715458789387682E-002  0.13128576041195891        0.0000000000000000     
   9.5745761887706476E-002  0.13839749738102677        0.0000000000000000     
   8.0593882965240157E-002  0.11005867158789005        0.0000000000000000     
   8.2729779360965858E-002  0.11680232603952120        0.0000000000000000     
   8.4786521134431442E-002  0.12367830281137836        0.0000000000000000     
   8.6764108285636923E-002  0.13068660190346154        0.0000000000000000     
   8.8662540814582289E-002  0.13782722331577077        0.0000000000000000     
   7.4259124615224298E-002  0.10942234051645404        0.0000000000000000     
   7.6252877157750157E-002  0.11619134526905703        0.0000000000000000     
   7.8171528775991428E-002  0.12309311517942932        0.0000000000000000     
   8.0015079469948083E-002  0.13012765024757086        0.0000000000000000     
   8.1783529239620109E-002  0.13729495047348170        0.0000000000000000     
   6.8124438543729474E-002  0.10882973607426967        0.0000000000000000     
   6.9976228032775950E-002  0.11562343405434193        0.0000000000000000     
   7.1757539298973175E-002  0.12254982384434765        0.0000000000000000     
   7.3468372342321134E-002  0.12960890544428691        0.0000000000000000     
   7.5108727162819897E-002  0.13680067885415961        0.0000000000000000     
   6.2189824750755740E-002  0.10828085826133696        0.0000000000000000     
   6.3899831986043168E-002  0.11509859239537584        0.0000000000000000     
   6.5544552703376641E-002  0.12204842880613340        0.0000000000000000     
   6.7123986902756158E-002  0.12913036749360957        0.0000000000000000     
   6.8638134584181693E-002  0.13634440845780446        0.0000000000000000     
   9.5745761887706476E-002  0.13839749738102677        0.0000000000000000     
   9.7678854085191433E-002  0.14563077870962365        0.0000000000000000     
   9.9500163797784411E-002  0.15297578545997492        0.0000000000000000     
  0.10120969102548537       0.16043251763208061        0.0000000000000000     
  0.10280743576829436       0.16800097522594065        0.0000000000000000     
   8.8662540814582289E-002  0.13782722331577077        0.0000000000000000     
   9.0470584531883821E-002  0.14508917266012689        0.0000000000000000     
   9.2177005248157792E-002  0.15246145554835092        0.0000000000000000     
   9.3781802963404187E-002  0.15994407198044278        0.0000000000000000     
   9.5284977677622992E-002  0.16753702195640252        0.0000000000000000     
   8.1783529239620109E-002  0.13729495047348170        0.0000000000000000     
   8.3467723996922594E-002  0.14458353638518004        0.0000000000000000     
   8.5058509653770625E-002  0.15198192851068404        0.0000000000000000     
   8.6555886210164190E-002  0.15949012684999372        0.0000000000000000     
   8.7959853666103302E-002  0.16710813140310915        0.0000000000000000     
   7.5108727162819897E-002  0.13680067885415961        0.0000000000000000     
   7.6670272480307708E-002  0.14411386988478306        0.0000000000000000     
   7.8144677014622882E-002  0.15153720434697432        0.0000000000000000     
   7.9531940765765405E-002  0.15907068224073345        0.0000000000000000     
   8.0832063733735277E-002  0.16671430356606048        0.0000000000000000     
   6.8638134584181693E-002  0.13634440845780446        0.0000000000000000     
   7.0078229982039192E-002  0.14368017315893589        0.0000000000000000     
   7.1435507330714576E-002  0.15112728305722170        0.0000000000000000     
   7.2709966630207817E-002  0.15868573815266190        0.0000000000000000     
   7.3901607880518930E-002  0.16635553844525658        0.0000000000000000     
   0.0000000000000000        0.0000000000000000        0.0000000000000000     
   2.8800657446668835E-003   1.7448780965885397E-003   0.0000000000000000     
   5.8726476862233298E-003   3.8647126946715210E-003   0.0000000000000000     
   8.9777458246693420E-003   6.3595037942489442E-003   0.0000000000000000     
   1.2195360160004914E-002   9.2292513953208099E-003   0.0000000000000000     
   0.0000000000000000        0.0000000000000000        0.0000000000000000     
   2.6103260662465703E-003   1.5889657561036614E-003   0.0000000000000000     
   5.2897382455156768E-003   3.5567672039764466E-003   0.0000000000000000     
   8.0382365378073185E-003   5.9034043436183561E-003   0.0000000000000000     
   1.0855820943121496E-002   8.6288771750293904E-003   0.0000000000000000     
   0.0000000000000000        0.0000000000000000        0.0000000000000000     
   2.3401259158148061E-003   1.4589900519247575E-003   0.0000000000000000     
   4.7202244095931323E-003   3.2998626752835779E-003   0.0000000000000000     
   7.1402954813349784E-003   5.5226178700764628E-003   0.0000000000000000     
   9.6003391310403464E-003   8.1272556363034109E-003   0.0000000000000000     
   0.0000000000000000        0.0000000000000000        0.0000000000000000     
   2.0694652933715908E-003   1.3549509840518285E-003   0.0000000000000000     
   4.1641061784556980E-003   3.0939991085929160E-003   0.0000000000000000     
   6.2839226552523246E-003   5.2171443736232625E-003   0.0000000000000000     
   8.4289147237614683E-003   7.7243867791428680E-003   0.0000000000000000     
   0.0000000000000000        0.0000000000000000        0.0000000000000000     
   1.7983441989169243E-003   1.2768485524848737E-003   0.0000000000000000     
   3.6213835521033753E-003   2.9391765039044589E-003   0.0000000000000000     
   5.4691180595593525E-003   4.9869838542587561E-003   0.0000000000000000     
   7.3415477212848577E-003   7.4202706035477644E-003   0.0000000000000000     
   1.2195360160004914E-002   9.2292513953208099E-003   0.0000000000000000     
   1.5427739216136899E-002   1.2371876308665021E-002   0.0000000000000000     
   1.8577131516972128E-002   1.5685299345059481E-002   0.0000000000000000     
   2.1643537062510619E-002   1.9169520504504191E-002   0.0000000000000000     
   2.4626955852752357E-002   2.2824539786999155E-002   0.0000000000000000     
   1.0855820943121496E-002   8.6288771750293904E-003   0.0000000000000000     
   1.3689149870544473E-002   1.1650920076707982E-002   0.0000000000000000     
   1.6484881729162501E-002   1.4887267427152568E-002   0.0000000000000000     
   1.9243016518975590E-002   1.8337919226363145E-002   0.0000000000000000     
   2.1963554239983737E-002   2.2002875474339711E-002   0.0000000000000000     
   9.6003391310403464E-003   8.1272556363034109E-003   0.0000000000000000     
   1.2076830404264192E-002   1.1046392241341850E-002   0.0000000000000000     
   1.4546244346561472E-002   1.4212643952569218E-002   0.0000000000000000     
   1.7008580957932187E-002   1.7626010769985507E-002   0.0000000000000000     
   1.9463840238376332E-002   2.1286492693590724E-002   0.0000000000000000     
   8.4289147237614683E-003   7.7243867791428680E-003   0.0000000000000000     
   1.0590780817296062E-002   1.0558292802566626E-002   0.0000000000000000     
   1.2761219369169035E-002   1.3661428921309433E-002   0.0000000000000000     
   1.4940230379380392E-002   1.7033795135371288E-002   0.0000000000000000     
   1.7127813847930135E-002   2.0675391444752188E-002   0.0000000000000000     
   7.3415477212848577E-003   7.4202706035477644E-003   0.0000000000000000     
   9.2310011096400774E-003   1.0186621760382309E-002   0.0000000000000000     
   1.1129806796985196E-002   1.3233622333373213E-002   0.0000000000000000     
   1.3037964783320219E-002   1.6561272322520477E-002   0.0000000000000000     
   1.4955475068645141E-002   2.0169571727824104E-002   0.0000000000000000     
   2.4626955852752357E-002   2.2824539786999155E-002   0.0000000000000000     
   2.7531679320524825E-002   2.6673092931187400E-002   0.0000000000000000     
   3.0361998898655519E-002   3.0737915675711967E-002   0.0000000000000000     
   3.3117914587144429E-002   3.5019008020572839E-002   0.0000000000000000     
   3.5799426385991553E-002   3.9516369965770050E-002   0.0000000000000000     
   2.1963554239983737E-002   2.2002875474339711E-002   0.0000000000000000     
   2.4630060826420556E-002   2.5880135593642200E-002   0.0000000000000000     
   2.7226102212519660E-002   2.9967699006830533E-002   0.0000000000000000     
   2.9751678398281040E-002   3.4265565713904718E-002   0.0000000000000000     
   3.2206789383704706E-002   3.8773735714864734E-002   0.0000000000000000     
   1.9463840238376332E-002   2.1286492693590724E-002   0.0000000000000000     
   2.1883749160884508E-002   2.5175287742729237E-002   0.0000000000000000     
   2.4240034698447301E-002   2.9273593936745401E-002   0.0000000000000000     
   2.6532696851064710E-002   3.3581411275639218E-002   0.0000000000000000     
   2.8761735618736732E-002   3.8098739759410714E-002   0.0000000000000000     
   1.7127813847930135E-002   2.0675391444752188E-002   0.0000000000000000     
   1.9292744323916675E-002   2.4558549378448494E-002   0.0000000000000000     
   2.1403796356438447E-002   2.8655600465456562E-002   0.0000000000000000     
   2.3460969945495437E-002   3.2966544705776382E-002   0.0000000000000000     
   2.5464265091087658E-002   3.7491382099407958E-002   0.0000000000000000     
   1.4955475068645141E-002   2.0169571727824104E-002   0.0000000000000000     
   1.6857046315517064E-002   2.4029920500799978E-002   0.0000000000000000     
   1.8717387186493090E-002   2.8113718592964007E-002   0.0000000000000000     
   2.0536497681573222E-002   3.2420966004316182E-002   0.0000000000000000     
   2.2314377800757457E-002   3.6951662734856498E-002   0.0000000000000000     
   3.5799426385991553E-002   3.9516369965770050E-002   0.0000000000000000     
   3.8405992490308086E-002   4.4220594054973056E-002   0.0000000000000000     
   4.0937071095205217E-002   4.9122272831851360E-002   0.0000000000000000     
   4.3392662200682948E-002   5.4221406296404949E-002   0.0000000000000000     
   4.5772765806741264E-002   5.9517994448633836E-002   0.0000000000000000     
   3.2206789383704706E-002   3.8773735714864734E-002   0.0000000000000000     
   3.4593374903578770E-002   4.3487881334015745E-002   0.0000000000000000     
   3.6913374692691368E-002   4.8403674895662864E-002   0.0000000000000000     
   3.9166788751042500E-002   5.3521116399806105E-002   0.0000000000000000     
   4.1353617078632152E-002   5.8840205846445462E-002   0.0000000000000000     
   2.8761735618736732E-002   3.8098739759410714E-002   0.0000000000000000     
   3.0929513875224638E-002   4.2823089628826201E-002   0.0000000000000000     
   3.3038394494289684E-002   4.7751971124652022E-002   0.0000000000000000     
   3.5088377475931853E-002   5.2885384246888198E-002   0.0000000000000000     
   3.7079462820151156E-002   5.8223328995534715E-002   0.0000000000000000     
   2.5464265091087658E-002   3.7491382099407958E-002   0.0000000000000000     
   2.7414409405245692E-002   4.2226218939404418E-002   0.0000000000000000     
   2.9312130500000141E-002   4.7167161518818834E-002   0.0000000000000000     
   3.1157428375351015E-002   5.2314209837651240E-002   0.0000000000000000     
   3.2950303031298304E-002   5.7667363895901609E-002   0.0000000000000000     
   2.2314377800757457E-002   3.6951662734856498E-002   0.0000000000000000     
   2.4048061493641925E-002   4.1697269265750396E-002   0.0000000000000000     
   2.5734582709822765E-002   4.6649246078163301E-002   0.0000000000000000     
   2.7373941449299985E-002   5.1807593172095212E-002   0.0000000000000000     
   2.8966137712073573E-002   5.7172310547546137E-002   0.0000000000000000     
   4.5772765806741264E-002   5.9517994448633836E-002   0.0000000000000000     
   4.8080050626133450E-002   6.5003547596104910E-002   0.0000000000000000     
   5.0317185371612755E-002   7.0669576046385019E-002   0.0000000000000000     
   5.2484170043179179E-002   7.6516079799474182E-002   0.0000000000000000     
   5.4581004640832716E-002   8.2543058855372387E-002   0.0000000000000000     
   4.1353617078632152E-002   5.8840205846445462E-002   0.0000000000000000     
   4.3474421915503582E-002   6.4349716325269576E-002   0.0000000000000000     
   4.5529765501700042E-002   7.0038420925967085E-002   0.0000000000000000     
   4.7519647837221533E-002   7.5906319648537987E-002   0.0000000000000000     
   4.9444068922068055E-002   8.1953412492982269E-002   0.0000000000000000     
   3.7079462820151156E-002   5.8223328995534715E-002   0.0000000000000000     
   3.9011048770129217E-002   6.3752935018501475E-002   0.0000000000000000     
   4.0882533569047662E-002   6.9461331963698400E-002   0.0000000000000000     
   4.2693917216906470E-002   7.5348519831125463E-002   0.0000000000000000     
   4.4445199713705669E-002   8.1414498620782663E-002   0.0000000000000000     
   3.2950303031298304E-002   5.7667363895901609E-002   0.0000000000000000     
   3.4689931190010376E-002   6.3213203675800619E-002   0.0000000000000000     
   3.6375489573655606E-002   6.8938309159578964E-002   0.0000000000000000     
   3.8006978182233996E-002   7.4842680347236609E-002   0.0000000000000000     
   3.9584397015745551E-002   8.0926317238773554E-002   0.0000000000000000     
   2.8966137712073573E-002   5.7172310547546137E-002   0.0000000000000000     
   3.0511069175147038E-002   6.2730522297167010E-002   0.0000000000000000     
   3.2008633515523889E-002   6.8469352513608764E-002   0.0000000000000000     
   3.3458830733204110E-002   7.4388801196871412E-002   0.0000000000000000     
   3.4861660828187715E-002   8.0488868346954942E-002   0.0000000000000000     
   5.4581004640832716E-002   8.2543058855372387E-002   0.0000000000000000     
   5.6602875568225741E-002   8.8739583848722242E-002   0.0000000000000000     
   5.8544969229010570E-002   9.5094725414166290E-002   0.0000000000000000     
   6.0407285623187243E-002  0.10160848355170454        0.0000000000000000     
   6.2189824750755740E-002  0.10828085826133696        0.0000000000000000     
   4.9444068922068055E-002   8.1953412492982269E-002   0.0000000000000000     
   5.1299041791042284E-002   8.8169849908097273E-002   0.0000000000000000     
   5.3080579478946920E-002   9.4545782342680212E-002   0.0000000000000000     
   5.4788681985781934E-002  0.10108120979673117        0.0000000000000000     
   5.6423349311547369E-002  0.10777613227025008        0.0000000000000000     
   4.4445199713705669E-002   8.1414498620782663E-002   0.0000000000000000     
   4.6132866066385392E-002   8.7649872100913157E-002   0.0000000000000000     
   4.7753401281885779E-002   9.4045244039760084E-002   0.0000000000000000     
   4.9306805360206880E-002  0.10060061443732339        0.0000000000000000     
   5.0793078301348653E-002  0.10731598329360315        0.0000000000000000     
   3.9584397015745551E-002   8.0926317238773554E-002   0.0000000000000000     
   4.1104348394255030E-002   8.7179650427169922E-002   0.0000000000000000     
   4.2563434637827198E-002   9.3593110505405835E-002   0.0000000000000000     
   4.3961655746462054E-002  0.10016669747348125        0.0000000000000000     
   4.5299011720159613E-002  0.10690041133139620        0.0000000000000000     
   3.4861660828187715E-002   8.0488868346954942E-002   0.0000000000000000     
   3.6213488774651220E-002   8.6759184886867569E-002   0.0000000000000000     
   3.7510679546771140E-002   9.3189381739617480E-002   0.0000000000000000     
   3.8753233144547476E-002   9.9779458905204704E-002   0.0000000000000000     
   3.9941149567980234E-002  0.10652941638362923        0.0000000000000000     
   6.2189824750755740E-002  0.10828085826133696        0.0000000000000000     
   6.3899831986043168E-002  0.11509859239537584        0.0000000000000000     
   6.5544552703376641E-002  0.12204842880613340        0.0000000000000000     
   6.7123986902756158E-002  0.12913036749360957        0.0000000000000000     
   6.8638134584181693E-002  0.13634440845780446        0.0000000000000000     
   5.6423349311547369E-002  0.10777613227025008        0.0000000000000000     
   5.7991324278014837E-002  0.11461654070598679        0.0000000000000000     
   5.9499349706955994E-002  0.12158842604669118        0.0000000000000000     
   6.0947425598370852E-002  0.12869178829236319        0.0000000000000000     
   6.2335551952259413E-002  0.13592662744300285        0.0000000000000000     
   5.0793078301348653E-002  0.10731598329360315        0.0000000000000000     
   5.2218340169153880E-002  0.11417699940000275        0.0000000000000000     
   5.3588711027465347E-002  0.12116931154792566        0.0000000000000000     
   5.4904190876283038E-002  0.12829291973737181        0.0000000000000000     
   5.6164779715606974E-002  0.13554782396834131        0.0000000000000000     
   4.5299011720159613E-002  0.10690041133139620        0.0000000000000000     
   4.6580879659460332E-002  0.11377996847742372        0.0000000000000000     
   4.7812636664904692E-002  0.12079108530983680        0.0000000000000000     
   4.8994282736492714E-002  0.12793376182863550        0.0000000000000000     
   5.0125817874224370E-002  0.13520799803381980        0.0000000000000000     
   3.9941149567980234E-002  0.10652941638362923        0.0000000000000000     
   4.1078942748934179E-002  0.11342544793824968        0.0000000000000000     
   4.2171126619274045E-002  0.12045374733242468        0.0000000000000000     
   4.3217701178999868E-002  0.12761431456615424        0.0000000000000000     
   4.4218666428111612E-002  0.13490714963943837        0.0000000000000000     
   6.8638134584181693E-002  0.13634440845780446        0.0000000000000000     
   7.0078229982039192E-002  0.14368017315893589        0.0000000000000000     
   7.1435507330714576E-002  0.15112728305722170        0.0000000000000000     
   7.2709966630207817E-002  0.15868573815266190        0.0000000000000000     
   7.3901607880518930E-002  0.16635553844525658        0.0000000000000000     
   6.2335551952259413E-002  0.13592662744300285        0.0000000000000000     
   6.3654294386613450E-002  0.14328355741106838        0.0000000000000000     
   6.4894218519424771E-002  0.15075319210901808        0.0000000000000000     
   6.6055324350693390E-002  0.15833553153685195        0.0000000000000000     
   6.7137611880419279E-002  0.16603057569456997        0.0000000000000000     
   5.6164779715606974E-002  0.13554782396834131        0.0000000000000000     
   5.7361163578526900E-002  0.14292513384461039        0.0000000000000000     
   5.8484028498132605E-002  0.15041595896995538        0.0000000000000000     
   5.9533374474424097E-002  0.15802029934437634        0.0000000000000000     
   6.0509201507401349E-002  0.16573815496787328        0.0000000000000000     
   5.0125817874224370E-002  0.13520799803381980        0.0000000000000000     
   5.1198837557779535E-002  0.14260490245956178        0.0000000000000000     
   5.2204937266838038E-002  0.15011558364003355        0.0000000000000000     
   5.3144117001399920E-002  0.15774004157523513        0.0000000000000000     
   5.4016376761465160E-002  0.16547827626516645        0.0000000000000000     
   4.4218666428111612E-002  0.13490714963943837        0.0000000000000000     
   4.5167316324371348E-002  0.14232286325592261        0.0000000000000000     
   4.6056944825541096E-002  0.14985206611925256        0.0000000000000000     
   4.6887551931620884E-002  0.15749475822942821        0.0000000000000000     
   4.7659137642610691E-002  0.16525093958644954        0.0000000000000000     
   0.0000000000000000        0.0000000000000000        0.0000000000000000     
   1.7983441989169243E-003   1.2768485524848737E-003   0.0000000000000000     
   3.6213835521033753E-003   2.9391765039044589E-003   0.0000000000000000     
   5.4691180595593525E-003   4.9869838542587561E-003   0.0000000000000000     
   7.3415477212848577E-003   7.4202706035477644E-003   0.0000000000000000     
   0.0000000000000000        0.0000000000000000        0.0000000000000000     
   1.5350393922331437E-003   1.2175676710469204E-003   0.0000000000000000     
   3.0994131885139354E-003   2.8208817998123226E-003   0.0000000000000000     
   4.6931213888423747E-003   4.8099423862962070E-003   0.0000000000000000     
   6.3161639932184611E-003   7.1847494304985724E-003   0.0000000000000000     
   0.0000000000000000        0.0000000000000000        0.0000000000000000     
   1.2878276331025865E-003   1.1699932535609941E-003   0.0000000000000000     
   2.6055517456651531E-003   2.7246019349106204E-003   0.0000000000000000     
   3.9531723376876986E-003   4.6638260440488776E-003   0.0000000000000000     
   5.3306894091702224E-003   6.9876655809757680E-003   0.0000000000000000     
   0.0000000000000000        0.0000000000000000        0.0000000000000000     
   1.0567089215252530E-003   1.1341253000270951E-003   0.0000000000000000     
   2.1397992235570274E-003   2.6503369091993518E-003   0.0000000000000000     
   3.2492709060953236E-003   4.5486348275167697E-003   0.0000000000000000     
   4.3851239691401417E-003   6.8290190549793479E-003   0.0000000000000000     
   0.0000000000000000        0.0000000000000000        0.0000000000000000     
   8.4168325750114223E-004   1.1099638104452242E-003   0.0000000000000000     
   1.7021556221895593E-003   2.5980867226785180E-003   0.0000000000000000     
   2.5814170940652520E-003   4.4643687366998815E-003   0.0000000000000000     
   3.4794676731282189E-003   6.7088098525093145E-003   0.0000000000000000     
   7.3415477212848577E-003   7.4202706035477644E-003   0.0000000000000000     
   9.2310011096400774E-003   1.0186621760382309E-002   0.0000000000000000     
   1.1129806796985196E-002   1.3233622333373213E-002   0.0000000000000000     
   1.3037964783320219E-002   1.6561272322520477E-002   0.0000000000000000     
   1.4955475068645141E-002   2.0169571727824104E-002   0.0000000000000000     
   6.3161639932184611E-003   7.1847494304985724E-003   0.0000000000000000     
   7.9558328334931178E-003   9.8957447780775535E-003   0.0000000000000000     
   9.5994197415172639E-003   1.2893370274691281E-002   0.0000000000000000     
   1.1246924717290899E-002   1.6177625920339757E-002   0.0000000000000000     
   1.2898347760814027E-002   1.9748511715022975E-002   0.0000000000000000     
   5.3306894091702224E-003   6.9876655809757680E-003   0.0000000000000000     
   6.7236175410520611E-003   9.6500275189410189E-003   0.0000000000000000     
   8.1174713142725483E-003   1.2604818831194362E-002   0.0000000000000000     
   9.5122507288316806E-003   1.5852039517735797E-002   0.0000000000000000     
   1.0907955784729464E-002   1.9391689578565321E-002   0.0000000000000000     
   4.3851239691401417E-003   6.8290190549793479E-003   0.0000000000000000     
   5.5343552323169074E-003   9.4494699829727035E-003   0.0000000000000000     
   6.6839615152510471E-003   1.2367968002882451E-002   0.0000000000000000     
   7.8339428179425609E-003   1.5584513114708596E-002   0.0000000000000000     
   8.9842991403914496E-003   1.9099105318451132E-002   0.0000000000000000     
   3.4794676731282189E-003   6.7088098525093145E-003   0.0000000000000000     
   4.3880459072876575E-003   9.2940721701726091E-003   0.0000000000000000     
   5.2988903444527655E-003   1.2182817789755556E-002   0.0000000000000000     
   6.2120009846235412E-003   1.5375046711258158E-002   0.0000000000000000     
   7.1273778277999855E-003   1.8870758934680414E-002   0.0000000000000000     
   1.4955475068645141E-002   2.0169571727824104E-002   0.0000000000000000     
   1.6857046315517064E-002   2.4029920500799978E-002   0.0000000000000000     
   1.8717387186493090E-002   2.8113718592964007E-002   0.0000000000000000     
   2.0536497681573222E-002   3.2420966004316182E-002   0.0000000000000000     
   2.2314377800757457E-002   3.6951662734856498E-002   0.0000000000000000     
   1.2898347760814027E-002   1.9748511715022975E-002   0.0000000000000000     
   1.4537352708810167E-002   2.3579874319088135E-002   0.0000000000000000     
   1.6147603398002846E-002   2.7645560392882414E-002   0.0000000000000000     
   1.7729099828392065E-002   3.1945569936405814E-002   0.0000000000000000     
   1.9281841999977824E-002   3.6479902949658340E-002   0.0000000000000000     
   1.0907955784729464E-002   1.9391689578565321E-002   0.0000000000000000     
   1.2294361076920477E-002   2.3198884042617385E-002   0.0000000000000000     
   1.3661241200359314E-002   2.7248737938826435E-002   0.0000000000000000     
   1.5008596155045968E-002   3.1541251267192476E-002   0.0000000000000000     
   1.6336425940980445E-002   3.6076424027715506E-002   0.0000000000000000     
   8.9842991403914496E-003   1.9099105318451132E-002   0.0000000000000000     
   1.0128071419847997E-002   2.2886949671387737E-002   0.0000000000000000     
   1.1258300593562491E-002   2.6923251230796079E-002   0.0000000000000000     
   1.2374986661534932E-002   3.1208009996676167E-002   0.0000000000000000     
   1.3478129623765321E-002   3.5741225969027998E-002   0.0000000000000000     
   7.1273778277999855E-003   1.8870758934680414E-002   0.0000000000000000     
   8.0384837375927221E-003   2.2644071205399185E-002   0.0000000000000000     
   8.9387815776123796E-003   2.6669100268791348E-002   0.0000000000000000     
   9.8282713478589547E-003   3.0945846124856888E-002   0.0000000000000000     
   1.0706953048332447E-002   3.5474308773595822E-002   0.0000000000000000     
   2.2314377800757457E-002   3.6951662734856498E-002   0.0000000000000000     
   2.4048061493641925E-002   4.1697269265750396E-002   0.0000000000000000     
   2.5734582709822765E-002   4.6649246078163301E-002   0.0000000000000000     
   2.7373941449299985E-002   5.1807593172095212E-002   0.0000000000000000     
   2.8966137712073573E-002   5.7172310547546137E-002   0.0000000000000000     
   1.9281841999977824E-002   3.6479902949658340E-002   0.0000000000000000     
   2.0799138694953312E-002   4.1234592112221448E-002   0.0000000000000000     
   2.2274298695511729E-002   4.6195670103676589E-002   0.0000000000000000     
   2.3707322001653076E-002   5.1363136924023771E-002   0.0000000000000000     
   2.5098208613377353E-002   5.6736992573262993E-002   0.0000000000000000     
   1.6336425940980445E-002   3.6076424027715506E-002   0.0000000000000000     
   1.7636309563719831E-002   4.0836538983174853E-002   0.0000000000000000     
   1.8899826028821218E-002   4.5803878896349862E-002   0.0000000000000000     
   2.0126975336284610E-002   5.0978443767240519E-002   0.0000000000000000     
   2.1317757486110003E-002   5.6360233595846854E-002   0.0000000000000000     
   1.3478129623765321E-002   3.5741225969027998E-002   0.0000000000000000     
   1.4559574099941481E-002   4.0503109878610638E-002   0.0000000000000000     
   1.5611164709751232E-002   4.5473872456183131E-002   0.0000000000000000     
   1.6632901453194581E-002   5.0653513701745499E-002   0.0000000000000000     
   1.7624784330271526E-002   5.6042033615297714E-002   0.0000000000000000     
   1.0706953048332447E-002   3.5474308773595822E-002   0.0000000000000000     
   1.1568932303618256E-002   4.0234304798528783E-002   0.0000000000000000     
   1.2408314738301772E-002   4.5205650783176385E-002   0.0000000000000000     
   1.3225100352382998E-002   5.0388346727538662E-002   0.0000000000000000     
   1.4019289145861931E-002   5.5782392631615593E-002   0.0000000000000000     
   2.8966137712073573E-002   5.7172310547546137E-002   0.0000000000000000     
   3.0511069175147038E-002   6.2730522297167010E-002   0.0000000000000000     
   3.2008633515523889E-002   6.8469352513608764E-002   0.0000000000000000     
   3.3458830733204110E-002   7.4388801196871412E-002   0.0000000000000000     
   3.4861660828187715E-002   8.0488868346954942E-002   0.0000000000000000     
   2.5098208613377353E-002   5.6736992573262993E-002   0.0000000000000000     
   2.6447741566624831E-002   6.2305140449658784E-002   0.0000000000000000     
   2.7756703897335790E-002   6.8055483951475676E-002   0.0000000000000000     
   2.9025095605510226E-002   7.3988023078713688E-002   0.0000000000000000     
   3.0252916691148150E-002   8.0102757831372801E-002   0.0000000000000000     
   2.1317757486110003E-002   5.6360233595846854E-002   0.0000000000000000     
   2.2473227205529352E-002   6.1937307700334093E-002   0.0000000000000000     
   2.3594439221774607E-002   6.7697725398867550E-002   0.0000000000000000     
   2.4681393534845771E-002   7.3641486691447211E-002   0.0000000000000000     
   2.5734090144742851E-002   7.9768591578073075E-002   0.0000000000000000     
   1.7624784330271526E-002   5.6042033615297714E-002   0.0000000000000000     
   1.8587526091860606E-002   6.1627024049192958E-002   0.0000000000000000     
   1.9521839488840346E-002   6.7396076855784387E-002   0.0000000000000000     
   2.0427724521210760E-002   7.3349192035071981E-002   0.0000000000000000     
   2.1305181188971824E-002   7.9486369587055739E-002   0.0000000000000000     
   1.4019289145861931E-002   5.5782392631615593E-002   0.0000000000000000     
   1.4790638225618590E-002   6.1374289496235371E-002   0.0000000000000000     
   1.5538904698533001E-002   6.7150538322226158E-002   0.0000000000000000     
   1.6264088564605161E-002   7.3111139109587997E-002   0.0000000000000000     
   1.6966189823835069E-002   7.9256091858320860E-002   0.0000000000000000     
   3.4861660828187715E-002   8.0488868346954942E-002   0.0000000000000000     
   3.6213488774651220E-002   8.6759184886867569E-002   0.0000000000000000     
   3.7510679546771140E-002   9.3189381739617480E-002   0.0000000000000000     
   3.8753233144547476E-002   9.9779458905204704E-002   0.0000000000000000     
   3.9941149567980234E-002  0.10652941638362923        0.0000000000000000     
   3.0252916691148150E-002   8.0102757831372801E-002   0.0000000000000000     
   3.1436291203346983E-002   8.6388380739958248E-002   0.0000000000000000     
   3.2571343191204180E-002   9.2833584334975322E-002   0.0000000000000000     
   3.3658072654719734E-002   9.9438368616423953E-002   0.0000000000000000     
   3.4696479593893638E-002  0.10620273358430418        0.0000000000000000     
   2.5734090144742851E-002   7.9768591578073075E-002   0.0000000000000000     
   2.6748759676115383E-002   8.6067143246394168E-002   0.0000000000000000     
   2.7721632753612904E-002   9.2525244884059513E-002   0.0000000000000000     
   2.8652709377235425E-002   9.9142896491069152E-002   0.0000000000000000     
   2.9541989546982939E-002  0.10592009806742304        0.0000000000000000     
   2.1305181188971824E-002   7.9486369587055739E-002   0.0000000000000000     
   2.2150894192956398E-002   8.5795472406175272E-002   0.0000000000000000     
   2.2961548233997309E-002   9.2264363386870121E-002   0.0000000000000000     
   2.3737143312094554E-002   9.8893042529140288E-002   0.0000000000000000     
   2.4477679427248135E-002  0.10568150983298576        0.0000000000000000     
   1.6966189823835069E-002   7.9256091858320860E-002   0.0000000000000000     
   1.7642694753870040E-002   8.5573368219301615E-002   0.0000000000000000     
   1.8291089632357392E-002   9.2050939843407106E-002   0.0000000000000000     
   1.8911374459297116E-002   9.8688806730637360E-002   0.0000000000000000     
   1.9503549234689221E-002  0.10548696888099238        0.0000000000000000     
   3.9941149567980234E-002  0.10652941638362923        0.0000000000000000     
   4.1078942748934179E-002  0.11342544793824968        0.0000000000000000     
   4.2171126619274045E-002  0.12045374733242468        0.0000000000000000     
   4.3217701178999868E-002  0.12761431456615424        0.0000000000000000     
   4.4218666428111612E-002  0.13490714963943837        0.0000000000000000     
   3.4696479593893638E-002  0.10620273358430418        0.0000000000000000     
   3.5690247802367063E-002  0.11311342049414672        0.0000000000000000     
   3.6643061073781152E-002  0.12015717060148226        0.0000000000000000     
   3.7554919408135920E-002  0.12733398390631082        0.0000000000000000     
   3.8425822805431352E-002  0.13464386040863238        0.0000000000000000     
   2.9541989546982939E-002  0.10592009806742304        0.0000000000000000     
   3.0392513184550659E-002  0.11284386885678092        0.0000000000000000     
   3.1207320211633780E-002  0.11990122810280258        0.0000000000000000     
   3.1986410628232299E-002  0.12709217580548798        0.0000000000000000     
   3.2729784434346237E-002  0.13441671196483718        0.0000000000000000     
   2.4477679427248135E-002  0.10568150983298576        0.0000000000000000     
   2.5185738895484956E-002  0.11261679302615231        0.0000000000000000     
   2.5863904032831918E-002  0.11968591983638566        0.0000000000000000     
   2.6512174839289023E-002  0.12688889026368580        0.0000000000000000     
   2.7130551314856276E-002  0.13422570430805275        0.0000000000000000     
   1.9503549234689221E-002  0.10548696888099238        0.0000000000000000     
   2.0069924935169955E-002  0.11243219300226083        0.0000000000000000     
   2.0612812537375572E-002  0.11951124580223145        0.0000000000000000     
   2.1132212041306078E-002  0.12672412728090421        0.0000000000000000     
   2.1628123446961460E-002  0.13407083743827911        0.0000000000000000     
   4.4218666428111612E-002  0.13490714963943837        0.0000000000000000     
   4.5167316324371348E-002  0.14232286325592261        0.0000000000000000     
   4.6056944825541096E-002  0.14985206611925256        0.0000000000000000     
   4.6887551931620884E-002  0.15749475822942821        0.0000000000000000     
   4.7659137642610691E-002  0.16525093958644954        0.0000000000000000     
   3.8425822805431352E-002  0.13464386040863238        0.0000000000000000     
   3.9250815909834771E-002  0.14207682135795621        0.0000000000000000     
   4.0024943365513495E-002  0.14962288800379159        0.0000000000000000     
   4.0748205172467515E-002  0.15728206034613854        0.0000000000000000     
   4.1420601330696846E-002  0.16505433838499700        0.0000000000000000     
   3.2729784434346237E-002  0.13441671196483718        0.0000000000000000     
   3.3433552345702229E-002  0.14186458188992582        0.0000000000000000     
   3.4093825078026940E-002  0.14942553088982982        0.0000000000000000     
   3.4710602631320364E-002  0.15709955896454900        0.0000000000000000     
   3.5283885005582521E-002  0.16488666611408345        0.0000000000000000     
   2.7130551314856276E-002  0.13422570430805275        0.0000000000000000     
   2.7715525631973735E-002  0.14168614485183154        0.0000000000000000     
   2.8263589963081454E-002  0.14925999477736712        0.0000000000000000     
   2.8774744308179449E-002  0.15694725408465959        0.0000000000000000     
   2.9248988667267703E-002  0.16474792277370884        0.0000000000000000     
   2.1628123446961460E-002  0.13407083743827911        0.0000000000000000     
   2.2096735768649265E-002  0.14154151024367323        0.0000000000000000     
   2.2534238020677024E-002  0.14912627966640360        0.0000000000000000     
   2.2940630203044737E-002  0.15682514570647027        0.0000000000000000     
   2.3315912315752405E-002  0.16463810836387316        0.0000000000000000     
   0.0000000000000000        0.0000000000000000        0.0000000000000000     
   8.4168325750114223E-004   1.1099638104452242E-003   0.0000000000000000     
   1.7021556221895593E-003   2.5980867226785180E-003   0.0000000000000000     
   2.5814170940652520E-003   4.4643687366998815E-003   0.0000000000000000     
   3.4794676731282189E-003   6.7088098525093145E-003   0.0000000000000000     
   0.0000000000000000        0.0000000000000000        0.0000000000000000     
   6.3384369872170076E-004   1.0939440850400942E-003   0.0000000000000000     
   1.2780790400548651E-003   2.5619993016185957E-003   0.0000000000000000     
   1.9327060239994940E-003   4.4041656497355048E-003   0.0000000000000000     
   2.5977246505555860E-003   6.6204431293908229E-003   0.0000000000000000     
   0.0000000000000000        0.0000000000000000        0.0000000000000000     
   4.2428330287837404E-004   1.0825014240364184E-003   0.0000000000000000     
   8.5302757564506137E-004   2.5362225722900624E-003   0.0000000000000000     
   1.2862328183000623E-003   4.3611634447609316E-003   0.0000000000000000     
   1.7238990308433761E-003   6.5573240414490246E-003   0.0000000000000000     
   0.0000000000000000        0.0000000000000000        0.0000000000000000     
   2.1300206997116228E-004   1.0756358274341977E-003   0.0000000000000000     
   4.2700122896014787E-004   2.5207565346929178E-003   0.0000000000000000     
   6.4199747696695665E-004   4.3353621217761592E-003   0.0000000000000000     
   8.5799081399158897E-004   6.5194525886839239E-003   0.0000000000000000     
   0.0000000000000000        0.0000000000000000        0.0000000000000000     
   6.5404496055188055E-017   1.0733472952334313E-003   0.0000000000000000     
   1.2462903972720873E-016   2.5156011888271615E-003   0.0000000000000000     
   1.7753810574450135E-016   4.3267616807811903E-003   0.0000000000000000     
   2.2426721937862659E-016   6.5068287710955183E-003   0.0000000000000000     
   3.4794676731282189E-003   6.7088098525093145E-003   0.0000000000000000     
   4.3880459072876575E-003   9.2940721701726091E-003   0.0000000000000000     
   5.2988903444527655E-003   1.2182817789755556E-002   0.0000000000000000     
   6.2120009846235412E-003   1.5375046711258158E-002   0.0000000000000000     
   7.1273778277999855E-003   1.8870758934680414E-002   0.0000000000000000     
   2.5977246505555860E-003   6.6204431293908229E-003   0.0000000000000000     
   3.2701684131999720E-003   9.1778564628586176E-003   0.0000000000000000     
   3.9470708054094817E-003   1.2043430372412961E-002   0.0000000000000000     
   4.6284318271841143E-003   1.5217164858053855E-002   0.0000000000000000     
   5.3142514785238714E-003   1.8699059919781300E-002   0.0000000000000000     
   1.7238990308433761E-003   6.5573240414490246E-003   0.0000000000000000     
   2.1662015972895121E-003   9.0948452433486111E-003   0.0000000000000000     
   2.6133159016529786E-003   1.1943867931453958E-002   0.0000000000000000     
   3.0652419439337756E-003   1.5104392105765063E-002   0.0000000000000000     
   3.5219797241319035E-003   1.8576417766281925E-002   0.0000000000000000     
   8.5799081399158897E-004   6.5194525886839239E-003   0.0000000000000000     
   1.0761454595562773E-003   9.0450385116425912E-003   0.0000000000000000     
   1.2976256331832560E-003   1.1884130466878541E-002   0.0000000000000000     
   1.5224313348725245E-003   1.5036728454391780E-002   0.0000000000000000     
   1.7505625646240832E-003   1.8502832474182294E-002   0.0000000000000000     
   2.2426721937862659E-016   6.5068287710955183E-003   0.0000000000000000     
   2.6863819328759586E-016   9.0284362677405579E-003   0.0000000000000000     
   3.1443218254795235E-016   1.1864217978686717E-002   0.0000000000000000     
   3.6120534189533482E-016   1.5014173903933998E-002   0.0000000000000000     
   4.0939474033052647E-016   1.8478304043482406E-002   0.0000000000000000     
   7.1273778277999855E-003   1.8870758934680414E-002   0.0000000000000000     
   8.0384837375927221E-003   2.2644071205399185E-002   0.0000000000000000     
   8.9387815776123796E-003   2.6669100268791348E-002   0.0000000000000000     
   9.8282713478589547E-003   3.0945846124856888E-002   0.0000000000000000     
   1.0706953048332447E-002   3.5474308773595822E-002   0.0000000000000000     
   5.3142514785238714E-003   1.8699059919781300E-002   0.0000000000000000     
   5.9976509828582065E-003   2.2461764506202186E-002   0.0000000000000000     
   6.6717515636165745E-003   2.6477927565923414E-002   0.0000000000000000     
   7.3365532207989755E-003   3.0747549098944969E-002   0.0000000000000000     
   7.9920559544054103E-003   3.5270629105266876E-002   0.0000000000000000     
   3.5219797241319035E-003   1.8576417766281925E-002   0.0000000000000000     
   3.9776261083479909E-003   2.2331545435347180E-002   0.0000000000000000     
   4.4262779626826664E-003   2.6341375635303449E-002   0.0000000000000000     
   4.8679352871359299E-003   3.0605908366150739E-002   0.0000000000000000     
   5.3025980817077841E-003   3.5125143627889051E-002   0.0000000000000000     
   1.7505625646240832E-003   1.8502832474182294E-002   0.0000000000000000     
   1.9784091140620783E-003   2.2253413992834165E-002   0.0000000000000000     
   2.2023607748106579E-003   2.6259444476931473E-002   0.0000000000000000     
   2.4224175468698208E-003   3.0520923926474205E-002   0.0000000000000000     
   2.6385794302395686E-003   3.5037852341462360E-002   0.0000000000000000     
   4.0939474033052647E-016   1.8478304043482406E-002   0.0000000000000000     
   4.6821270818786509E-016   2.2227370178663153E-002   0.0000000000000000     
   5.4752209710517974E-016   2.6232134090807470E-002   0.0000000000000000     
   6.4623870490998492E-016   3.0492595779915348E-002   0.0000000000000000     
   7.6588041464376033E-016   3.5008755245986789E-002   0.0000000000000000     
   1.0706953048332447E-002   3.5474308773595822E-002   0.0000000000000000     
   1.1568932303618256E-002   4.0234304798528783E-002   0.0000000000000000     
   1.2408314738301772E-002   4.5205650783176385E-002   0.0000000000000000     
   1.3225100352382998E-002   5.0388346727538662E-002   0.0000000000000000     
   1.4019289145861931E-002   5.5782392631615593E-002   0.0000000000000000     
   7.9920559544054103E-003   3.5270629105266876E-002   0.0000000000000000     
   8.6351778126954257E-003   4.0027373364168187E-002   0.0000000000000000     
   9.2628368439285694E-003   4.4997987654927990E-002   0.0000000000000000     
   9.8750330481048414E-003   5.0182471977546279E-002   0.0000000000000000     
   1.0471766425224240E-002   5.5580826332023076E-002   0.0000000000000000     
   5.3025980817077841E-003   3.5125143627889051E-002   0.0000000000000000     
   5.7291042651182516E-003   3.9879565196767768E-002   0.0000000000000000     
   6.1462917560873584E-003   4.4849656849036280E-002   0.0000000000000000     
   6.5541605546151072E-003   5.0035418584694624E-002   0.0000000000000000     
   6.9527106607014978E-003   5.5436850403742764E-002   0.0000000000000000     
   2.6385794302395686E-003   3.5037852341462360E-002   0.0000000000000000     
   2.8507116608867322E-003   3.9790880296327519E-002   0.0000000000000000     
   3.0586794747781416E-003   4.4760658365501305E-002   0.0000000000000000     
   3.2624828719137974E-003   4.9947186548983682E-002   0.0000000000000000     
   3.4621218522936990E-003   5.5350464846774666E-002   0.0000000000000000     
   7.6588041464376033E-016   3.5008755245986789E-002   0.0000000000000000     
   8.6801225929189485E-016   3.9761318662847461E-002   0.0000000000000000     
   9.1571715488125704E-016   4.4730992204323007E-002   0.0000000000000000     
   9.0829036999973134E-016   4.9917775870413454E-002   0.0000000000000000     
   8.4676189671117896E-016   5.5321669661118775E-002   0.0000000000000000     
   1.4019289145861931E-002   5.5782392631615593E-002   0.0000000000000000     
   1.4790638225618590E-002   6.1374289496235371E-002   0.0000000000000000     
   1.5538904698533001E-002   6.7150538322226158E-002   0.0000000000000000     
   1.6264088564605161E-002   7.3111139109587997E-002   0.0000000000000000     
   1.6966189823835069E-002   7.9256091858320860E-002   0.0000000000000000     
   1.0471766425224240E-002   5.5580826332023076E-002   0.0000000000000000     
   1.1051862404620989E-002   6.1178324492852806E-002   0.0000000000000000     
   1.1614146415629309E-002   6.6960240234529941E-002   0.0000000000000000     
   1.2158618458249199E-002   7.2926573557054508E-002   0.0000000000000000     
   1.2685278532480660E-002   7.9077324460426465E-002   0.0000000000000000     
   6.9527106607014978E-003   5.5436850403742764E-002   0.0000000000000000     
   7.3404974266854774E-003   6.1038349490436780E-002   0.0000000000000000     
   7.7160762049059998E-003   6.6824313029032772E-002   0.0000000000000000     
   8.0794469953630616E-003   7.2794741019530734E-002   0.0000000000000000     
   8.4306097980566645E-003   7.8949633461930638E-002   0.0000000000000000     
   3.4621218522936990E-003   5.5350464846774666E-002   0.0000000000000000     
   3.6565432918120545E-003   6.0954364488987292E-002   0.0000000000000000     
   3.8446940663630731E-003   6.6742756705734624E-002   0.0000000000000000     
   4.0265741759467509E-003   7.2715641497016661E-002   0.0000000000000000     
   4.2021836205630913E-003   7.8873018862833419E-002   0.0000000000000000     
   8.4676189671117896E-016   5.5321669661118775E-002   0.0000000000000000     
   7.2294600861333436E-016   6.0926369488504349E-002   0.0000000000000000     
   5.3050012299715732E-016   6.6715571264635537E-002   0.0000000000000000     
   2.6825872252722593E-016   7.2689274989512331E-002   0.0000000000000000     
  -6.3967928176644762E-017   7.8847480663134739E-002   0.0000000000000000     
   1.6966189823835069E-002   7.9256091858320860E-002   0.0000000000000000     
   1.7642694753870040E-002   8.5573368219301615E-002   0.0000000000000000     
   1.8291089632357392E-002   9.2050939843407106E-002   0.0000000000000000     
   1.8911374459297116E-002   9.8688806730637360E-002   0.0000000000000000     
   1.9503549234689221E-002  0.10548696888099238        0.0000000000000000     
   1.2685278532480660E-002   7.9077324460426465E-002   0.0000000000000000     
   1.3192501518965604E-002   8.5400712466625769E-002   0.0000000000000000     
   1.3678662298345950E-002   9.1884957097632336E-002   0.0000000000000000     
   1.4143760870621696E-002   9.8530058353446248E-002   0.0000000000000000     
   1.4587797235792847E-002  0.10533601623406740        0.0000000000000000     
   8.4306097980566645E-003   7.8949633461930638E-002   0.0000000000000000     
   8.7686546483523847E-003   8.5277386929000373E-002   0.0000000000000000     
   9.0926715816157869E-003   9.1766397993507706E-002   0.0000000000000000     
   9.4026605978468746E-003   9.8416666655452678E-002   0.0000000000000000     
   9.6986216970456497E-003  0.10522819291483528        0.0000000000000000     
   4.2021836205630913E-003   7.8873018862833419E-002   0.0000000000000000     
   4.3711541420303783E-003   8.5203391606425385E-002   0.0000000000000000     
   4.5331174821668981E-003   9.1695262531033175E-002   0.0000000000000000     
   4.6880736409726509E-003   9.8348631636656719E-002   0.0000000000000000     
   4.8360226184476366E-003  0.10516349892329610        0.0000000000000000     
  -6.3967928176644762E-017   7.8847480663134739E-002   0.0000000000000000     
  -4.1004526163401778E-016   8.5178726498900847E-002   0.0000000000000000     
  -7.1313397895234054E-016   9.1671550710208730E-002   0.0000000000000000     
  -9.7484683086318524E-016   9.8325953297058385E-002   0.0000000000000000     
  -1.1947907940790259E-015  0.10514193425944979        0.0000000000000000     
   1.9503549234689221E-002  0.10548696888099238        0.0000000000000000     
   2.0069924935169955E-002  0.11243219300226083        0.0000000000000000     
   2.0612812537375572E-002  0.11951124580223145        0.0000000000000000     
   2.1132212041306078E-002  0.12672412728090421        0.0000000000000000     
   2.1628123446961460E-002  0.13407083743827911        0.0000000000000000     
   1.4587797235792847E-002  0.10533601623406740        0.0000000000000000     
   1.5012804279767013E-002  0.11228925114680328        0.0000000000000000     
   1.5420814888451824E-002  0.11937618349896141        0.0000000000000000     
   1.5811829061847280E-002  0.12659681329054173        0.0000000000000000     
   1.6185846799953378E-002  0.13395114052154433        0.0000000000000000     
   9.6986216970456497E-003  0.10522819291483528        0.0000000000000000     
   9.9821099054374848E-003  0.11218714982147640        0.0000000000000000     
   1.0254680249247760E-002  0.11927971042519700        0.0000000000000000     
   1.0516332728476465E-002  0.12650587472599700        0.0000000000000000     
   1.0767067343123611E-002  0.13386564272387641        0.0000000000000000     
   4.8360226184476366E-003  0.10516349892329610        0.0000000000000000     
   4.9778418121813701E-003  0.11212588902628023        0.0000000000000000     
   5.1144086197633691E-003  0.11922182658093816        0.0000000000000000     
   5.2457230411936317E-003  0.12645131158726991        0.0000000000000000     
   5.3717850764721572E-003  0.13381434404527540        0.0000000000000000     
  -1.1947907940790259E-015  0.10514193425944979        0.0000000000000000     
  -1.3305329060742110E-015  0.11210546876121474        0.0000000000000000     
  -1.3409412469300719E-015  0.11920253196618495        0.0000000000000000     
  -1.2247147740396258E-015  0.12643312387436045        0.0000000000000000     
  -9.8315453000985542E-016  0.13379724448574123        0.0000000000000000     
   2.1628123446961460E-002  0.13407083743827911        0.0000000000000000     
   2.2096735768649265E-002  0.14154151024367323        0.0000000000000000     
   2.2534238020677024E-002  0.14912627966640360        0.0000000000000000     
   2.2940630203044737E-002  0.15682514570647027        0.0000000000000000     
   2.3315912315752405E-002  0.16463810836387316        0.0000000000000000     
   1.6185846799953378E-002  0.13395114052154433        0.0000000000000000     
   1.6538811204516803E-002  0.14142974352463172        0.0000000000000000     
   1.6866665377284245E-002  0.14902320063246649        0.0000000000000000     
   1.7169409318255696E-002  0.15673151184504863        0.0000000000000000     
   1.7447043027431160E-002  0.16455467716237812        0.0000000000000000     
   1.0767067343123611E-002  0.13386564272387641        0.0000000000000000     
   1.1003380388364313E-002  0.14134991015388762        0.0000000000000000     
   1.1221768159373698E-002  0.14894957275108284        0.0000000000000000     
   1.1422230656151765E-002  0.15666463051546212        0.0000000000000000     
   1.1604767878698512E-002  0.16449508344702549        0.0000000000000000     
   5.3717850764721572E-003  0.13381434404527540        0.0000000000000000     
   5.4904433201917943E-003  0.14130201013144095        0.0000000000000000     
   5.5995463669453894E-003  0.14890539602225272        0.0000000000000000     
   5.6990942167329415E-003  0.15662450171771083        0.0000000000000000     
   5.7890868695544533E-003  0.16445932721781514        0.0000000000000000     
  -9.8315453000985542E-016  0.13379724448574123        0.0000000000000000     
  -7.5633943552588789E-016  0.14128604345729168        0.0000000000000000     
  -6.8423999105560185E-016  0.14889067044597615        0.0000000000000000     
  -7.6921433632415326E-016  0.15661112545179465        0.0000000000000000     
  -1.0096090630185017E-015  0.16444740847474720        0.0000000000000000     
   0.0000000000000000        0.0000000000000000        0.0000000000000000     
   6.5404496055188055E-017   1.0733472952334313E-003   0.0000000000000000     
   1.2462903972720873E-016   2.5156011888271615E-003   0.0000000000000000     
   1.7753810574450135E-016   4.3267616807811903E-003   0.0000000000000000     
   2.2426721937862659E-016   6.5068287710955183E-003   0.0000000000000000     
   0.0000000000000000        0.0000000000000000        0.0000000000000000     
  -2.1300206997103548E-004   1.0756358274341313E-003   0.0000000000000000     
  -4.2700122895990636E-004   2.5207565346928120E-003   0.0000000000000000     
  -6.4199747696661264E-004   4.3353621217760430E-003   0.0000000000000000     
  -8.5799081399115398E-004   6.5194525886838207E-003   0.0000000000000000     
   0.0000000000000000        0.0000000000000000        0.0000000000000000     
  -4.2428330287825927E-004   1.0825014240363094E-003   0.0000000000000000     
  -8.5302757564484279E-004   2.5362225722898872E-003   0.0000000000000000     
  -1.2862328182997507E-003   4.3611634447607329E-003   0.0000000000000000     
  -1.7238990308429828E-003   6.5573240414488468E-003   0.0000000000000000     
   0.0000000000000000        0.0000000000000000        0.0000000000000000     
  -6.3384369872160600E-004   1.0939440850399654E-003   0.0000000000000000     
  -1.2780790400546849E-003   2.5619993016183867E-003   0.0000000000000000     
  -1.9327060239992370E-003   4.4041656497352637E-003   0.0000000000000000     
  -2.5977246505552620E-003   6.6204431293905965E-003   0.0000000000000000     
   0.0000000000000000        0.0000000000000000        0.0000000000000000     
  -8.4168325750107555E-004   1.1099638104450998E-003   0.0000000000000000     
  -1.7021556221894325E-003   2.5980867226783107E-003   0.0000000000000000     
  -2.5814170940650712E-003   4.4643687366996343E-003   0.0000000000000000     
  -3.4794676731279913E-003   6.7088098525090690E-003   0.0000000000000000     
   2.2426721937862659E-016   6.5068287710955183E-003   0.0000000000000000     
   2.6863819328759586E-016   9.0284362677405579E-003   0.0000000000000000     
   3.1443218254795235E-016   1.1864217978686717E-002   0.0000000000000000     
   3.6120534189533482E-016   1.5014173903933998E-002   0.0000000000000000     
   4.0939474033052647E-016   1.8478304043482406E-002   0.0000000000000000     
  -8.5799081399115398E-004   6.5194525886838207E-003   0.0000000000000000     
  -1.0761454595557567E-003   9.0450385116425149E-003   0.0000000000000000     
  -1.2976256331826452E-003   1.1884130466878485E-002   0.0000000000000000     
  -1.5224313348718207E-003   1.5036728454391732E-002   0.0000000000000000     
  -1.7505625646232828E-003   1.8502832474182253E-002   0.0000000000000000     
  -1.7238990308429828E-003   6.5573240414488468E-003   0.0000000000000000     
  -2.1662015972890390E-003   9.0948452433484706E-003   0.0000000000000000     
  -2.6133159016524213E-003   1.1943867931453843E-002   0.0000000000000000     
  -3.0652419439331272E-003   1.5104392105764966E-002   0.0000000000000000     
  -3.5219797241311593E-003   1.8576417766281841E-002   0.0000000000000000     
  -2.5977246505552620E-003   6.6204431293905965E-003   0.0000000000000000     
  -3.2701684131995800E-003   9.1778564628584268E-003   0.0000000000000000     
  -3.9470708054090116E-003   1.2043430372412799E-002   0.0000000000000000     
  -4.6284318271835583E-003   1.5217164858053710E-002   0.0000000000000000     
  -5.3142514785232192E-003   1.8699059919781161E-002   0.0000000000000000     
  -3.4794676731279913E-003   6.7088098525090690E-003   0.0000000000000000     
  -4.3880459072873782E-003   9.2940721701723818E-003   0.0000000000000000     
  -5.2988903444524211E-003   1.2182817789755348E-002   0.0000000000000000     
  -6.2120009846231145E-003   1.5375046711257960E-002   0.0000000000000000     
  -7.1273778277994642E-003   1.8870758934680227E-002   0.0000000000000000     
   4.0939474033052647E-016   1.8478304043482406E-002   0.0000000000000000     
   4.6821270818786509E-016   2.2227370178663153E-002   0.0000000000000000     
   5.4752209710517974E-016   2.6232134090807470E-002   0.0000000000000000     
   6.4623870490998492E-016   3.0492595779915348E-002   0.0000000000000000     
   7.6588041464376033E-016   3.5008755245986789E-002   0.0000000000000000     
  -1.7505625646232828E-003   1.8502832474182253E-002   0.0000000000000000     
  -1.9784091140611611E-003   2.2253413992834137E-002   0.0000000000000000     
  -2.2023607748095841E-003   2.6259444476931446E-002   0.0000000000000000     
  -2.4224175468685531E-003   3.0520923926474187E-002   0.0000000000000000     
  -2.6385794302380677E-003   3.5037852341462353E-002   0.0000000000000000     
  -3.5219797241311593E-003   1.8576417766281841E-002   0.0000000000000000     
  -3.9776261083471305E-003   2.2331545435347096E-002   0.0000000000000000     
  -4.4262779626816559E-003   2.6341375635303386E-002   0.0000000000000000     
  -4.8679352871347382E-003   3.0605908366150705E-002   0.0000000000000000     
  -5.3025980817063738E-003   3.5125143627889044E-002   0.0000000000000000     
  -5.3142514785232192E-003   1.8699059919781161E-002   0.0000000000000000     
  -5.9976509828574406E-003   2.2461764506202065E-002   0.0000000000000000     
  -6.6717515636156716E-003   2.6477927565923313E-002   0.0000000000000000     
  -7.3365532207979069E-003   3.0747549098944914E-002   0.0000000000000000     
  -7.9920559544041526E-003   3.5270629105266856E-002   0.0000000000000000     
  -7.1273778277994642E-003   1.8870758934680227E-002   0.0000000000000000     
  -8.0384837375920924E-003   2.2644071205399019E-002   0.0000000000000000     
  -8.9387815776116267E-003   2.6669100268791206E-002   0.0000000000000000     
  -9.8282713478580631E-003   3.0945846124856805E-002   0.0000000000000000     
  -1.0706953048331403E-002   3.5474308773595802E-002   0.0000000000000000     
   7.6588041464376033E-016   3.5008755245986789E-002   0.0000000000000000     
   8.6801225929189485E-016   3.9761318662847461E-002   0.0000000000000000     
   9.1571715488125704E-016   4.4730992204323007E-002   0.0000000000000000     
   9.0829036999973134E-016   4.9917775870413454E-002   0.0000000000000000     
   8.4676189671117896E-016   5.5321669661118775E-002   0.0000000000000000     
  -2.6385794302380677E-003   3.5037852341462353E-002   0.0000000000000000     
  -2.8507116608850300E-003   3.9790880296327574E-002   0.0000000000000000     
  -3.0586794747763432E-003   4.4760658365501423E-002   0.0000000000000000     
  -3.2624828719120054E-003   4.9947186548983925E-002   0.0000000000000000     
  -3.4621218522920198E-003   5.5350464846775076E-002   0.0000000000000000     
  -5.3025980817063738E-003   3.5125143627889044E-002   0.0000000000000000     
  -5.7291042651166522E-003   3.9879565196767837E-002   0.0000000000000000     
  -6.1462917560856584E-003   4.4849656849036523E-002   0.0000000000000000     
  -6.5541605546133950E-003   5.0035418584695089E-002   0.0000000000000000     
  -6.9527106606998594E-003   5.5436850403743548E-002   0.0000000000000000     
  -7.9920559544041526E-003   3.5270629105266856E-002   0.0000000000000000     
  -8.6351778126939980E-003   4.0027373364168284E-002   0.0000000000000000     
  -9.2628368439270307E-003   4.4997987654928309E-002   0.0000000000000000     
  -9.8750330481032593E-003   5.0182471977546959E-002   0.0000000000000000     
  -1.0471766425222672E-002   5.5580826332024179E-002   0.0000000000000000     
  -1.0706953048331403E-002   3.5474308773595802E-002   0.0000000000000000     
  -1.1568932303617066E-002   4.0234304798528894E-002   0.0000000000000000     
  -1.2408314738300463E-002   4.5205650783176801E-002   0.0000000000000000     
  -1.3225100352381594E-002   5.0388346727539494E-002   0.0000000000000000     
  -1.4019289145860458E-002   5.5782392631616995E-002   0.0000000000000000     
   8.4676189671117896E-016   5.5321669661118775E-002   0.0000000000000000     
   7.2294600861333436E-016   6.0926369488504349E-002   0.0000000000000000     
   5.3050012299715732E-016   6.6715571264635537E-002   0.0000000000000000     
   2.6825872252722593E-016   7.2689274989512331E-002   0.0000000000000000     
  -6.3967928176644762E-017   7.8847480663134739E-002   0.0000000000000000     
  -3.4621218522920198E-003   5.5350464846775076E-002   0.0000000000000000     
  -3.6565432918106051E-003   6.0954364488987896E-002   0.0000000000000000     
  -3.8446940663619854E-003   6.6742756705735401E-002   0.0000000000000000     
  -4.0265741759461585E-003   7.2715641497017619E-002   0.0000000000000000     
  -4.2021836205631252E-003   7.8873018862834515E-002   0.0000000000000000     
  -6.9527106606998594E-003   5.5436850403743548E-002   0.0000000000000000     
  -7.3404974266840159E-003   6.1038349490437911E-002   0.0000000000000000     
  -7.7160762049048289E-003   6.6824313029034216E-002   0.0000000000000000     
  -8.0794469953622949E-003   7.2794741019532455E-002   0.0000000000000000     
  -8.4306097980564182E-003   7.8949633461932636E-002   0.0000000000000000     
  -1.0471766425222672E-002   5.5580826332024179E-002   0.0000000000000000     
  -1.1051862404619512E-002   6.1178324492854395E-002   0.0000000000000000     
  -1.1614146415628001E-002   6.6960240234531954E-002   0.0000000000000000     
  -1.2158618458248149E-002   7.2926573557056840E-002   0.0000000000000000     
  -1.2685278532479943E-002   7.9077324460429074E-002   0.0000000000000000     
  -1.4019289145860458E-002   5.5782392631616995E-002   0.0000000000000000     
  -1.4790638225617088E-002   6.1374289496237348E-002   0.0000000000000000     
  -1.5538904698531501E-002   6.7150538322228615E-002   0.0000000000000000     
  -1.6264088564603707E-002   7.3111139109590773E-002   0.0000000000000000     
  -1.6966189823833702E-002   7.9256091858323843E-002   0.0000000000000000     
  -6.3967928176644762E-017   7.8847480663134739E-002   0.0000000000000000     
  -4.1004526163401778E-016   8.5178726498900847E-002   0.0000000000000000     
  -7.1313397895234054E-016   9.1671550710208730E-002   0.0000000000000000     
  -9.7484683086318524E-016   9.8325953297058385E-002   0.0000000000000000     
  -1.1947907940790259E-015  0.10514193425944979        0.0000000000000000     
  -4.2021836205631252E-003   7.8873018862834515E-002   0.0000000000000000     
  -4.3711541420310661E-003   8.5203391606426579E-002   0.0000000000000000     
  -4.5331174821681584E-003   9.1695262531034244E-002   0.0000000000000000     
  -4.6880736409744056E-003   9.8348631636657510E-002   0.0000000000000000     
  -4.8360226184498041E-003  0.10516349892329638        0.0000000000000000     
  -8.4306097980564182E-003   7.8949633461932636E-002   0.0000000000000000     
  -8.7686546483526778E-003   8.5277386929002455E-002   0.0000000000000000     
  -9.0926715816165519E-003   9.1766397993509607E-002   0.0000000000000000     
  -9.4026605978480421E-003   9.8416666655454066E-002   0.0000000000000000     
  -9.6986216970471519E-003  0.10522819291483584        0.0000000000000000     
  -1.2685278532479943E-002   7.9077324460429074E-002   0.0000000000000000     
  -1.3192501518965245E-002   8.5400712466628462E-002   0.0000000000000000     
  -1.3678662298345893E-002   9.1884957097634765E-002   0.0000000000000000     
  -1.4143760870621891E-002   9.8530058353448011E-002   0.0000000000000000     
  -1.4587797235793235E-002  0.10533601623406817        0.0000000000000000     
  -1.6966189823833702E-002   7.9256091858323843E-002   0.0000000000000000     
  -1.7642694753868763E-002   8.5573368219304585E-002   0.0000000000000000     
  -1.8291089632356174E-002   9.2050939843409757E-002   0.0000000000000000     
  -1.8911374459295940E-002   9.8688806730639372E-002   0.0000000000000000     
  -1.9503549234688059E-002  0.10548696888099340        0.0000000000000000     
  -1.1947907940790259E-015  0.10514193425944979        0.0000000000000000     
  -1.3305329060742110E-015  0.11210546876121474        0.0000000000000000     
  -1.3409412469300719E-015  0.11920253196618495        0.0000000000000000     
  -1.2247147740396258E-015  0.12643312387436045        0.0000000000000000     
  -9.8315453000985542E-016  0.13379724448574123        0.0000000000000000     
  -4.8360226184498041E-003  0.10516349892329638        0.0000000000000000     
  -4.9778418121837909E-003  0.11212588902628000        0.0000000000000000     
  -5.1144086197658046E-003  0.11922182658093750        0.0000000000000000     
  -5.2457230411958426E-003  0.12645131158726888        0.0000000000000000     
  -5.3717850764739040E-003  0.13381434404527418        0.0000000000000000     
  -9.6986216970471519E-003  0.10522819291483584        0.0000000000000000     
  -9.9821099054391849E-003  0.11218714982147610        0.0000000000000000     
  -1.0254680249249455E-002  0.11927971042519592        0.0000000000000000     
  -1.0516332728477963E-002  0.12650587472599537        0.0000000000000000     
  -1.0767067343124704E-002  0.13386564272387441        0.0000000000000000     
  -1.4587797235793235E-002  0.10533601623406817        0.0000000000000000     
  -1.5012804279767511E-002  0.11228925114680301        0.0000000000000000     
  -1.5420814888452296E-002  0.11937618349896026        0.0000000000000000     
  -1.5811829061847582E-002  0.12659681329053990        0.0000000000000000     
  -1.6185846799953378E-002  0.13395114052154192        0.0000000000000000     
  -1.9503549234688059E-002  0.10548696888099340        0.0000000000000000     
  -2.0069924935168768E-002  0.11243219300226079        0.0000000000000000     
  -2.0612812537374316E-002  0.11951124580223048        0.0000000000000000     
  -2.1132212041304711E-002  0.12672412728090249        0.0000000000000000     
  -2.1628123446959937E-002  0.13407083743827677        0.0000000000000000     
  -9.8315453000985542E-016  0.13379724448574123        0.0000000000000000     
  -7.5633943552588789E-016  0.14128604345729168        0.0000000000000000     
  -6.8423999105560185E-016  0.14889067044597615        0.0000000000000000     
  -7.6921433632415326E-016  0.15661112545179465        0.0000000000000000     
  -1.0096090630185017E-015  0.16444740847474720        0.0000000000000000     
  -5.3717850764739040E-003  0.13381434404527418        0.0000000000000000     
  -5.4904433201930971E-003  0.14130201013144000        0.0000000000000000     
  -5.5995463669465274E-003  0.14890539602225294        0.0000000000000000     
  -5.6990942167341957E-003  0.15662450171771317        0.0000000000000000     
  -5.7890868695560961E-003  0.16445932721782047        0.0000000000000000     
  -1.0767067343124704E-002  0.13386564272387441        0.0000000000000000     
  -1.1003380388364993E-002  0.14134991015388598        0.0000000000000000     
  -1.1221768159374148E-002  0.14894957275108306        0.0000000000000000     
  -1.1422230656152155E-002  0.15666463051546561        0.0000000000000000     
  -1.1604767878699025E-002  0.16449508344703367        0.0000000000000000     
  -1.6185846799953378E-002  0.13395114052154192        0.0000000000000000     
  -1.6538811204516449E-002  0.14142974352462970        0.0000000000000000     
  -1.6866665377283541E-002  0.14902320063246641        0.0000000000000000     
  -1.7169409318254648E-002  0.15673151184505216        0.0000000000000000     
  -1.7447043027429797E-002  0.16455467716238692        0.0000000000000000     
  -2.1628123446959937E-002  0.13407083743827677        0.0000000000000000     
  -2.2096735768647454E-002  0.14154151024367104        0.0000000000000000     
  -2.2534238020674707E-002  0.14912627966640304        0.0000000000000000     
  -2.2940630203041695E-002  0.15682514570647274        0.0000000000000000     
  -2.3315912315748408E-002  0.16463810836388013        0.0000000000000000     
   0.0000000000000000        0.0000000000000000        0.0000000000000000     
  -8.4168325750107555E-004   1.1099638104450998E-003   0.0000000000000000     
  -1.7021556221894325E-003   2.5980867226783107E-003   0.0000000000000000     
  -2.5814170940650712E-003   4.4643687366996343E-003   0.0000000000000000     
  -3.4794676731279913E-003   6.7088098525090690E-003   0.0000000000000000     
   0.0000000000000000        0.0000000000000000        0.0000000000000000     
  -1.0567089215252146E-003   1.1341253000269852E-003   0.0000000000000000     
  -2.1397992235569555E-003   2.6503369091991631E-003   0.0000000000000000     
  -3.2492709060952234E-003   4.5486348275165338E-003   0.0000000000000000     
  -4.3851239691400177E-003   6.8290190549790981E-003   0.0000000000000000     
   0.0000000000000000        0.0000000000000000        0.0000000000000000     
  -1.2878276331025689E-003   1.1699932535608950E-003   0.0000000000000000     
  -2.6055517456651236E-003   2.7246019349104469E-003   0.0000000000000000     
  -3.9531723376876630E-003   4.6638260440486547E-003   0.0000000000000000     
  -5.3306894091701886E-003   6.9876655809755200E-003   0.0000000000000000     
   0.0000000000000000        0.0000000000000000        0.0000000000000000     
  -1.5350393922331390E-003   1.2175676710468291E-003   0.0000000000000000     
  -3.0994131885139354E-003   2.8208817998121609E-003   0.0000000000000000     
  -4.6931213888423903E-003   4.8099423862959963E-003   0.0000000000000000     
  -6.3161639932185027E-003   7.1847494304983347E-003   0.0000000000000000     
   0.0000000000000000        0.0000000000000000        0.0000000000000000     
  -1.7983441989169245E-003   1.2768485524847879E-003   0.0000000000000000     
  -3.6213835521033931E-003   2.9391765039043071E-003   0.0000000000000000     
  -5.4691180595594063E-003   4.9869838542585584E-003   0.0000000000000000     
  -7.3415477212849609E-003   7.4202706035475423E-003   0.0000000000000000     
  -3.4794676731279913E-003   6.7088098525090690E-003   0.0000000000000000     
  -4.3880459072873782E-003   9.2940721701723818E-003   0.0000000000000000     
  -5.2988903444524211E-003   1.2182817789755348E-002   0.0000000000000000     
  -6.2120009846231145E-003   1.5375046711257960E-002   0.0000000000000000     
  -7.1273778277994642E-003   1.8870758934680227E-002   0.0000000000000000     
  -4.3851239691400177E-003   6.8290190549790981E-003   0.0000000000000000     
  -5.5343552323167521E-003   9.4494699829724537E-003   0.0000000000000000     
  -6.6839615152508415E-003   1.2367968002882207E-002   0.0000000000000000     
  -7.8339428179422851E-003   1.5584513114708353E-002   0.0000000000000000     
  -8.9842991403910819E-003   1.9099105318450896E-002   0.0000000000000000     
  -5.3306894091701886E-003   6.9876655809755200E-003   0.0000000000000000     
  -6.7236175410520186E-003   9.6500275189407604E-003   0.0000000000000000     
  -8.1174713142724755E-003   1.2604818831194095E-002   0.0000000000000000     
  -9.5122507288315540E-003   1.5852039517735523E-002   0.0000000000000000     
  -1.0907955784729263E-002   1.9391689578565043E-002   0.0000000000000000     
  -6.3161639932185027E-003   7.1847494304983347E-003   0.0000000000000000     
  -7.9558328334931785E-003   9.8957447780772968E-003   0.0000000000000000     
  -9.5994197415173194E-003   1.2893370274691009E-002   0.0000000000000000     
  -1.1246924717290932E-002   1.6177625920339465E-002   0.0000000000000000     
  -1.2898347760814005E-002   1.9748511715022669E-002   0.0000000000000000     
  -7.3415477212849609E-003   7.4202706035475423E-003   0.0000000000000000     
  -9.2310011096402283E-003   1.0186621760382068E-002   0.0000000000000000     
  -1.1129806796985376E-002   1.3233622333372951E-002   0.0000000000000000     
  -1.3037964783320404E-002   1.6561272322520186E-002   0.0000000000000000     
  -1.4955475068645311E-002   2.0169571727823778E-002   0.0000000000000000     
  -7.1273778277994642E-003   1.8870758934680227E-002   0.0000000000000000     
  -8.0384837375920924E-003   2.2644071205399019E-002   0.0000000000000000     
  -8.9387815776116267E-003   2.6669100268791206E-002   0.0000000000000000     
  -9.8282713478580631E-003   3.0945846124856805E-002   0.0000000000000000     
  -1.0706953048331403E-002   3.5474308773595802E-002   0.0000000000000000     
  -8.9842991403910819E-003   1.9099105318450896E-002   0.0000000000000000     
  -1.0128071419847529E-002   2.2886949671387519E-002   0.0000000000000000     
  -1.1258300593561922E-002   2.6923251230795898E-002   0.0000000000000000     
  -1.2374986661534259E-002   3.1208009996676059E-002   0.0000000000000000     
  -1.3478129623764542E-002   3.5741225969027970E-002   0.0000000000000000     
  -1.0907955784729263E-002   1.9391689578565043E-002   0.0000000000000000     
  -1.2294361076920200E-002   2.3198884042617118E-002   0.0000000000000000     
  -1.3661241200358960E-002   2.7248737938826220E-002   0.0000000000000000     
  -1.5008596155045554E-002   3.1541251267192330E-002   0.0000000000000000     
  -1.6336425940979976E-002   3.6076424027715472E-002   0.0000000000000000     
  -1.2898347760814005E-002   1.9748511715022669E-002   0.0000000000000000     
  -1.4537352708810096E-002   2.3579874319087833E-002   0.0000000000000000     
  -1.6147603398002738E-002   2.7645560392882157E-002   0.0000000000000000     
  -1.7729099828391947E-002   3.1945569936405654E-002   0.0000000000000000     
  -1.9281841999977713E-002   3.6479902949658298E-002   0.0000000000000000     
  -1.4955475068645311E-002   2.0169571727823778E-002   0.0000000000000000     
  -1.6857046315517221E-002   2.4029920500799645E-002   0.0000000000000000     
  -1.8717387186493264E-002   2.8113718592963719E-002   0.0000000000000000     
  -2.0536497681573437E-002   3.2420966004315988E-002   0.0000000000000000     
  -2.2314377800757745E-002   3.6951662734856457E-002   0.0000000000000000     
  -1.0706953048331403E-002   3.5474308773595802E-002   0.0000000000000000     
  -1.1568932303617066E-002   4.0234304798528894E-002   0.0000000000000000     
  -1.2408314738300463E-002   4.5205650783176801E-002   0.0000000000000000     
  -1.3225100352381594E-002   5.0388346727539494E-002   0.0000000000000000     
  -1.4019289145860458E-002   5.5782392631616995E-002   0.0000000000000000     
  -1.3478129623764542E-002   3.5741225969027970E-002   0.0000000000000000     
  -1.4559574099940589E-002   4.0503109878610777E-002   0.0000000000000000     
  -1.5611164709750221E-002   4.5473872456183610E-002   0.0000000000000000     
  -1.6632901453193436E-002   5.0653513701746457E-002   0.0000000000000000     
  -1.7624784330270239E-002   5.6042033615299323E-002   0.0000000000000000     
  -1.6336425940979976E-002   3.6076424027715472E-002   0.0000000000000000     
  -1.7636309563719293E-002   4.0836538983175012E-002   0.0000000000000000     
  -1.8899826028820579E-002   4.5803878896350375E-002   0.0000000000000000     
  -2.0126975336283822E-002   5.0978443767241546E-002   0.0000000000000000     
  -2.1317757486109028E-002   5.6360233595848526E-002   0.0000000000000000     
  -1.9281841999977713E-002   3.6479902949658298E-002   0.0000000000000000     
  -2.0799138694953187E-002   4.1234592112221614E-002   0.0000000000000000     
  -2.2274298695511535E-002   4.6195670103677096E-002   0.0000000000000000     
  -2.3707322001652750E-002   5.1363136924024763E-002   0.0000000000000000     
  -2.5098208613376836E-002   5.6736992573264589E-002   0.0000000000000000     
  -2.2314377800757745E-002   3.6951662734856457E-002   0.0000000000000000     
  -2.4048061493642262E-002   4.1697269265750576E-002   0.0000000000000000     
  -2.5734582709823092E-002   4.6649246078163786E-002   0.0000000000000000     
  -2.7373941449300217E-002   5.1807593172096107E-002   0.0000000000000000     
  -2.8966137712073653E-002   5.7172310547547511E-002   0.0000000000000000     
  -1.4019289145860458E-002   5.5782392631616995E-002   0.0000000000000000     
  -1.4790638225617088E-002   6.1374289496237348E-002   0.0000000000000000     
  -1.5538904698531501E-002   6.7150538322228615E-002   0.0000000000000000     
  -1.6264088564603707E-002   7.3111139109590773E-002   0.0000000000000000     
  -1.6966189823833702E-002   7.9256091858323843E-002   0.0000000000000000     
  -1.7624784330270239E-002   5.6042033615299323E-002   0.0000000000000000     
  -1.8587526091859163E-002   6.1627024049195206E-002   0.0000000000000000     
  -1.9521839488838743E-002   6.7396076855787093E-002   0.0000000000000000     
  -2.0427724521208994E-002   7.3349192035075006E-002   0.0000000000000000     
  -2.1305181188969898E-002   7.9486369587058889E-002   0.0000000000000000     
  -2.1317757486109028E-002   5.6360233595848526E-002   0.0000000000000000     
  -2.2473227205528155E-002   6.1937307700336411E-002   0.0000000000000000     
  -2.3594439221773147E-002   6.7697725398870312E-002   0.0000000000000000     
  -2.4681393534844012E-002   7.3641486691450236E-002   0.0000000000000000     
  -2.5734090144740741E-002   7.9768591578076170E-002   0.0000000000000000     
  -2.5098208613376836E-002   5.6736992573264589E-002   0.0000000000000000     
  -2.6447741566624060E-002   6.2305140449660970E-002   0.0000000000000000     
  -2.7756703897334704E-002   6.8055483951478271E-002   0.0000000000000000     
  -2.9025095605508765E-002   7.3988023078716478E-002   0.0000000000000000     
  -3.0252916691146239E-002   8.0102757831375673E-002   0.0000000000000000     
  -2.8966137712073653E-002   5.7172310547547511E-002   0.0000000000000000     
  -3.0511069175146892E-002   6.2730522297168856E-002   0.0000000000000000     
  -3.2008633515523424E-002   6.8469352513610943E-002   0.0000000000000000     
  -3.3458830733203250E-002   7.4388801196873786E-002   0.0000000000000000     
  -3.4861660828186383E-002   8.0488868346957398E-002   0.0000000000000000     
  -1.6966189823833702E-002   7.9256091858323843E-002   0.0000000000000000     
  -1.7642694753868763E-002   8.5573368219304585E-002   0.0000000000000000     
  -1.8291089632356174E-002   9.2050939843409757E-002   0.0000000000000000     
  -1.8911374459295940E-002   9.8688806730639372E-002   0.0000000000000000     
  -1.9503549234688059E-002  0.10548696888099340        0.0000000000000000     
  -2.1305181188969898E-002   7.9486369587058889E-002   0.0000000000000000     
  -2.2150894192954299E-002   8.5795472406178325E-002   0.0000000000000000     
  -2.2961548233995051E-002   9.2264363386872800E-002   0.0000000000000000     
  -2.3737143312092143E-002   9.8893042529142342E-002   0.0000000000000000     
  -2.4477679427245571E-002  0.10568150983298695        0.0000000000000000     
  -2.5734090144740741E-002   7.9768591578076170E-002   0.0000000000000000     
  -2.6748759676112930E-002   8.6067143246397124E-002   0.0000000000000000     
  -2.7721632753610153E-002   9.2525244884062136E-002   0.0000000000000000     
  -2.8652709377232421E-002   9.9142896491071192E-002   0.0000000000000000     
  -2.9541989546979727E-002  0.10592009806742432        0.0000000000000000     
  -3.0252916691146239E-002   8.0102757831375673E-002   0.0000000000000000     
  -3.1436291203344645E-002   8.6388380739961010E-002   0.0000000000000000     
  -3.2571343191201488E-002   9.2833584334977765E-002   0.0000000000000000     
  -3.3658072654716778E-002   9.9438368616425923E-002   0.0000000000000000     
  -3.4696479593890522E-002  0.10620273358430550        0.0000000000000000     
  -3.4861660828186383E-002   8.0488868346957398E-002   0.0000000000000000     
  -3.6213488774649437E-002   8.6759184886869956E-002   0.0000000000000000     
  -3.7510679546769052E-002   9.3189381739619659E-002   0.0000000000000000     
  -3.8753233144545235E-002   9.9779458905206495E-002   0.0000000000000000     
  -3.9941149567977965E-002  0.10652941638363050        0.0000000000000000     
  -1.9503549234688059E-002  0.10548696888099340        0.0000000000000000     
  -2.0069924935168768E-002  0.11243219300226079        0.0000000000000000     
  -2.0612812537374316E-002  0.11951124580223048        0.0000000000000000     
  -2.1132212041304711E-002  0.12672412728090249        0.0000000000000000     
  -2.1628123446959937E-002  0.13407083743827677        0.0000000000000000     
  -2.4477679427245571E-002  0.10568150983298695        0.0000000000000000     
  -2.5185738895482254E-002  0.11261679302615252        0.0000000000000000     
  -2.5863904032829121E-002  0.11968591983638499        0.0000000000000000     
  -2.6512174839286164E-002  0.12688889026368433        0.0000000000000000     
  -2.7130551314853382E-002  0.13422570430805061        0.0000000000000000     
  -2.9541989546979727E-002  0.10592009806742432        0.0000000000000000     
  -3.0392513184547280E-002  0.11284386885678135        0.0000000000000000     
  -3.1207320211630300E-002  0.11990122810280215        0.0000000000000000     
  -3.1986410628228774E-002  0.12709217580548685        0.0000000000000000     
  -3.2729784434342719E-002  0.13441671196483526        0.0000000000000000     
  -3.4696479593890522E-002  0.10620273358430550        0.0000000000000000     
  -3.5690247802363836E-002  0.11311342049414728        0.0000000000000000     
  -3.6643061073777849E-002  0.12015717060148208        0.0000000000000000     
  -3.7554919408132548E-002  0.12733398390630990        0.0000000000000000     
  -3.8425822805427952E-002  0.13464386040863072        0.0000000000000000     
  -3.9941149567977965E-002  0.10652941638363050        0.0000000000000000     
  -4.1078942748931917E-002  0.11342544793825034        0.0000000000000000     
  -4.2171126619271755E-002  0.12045374733242468        0.0000000000000000     
  -4.3217701178997481E-002  0.12761431456615355        0.0000000000000000     
  -4.4218666428109080E-002  0.13490714963943695        0.0000000000000000     
  -2.1628123446959937E-002  0.13407083743827677        0.0000000000000000     
  -2.2096735768647454E-002  0.14154151024367104        0.0000000000000000     
  -2.2534238020674707E-002  0.14912627966640304        0.0000000000000000     
  -2.2940630203041695E-002  0.15682514570647274        0.0000000000000000     
  -2.3315912315748408E-002  0.16463810836388013        0.0000000000000000     
  -2.7130551314853382E-002  0.13422570430805061        0.0000000000000000     
  -2.7715525631970606E-002  0.14168614485182932        0.0000000000000000     
  -2.8263589963077665E-002  0.14925999477736596        0.0000000000000000     
  -2.8774744308174567E-002  0.15694725408466048        0.0000000000000000     
  -2.9248988667261309E-002  0.16474792277371295        0.0000000000000000     
  -3.2729784434342719E-002  0.13441671196483526        0.0000000000000000     
  -3.3433552345698482E-002  0.14186458188992368        0.0000000000000000     
  -3.4093825078022451E-002  0.14942553088982805        0.0000000000000000     
  -3.4710602631314605E-002  0.15709955896454850        0.0000000000000000     
  -3.5283885005574944E-002  0.16488666611408498        0.0000000000000000     
  -3.8425822805427952E-002  0.13464386040863072        0.0000000000000000     
  -3.9250815909831094E-002  0.14207682135795408        0.0000000000000000     
  -4.0024943365509040E-002  0.14962288800378945        0.0000000000000000     
  -4.0748205172461777E-002  0.15728206034613681        0.0000000000000000     
  -4.1420601330689311E-002  0.16505433838499620        0.0000000000000000     
  -4.4218666428109080E-002  0.13490714963943695        0.0000000000000000     
  -4.5167316324368441E-002  0.14232286325592056        0.0000000000000000     
  -4.6056944825537446E-002  0.14985206611925003        0.0000000000000000     
  -4.6887551931616103E-002  0.15749475822942541        0.0000000000000000     
  -4.7659137642604411E-002  0.16525093958644665        0.0000000000000000     
   0.0000000000000000        0.0000000000000000        0.0000000000000000     
  -1.7983441989169245E-003   1.2768485524847879E-003   0.0000000000000000     
  -3.6213835521033931E-003   2.9391765039043071E-003   0.0000000000000000     
  -5.4691180595594063E-003   4.9869838542585584E-003   0.0000000000000000     
  -7.3415477212849609E-003   7.4202706035475423E-003   0.0000000000000000     
   0.0000000000000000        0.0000000000000000        0.0000000000000000     
  -2.0694652933715973E-003   1.3549509840517439E-003   0.0000000000000000     
  -4.1641061784557353E-003   3.0939991085927685E-003   0.0000000000000000     
  -6.2839226552524130E-003   5.2171443736230734E-003   0.0000000000000000     
  -8.4289147237616314E-003   7.7243867791426581E-003   0.0000000000000000     
   0.0000000000000000        0.0000000000000000        0.0000000000000000     
  -2.3401259158148304E-003   1.4589900519246710E-003   0.0000000000000000     
  -4.7202244095932025E-003   3.2998626752834288E-003   0.0000000000000000     
  -7.1402954813351181E-003   5.5226178700762728E-003   0.0000000000000000     
  -9.6003391310405754E-003   8.1272556363032045E-003   0.0000000000000000     
   0.0000000000000000        0.0000000000000000        0.0000000000000000     
  -2.6103260662466220E-003   1.5889657561035688E-003   0.0000000000000000     
  -5.2897382455157956E-003   3.5567672039762883E-003   0.0000000000000000     
  -8.0382365378075214E-003   5.9034043436181592E-003   0.0000000000000000     
  -1.0855820943121800E-002   8.6288771750291805E-003   0.0000000000000000     
   0.0000000000000000        0.0000000000000000        0.0000000000000000     
  -2.8800657446669737E-003   1.7448780965884370E-003   0.0000000000000000     
  -5.8726476862235137E-003   3.8647126946713467E-003   0.0000000000000000     
  -8.9777458246696213E-003   6.3595037942487291E-003   0.0000000000000000     
  -1.2195360160005294E-002   9.2292513953205844E-003   0.0000000000000000     
  -7.3415477212849609E-003   7.4202706035475423E-003   0.0000000000000000     
  -9.2310011096402283E-003   1.0186621760382068E-002   0.0000000000000000     
  -1.1129806796985376E-002   1.3233622333372951E-002   0.0000000000000000     
  -1.3037964783320404E-002   1.6561272322520186E-002   0.0000000000000000     
  -1.4955475068645311E-002   2.0169571727823778E-002   0.0000000000000000     
  -8.4289147237616314E-003   7.7243867791426581E-003   0.0000000000000000     
  -1.0590780817296301E-002   1.0558292802566404E-002   0.0000000000000000     
  -1.2761219369169335E-002   1.3661428921309185E-002   0.0000000000000000     
  -1.4940230379380732E-002   1.7033795135371003E-002   0.0000000000000000     
  -1.7127813847930492E-002   2.0675391444751855E-002   0.0000000000000000     
  -9.6003391310405754E-003   8.1272556363032045E-003   0.0000000000000000     
  -1.2076830404264516E-002   1.1046392241341636E-002   0.0000000000000000     
  -1.4546244346561880E-002   1.4212643952568977E-002   0.0000000000000000     
  -1.7008580957932659E-002   1.7626010769985233E-002   0.0000000000000000     
  -1.9463840238376863E-002   2.1286492693590401E-002   0.0000000000000000     
  -1.0855820943121800E-002   8.6288771750291805E-003   0.0000000000000000     
  -1.3689149870544877E-002   1.1650920076707769E-002   0.0000000000000000     
  -1.6484881729163004E-002   1.4887267427152337E-002   0.0000000000000000     
  -1.9243016518976197E-002   1.8337919226362884E-002   0.0000000000000000     
  -2.1963554239984435E-002   2.2002875474339413E-002   0.0000000000000000     
  -1.2195360160005294E-002   9.2292513953205844E-003   0.0000000000000000     
  -1.5427739216137383E-002   1.2371876308664799E-002   0.0000000000000000     
  -1.8577131516972729E-002   1.5685299345059248E-002   0.0000000000000000     
  -2.1643537062511330E-002   1.9169520504503948E-002   0.0000000000000000     
  -2.4626955852753193E-002   2.2824539786998884E-002   0.0000000000000000     
  -1.4955475068645311E-002   2.0169571727823778E-002   0.0000000000000000     
  -1.6857046315517221E-002   2.4029920500799645E-002   0.0000000000000000     
  -1.8717387186493264E-002   2.8113718592963719E-002   0.0000000000000000     
  -2.0536497681573437E-002   3.2420966004315988E-002   0.0000000000000000     
  -2.2314377800757745E-002   3.6951662734856457E-002   0.0000000000000000     
  -1.7127813847930492E-002   2.0675391444751855E-002   0.0000000000000000     
  -1.9292744323917060E-002   2.4558549378448136E-002   0.0000000000000000     
  -2.1403796356438898E-002   2.8655600465456246E-002   0.0000000000000000     
  -2.3460969945495989E-002   3.2966544705776181E-002   0.0000000000000000     
  -2.5464265091088338E-002   3.7491382099407923E-002   0.0000000000000000     
  -1.9463840238376863E-002   2.1286492693590401E-002   0.0000000000000000     
  -2.1883749160885112E-002   2.5175287742728883E-002   0.0000000000000000     
  -2.4240034698448008E-002   2.9273593936745095E-002   0.0000000000000000     
  -2.6532696851065563E-002   3.3581411275639031E-002   0.0000000000000000     
  -2.8761735618737762E-002   3.8098739759410694E-002   0.0000000000000000     
  -2.1963554239984435E-002   2.2002875474339413E-002   0.0000000000000000     
  -2.4630060826421357E-002   2.5880135593641877E-002   0.0000000000000000     
  -2.7226102212520604E-002   2.9967699006830259E-002   0.0000000000000000     
  -2.9751678398282150E-002   3.4265565713904551E-002   0.0000000000000000     
  -3.2206789383706011E-002   3.8773735714864747E-002   0.0000000000000000     
  -2.4626955852753193E-002   2.2824539786998884E-002   0.0000000000000000     
  -2.7531679320525814E-002   2.6673092931187130E-002   0.0000000000000000     
  -3.0361998898656664E-002   3.0737915675711745E-002   0.0000000000000000     
  -3.3117914587145768E-002   3.5019008020572735E-002   0.0000000000000000     
  -3.5799426385993108E-002   3.9516369965770098E-002   0.0000000000000000     
  -2.2314377800757745E-002   3.6951662734856457E-002   0.0000000000000000     
  -2.4048061493642262E-002   4.1697269265750576E-002   0.0000000000000000     
  -2.5734582709823092E-002   4.6649246078163786E-002   0.0000000000000000     
  -2.7373941449300217E-002   5.1807593172096107E-002   0.0000000000000000     
  -2.8966137712073653E-002   5.7172310547547511E-002   0.0000000000000000     
  -2.5464265091088338E-002   3.7491382099407923E-002   0.0000000000000000     
  -2.7414409405246490E-002   4.2226218939404592E-002   0.0000000000000000     
  -2.9312130500000987E-002   4.7167161518819278E-002   0.0000000000000000     
  -3.1157428375351827E-002   5.2314209837651983E-002   0.0000000000000000     
  -3.2950303031299012E-002   5.7667363895902699E-002   0.0000000000000000     
  -2.8761735618737762E-002   3.8098739759410694E-002   0.0000000000000000     
  -3.0929513875225832E-002   4.2823089628826382E-002   0.0000000000000000     
  -3.3038394494290961E-002   4.7751971124652431E-002   0.0000000000000000     
  -3.5088377475933172E-002   5.2885384246888816E-002   0.0000000000000000     
  -3.7079462820152440E-002   5.8223328995535548E-002   0.0000000000000000     
  -3.2206789383706011E-002   3.8773735714864747E-002   0.0000000000000000     
  -3.4593374903580283E-002   4.3487881334015946E-002   0.0000000000000000     
  -3.6913374692693027E-002   4.8403674895663225E-002   0.0000000000000000     
  -3.9166788751044242E-002   5.3521116399806598E-002   0.0000000000000000     
  -4.1353617078633942E-002   5.8840205846446059E-002   0.0000000000000000     
  -3.5799426385993108E-002   3.9516369965770098E-002   0.0000000000000000     
  -3.8405992490309855E-002   4.4220594054973278E-002   0.0000000000000000     
  -4.0937071095207167E-002   4.9122272831851686E-002   0.0000000000000000     
  -4.3392662200685057E-002   5.4221406296405338E-002   0.0000000000000000     
  -4.5772765806743512E-002   5.9517994448634232E-002   0.0000000000000000     
  -2.8966137712073653E-002   5.7172310547547511E-002   0.0000000000000000     
  -3.0511069175146892E-002   6.2730522297168856E-002   0.0000000000000000     
  -3.2008633515523424E-002   6.8469352513610943E-002   0.0000000000000000     
  -3.3458830733203250E-002   7.4388801196873786E-002   0.0000000000000000     
  -3.4861660828186383E-002   8.0488868346957398E-002   0.0000000000000000     
  -3.2950303031299012E-002   5.7667363895902699E-002   0.0000000000000000     
  -3.4689931190010910E-002   6.3213203675802035E-002   0.0000000000000000     
  -3.6375489573655877E-002   6.8938309159580616E-002   0.0000000000000000     
  -3.8006978182233905E-002   7.4842680347238455E-002   0.0000000000000000     
  -3.9584397015744996E-002   8.0926317238775525E-002   0.0000000000000000     
  -3.7079462820152440E-002   5.8223328995535548E-002   0.0000000000000000     
  -3.9011048770130403E-002   6.3752935018502516E-002   0.0000000000000000     
  -4.0882533569048619E-002   6.9461331963699635E-002   0.0000000000000000     
  -4.2693917216907129E-002   7.5348519831126864E-002   0.0000000000000000     
  -4.4445199713705905E-002   8.1414498620784231E-002   0.0000000000000000     
  -4.1353617078633942E-002   5.8840205846446059E-002   0.0000000000000000     
  -4.3474421915505351E-002   6.4349716325270270E-002   0.0000000000000000     
  -4.5529765501701673E-002   7.0038420925967904E-002   0.0000000000000000     
  -4.7519647837222921E-002   7.5906319648539014E-002   0.0000000000000000     
  -4.9444068922069102E-002   8.1953412492983518E-002   0.0000000000000000     
  -4.5772765806743512E-002   5.9517994448634232E-002   0.0000000000000000     
  -4.8080050626135760E-002   6.5003547596105299E-002   0.0000000000000000     
  -5.0317185371615024E-002   7.0669576046385532E-002   0.0000000000000000     
  -5.2484170043181302E-002   7.6516079799474890E-002   0.0000000000000000     
  -5.4581004640834589E-002   8.2543058855373386E-002   0.0000000000000000     
  -3.4861660828186383E-002   8.0488868346957398E-002   0.0000000000000000     
  -3.6213488774649437E-002   8.6759184886869956E-002   0.0000000000000000     
  -3.7510679546769052E-002   9.3189381739619659E-002   0.0000000000000000     
  -3.8753233144545235E-002   9.9779458905206495E-002   0.0000000000000000     
  -3.9941149567977965E-002  0.10652941638363050        0.0000000000000000     
  -3.9584397015744996E-002   8.0926317238775525E-002   0.0000000000000000     
  -4.1104348394254059E-002   8.7179650427171920E-002   0.0000000000000000     
  -4.2563434637826005E-002   9.3593110505407667E-002   0.0000000000000000     
  -4.3961655746460798E-002  0.10016669747348286        0.0000000000000000     
  -4.5299011720158475E-002  0.10690041133139741        0.0000000000000000     
  -4.4445199713705905E-002   8.1414498620784231E-002   0.0000000000000000     
  -4.6132866066385253E-002   8.7649872100914822E-002   0.0000000000000000     
  -4.7753401281885460E-002   9.4045244039761708E-002   0.0000000000000000     
  -4.9306805360206533E-002  0.10060061443732488        0.0000000000000000     
  -5.0793078301348465E-002  0.10731598329360435        0.0000000000000000     
  -4.9444068922069102E-002   8.1953412492983518E-002   0.0000000000000000     
  -5.1299041791043005E-002   8.8169849908098674E-002   0.0000000000000000     
  -5.3080579478947454E-002   9.4545782342681697E-002   0.0000000000000000     
  -5.4788681985782434E-002  0.10108120979673255        0.0000000000000000     
  -5.6423349311547959E-002  0.10777613227025126        0.0000000000000000     
  -5.4581004640834589E-002   8.2543058855373386E-002   0.0000000000000000     
  -5.6602875568227323E-002   8.8739583848723505E-002   0.0000000000000000     
  -5.8544969229011971E-002   9.5094725414167691E-002   0.0000000000000000     
  -6.0407285623188499E-002  0.10160848355170592        0.0000000000000000     
  -6.2189824750756934E-002  0.10828085826133822        0.0000000000000000     
  -3.9941149567977965E-002  0.10652941638363050        0.0000000000000000     
  -4.1078942748931917E-002  0.11342544793825034        0.0000000000000000     
  -4.2171126619271755E-002  0.12045374733242468        0.0000000000000000     
  -4.3217701178997481E-002  0.12761431456615355        0.0000000000000000     
  -4.4218666428109080E-002  0.13490714963943695        0.0000000000000000     
  -4.5299011720158475E-002  0.10690041133139741        0.0000000000000000     
  -4.6580879659459326E-002  0.11377996847742441        0.0000000000000000     
  -4.7812636664903679E-002  0.12079108530983690        0.0000000000000000     
  -4.8994282736491535E-002  0.12793376182863486        0.0000000000000000     
  -5.0125817874222878E-002  0.13520799803381833        0.0000000000000000     
  -5.0793078301348465E-002  0.10731598329360435        0.0000000000000000     
  -5.2218340169153853E-002  0.11417699940000349        0.0000000000000000     
  -5.3588711027465250E-002  0.12116931154792568        0.0000000000000000     
  -5.4904190876282684E-002  0.12829291973737092        0.0000000000000000     
  -5.6164779715606135E-002  0.13554782396833923        0.0000000000000000     
  -5.6423349311547959E-002  0.10777613227025126        0.0000000000000000     
  -5.7991324278015476E-002  0.11461654070598754        0.0000000000000000     
  -5.9499349706956466E-002  0.12158842604669101        0.0000000000000000     
  -6.0947425598370936E-002  0.12869178829236175        0.0000000000000000     
  -6.2335551952258851E-002  0.13592662744299969        0.0000000000000000     
  -6.2189824750756934E-002  0.10828085826133822        0.0000000000000000     
  -6.3899831986044223E-002  0.11509859239537656        0.0000000000000000     
  -6.5544552703377335E-002  0.12204842880613292        0.0000000000000000     
  -6.7123986902756255E-002  0.12913036749360729        0.0000000000000000     
  -6.8638134584181013E-002  0.13634440845779966        0.0000000000000000     
  -4.4218666428109080E-002  0.13490714963943695        0.0000000000000000     
  -4.5167316324368441E-002  0.14232286325592056        0.0000000000000000     
  -4.6056944825537446E-002  0.14985206611925003        0.0000000000000000     
  -4.6887551931616103E-002  0.15749475822942541        0.0000000000000000     
  -4.7659137642604411E-002  0.16525093958644665        0.0000000000000000     
  -5.0125817874222878E-002  0.13520799803381833        0.0000000000000000     
  -5.1198837557777536E-002  0.14260490245955948        0.0000000000000000     
  -5.2204937266835318E-002  0.15011558364003058        0.0000000000000000     
  -5.3144117001396207E-002  0.15774004157523158        0.0000000000000000     
  -5.4016376761460205E-002  0.16547827626516246        0.0000000000000000     
  -5.6164779715606135E-002  0.13554782396833923        0.0000000000000000     
  -5.7361163578525394E-002  0.14292513384460726        0.0000000000000000     
  -5.8484028498130239E-002  0.15041595896995175        0.0000000000000000     
  -5.9533374474420662E-002  0.15802029934437259        0.0000000000000000     
  -6.0509201507396672E-002  0.16573815496786981        0.0000000000000000     
  -6.2335551952258851E-002  0.13592662744299969        0.0000000000000000     
  -6.3654294386612006E-002  0.14328355741106394        0.0000000000000000     
  -6.4894218519422259E-002  0.15075319210901353        0.0000000000000000     
  -6.6055324350689504E-002  0.15833553153684843        0.0000000000000000     
  -6.7137611880413797E-002  0.16603057569456872        0.0000000000000000     
  -6.8638134584181013E-002  0.13634440845779966        0.0000000000000000     
  -7.0078229982037415E-002  0.14368017315892942        0.0000000000000000     
  -7.1435507330711315E-002  0.15112728305721593        0.0000000000000000     
  -7.2709966630202696E-002  0.15868573815265918        0.0000000000000000     
  -7.3901607880511561E-002  0.16635553844525919        0.0000000000000000     
   0.0000000000000000        0.0000000000000000        0.0000000000000000     
  -2.8800657446669737E-003   1.7448780965884370E-003   0.0000000000000000     
  -5.8726476862235137E-003   3.8647126946713467E-003   0.0000000000000000     
  -8.9777458246696213E-003   6.3595037942487291E-003   0.0000000000000000     
  -1.2195360160005294E-002   9.2292513953205844E-003   0.0000000000000000     
   0.0000000000000000        0.0000000000000000        0.0000000000000000     
  -3.2831910025625357E-003   1.9993916870095982E-003   0.0000000000000000     
  -6.6769366737329207E-003   4.3310170431437372E-003   0.0000000000000000     
  -1.0181237013511155E-002   6.9948760684024180E-003   0.0000000000000000     
  -1.3796092021897239E-002   9.9909687627856396E-003   0.0000000000000000     
   0.0000000000000000        0.0000000000000000        0.0000000000000000     
  -3.9535478914199604E-003   2.4251711409973742E-003   0.0000000000000000     
  -7.9105891500605794E-003   5.0629981451685933E-003   0.0000000000000000     
  -1.1871123775921857E-002   7.9134810125136568E-003   0.0000000000000000     
  -1.5835151769003793E-002   1.0976619743032564E-002   0.0000000000000000     
   0.0000000000000000        0.0000000000000000        0.0000000000000000     
  -4.8911364112392474E-003   3.0222164585517646E-003   0.0000000000000000     
  -9.5736051152064908E-003   6.0606560007459148E-003   0.0000000000000000     
  -1.4047406111901728E-002   9.1153186265824481E-003   0.0000000000000000     
  -1.8312539401324959E-002   1.2186204336061364E-002   0.0000000000000000     
   0.0000000000000000        0.0000000000000000        0.0000000000000000     
  -6.0959565620203968E-003   3.7905276396727710E-003   0.0000000000000000     
  -1.1665984569170652E-002   7.3239906098757010E-003   0.0000000000000000     
  -1.6710084021450765E-002   1.0600388910608789E-002   0.0000000000000000     
  -2.1228254918860739E-002   1.3619722541872034E-002   0.0000000000000000     
  -1.2195360160005294E-002   9.2292513953205844E-003   0.0000000000000000     
  -1.5427739216137383E-002   1.2371876308664799E-002   0.0000000000000000     
  -1.8577131516972729E-002   1.5685299345059248E-002   0.0000000000000000     
  -2.1643537062511330E-002   1.9169520504503948E-002   0.0000000000000000     
  -2.4626955852753193E-002   2.2824539786998884E-002   0.0000000000000000     
  -1.3796092021897239E-002   9.9909687627856396E-003   0.0000000000000000     
  -1.7404382233644513E-002   1.3221303213718052E-002   0.0000000000000000     
  -2.0888988183506339E-002   1.6587887508624305E-002   0.0000000000000000     
  -2.4249909871482705E-002   2.0090721647504403E-002   0.0000000000000000     
  -2.7487147297573618E-002   2.3729805630358342E-002   0.0000000000000000     
  -1.5835151769003793E-002   1.0976619743032564E-002   0.0000000000000000     
  -1.9730862715668769E-002   1.4211243068372860E-002   0.0000000000000000     
  -2.3486446202279149E-002   1.7576179720182085E-002   0.0000000000000000     
  -2.7101902228834948E-002   2.1071429698460223E-002   0.0000000000000000     
  -3.0577230795336158E-002   2.4696993003207289E-002   0.0000000000000000     
  -1.8312539401324959E-002   1.2186204336061364E-002   0.0000000000000000     
  -2.2407180662210122E-002   1.5341695872629220E-002   0.0000000000000000     
  -2.6369505573291156E-002   1.8650175979732567E-002   0.0000000000000000     
  -3.0199514134568055E-002   2.2111644657371411E-002   0.0000000000000000     
  -3.3897206346040820E-002   2.5726101905545744E-002   0.0000000000000000     
  -2.1228254918860739E-002   1.3619722541872034E-002   0.0000000000000000     
  -2.5433336073268593E-002   1.6612661626487134E-002   0.0000000000000000     
  -2.9538166296542358E-002   1.9809876287275777E-002   0.0000000000000000     
  -3.3542745588682032E-002   2.3211366524237959E-002   0.0000000000000000     
  -3.7447073949687618E-002   2.6817132337373692E-002   0.0000000000000000     
  -2.4626955852753193E-002   2.2824539786998884E-002   0.0000000000000000     
  -2.7531679320525814E-002   2.6673092931187130E-002   0.0000000000000000     
  -3.0361998898656664E-002   3.0737915675711745E-002   0.0000000000000000     
  -3.3117914587145768E-002   3.5019008020572735E-002   0.0000000000000000     
  -3.5799426385993108E-002   3.9516369965770098E-002   0.0000000000000000     
  -2.7487147297573618E-002   2.3729805630358342E-002   0.0000000000000000     
  -3.0623874557826593E-002   2.7547683131834338E-002   0.0000000000000000     
  -3.3683265748289150E-002   3.1586897826580626E-002   0.0000000000000000     
  -3.6665320868961286E-002   3.5847449714597190E-002   0.0000000000000000     
  -3.9570039919843009E-002   4.0329338795884045E-002   0.0000000000000000     
  -3.0577230795336158E-002   2.4696993003207289E-002   0.0000000000000000     
  -3.3941916452951824E-002   2.8497429572053229E-002   0.0000000000000000     
  -3.7225443752850973E-002   3.2517299342627967E-002   0.0000000000000000     
  -4.0427812695033614E-002   3.6756602314931511E-002   0.0000000000000000     
  -4.3549023279499728E-002   4.1215338488963860E-002   0.0000000000000000     
  -3.3897206346040820E-002   2.5726101905545744E-002   0.0000000000000000     
  -3.7485805005901505E-002   2.9522332251843791E-002   0.0000000000000000     
  -4.0988532912342134E-002   3.3529120223853778E-002   0.0000000000000000     
  -4.4405390065362711E-002   3.7746465821575703E-002   0.0000000000000000     
  -4.7736376464963239E-002   4.2174369045009555E-002   0.0000000000000000     
  -3.7447073949687618E-002   2.6817132337373692E-002   0.0000000000000000     
  -4.1255540216675643E-002   3.0622391171206031E-002   0.0000000000000000     
  -4.4972533226762645E-002   3.4622360470258060E-002   0.0000000000000000     
  -4.8598052979948625E-002   3.8817040234529761E-002   0.0000000000000000     
  -5.2132099476233582E-002   4.3206430464021145E-002   0.0000000000000000     
  -3.5799426385993108E-002   3.9516369965770098E-002   0.0000000000000000     
  -3.8405992490309855E-002   4.4220594054973278E-002   0.0000000000000000     
  -4.0937071095207167E-002   4.9122272831851686E-002   0.0000000000000000     
  -4.3392662200685057E-002   5.4221406296405338E-002   0.0000000000000000     
  -4.5772765806743512E-002   5.9517994448634232E-002   0.0000000000000000     
  -3.9570039919843009E-002   4.0329338795884045E-002   0.0000000000000000     
  -4.2394105253354929E-002   4.5019011717031522E-002   0.0000000000000000     
  -4.5134199221917672E-002   4.9902915124629979E-002   0.0000000000000000     
  -4.7790321825531216E-002   5.4981049018679409E-002   0.0000000000000000     
  -5.0362473064195584E-002   6.0253413399179799E-002   0.0000000000000000     
  -4.3549023279499728E-002   4.1215338488963860E-002   0.0000000000000000     
  -4.6584451810655909E-002   4.5880918245523851E-002   0.0000000000000000     
  -4.9529474592908795E-002   5.0740751965410287E-002   0.0000000000000000     
  -5.2384091626258344E-002   5.5794839648623189E-002   0.0000000000000000     
  -5.5148302910704584E-002   6.1043181295162549E-002   0.0000000000000000     
  -4.7736376464963239E-002   4.2174369045009555E-002   0.0000000000000000     
  -5.0977032162212825E-002   4.6806313640450244E-002   0.0000000000000000     
  -5.4122897208180566E-002   5.1635783354192624E-002   0.0000000000000000     
  -5.7173971602866469E-002   5.6662778186236697E-002   0.0000000000000000     
  -6.0130255346270513E-002   6.1887298136582468E-002   0.0000000000000000     
  -5.2132099476233582E-002   4.3206430464021145E-002   0.0000000000000000     
  -5.5571846308025648E-002   4.7795197901810714E-002   0.0000000000000000     
  -5.8914467067732970E-002   5.2588009290976977E-002   0.0000000000000000     
  -6.2159961755355549E-002   5.7584864631519919E-002   0.0000000000000000     
  -6.5308330370893383E-002   6.2785763923439555E-002   0.0000000000000000     
  -4.5772765806743512E-002   5.9517994448634232E-002   0.0000000000000000     
  -4.8080050626135760E-002   6.5003547596105299E-002   0.0000000000000000     
  -5.0317185371615024E-002   7.0669576046385532E-002   0.0000000000000000     
  -5.2484170043181302E-002   7.6516079799474890E-002   0.0000000000000000     
  -5.4581004640834589E-002   8.2543058855373386E-002   0.0000000000000000     
  -5.0362473064195584E-002   6.0253413399179799E-002   0.0000000000000000     
  -5.2855354712305840E-002   6.5713666172359589E-002   0.0000000000000000     
  -5.5273668544257061E-002   7.1355465244447219E-002   0.0000000000000000     
  -5.7617414560049235E-002   7.7178810615442670E-002   0.0000000000000000     
  -5.9886592759682361E-002   8.3183702285345940E-002   0.0000000000000000     
  -5.5148302910704584E-002   6.1043181295162549E-002   0.0000000000000000     
  -5.7827753984299755E-002   6.6479309395385155E-002   0.0000000000000000     
  -6.0428090385096112E-002   7.2096756439647830E-002   0.0000000000000000     
  -6.2949312113093667E-002   7.7895522427950517E-002   0.0000000000000000     
  -6.5391419168292414E-002   8.3875607360293231E-002   0.0000000000000000     
  -6.0130255346270513E-002   6.1887298136582468E-002   0.0000000000000000     
  -6.2997248442117501E-002   6.7300477265181999E-002   0.0000000000000000     
  -6.5780450894132217E-002   7.2893449631987295E-002   0.0000000000000000     
  -6.8479862702314626E-002   7.8666215236998405E-002   0.0000000000000000     
  -7.1095483866664755E-002   8.4618774080215314E-002   0.0000000000000000     
  -6.5308330370893383E-002   6.2785763923439555E-002   0.0000000000000000     
  -6.8363838085759104E-002   6.8177169781750091E-002   0.0000000000000000     
  -7.1330750071365329E-002   7.3745544821465697E-002   0.0000000000000000     
  -7.4209066327712098E-002   7.9490889042586388E-002   0.0000000000000000     
  -7.6998786854799356E-002   8.5413202445112163E-002   0.0000000000000000     
  -5.4581004640834589E-002   8.2543058855373386E-002   0.0000000000000000     
  -5.6602875568227323E-002   8.8739583848723505E-002   0.0000000000000000     
  -5.8544969229011971E-002   9.5094725414167691E-002   0.0000000000000000     
  -6.0407285623188499E-002  0.10160848355170592        0.0000000000000000     
  -6.2189824750756934E-002  0.10828085826133822        0.0000000000000000     
  -5.9886592759682361E-002   8.3183702285345940E-002   0.0000000000000000     
  -6.2075378839850613E-002   8.9358328011671609E-002   0.0000000000000000     
  -6.4177948497248116E-002   9.5690875551934354E-002   0.0000000000000000     
  -6.6194301731874905E-002  0.10218134490613412        0.0000000000000000     
  -6.8124438543730959E-002  0.10882973607427092        0.0000000000000000     
  -6.5391419168292414E-002   8.3875607360293231E-002   0.0000000000000000     
  -6.7747563047825254E-002   9.0025336485825419E-002   0.0000000000000000     
  -7.0010895248825047E-002   9.6333035053696461E-002   0.0000000000000000     
  -7.2181415771291862E-002  0.10279870306390633        0.0000000000000000     
  -7.4259124615225630E-002  0.10942234051645507        0.0000000000000000     
  -7.1095483866664755E-002   8.4618774080215314E-002   0.0000000000000000     
  -7.3619428192151254E-002   9.0740609271184880E-002   0.0000000000000000     
  -7.6043809483742772E-002   9.7021203919453944E-002   0.0000000000000000     
  -7.8368627741439337E-002  0.10346055802502256        0.0000000000000000     
  -8.0593882965240934E-002  0.11005867158789069        0.0000000000000000     
  -7.6998786854799356E-002   8.5413202445112163E-002   0.0000000000000000     
  -7.9690974272828605E-002   9.1504146367749992E-002   0.0000000000000000     
  -8.2276691202001262E-002   9.7755382149206885E-002   0.0000000000000000     
  -8.4755937642317355E-002  0.10416690978948281        0.0000000000000000     
  -8.7128713593776871E-002  0.11073872928857781        0.0000000000000000     
  -6.2189824750756934E-002  0.10828085826133822        0.0000000000000000     
  -6.3899831986044223E-002  0.11509859239537656        0.0000000000000000     
  -6.5544552703377335E-002  0.12204842880613292        0.0000000000000000     
  -6.7123986902756255E-002  0.12913036749360729        0.0000000000000000     
  -6.8638134584181013E-002  0.13634440845779966        0.0000000000000000     
  -6.8124438543730959E-002  0.10882973607427092        0.0000000000000000     
  -6.9976228032776935E-002  0.11562343405434253        0.0000000000000000     
  -7.1757539298973549E-002  0.12254982384434673        0.0000000000000000     
  -7.3468372342320717E-002  0.12960890544428358        0.0000000000000000     
  -7.5108727162818509E-002  0.13680067885415301        0.0000000000000000     
  -7.4259124615225630E-002  0.10942234051645507        0.0000000000000000     
  -7.6252877157750559E-002  0.11619134526905736        0.0000000000000000     
  -7.8171528775990776E-002  0.12309311517942785        0.0000000000000000     
  -8.0015079469946349E-002  0.13012765024756662        0.0000000000000000     
  -8.1783529239617195E-002  0.13729495047347359        0.0000000000000000     
  -8.0593882965240934E-002  0.11005867158789069        0.0000000000000000     
  -8.2729779360965025E-002  0.11680232603952104        0.0000000000000000     
  -8.4786521134429096E-002  0.12367830281137628        0.0000000000000000     
  -8.6764108285633121E-002  0.13068660190345635        0.0000000000000000     
  -8.8662540814577070E-002  0.13782722331576142        0.0000000000000000     
  -8.7128713593776871E-002  0.11073872928857781        0.0000000000000000     
  -8.9406934642420374E-002  0.11745637636573361        0.0000000000000000     
  -9.1602516374288429E-002  0.12430538674019197        0.0000000000000000     
  -9.3715458789381034E-002  0.13128576041195292        0.0000000000000000     
  -9.5745761887698178E-002  0.13839749738101642        0.0000000000000000     
  -6.8638134584181013E-002  0.13634440845779966        0.0000000000000000     
  -7.0078229982037415E-002  0.14368017315892942        0.0000000000000000     
  -7.1435507330711315E-002  0.15112728305721593        0.0000000000000000     
  -7.2709966630202696E-002  0.15868573815265918        0.0000000000000000     
  -7.3901607880511561E-002  0.16635553844525919        0.0000000000000000     
  -7.5108727162818509E-002  0.13680067885415301        0.0000000000000000     
  -7.6670272480305030E-002  0.14411386988477440        0.0000000000000000     
  -7.8144677014618386E-002  0.15153720434696716        0.0000000000000000     
  -7.9531940765758619E-002  0.15907068224073123        0.0000000000000000     
  -8.0832063733725687E-002  0.16671430356606662        0.0000000000000000     
  -8.1783529239617195E-002  0.13729495047347359        0.0000000000000000     
  -8.3467723996918250E-002  0.14458353638516958        0.0000000000000000     
  -8.5058509653764366E-002  0.15198192851067541        0.0000000000000000     
  -8.6555886210155558E-002  0.15949012684999106        0.0000000000000000     
  -8.7959853666091825E-002  0.16710813140311653        0.0000000000000000     
  -8.8662540814577070E-002  0.13782722331576142        0.0000000000000000     
  -9.0470584531877132E-002  0.14508917266011495        0.0000000000000000     
  -9.2177005248149271E-002  0.15246145554834070        0.0000000000000000     
  -9.3781802963393557E-002  0.15994407198043867        0.0000000000000000     
  -9.5284977677609989E-002  0.16753702195640885        0.0000000000000000     
  -9.5745761887698178E-002  0.13839749738101642        0.0000000000000000     
  -9.7678854085181621E-002  0.14563077870961047        0.0000000000000000     
  -9.9500163797773100E-002  0.15297578545996304        0.0000000000000000     
 -0.10120969102547261       0.16043251763207406        0.0000000000000000     
 -0.10280743576828015       0.16800097522594359        0.0000000000000000     
 </DataArray>
 <DataArray  type="Float64" Name="stress" NumberOfComponents="3" format="ascii">
   13416624188.740995        4024987256.6222987        2894075058.0241356     
   11766454260.846952        1890363581.4779251        1715859203.9451673     
   10313589803.484653        413424808.10602760        810734353.54686487     
   9058030816.6540947       -405829063.49339771        178700506.82922801     
   7999777300.3552780       -567398033.32034540       -180242336.20774156     
   10539893306.110136        3161967991.8330407        2225800553.8933887     
   9667514548.3290901        1589512125.7704313        1446737475.7460506     
   8943794596.4836159        512585612.82639265        863153261.13994372     
   8368733450.5737104       -68811546.999073982        475047910.07506943     
   7942331110.5993776       -154679353.70596981        282421422.55142546     
   8337866284.6090317        2501359885.3827095        1712376523.8724079     
   8021529725.1140242        1424547136.8537760        1275711779.6278331     
   7805205306.9584198        681108192.78951144        956913758.78505611     
   7688893030.1422167        271043053.18991470        755982461.34407520     
   7672592894.6654091        194351718.05498505        672917887.30489314     
   6810543124.2376804        2043162937.2713041        1353802967.9611926     
   6828499791.2017603        1395468614.7279613        1202782115.5905151     
   6897821934.9090672        918992547.99538326        1092015846.4822013     
   7018509555.3596077        613734737.07357001        1021504160.6362498     
   7190562652.5533762        479695181.96252131        991247058.05266237     
   5957923824.9960823        1787377147.4988248        1150079886.1597428     
   6088424746.5922928        1502276559.3929856        1227948483.6340971     
   6221644480.3355608        1226238678.4440079        1268459524.2313800     
   6357583026.2258883        959263504.65189171        1271613007.9515913     
   6496240384.2632742        701351038.01663637        1237408934.7947316     
   7999777300.3552780       -567398033.32034540       -180242336.20774156     
   7917550460.2929459       -199881540.93670225       -78274907.531091705     
   7793805485.5272074        29241169.102268696       -8941994.2118773516     
   7628542376.0580654        119970096.79656363        27756403.749910284     
   7421761131.8855247        72305242.146184921        31820286.354260314     
   7942331110.5993776       -154679353.70596981        282421422.55142546     
   7739647231.1542187        16532353.556631088        281168597.93412453     
   7513555518.8355160        109717951.24076128        265192131.86925006     
   7264055973.6432705        124877439.34641647        234492024.35679659     
   6991148595.5774870        62010817.873602390        189068275.39676514     
   7672592894.6654091        194351718.05498505        672917887.30489314     
   7400625901.2941504        184610817.83356094        589573494.86181927     
   7123361376.8792076        157211480.79986715        509416334.88101995     
   6840799321.4205866        112153706.95390272        432446407.36249775     
   6552939734.9182835        49437496.295671225        358663712.30625087     
   7190562652.5533762        479695181.96252131        991247058.05266237     
   6900486470.7127390        304353851.89408779        846939783.25198209     
   6623223059.6582870        171721757.77959037        723730614.82343268     
   6358772419.3900099        81798899.619021893        621619552.76701355     
   6107134549.9079170        34585277.412389278        540606597.08272278     
   6496240384.2632742        701351038.01663637        1237408934.7947316     
   6239228939.4099913        375761455.73821402        1053267463.1046177     
   6013140567.1727495        153248782.17992902        908134971.69648755     
   5817975267.5515451        33813017.341774464        802011460.57034183     
   5653733040.5463848        17454161.223758221        734896929.72617877     
   7421761131.8855247        72305242.146184921        31820286.354260314     
   7218859309.2774782       -18605322.380928993        14736388.988945777     
   7028194608.3973970       -68725481.148166656        2118380.1427794257     
   6849767029.2452784       -78055234.155529022       -6033740.1842467468     
   6683576571.8211193       -46594581.403019905       -9719971.9921196103     
   6991148595.5774870        62010817.873602390        189068275.39676514     
   6808444574.8274384        2570237.2616729736        180699527.84653100     
   6633564892.6648874       -30789214.725265980        176139358.45672002     
   6466509549.0898304       -38067538.087226391        175387767.22733399     
   6307278544.1022720       -19264732.824188948        178444754.15837020     
   6552939734.9182835        49437496.295671225        358663712.30625087     
   6388555486.4298840        20903490.720022678        353861867.57388866     
   6227582793.3885117        3741336.6344711781        352211290.64322549     
   6070021655.7941666       -2048965.9609847069        353711981.51426756     
   5915872073.6468563        3532582.9336662292        358363940.18700600     
   6107134549.9079170        34585277.412389278        540606597.08272278     
   5959192044.0848112        36394437.994114161        534223408.17102057     
   5810248310.5682669        34866172.931046724        530334176.70229882     
   5660303349.3582878        30000482.223195791        528938902.67654961     
   5509357160.4548693        21797365.870552540        530037586.09378183     
   5653733040.5463848        17454161.223758221        734896929.72617877     
   5520354247.7922230        49043079.083951235        721784149.63792717     
   5381561444.2041540        62585294.164463997        710508016.63392770     
   5237354629.7821846        58080806.465300322        701068530.71418595     
   5087733804.5263138        35529615.986468315        693465691.87869918     
   6683576571.8211193       -46594581.403019905       -9719971.9921196103     
   6509000834.9037437       -6906843.1175882816       -3796895.6034462471     
   6329271054.9710770        15600751.783548117        3094067.5656469474     
   6144387232.0231161        20928203.300375938        10952917.515167659     
   5954349366.0598717        9075511.4329080582        19779654.245101795     
   6307278544.1022720       -19264732.824188948        178444754.15837020     
   6131590519.2061691        1768685.7265479565        175022699.74641165     
   5952804124.4655972        12474204.795726299        174081995.43224376     
   5770919359.8805676        12851824.383383036        175622641.21587032     
   5585936225.4510727        2901544.4894757271        179644637.09729260     
   5915872073.6468563        3532582.9336662292        358363940.18700600     
   5743395941.6788044        7208936.0217349529        347995040.34037495     
   5569877113.0371170        7409633.5310206413        341620953.90890682     
   5395315587.7217913        4134675.4615051746        339241680.89261073     
   5219711365.7328272       -2615938.1867921352        340857221.29148304     
   5509357160.4548693        21797365.870552540        530037586.09378183     
   5344417102.3216543        9413907.7679979801        515120126.17844009     
   5180490020.6856279        407037.98940420151        505710942.99564004     
   5017575915.5467930       -5223243.4652240276        501810036.54538512     
   4855674786.9051428       -7476936.5958874226        503417406.82767034     
   5087733804.5263138        35529615.986468315        693465691.87869918     
   4934654001.1347141        8383600.9653172493        676397957.26061404     
   4784642847.4111280       -8533581.8291158676        666351962.69244432     
   4637700343.3555613       -15221932.396828175        663327708.17419410     
   4493826488.9680080       -11681450.737823009        667325193.70585644     
   5954349366.0598717        9075511.4329080582        19779654.245101795     
   5780831785.3173943       -2303757.1156580448        10894679.970368227     
   5609512646.1084604       -6354887.2190835476        5605749.4795431504     
   5440391948.4330635       -3077878.8773825169        3912862.7726076702     
   5273469692.2912025        7527267.9094374180        5816019.8495710725     
   5585936225.4510727        2901544.4894757271        179644637.09729260     
   5423301027.1136560       -2955662.7761445045        173563345.45707116     
   5262042456.9508057       -4224109.4598975182        170982751.58693904     
   5102160514.9625139       -903795.56177830696        171902855.48687798     
   4943655201.1487818        7005278.9182062149        176323657.15691394     
   5219711365.7328272       -2615938.1867921352        340857221.29148304     
   5067686132.6181412       -3032809.3241779804        336620830.03363675     
   4916215714.3190365       -1600297.7429559231        335789790.53205472     
   4765300110.8355198        1681596.5568957329        338364102.78673655     
   4614939322.1675844        6812873.5753555298        344343766.79769176     
   4855674786.9051428       -7476936.5958874226        503417406.82767034     
   4713987101.8308401       -2535196.7597551346        500067133.70005804     
   4572032418.2131548        1516547.9317536354        500026866.31489217     
   4429810736.0520744        4678297.4786298275        503296604.67218238     
   4287322055.3476090        6950051.8808720112        509876348.77192223     
   4493826488.9680080       -11681450.737823009        667325193.70585644     
   4362203934.7517700       -1462825.0828490257        663902256.45633686     
   4229492568.6331663        5126427.5642390251        663693978.93545401     
   4095692390.6121907        8086307.2034311295        666700361.14320660     
   3960803400.6888556        7416813.8347480297        672921403.07958663     
   5273469692.2912025        7527267.9094374180        5816019.8495710725     
   5069330422.0506439        8474162.4522080421       -219099.17921101820     
   4863986239.0582256        5404681.1554665565       -1095691.6151421820     
   4657437143.3139515       -1681175.9807951450        3186242.5417980780     
   4449683134.8178368       -12783408.956538677        12626703.291604638     
   4943655201.1487818        7005278.9182062149        176323657.15691394     
   4752192688.3531132        6000319.8579030037        169483796.02566630     
   4559995169.0230608        2545339.0162992477        167687187.93679914     
   4367062643.1586218       -3359663.6065881252        170933832.89031541     
   4173395110.7597876       -11714688.010775805        179223730.88620898     
   4614939322.1675844        6812873.5753555298        344343766.79769176     
   4435824213.8154202        3757255.0115392208        337247387.48437208     
   4256444005.1463389       -182031.27534818649        335078987.66294134     
   4076798696.1603346       -5004985.2853012085        337838567.33341163     
   3896888286.8574080       -10711607.018335104        345526126.49576861     
   4287322055.3476090        6950051.8808720112        509876348.77192223     
   4120224998.4375668        1744967.9131329060        503071675.19689828     
   3953332747.4280672       -2777429.7194542885        501079707.56328678     
   3786645302.3191099       -6617141.0168988705        503900445.87108117     
   3620162663.1107116       -9774165.9791646004        511533890.12028372     
   3960803400.6888556        7416813.8347480297        672921403.07958663     
   3805395042.2195439       -36541.437324523926        666956659.16324270     
   3650661395.8682437       -5240856.3160259724        665689347.63782644     
   3496602461.6349554       -8196130.8013494015        669119468.50332832     
   3343218239.5196757       -8902364.8933088779        677247021.75975382     
   4449683134.8178368       -12783408.956538677        12626703.291604638     
   4291993021.2537637       -9525493.4723041058        4465406.9395774128     
   4135073301.7472858       -3699597.7960815430       -1332670.1245746769     
   3978923976.2984023        4694278.0721325874       -4767527.9008599576     
   3823545044.9071198        15656134.132325411       -5839166.3892841926     
   4173395110.7597876       -11714688.010775805        179223730.88620898     
   4022641413.8247728       -7637428.6628341675        171904149.71649313     
   3872331382.6195216       -2081283.5490109921        167367975.00501743     
   3722465017.1440296        4953747.3306763172        165615206.75178987     
   3573042317.3982940        13467663.976214647        166645844.95682362     
   3896888286.8574080       -10711607.018335104        345526126.49576861     
   3754271541.3239722       -5454843.3749117851        338667077.45921081     
   3611771733.1924672        191711.60826492310        335011622.05128670     
   3469388862.4628773        6228057.9311728477        334559760.27198386     
   3327122929.1352239        12654195.593857050        337311492.12131888     
   3620162663.1107116       -9774165.9791646004        511533890.12028372     
   3486883403.7513695       -2977737.6085312366        504754190.16774970     
   3353394353.4661264        3119387.6757555008        501598271.01422322     
   3219695512.2549715        8517209.8736696243        502066132.65970695     
   3085786880.1179090        13215728.985232830        506157775.10419869     
   3343218239.5196757       -8902364.8933088779        677247021.75975382     
   3220477001.1069622       -206111.36368525028        670165487.84209442     
   3097199243.4404941        6701744.6534500122        667127921.89383161     
   2973384966.5202875        11821203.158123016        668134323.91495907     
   2849034170.3463397        15152264.150312185        673184693.90547943     
   3823545044.9071198        15656134.132325411       -5839166.3892841926     
   3606485114.3893514        7530935.7151603699       -16120632.374179326     
   3388270555.9198742       -4443022.5410242081       -18181341.059348304     
   3168901369.4986863       -20265740.636227131       -12021292.444748852     
   2948377555.1258178       -39937218.570409417        2359513.4695613822     
   3573042317.3982940        13467663.976214647        166645844.95682362     
   3376131941.5304556        7486950.9932498932        156222330.20725459     
   3178614167.9821448       -518420.92463791370        152582834.32693216     
   2980488996.7533860       -10548451.777373195        155727357.31584096     
   2781756427.8441305       -22603141.565029025        165655899.17400920     
   3327122929.1352239        12654195.593857050        337311492.12131888     
   3146257140.9730415        7586477.9617807865        327384363.92352849     
   2965331185.4016161        2318202.2989269495        322804516.16448277     
   2784345062.4209642       -3150631.3946861029        323571948.84417564     
   2603298772.0311027       -8820023.1190242767        329686661.96262658     
   3085786880.1179090        13215728.985232830        506157775.10419869     
   2916860712.7170849        7829516.6207506657        497365468.77463186     
   2748421608.1782737        4066847.1296383142        492483704.45330834     
   2580469566.5014787        1927720.5119103193        491512482.14024043     
   2413004587.6866922        1412136.7675526142        494451801.83540386     
   2849034170.3463397        15152264.150312185        673184693.90547943     
   2687942656.7626052        8216066.9701566696        666165644.76058102     
   2527885436.3121219        4727513.5675052404        661620399.19342649     
   2368862508.9948893        4686603.9423553944        659548957.20403075     
   2210873874.8109069        8093338.0947166681        659951318.79236996     
   5957923824.9960823        1787377147.4988248        1150079886.1597428     
   6088424746.5922928        1502276559.3929856        1227948483.6340971     
   6221644480.3355608        1226238678.4440079        1268459524.2313800     
   6357583026.2258883        959263504.65189171        1271613007.9515913     
   6496240384.2632742        701351038.01663637        1237408934.7947316     
   5434619097.4634953        1630385729.2390485        1033512302.9310269     
   5489904350.3647041        1372518782.2321804        1113905492.3536134     
   5547381590.2358141        1121958458.4583192        1167513345.5573528     
   5607050817.0768270        878704757.91746533        1194335862.5422459     
   5668912030.8877430        642757680.60961938        1194373043.3082924     
   4895239652.2191734        1468571895.6657519        936405242.73801291     
   4905515581.1631632        1247000493.1791894        1018708394.7354827     
   4917456671.8999004        1030979630.0017803        1084798431.1723304     
   4931062924.4293833        820509306.13352478        1134675352.0485559     
   4946334338.7516117        615589521.57442188        1168339157.3641589     
   4339785489.2631178        1301935646.7789352        858758705.58070064     
   4335258438.9876747        1125721692.2340140        942357190.77970493     
   4331869725.3278227        953302193.07439232        1020314781.0763115     
   4329619348.2835588        784677149.30006909        1092631476.4705200     
   4328507307.8548870        619846560.91104627        1159307276.9623315     
   3768256608.5953279        1130476982.5785985        800572691.45909023     
   3779132923.8382363        1008682379.3966539        884851880.48628008     
   3790620750.5195780        888926147.67615414        974062395.26929653     
   3802720088.6393533        771208287.41709995        1068204235.8081403     
   3815430938.1975608        655528798.61949003        1167277402.1028104     
   6496240384.2632742        701351038.01663637        1237408934.7947316     
   6239228939.4099913        375761455.73821402        1053267463.1046177     
   6013140567.1727495        153248782.17992902        908134971.69648755     
   5817975267.5515451        33813017.341774464        802011460.57034183     
   5653733040.5463848        17454161.223758221        734896929.72617877     
   5668912030.8877430        642757680.60961938        1194373043.3082924     
   5518855981.5497732        383192089.83468890        1073531608.7078670     
   5392952999.4029446        204136723.03023052        980718269.25950921     
   5291203084.4472599        105591580.19624209        915933024.96321762     
   5213606236.6827154        87556661.332723379        879175875.81899428     
   4946334338.7516117        615589521.57442188        1168339157.3641589     
   4871859727.4149103        412635735.04877138        1102899420.1910391     
   4814768177.8444510        267625487.74392629        1054506893.0400708     
   4775059690.0402355        180558779.65988731        1023161575.9112517     
   4752734264.0022554        151435610.79665184        1008863468.8045840     
   4328507307.8548870        619846560.91104627        1159307276.9623315     
   4298240177.0054045        464092391.38045943        1141370897.5541346     
   4278586102.4972634        343715076.32101405        1129500843.0381727     
   4269545084.3304667        258714615.73270917        1123697113.4144440     
   4271117122.5050087        209091009.61554480        1123959708.6829507     
   3815430938.1975608        655528798.61949003        1167277402.1028104     
   3797997330.3212523        537562058.82975495        1188946040.7971547     
   3784406773.3613825        432405488.76149261        1205700119.2538164     
   3774659267.3179588        340059088.41470981        1217539637.4727948     
   3768754812.1909771        260522857.78940105        1224464595.4540923     
   5653733040.5463848        17454161.223758221        734896929.72617877     
   5520354247.7922230        49043079.083951235        721784149.63792717     
   5381561444.2041540        62585294.164463997        710508016.63392770     
   5237354629.7821846        58080806.465300322        701068530.71418595     
   5087733804.5263138        35529615.986468315        693465691.87869918     
   5213606236.6827154        87556661.332723379        879175875.81899428     
   5077668306.9873924        85407511.176376343        855468322.28326213     
   4939591437.5425177        76128561.854854345        835741262.78927827     
   4799375628.3480892        59719813.368149042        819994697.33704090     
   4657020879.4041061        36181265.716266632        808228625.92655182     
   4752734264.0022554        151435610.79665184        1008863468.8045840     
   4620362474.3871841        117385975.73019457        978382058.08644688     
   4489126816.1069107        87123445.113054752        954024988.36754954     
   4359027289.1614275        60648018.945226908        935792259.64789283     
   4230063893.5507421        37959697.226719618        923683871.92747605     
   4271117122.5050087        209091009.61554480        1123959708.6829507     
   4148436749.9915972        144978472.74539661        1090525357.0474799     
   4030167579.8973269        95569943.939059496        1065359193.3687441     
   3916309612.2222013        60865423.196536064        1048461217.6467407     
   3806862846.9662180        40864910.517822027        1039831429.8814671     
   3768754812.1909771        260522857.78940105        1224464595.4540923     
   3661891133.8006287        168185002.22198284        1191898219.1663630     
   3562713728.9137735        101468058.33287752        1169743877.7928607     
   3471222597.5304093        60372026.122073412        1158001571.3335834     
   3387417739.6505380        44896905.589582086        1156671299.7885296     
   5087733804.5263138        35529615.986468315        693465691.87869918     
   4934654001.1347141        8383600.9653172493        676397957.26061404     
   4784642847.4111280       -8533581.8291158676        666351962.69244432     
   4637700343.3555613       -15221932.396828175        663327708.17419410     
   4493826488.9680080       -11681450.737823009        667325193.70585644     
   4657020879.4041061        36181265.716266632        808228625.92655182     
   4522901782.3042898        15266285.590299606        795123901.18695831     
   4391022419.6612797        1817086.9870223999        788144663.95378149     
   4261382791.4750772       -4166330.0935640335        787290914.22701502     
   4133982897.7456841       -2683965.6514544487        792562652.00666225     
   4230063893.5507421        37959697.226719618        923683871.92747605     
   4112344781.1898470        22507535.530076027        913575089.31996322     
   3996036488.0745521        11758104.652096748        908695541.67536473     
   3881139014.2048573        5711404.5927827358        909045228.99367547     
   3767652359.5807586        4367435.3521296978        914624151.27490115     
   3806862846.9662180        40864910.517822027        1039831429.8814671     
   3702982997.7913852        30107350.784646273        1031751521.6596295     
   3599685052.6509418        21289471.166105747        1028004595.8571980     
   3496969011.5448899        14411271.662202597        1028590652.4741786     
   3394834874.4732275        9472752.2729332447        1033509691.5105739     
   3387417739.6505380        44896905.589582086        1156671299.7885296     
   3294816432.1089053        38065731.354013443        1149653198.2059522     
   3201968113.3904538        30411186.529051542        1146071826.4992826     
   3108872783.4951868        21933271.114704013        1145927184.6685202     
   3015530442.4231014        12631985.110960126        1149219272.7136722     
   4493826488.9680080       -11681450.737823009        667325193.70585644     
   4362203934.7517700       -1462825.0828490257        663902256.45633686     
   4229492568.6331663        5126427.5642390251        663693978.93545401     
   4095692390.6121907        8086307.2034311295        666700361.14320660     
   3960803400.6888556        7416813.8347480297        672921403.07958663     
   4133982897.7456841       -2683965.6514544487        792562652.00666225     
   4009808861.3136191        2354583.8948035240        786171036.37564814     
   3885101746.1928434        5616204.4786949158        783489792.25968575     
   3759861552.3833618        7100896.1002321243        784518919.65876937     
   3634088279.8851714        6808658.7594103813        789258418.57289994     
   3767652359.5807586        4367435.3521296978        914624151.27490115     
   3652343160.3226194        4650804.6065957546        905912212.67832780     
   3537056615.5894318        5009688.9442312717        901406357.38321495     
   3421792725.3811951        5444088.3650319576        901106585.38956642     
   3306551489.6979027        5954002.8689942360        905012896.69738209     
   3394834874.4732275        9472752.2729332447        1033509691.5105739     
   3289806831.7787776        5425837.0525383949        1023125785.3643690     
   3185357176.8229332        3306880.9608397484        1017443674.3060436     
   3081485909.6056957        3115883.9978266954        1016463358.3355960     
   2978193030.1270638        4852846.1635051966        1020184837.4530270     
   3015530442.4231014        12631985.110960126        1149219272.7136722     
   2922199875.6820879        4679681.2326287031        1137811754.4337738     
   2830003429.8933434        507780.52852308750        1131601743.0281692     
   2738941105.0568628        116282.99862885475        1130589238.4968574     
   2649012901.1726456        3505188.6429457664        1134774240.8398368     
   3960803400.6888556        7416813.8347480297        672921403.07958663     
   3805395042.2195439       -36541.437324523926        666956659.16324270     
   3650661395.8682437       -5240856.3160259724        665689347.63782644     
   3496602461.6349554       -8196130.8013494015        669119468.50332832     
   3343218239.5196757       -8902364.8933088779        677247021.75975382     
   3634088279.8851714        6808658.7594103813        789258418.57289994     
   3491443023.3348269        1309629.1037309170        783640743.82434416     
   3349235111.1220670       -2731586.0933437347        782692409.17259431     
   3207464543.2468843       -5314986.8318120241        786413414.61765230     
   3066131319.7092872       -6440573.1116821766        794803760.15952456     
   3306551489.6979027        5954002.8689942360        905012896.69738209     
   3176589071.3690610        2385219.7204749584        899465362.03944039     
   3046826629.5973721       -516974.90421044827        898559075.18419409     
   2917264164.3828301       -2752581.0050600767        902294036.13163936     
   2787901675.7254372       -4321598.5820838213        910670244.88177955     
   2978193030.1270638        4852846.1635051966        1020184837.4530270     
   2860833186.3222551        3190230.4129137993        1014430513.8085337     
   2743435951.2941604        1402977.2513698339        1013289345.6726177     
   2626001325.0427842       -508913.32110869884        1016761333.0452793     
   2508529307.5681267       -2545441.3045251369        1024846475.9265242     
   2649012901.1726456        3505188.6429457664        1134774240.8398368     
   2544175368.1943927        3724661.1810224056        1128536199.1316180     
   2439063076.2124267        3028270.3733866215        1126883220.6378646     
   2333676025.2267494        1416016.2200452089        1129815305.3585768     
   2228014215.2373576       -1112101.2790071964        1137332453.2937529     
   3343218239.5196757       -8902364.8933088779        677247021.75975382     
   3220477001.1069622       -206111.36368525028        670165487.84209442     
   3097199243.4404941        6701744.6534500122        667127921.89383161     
   2973384966.5202875        11821203.158123016        668134323.91495907     
   2849034170.3463397        15152264.150312185        673184693.90547943     
   3066131319.7092872       -6440573.1116821766        794803760.15952456     
   2953342414.2031174        1273448.7027671337        786757646.60374057     
   2840298348.5472007        8136936.6847261190        782549874.63326395     
   2726999122.7415380        14149890.834199190        782180444.24808788     
   2613444736.7861280        19312311.151181102        785649355.44820917     
   2787901675.7254372       -4321598.5820838213        910670244.88177955     
   2684477599.1712737        2233940.3308231831        901987803.97587335     
   2581079721.5713587        8876809.0912252665        896938078.27117479     
   2477708042.9256997        15607007.699142098        895521067.76769388     
   2374362563.2342887        22424536.154558182        897736772.46541905     
   2508529307.5681267       -2545441.3045251369        1024846475.9265242     
   2413882556.0114264        2675363.5204697847        1015855959.9584868     
   2319543362.5129738        8921361.8729641438        1010292532.8075669     
   2225511727.0727739        16192553.752965450        1008156194.4737700     
   2131787649.6908171        24488939.160454035        1009446944.9570955     
   2228014215.2373576       -1112101.2790071964        1137332453.2937529     
   2141557284.7235780        2597718.2717275620        1128362114.5515757     
   2055689271.3720455        8270595.0299494267        1122613238.2424366     
   1970410175.1827567        15906528.995655417        1120085824.3663278     
   1885719996.1557155        25505520.168847442        1120779872.9232500     
   2849034170.3463397        15152264.150312185        673184693.90547943     
   2687942656.7626052        8216066.9701566696        666165644.76058102     
   2527885436.3121219        4727513.5675052404        661620399.19342649     
   2368862508.9948893        4686603.9423553944        659548957.20403075     
   2210873874.8109069        8093338.0947166681        659951318.79236996     
   2613444736.7861280        19312311.151181102        785649355.44820917     
   2460295145.0033064        13250801.748504877        778891666.15494287     
   2307832338.8835568        9478577.8894096613        775567492.87443924     
   2156056318.4268904        7995639.5739225149        775676835.60671020     
   2004967083.6333010        8801986.8020235300        779219694.35172844     
   2374362563.2342887        22424536.154558182        897736772.46541905     
   2231896928.7809935        18060325.187935352        890835017.64191401     
   2089770572.5206001        14827041.530990839        888326491.26618803     
   1947983494.4531147        12724685.183745146        890211193.33824813     
   1806535694.5785377        11753256.146176696        896489123.85808694     
   2131787649.6908171        24488939.160454035        1009446944.9570955     
   2002748008.0956690        22644637.288459182        1001995699.2214886     
   1873700137.2232587        20772904.492266178        999897394.36867249     
   1744644037.0735748        18873740.771837592        1003152030.3986678     
   1615579707.6466303        16947146.127189636        1011759607.3114494     
   1885719996.1557155        25505520.168847442        1120779872.9232500     
   1772848382.9473422        27003738.050108910        1112373710.8936613     
   1659621032.9915204        27316166.773213983        1110280202.1818924     
   1546037946.2882686        26442806.338207960        1114499346.7879477     
   1432099122.8375716        24383656.745057344        1125031144.7118061     
   3768256608.5953279        1130476982.5785985        800572691.45909023     
   3779132923.8382363        1008682379.3966539        884851880.48628008     
   3790620750.5195780        888926147.67615414        974062395.26929653     
   3802720088.6393533        771208287.41709995        1068204235.8081403     
   3815430938.1975608        655528798.61949003        1167277402.1028104     
   3207818247.4746089        962345474.24238276        756697434.23090160     
   3235892675.6959348        868186715.74185598        853057932.55310214     
   3263693671.2908087        773116515.15315700        951338920.17639279     
   3291221234.2592306        677134872.47628629        1051540397.1007740     
   3318475364.6012015        580241787.71124315        1153662363.3262444     
   2685635643.1597652        805690692.94792950        721983167.75385463     
   2722305794.4888325        736587062.16761804        829392540.62870014     
   2757817569.1265616        663622175.74951684        935711566.34989893     
   2792170967.0729556        586796033.69362688        1040940244.9174510     
   2825365988.3280125        506108635.99994773        1145078576.3313568     
   2201708795.6507964        660512638.69523895        696429892.02794945     
   2238372280.2169285        613883418.67393947        813855704.71307349     
   2272992444.0268378        560443129.46523356        927180333.78981447     
   2305569287.0805268        500191771.06912172        1036403779.2581722     
   2336102809.3779926        433129343.48560297        1141526041.1181467     
   1756037704.9477024        526811311.48431075        680037607.05318606     
   1784092132.8802233        500075785.26082063        806447424.80622292     
   1809218295.9916372        463579376.30030715        925745222.49613976     
   1831416194.2819440        417322084.60277009        1037931000.1229368     
   1850685827.7511439        361303910.16820955        1143004757.6866143     
   3815430938.1975608        655528798.61949003        1167277402.1028104     
   3797997330.3212523        537562058.82975495        1188946040.7971547     
   3784406773.3613825        432405488.76149261        1205700119.2538164     
   3774659267.3179588        340059088.41470981        1217539637.4727948     
   3768754812.1909771        260522857.78940105        1224464595.4540923     
   3318475364.6012015        580241787.71124315        1153662363.3262444     
   3293831183.3316021        473018883.21584272        1181995301.7617331     
   3272915164.6355619        378223187.29896998        1207216858.9106038     
   3255727308.5130816        295854699.96062911        1229327034.7728579     
   3242267614.9641585        225913421.20081675        1248325829.3484969     
   2825365988.3280125        506108635.99994773        1145078576.3313568     
   2798663173.5253134        411175148.75693858        1179941778.1079574     
   2775573632.9532881        328285908.94951093        1213496777.5490072     
   2756097366.6119390        257440916.57766867        1245743574.6545055     
   2740234374.5012646        198640171.64140868        1276682169.4244545     
   2336102809.3779926        433129343.48560297        1141526041.1181467     
   2312493300.9023814        352030855.45304126        1182785469.8358281     
   2292382178.3145614        282593653.71311718        1224539875.1690254     
   2275769441.6145339        224817738.26582897        1266789257.1177382     
   2262655090.8022966        178703109.11117935        1309533615.6819651     
   1850685827.7511439        361303910.16820955        1143004757.6866143     
   1835321565.4628103        295586003.30415350        1190526376.9453464     
   1823340800.7193835        241146421.58978498        1240346151.7706592     
   1814743533.5208650        197985165.02511156        1292464082.1625540     
   1809529763.8672528        166102233.61012584        1346880168.1210294     
   3768754812.1909771        260522857.78940105        1224464595.4540923     
   3661891133.8006287        168185002.22198284        1191898219.1663630     
   3562713728.9137735        101468058.33287752        1169743877.7928607     
   3471222597.5304093        60372026.122073412        1158001571.3335834     
   3387417739.6505380        44896905.589582086        1156671299.7885296     
   3242267614.9641585        225913421.20081675        1248325829.3484969     
   3164776826.0930543        151638047.97262335        1231149577.5739746     
   3093365721.3263755        97628288.425845623        1221987556.1294405     
   3028034300.6641197        63884142.560481906        1220839765.0148938     
   2968782564.1062899        50405610.376533866        1227706204.2303371     
   2740234374.5012646        198640171.64140868        1276682169.4244545     
   2685265604.9087281        140372019.68023682        1273021687.8642259     
   2634769930.0215483        97014183.403589129        1274977632.0497494     
   2588747349.8397226        68566662.811458230        1282550001.9810226     
   2547197864.3632550        55029457.903850794        1295738797.6580462     
   2262655090.8022966        178703109.11117935        1309533615.6819651     
   2223357470.2476482        134386917.34482658        1317514550.0371184     
   2186926354.9992876        99625743.266098738        1328714105.5537848     
   2153361745.0572171        74419586.875003695        1343132282.2319648     
   2122663640.4214330        58768448.171533585        1360769080.0716586     
   1809529763.8672528        166102233.61012584        1346880168.1210294     
   1779052422.1098144        133682740.96638626        1364628164.0926509     
   1749834996.2595963        105462968.01338124        1383196976.6415486     
   1721877486.3166003        81442914.751112819        1402586605.7677221     
   1695179892.2808220        61622581.179576218        1422797051.4711723     
   3387417739.6505380        44896905.589582086        1156671299.7885296     
   3294816432.1089053        38065731.354013443        1149653198.2059522     
   3201968113.3904538        30411186.529051542        1146071826.4992826     
   3108872783.4951868        21933271.114704013        1145927184.6685202     
   3015530442.4231014        12631985.110960126        1149219272.7136722     
   2968782564.1062899        50405610.376533866        1227706204.2303371     
   2884470446.5173578        39040062.682689905        1219944082.7431948     
   2800428819.8565993        28576151.416081548        1216167925.2187493     
   2716657684.1240072        19013876.576701760        1216377731.6569948     
   2633157039.3195858        10353238.164559960        1220573502.0579329     
   2547197864.3632550        55029457.903850794        1295738797.6580462     
   2472744176.9749799        39600308.826117039        1287836408.7221618     
   2399078482.6198587        26797803.192237496        1284469217.8357570     
   2326200781.2978983        16621941.002222300        1285637224.9988284     
   2254111073.0090961        9072722.2560660839        1291340430.2113764     
   2122663640.4214330        58768448.171533585        1360769080.0716586     
   2059637623.4817638        39746469.784291029        1353330176.1428514     
   1997917101.6802399        25076141.857533932        1350975704.3503051     
   1937502075.0168631        14757464.391261578        1353705664.6940200     
   1878392543.4916306        8790437.3854799271        1361520057.1739974     
   1695179892.2808220        61622581.179576218        1422797051.4711723     
   1645150786.0377154        39478545.557217240        1416425385.0052614     
   1596944677.0377405        23411167.411965907        1415687384.7623947     
   1550561565.2808995        13420446.743826509        1420583050.7425730     
   1506001450.7671931        9506383.5528025031        1431112382.9457958     
   3015530442.4231014        12631985.110960126        1149219272.7136722     
   2922199875.6820879        4679681.2326287031        1137811754.4337738     
   2830003429.8933434        507780.52852308750        1131601743.0281692     
   2738941105.0568628        116282.99862885475        1130589238.4968574     
   2649012901.1726456        3505188.6429457664        1134774240.8398368     
   2633157039.3195858        10353238.164559960        1220573502.0579329     
   2553527108.4749703        4572119.5829026699        1211316704.7120006     
   2474759635.4774895        1665860.4916868210        1206900308.4205379     
   2396854620.3271370        1634460.8909057379        1207324313.1835513     
   2319812063.0239191        4477920.7805703878        1212588719.0010345     
   2254111073.0090961        9072722.2560660839        1291340430.2113764     
   2187161475.7185335        5156698.2683711052        1283917413.5100844     
   2120802673.1699705        3209990.0873433352        1280977692.0434468     
   2055034665.3634090        3232597.7129853964        1282521265.8114607     
   1989857452.2988482        5224521.1452932358        1288548134.8141282     
   1878392543.4916306        8790437.3854799271        1361520057.1739974     
   1823102977.4127784        6433417.2890472412        1355613880.8280265     
   1768132542.9707968        5140169.3155122995        1353833893.8968914     
   1713481240.1656811        4910693.4648666382        1356180096.3805876     
   1659149068.9974318        5744989.7371082306        1362652488.2791164     
   1506001450.7671931        9506383.5528025031        1431112382.9457958     
   1461351613.5577092        8402276.6449324489        1426406106.6658297     
   1416749244.8799596        7456398.1761730313        1425468913.9808738     
   1372194344.7339482        6668748.1465448141        1428300804.8909307     
   1327686913.1196709        6039326.5560265779        1434901779.3960021     
   2649012901.1726456        3505188.6429457664        1134774240.8398368     
   2544175368.1943927        3724661.1810224056        1128536199.1316180     
   2439063076.2124267        3028270.3733866215        1126883220.6378646     
   2333676025.2267494        1416016.2200452089        1129815305.3585768     
   2228014215.2373576       -1112101.2790071964        1137332453.2937529     
   2319812063.0239191        4477920.7805703878        1212588719.0010345     
   2226792799.5576358        3677865.0128109455        1205943657.2553923     
   2133668987.8210309        2529315.0106447935        1204039784.6058352     
   2040440627.8141093        1032270.7740892172        1206877101.0523643     
   1947107719.5368569       -813267.69689929485        1214455606.5949922     
   1989857452.2988482        5224521.1452932358        1288548134.8141282     
   1909102532.2920372        3538759.2559520006        1281694632.2200115     
   1828413274.7482944        2071872.2435040474        1279738444.6036100     
   1747789679.6676216        823860.10795915127        1282679571.9649231     
   1667231747.0500207       -205277.15068709850        1290518014.3039541     
   1659149068.9974318        5744989.7371082306        1362652488.2791164     
   1591104566.3975923        3307343.9104334116        1355789124.0254858     
   1523295936.9942150        1655942.0719570518        1353979200.6311955     
   1455723180.7872992        790784.22168534994        1357222718.0962451     
   1388386297.7768435        711870.35961705446        1365519676.4206345     
   1327686913.1196709        6039326.5560265779        1434901779.3960021     
   1272798901.8743072        2983618.9762660265        1428227132.6718152     
   1218316974.5587945        1281524.4960076213        1426762052.6885893     
   1164241131.1731369        933043.11526364088        1430506539.4463334     
   1110571371.7173307        1938174.8340271115        1439460592.9450419     
   2228014215.2373576       -1112101.2790071964        1137332453.2937529     
   2141557284.7235780        2597718.2717275620        1128362114.5515757     
   2055689271.3720455        8270595.0299494267        1122613238.2424366     
   1970410175.1827567        15906528.995655417        1120085824.3663278     
   1885719996.1557155        25505520.168847442        1120779872.9232500     
   1947107719.5368569       -813267.69689929485        1214455606.5949922     
   1869476313.4384789        2526975.8215531111        1206648905.6472216     
   1792262860.8867440        7260397.8288151026        1202494893.9780259     
   1715467361.8816588        13386998.324905753        1201993571.5874057     
   1639089816.4232144        20906777.309807956        1205144938.4753528     
   1667231747.0500207       -205277.15068709850        1290518014.3039541     
   1599657942.0685833        3135013.3459271789        1283675493.5990570     
   1532331127.0181930        7298603.6127030253        1280916889.0182755     
   1465251301.8988509        12285493.649640024        1282242200.5616064     
   1398418466.7105558        18095683.456727743        1287651428.2290533     
   1388386297.7768435        711870.35961705446        1365519676.4206345     
   1332102170.6138914        4421830.8448636532        1359441878.4070847     
   1275894069.7663927        8385212.3816177249        1357879223.3631866     
   1219761995.2343440        12602014.969869316        1360831711.2889407     
   1163705947.0177386        17072238.609606862        1368299342.1843500     
   1110571371.7173307        1938174.8340271115        1439460592.9450419     
   1066808999.0744117        6387428.3183770180        1433948060.0713017     
   1022951689.1313424        10520224.135557353        1433381897.0127511     
   978999441.88812411        14336562.285574853        1437762103.7693980     
   934952257.34475362        17836442.768415451        1447088680.3412344     
   1885719996.1557155        25505520.168847442        1120779872.9232500     
   1772848382.9473422        27003738.050108910        1112373710.8936613     
   1659621032.9915204        27316166.773213983        1110280202.1818924     
   1546037946.2882686        26442806.338207960        1114499346.7879477     
   1432099122.8375716        24383656.745057344        1125031144.7118061     
   1639089816.4232144        20906777.309807956        1205144938.4753528     
   1541945828.8700936        22633637.304129839        1198251181.4732704     
   1444672028.6304145        23927788.343257308        1197090181.1697798     
   1347268415.7041907        24789230.427219450        1201661937.5648832     
   1249734990.0913961        25217963.555973411        1211966450.6585851     
   1398418466.7105558        18095683.456727743        1287651428.2290533     
   1315345257.3291945        19554131.319059014        1282533654.3255036     
   1232368159.3221655        21332950.429165244        1282568740.5013299     
   1149487172.6894579        23432140.787023067        1287756686.7565267     
   1066702297.4310941        25851702.392664790        1298097493.0910938     
   1163705947.0177386        17072238.609606862        1368299342.1843500     
   1093046668.3246427        17765220.094904006        1365221129.4503651     
   1022709425.0667647        19531653.030930519        1366715880.1765351     
   952694217.24410141        22371537.417661905        1372783594.3628500     
   883001044.85664785        26284873.255109638        1383424272.0093133     
   934952257.34475362        17836442.768415451        1447088680.3412344     
   875050061.85643220        17266903.631638050        1446313606.8478582     
   815695825.86421371        18523896.148535669        1449531600.1953998     
   756889549.36808825        21607420.319075048        1456742660.3838747     
   698631232.36806929        26517476.143308073        1467946787.4132724     
   1756037704.9477024        526811311.48431075        680037607.05318606     
   1784092132.8802233        500075785.26082063        806447424.80622292     
   1809218295.9916372        463579376.30030715        925745222.49613976     
   1831416194.2819440        417322084.60277009        1037931000.1229368     
   1850685827.7511439        361303910.16820955        1143004757.6866143     
   1326377939.1633625        397913381.74900877        669702291.15388834     
   1339611770.5131149        375519640.20148098        791852066.58307481     
   1350649403.2470396        345805236.60119420        908711452.85572171     
   1359490837.3651364        308770170.94814837        1020280449.9718287     
   1366136072.8674061        264414443.24234393        1126559057.9313965     
   890485066.41065657        267145519.92319697        662319922.65437984     
   894102960.91072607        250654960.97155723        781063732.99920893     
   896256723.00024748        229283960.65142310        896338785.09407806     
   896946352.67922044        203032518.96279424        1008145078.9389880     
   896171849.94764495        171900635.90567112        1116482614.5339382     
   448359086.68958372        134507726.00687513        657890501.55466092     
   447565704.07305670        125481747.57104926        774082424.05462480     
   446040255.25126064        114015548.45099327        888627219.21120942     
   443782740.22419548        100109128.64670721        1001524887.0244143     
   440793158.99186140        83762488.158191130        1112775427.4942393     
   1.4457299826162753E-004   4.3371899478488256E-005   656414027.85473132     
   1.0677127680160547E-004  -4.2908671121716424E-005   770908139.74932277     
   7.9280675431208169E-005  -9.4558632901775325E-005   885576755.20711493     
   6.2115491321940961E-005  -1.1209411375302989E-004   1000419874.2281073     
   5.5375804674340958E-005  -9.4704464051129425E-005   1115437496.8123007     
   1850685827.7511439        361303910.16820955        1143004757.6866143     
   1835321565.4628103        295586003.30415350        1190526376.9453464     
   1823340800.7193835        241146421.58978498        1240346151.7706592     
   1814743533.5208650        197985165.02511156        1292464082.1625540     
   1809529763.8672528        166102233.61012584        1346880168.1210294     
   1366136072.8674061        264414443.24234393        1126559057.9313965     
   1360434015.0927784        216872354.77679613        1181960467.5780904     
   1357269580.4768305        177789010.17351291        1238301767.0383210     
   1356642769.0195625        147164409.43249649        1295582956.3120878     
   1358553580.7209740        124998552.55374461        1353804035.3993919     
   896171849.94764495        171900635.90567112        1116482614.5339382     
   896251237.39231086        141370138.05030805        1178776961.1179953     
   898022373.60942876        116478802.76978528        1240652931.7625453     
   901485258.59899890        97226630.064103603        1302110526.4675863     
   906639892.36102140        83613619.933262259        1363149745.2331204     
   440793158.99186140        83762488.158191130        1112775427.4942393     
   442773232.36140746        69079353.124689445        1180975857.5650616     
   445599180.11717784        57215799.378602549        1247399645.9433312     
   449271002.25917345        48171826.919932351        1312046792.6290481     
   453788698.78739345        41947435.748676822        1374917297.6222131     
   5.5375804674340958E-005  -9.4704464051129425E-005   1115437496.8123007     
   6.8391949612769132E-005  -5.9990931636252878E-005   1188557156.9192886     
   7.8592981481803066E-005  -3.4227428583696232E-005   1258541909.5806797     
   8.6037161255326898E-005  -1.7783536776871580E-005   1325391754.7964737     
   9.0655505080827509E-005  -1.1106042825319644E-005   1389106692.5666711     
   1809529763.8672528        166102233.61012584        1346880168.1210294     
   1779052422.1098144        133682740.96638626        1364628164.0926509     
   1749834996.2595963        105462968.01338124        1383196976.6415486     
   1721877486.3166003        81442914.751112819        1402586605.7677221     
   1695179892.2808220        61622581.179576218        1422797051.4711723     
   1358553580.7209740        124998552.55374461        1353804035.3993919     
   1333178747.1582606        99928884.897552192        1372803698.5467248     
   1308748850.5259621        78009007.009411156        1393211437.9617505     
   1285263890.8240788        59238918.889318526        1415027253.6444695     
   1262723868.0526111        43618620.537281036        1438251145.5948818     
   906639892.36102140        83613619.933262259        1363149745.2331204     
   888045451.82279575        66397142.713543028        1383033600.0832245     
   870080969.23818040        51280525.339191943        1404912790.8914387     
   852746444.60717583        38263767.810211599        1428787317.6577632     
   836041877.92978239        27346870.126599520        1454657180.3822007     
   453788698.78739345        41947435.748676822        1374917297.6222131     
   443652536.10341990        33087514.414360240        1395317868.7021487     
   433831352.39625198        25277523.002729535        1418301035.4306145     
   424325147.66589171        18517461.513789430        1443866797.8076062     
   415133921.91233569        12807329.947532296        1472015155.8331289     
   9.0655505080827509E-005  -1.1106042825319644E-005   1389106692.5666711     
   1.3448491404748550E-004   6.6224498412565148E-006   1409656504.4035006     
   1.7919502877887012E-004   2.7113156042657280E-005   1433376171.5792756     
   2.2539204934680633E-004   5.2213270337367858E-005   1460265694.0939968     
   2.7212664356334192E-004   7.9972658532064843E-005   1490325071.9476657     
   1695179892.2808220        61622581.179576218        1422797051.4711723     
   1645150786.0377154        39478545.557217240        1416425385.0052614     
   1596944677.0377405        23411167.411965907        1415687384.7623947     
   1550561565.2808995        13420446.743826509        1420583050.7425730     
   1506001450.7671931        9506383.5528025031        1431112382.9457958     
   1262723868.0526111        43618620.537281036        1438251145.5948818     
   1228334778.7198505        27950415.925392568        1435395881.0441031     
   1195312937.3194418        16839704.421344340        1437443309.9681311     
   1163658343.8513887        10286486.025146902        1444393432.3669648     
   1133370998.3156886        8290760.7367940545        1456246248.2406023     
   836041877.92978239        27346870.126599520        1454657180.3822007     
   815204311.94097066        17527948.455260783        1454786610.2173116     
   795278244.57373261        10747355.522499919        1459087760.7789891     
   776263675.82806969        7005091.3283224702        1467560632.0672331     
   758160605.70397902        6301155.8727225065        1480205224.0820448     
   415133921.91233569        12807329.947532296        1472015155.8331289     
   405759385.70107746        8211143.1468271911        1474597572.5248852     
   396840598.80061275        5134120.7154338360        1480620737.1949694     
   388377561.21094257        3576262.6533559412        1490084649.8433802     
   380370272.93206596        3537568.9605906904        1502989310.4701223     
   2.7212664356334192E-004   7.9972658532064843E-005   1490325071.9476657     
   1.7010202770149720E-004   8.8916969025782630E-005   1494828767.9668250     
   8.1505315317433364E-005   1.4227401308357476E-004   1502042239.2160728     
   8.5211142171607896E-006   2.4767276142067108E-004   1511965485.6954112     
  -5.1195311726190244E-005   3.9764437164270115E-004   1524598507.4048374     
   1506001450.7671931        9506383.5528025031        1431112382.9457958     
   1461351613.5577092        8402276.6449324489        1426406106.6658297     
   1416749244.8799596        7456398.1761730313        1425468913.9808738     
   1372194344.7339482        6668748.1465448141        1428300804.8909307     
   1327686913.1196709        6039326.5560265779        1434901779.3960021     
   1133370998.3156886        8290760.7367940545        1456246248.2406023     
   1098828647.3833790        7146188.6483792067        1450808530.5503120     
   1064321897.8498716        6120287.8893037438        1449386056.8275800     
   1029850749.7151674        5213058.4595728517        1451978827.0723975     
   995415202.97926164        4424500.3591722846        1458586841.2847738     
   758160605.70397902        6301155.8727225065        1480205224.0820448     
   734429056.39896226        5327113.2088015974        1474022219.9930131     
   710721241.35981238        4432184.7644393146        1472100620.2440743     
   687037160.58653128        3616370.5396391749        1474440424.8352346     
   663376814.07911801        2879670.5343975723        1481041633.7664866     
   380370272.93206596        3537568.9605906904        1502989310.4701223     
   368152840.60445720        2945050.3261958957        1496047174.9939268     
   355947275.40978301        2392088.8015823960        1493612604.2303631     
   343753577.34804177        1878684.3867453486        1495685598.1794391     
   331571746.41923791        1404837.0817020088        1502266156.8411500     
  -5.1195311726190244E-005   3.9764437164270115E-004   1524598507.4048374     
  -1.3359277054555456E-004   5.6776927481860687E-004   1516883395.5530512     
  -2.1631048600663760E-004   7.3613276646505919E-004   1513922008.7864423     
  -2.9696940877095703E-004   9.1135890043405709E-004   1515714347.1050091     
  -3.7813159197226307E-004   1.0856013890034901E-003   1522260410.5087547     
   1327686913.1196709        6039326.5560265779        1434901779.3960021     
   1272798901.8743072        2983618.9762660265        1428227132.6718152     
   1218316974.5587945        1281524.4960076213        1426762052.6885893     
   1164241131.1731369        933043.11526364088        1430506539.4463334     
   1110571371.7173307        1938174.8340271115        1439460592.9450419     
   995415202.97926164        4424500.3591722846        1458586841.2847738     
   954292091.89441645        2145588.8791208863        1452403396.3156559     
   913473543.75694501        881887.22365194559        1451419508.7060380     
   872959558.56684625        633395.39275896549        1455635178.4559186     
   832750136.32411730        1400113.3864310980        1465050405.5653000     
   663376814.07911801        2879670.5343975723        1481041633.7664866     
   635990004.92202687        1368975.6842377782        1475230949.4062135     
   608806237.72982943        535087.38372296095        1474609813.0239758     
   581825512.50252068        378005.63283717632        1479178224.6197658     
   555047829.24010372        897730.43159157038        1488936184.1935849     
   331571746.41923791        1404837.0817020088        1502266156.8411500     
   317892640.95713377        653779.39159780741        1496709791.9434955     
   304315056.47744322        241124.97620457411        1496332965.6424034     
   290838992.98016280        166873.83551231027        1501135677.9378743     
   277464450.46529156        431025.96951761842        1511117928.8299062     
  -3.7813159197226307E-004   1.0856013890034901E-003   1522260410.5087547     
  -2.6151242343780472E-004   1.2071845354845899E-003   1516839923.9274890     
  -2.0722892266646889E-004   1.1185535098889134E-003   1516588966.5613217     
  -2.3238050677859865E-004   7.6670011914339766E-004   1521507538.4102447     
  -3.2291019675017945E-004   1.9622581947598746E-004   1531595639.4742646     
   1110571371.7173307        1938174.8340271115        1439460592.9450419     
   1066808999.0744117        6387428.3183770180        1433948060.0713017     
   1022951689.1313424        10520224.135557353        1433381897.0127511     
   978999441.88812411        14336562.285574853        1437762103.7693980     
   934952257.34475362        17836442.768415451        1447088680.3412344     
   832750136.32411730        1400113.3864310980        1465050405.5653000     
   801235725.80957222        5129264.1898327470        1459330056.0596535     
   769650112.31992495        8621071.7428952157        1458251023.6100903     
   737993295.85517967        11875536.045628995        1461813308.2166083     
   706265276.41532350        14892657.097995996        1470016909.8792078     
   555047829.24010372        897730.43159157038        1488936184.1935849     
   534909801.54218340        3645304.7605319023        1483035708.1019292     
   514724305.19420630        6234650.2559494972        1481471496.3072426     
   494491340.19617522        8665766.9178551435        1484243548.8095257     
   474210906.54808915        10938654.746241957        1491351865.6087735     
   277464450.46529156        431025.96951761842        1511117928.8299062     
   267831226.27224204        1935550.0304645151        1505065016.1981277     
   258174267.75418308        3360959.6747107059        1503043315.1042042     
   248493574.91111562        4707254.9022631049        1505052825.5481336     
   238789147.74304536        5974435.7131384313        1511093547.5299182     
  -3.2291019675017945E-004   1.9622581947598746E-004   1531595639.4742646     
  -2.5387201498537062E-004  -3.7925249021827890E-004   1525417980.3482533     
  -1.4233120176959595E-004  -8.1374925113305002E-004   1522966480.0009789     
   4.0260834958934320E-006  -1.1308033264346572E-003   1524241138.4324498     
   1.9306900400761654E-004  -1.3076536190866576E-003   1529241955.6426616     
   934952257.34475362        17836442.768415451        1447088680.3412344     
   875050061.85643220        17266903.631638050        1446313606.8478582     
   815695825.86421371        18523896.148535669        1449531600.1953998     
   756889549.36808825        21607420.319075048        1456742660.3838747     
   698631232.36806929        26517476.143308073        1467946787.4132724     
   706265276.41532350        14892657.097995996        1470016909.8792078     
   657587921.29600441        13340290.194581121        1469060208.2352679     
   609321535.79884350        13157822.031694561        1472971738.7496266     
   561466119.92383957        14345252.609330982        1481751501.4222822     
   514021673.67100191        16902581.927521467        1495399496.2532341     
   474210906.54808915        10938654.746241957        1491351865.6087735     
   439258864.13311899        9153601.7767836154        1490053714.2946715     
   404580801.46636754        8281814.6347192526        1494498960.4562480     
   370176718.54783821        8323293.3200613111        1504687604.0934916     
   336046615.37753111        9278037.8328138292        1520619645.2064102     
   238789147.74304536        5974435.7131384313        1511093547.5299182     
   220062890.36777586        4706838.3782437891        1509294125.0260658     
   201473622.86678749        3895873.9576172680        1514113265.3152578     
   183021345.24008155        3541542.4512649477        1525550968.3975024     
   164706057.48765633        3643843.8591849729        1543607234.2727809     
   1.9306900400761654E-004  -1.3076536190866576E-003   1529241955.6426616     
  -2.0359172223552002E-005  -1.0219618191990838E-003   1526781440.4294572     
   1.0078934024378653E-004   3.7829172029312251E-004   1531814653.3266737     
   5.6715163700957769E-004   2.9316864869798720E-003   1544341594.3343098     
   1.3794826087293014E-003   6.6355346126181674E-003   1564362263.4523568     
   1.4457299826162753E-004   4.3371899478488256E-005   656414027.85473132     
   1.0677127680160547E-004  -4.2908671121716424E-005   770908139.74932277     
   7.9280675431208169E-005  -9.4558632901775325E-005   885576755.20711493     
   6.2115491321940961E-005  -1.1209411375302989E-004   1000419874.2281073     
   5.5375804674340958E-005  -9.4704464051129425E-005   1115437496.8123007     
  -448359086.68930340       -134507726.00679103        657890501.55460179     
  -447565704.07283652       -125481747.57108802        774082424.05457997     
  -446040255.25108671       -114015548.45110936        888627219.21117902     
  -443782740.22405422       -100109128.64685528        1001524887.0243990     
  -440793158.99173915       -83762488.158325374        1112775427.4942403     
  -890485066.41040289       -267145519.92312086        662319922.65428317     
  -894102960.91051519       -250654960.97155374        781063732.99913239     
  -896256723.00007272       -229283960.65147001        896338785.09402263     
  -896946352.67907500       -203032518.96286961        1008145078.9389548     
  -896171849.94752264       -171900635.90575248        1116482614.5339284     
  -1326377939.1631532       -397913381.74894589        669702291.15377557     
  -1339611770.5129294       -375519640.20144022        791852066.58297968     
  -1350649403.2468786       -345805236.60117686        908711452.85564613     
  -1359490837.3650002       -308770170.94815552        1020280449.9717745     
  -1366136072.8672948       -264414443.24237669        1126559057.9313645     
  -1756037704.9475551       -526811311.48426652        680037607.05307853     
  -1784092132.8800793       -500075785.26074725        806447424.80612278     
  -1809218295.9915044       -463579376.30022931        925745222.49604893     
  -1831416194.2818298       -417322084.60271257        1037931000.1228579     
  -1850685827.7510555       -361303910.16819656        1143004757.6865494     
   5.5375804674340958E-005  -9.4704464051129425E-005   1115437496.8123007     
   6.8391949612769132E-005  -5.9990931636252878E-005   1188557156.9192886     
   7.8592981481803066E-005  -3.4227428583696232E-005   1258541909.5806797     
   8.6037161255326898E-005  -1.7783536776871580E-005   1325391754.7964737     
   9.0655505080827509E-005  -1.1106042825319644E-005   1389106692.5666711     
  -440793158.99173915       -83762488.158325374        1112775427.4942403     
  -442773232.36126626       -69079353.124781504        1180975857.5650535     
  -445599180.11702114       -57215799.378664345        1247399645.9433162     
  -449271002.25900340       -48171826.919972539        1312046792.6290271     
  -453788698.78721380       -41947435.748706296        1374917297.6221864     
  -896171849.94752264       -171900635.90575248        1116482614.5339284     
  -896251237.39217317       -141370138.05037513        1178776961.1179717     
  -898022373.60927665       -116478802.76983953        1240652931.7625093     
  -901485258.59883320       -97226630.064148605        1302110526.4675419     
  -906639892.36084223       -83613619.933298677        1363149745.2330678     
  -1366136072.8672948       -264414443.24237669        1126559057.9313645     
  -1360434015.0926523       -216872354.77683938        1181960467.5780420     
  -1357269580.4766884       -177789010.17356208        1238301767.0382593     
  -1356642769.0194027       -147164409.43254584        1295582956.3120162     
  -1358553580.7207944       -124998552.55378902        1353804035.3993139     
  -1850685827.7510555       -361303910.16819656        1143004757.6865494     
  -1835321565.4627047       -295586003.30417645        1190526376.9452646     
  -1823340800.7192571       -241146421.58983266        1240346151.7705650     
  -1814743533.5207129       -197985165.02516848        1292464082.1624515     
  -1809529763.8670707       -166102233.61017573        1346880168.1209240     
   9.0655505080827509E-005  -1.1106042825319644E-005   1389106692.5666711     
   1.3448491404748550E-004   6.6224498412565148E-006   1409656504.4035006     
   1.7919502877887012E-004   2.7113156042657280E-005   1433376171.5792756     
   2.2539204934680633E-004   5.2213270337367858E-005   1460265694.0939968     
   2.7212664356334192E-004   7.9972658532064843E-005   1490325071.9476657     
  -453788698.78721380       -41947435.748706296        1374917297.6221864     
  -443652536.10315591       -33087514.414355293        1395317868.7021248     
  -433831352.39590311       -25277523.002688095        1418301035.4305890     
  -424325147.66545230       -18517461.513693199        1443866797.8075805     
  -415133921.91180503       -12807329.947378501        1472015155.8330960     
  -906639892.36084223       -83613619.933298677        1363149745.2330678     
  -888045451.82254255       -66397142.713549227        1383033600.0831759     
  -870080969.23785174       -51280525.339161485        1404912790.8913901     
  -852746444.60676813       -38263767.810132533        1428787317.6577115     
  -836041877.92929292       -27346870.126462698        1454657180.3821373     
  -1358553580.7207944       -124998552.55378902        1353804035.3993139     
  -1333178747.1580241       -99928884.897570491        1372803698.5466533     
  -1308748850.5256660       -78009007.009394228        1393211437.9616787     
  -1285263890.8237216       -59238918.889262736        1415027253.6443906     
  -1262723868.0521882       -43618620.537168682        1438251145.5947883     
  -1809529763.8670707       -166102233.61017573        1346880168.1209240     
  -1779052422.1096001       -133682740.96641964        1364628164.0925555     
  -1749834996.2593477       -105462968.01338762        1383196976.6414533     
  -1721877486.3163128       -81442914.751083434        1402586605.7676179     
  -1695179892.2804935       -61622581.179497600        1422797051.4710488     
   2.7212664356334192E-004   7.9972658532064843E-005   1490325071.9476657     
   1.7010202770149720E-004   8.8916969025782630E-005   1494828767.9668250     
   8.1505315317433364E-005   1.4227401308357476E-004   1502042239.2160728     
   8.5211142171607896E-006   2.4767276142067108E-004   1511965485.6954112     
  -5.1195311726190244E-005   3.9764437164270115E-004   1524598507.4048374     
  -415133921.91180503       -12807329.947378501        1472015155.8330960     
  -405759385.70074177       -8211143.1466577798        1474597572.5248795     
  -396840598.80044734       -5134120.7151678503        1480620737.1949980     
  -388377561.21092045       -3576262.6529025882        1490084649.8434520     
  -380370272.93216240       -3537568.9598660320        1502989310.4702423     
  -836041877.92929292       -27346870.126462698        1454657180.3821373     
  -815204311.94064415       -17527948.455103099        1454786610.2172964     
  -795278244.57354712       -10747355.522247344        1459087760.7790382     
  -776263675.82800210       -7005091.3278986216        1467560632.0673628     
  -758160605.70400834       -6301155.8720551431        1480205224.0822694     
  -1262723868.0521882       -43618620.537168682        1438251145.5947883     
  -1228334778.7195365       -27950415.925243914        1435395881.0440769     
  -1195312937.3192189       -16839704.421097636        1437443309.9681947     
  -1163658343.8512380       -10286486.024743438        1444393432.3671408     
  -1133370998.3155894       -8290760.7361614704        1456246248.2409163     
  -1695179892.2804935       -61622581.179497600        1422797051.4710488     
  -1645150786.0374198       -39478545.557081521        1416425385.0052204     
  -1596944677.0374625       -23411167.411720932        1415687384.7624669     
  -1550561565.2806251       -13420446.743427277        1420583050.7427888     
  -1506001450.7669051       -9506383.5521897078        1431112382.9461851     
  -5.1195311726190244E-005   3.9764437164270115E-004   1524598507.4048374     
  -1.3359277054555456E-004   5.6776927481860687E-004   1516883395.5530512     
  -2.1631048600663760E-004   7.3613276646505919E-004   1513922008.7864423     
  -2.9696940877095703E-004   9.1135890043405709E-004   1515714347.1050091     
  -3.7813159197226307E-004   1.0856013890034901E-003   1522260410.5087547     
  -380370272.93216240       -3537568.9598660320        1502989310.4702423     
  -368152840.60472375       -2945050.3251908869        1496047174.9940665     
  -355947275.41022897       -2392088.8003266603        1493612604.2305355     
  -343753577.34867877       -1878684.3852788657        1495685598.1796494     
  -331571746.42007029       -1404837.0800348967        1502266156.8414090     
  -758160605.70400834       -6301155.8720551431        1480205224.0822694     
  -734429056.39913976       -5327113.2078981400        1474022219.9932666     
  -710721241.36015964       -4432184.7633698285        1472100620.2443810     
  -687037160.58706594       -3616370.5384640396        1474440424.8356068     
  -663376814.07986009       -2879670.5331847072        1481041633.7669466     
  -1133370998.3155894       -8290760.7361614704        1456246248.2409163     
  -1098828647.3833811       -7146188.6475508809        1450808530.5506561     
  -1064321897.8500060       -6120287.8883852363        1449386056.8279784     
  -1029850749.7154607       -5213058.4586531520        1451978827.0728812     
  -995415202.97974920       -4424500.3583643436        1458586841.2853663     
  -1506001450.7669051       -9506383.5521897078        1431112382.9461851     
  -1461351613.5574481       -8402276.6441531181        1426406106.6662314     
  -1416749244.8797688       -7456398.1753747463        1425468913.9813273     
  -1372194344.7338634       -6668748.1458444595        1428300804.8914731     
  -1327686913.1197364       -6039326.5555732846        1434901779.3966682     
  -3.7813159197226307E-004   1.0856013890034901E-003   1522260410.5087547     
  -2.6151242343780472E-004   1.2071845354845899E-003   1516839923.9274890     
  -2.0722892266646889E-004   1.1185535098889134E-003   1516588966.5613217     
  -2.3238050677859865E-004   7.6670011914339766E-004   1521507538.4102447     
  -3.2291019675017945E-004   1.9622581947598746E-004   1531595639.4742646     
  -331571746.42007029       -1404837.0800348967        1502266156.8414090     
  -317892640.95776868       -653779.38978572190        1496709791.9436724     
  -304315056.47797298       -241124.97455786169        1496332965.6424944     
  -290838992.98068154       -166873.83434179425        1501135677.9378715     
  -277464450.46589780       -431025.96915490925        1511117928.8298068     
  -663376814.07986009       -2879670.5331847072        1481041633.7669466     
  -635990004.92262542       -1368975.6829901636        1475230949.4065619     
  -608806237.73033023       -535087.38259509206        1474609813.0241964     
  -581825512.50297916       -378005.63201484084        1479178224.6198523     
  -555047829.24057126       -897730.43124225736        1488936184.1935265     
  -995415202.97974920       -4424500.3583643436        1458586841.2853663     
  -954292091.89482975       -2145588.8783972263        1452403396.3161583     
  -913473543.75728714       -881887.22302389145        1451419508.7064338     
  -872959558.56712329       -633395.39224350452        1455635178.4561901     
  -832750136.32433641       -1400113.3860554695        1465050405.5654306     
  -1327686913.1197364       -6039326.5555732846        1434901779.3966682     
  -1272798901.8743811       -2983618.9760084152        1428227132.6724608     
  -1218316974.5588379       -1281524.4958216548        1426762052.6891997     
  -1164241131.1731117       -933043.11501979828        1430506539.4468858     
  -1110571371.7171984       -1938174.8335977793        1439460592.9455147     
  -3.2291019675017945E-004   1.9622581947598746E-004   1531595639.4742646     
  -2.5387201498537062E-004  -3.7925249021827890E-004   1525417980.3482533     
  -1.4233120176959595E-004  -8.1374925113305002E-004   1522966480.0009789     
   4.0260834958934320E-006  -1.1308033264346572E-003   1524241138.4324498     
   1.9306900400761654E-004  -1.3076536190866576E-003   1529241955.6426616     
  -277464450.46589780       -431025.96915490925        1511117928.8298068     
  -267831226.27262682       -1935550.0308888853        1505065016.1981299     
  -258174267.75429636       -3360959.6757605225        1503043315.1042891     
  -248493574.91090369       -4707254.9037570357        1505052825.5482852     
  -238789147.74245381       -5974435.7148960978        1511093547.5301149     
  -555047829.24057126       -897730.43124225736        1488936184.1935265     
  -534909801.54239744       -3645304.7606194317        1483035708.1020446     
  -514724305.19414461       -6234650.2563964128        1481471496.3074937     
  -494491340.19581312       -8665766.9185806811        1484243548.8098724     
  -474210906.54740435       -10938654.747172266        1491351865.6091802     
  -832750136.32433641       -1400113.3860554695        1465050405.5654306     
  -801235725.80956578       -5129264.1895685196        1459330056.0599992     
  -769650112.31969810       -8621071.7427601516        1458251023.6105924     
  -737993295.85472834       -11875536.045610905        1461813308.2172062     
  -706265276.41466129       -14892657.098135412        1470016909.8798451     
  -1110571371.7171984       -1938174.8335977793        1439460592.9455147     
  -1066808999.0741318       -6387428.3177385330        1433948060.0719895     
  -1022951689.1309452       -10520224.134811163        1433381897.0135806     
  -978999441.88764501       -14336562.284838080        1437762103.7702904     
  -934952257.34422588       -17836442.767804205        1447088680.3421156     
   1.9306900400761654E-004  -1.3076536190866576E-003   1529241955.6426616     
  -2.0359172223552002E-005  -1.0219618191990838E-003   1526781440.4294572     
   1.0078934024378653E-004   3.7829172029312251E-004   1531814653.3266737     
   5.6715163700957769E-004   2.9316864869798720E-003   1544341594.3343098     
   1.3794826087293014E-003   6.6355346126181674E-003   1564362263.4523568     
  -238789147.74245381       -5974435.7148960978        1511093547.5301149     
  -220062890.36764452       -4706838.3797548115        1509294125.0269129     
  -201473622.86666083       -3895873.9573615268        1514113265.3168066     
  -183021345.23950604       -3541542.4477317557        1525550968.3997881     
  -164706057.48617330       -3643843.8508463874        1543607234.2758687     
  -474210906.54740435       -10938654.747172266        1491351865.6091802     
  -439258864.13278294       -9153601.7777303159        1490053714.2961128     
  -404580801.46615517       -8281814.6349352896        1494498960.4588144     
  -370176718.54751980       -8323293.3187825680        1504687604.0972898     
  -336046615.37687558       -9278037.8292664886        1520619645.2115343     
  -706265276.41466129       -14892657.098135412        1470016909.8798451     
  -657587921.29543912       -13340290.194966942        1469060208.2370551     
  -609321535.79837704       -13157822.032326967        1472971738.7527099     
  -561466119.92347395       -14345252.610212892        1481751501.4268186     
  -514021673.67072862       -16902581.928635150        1495399496.2593651     
  -934952257.34422588       -17836442.767804205        1447088680.3421156     
  -875050061.85560942       -17266903.631447852        1446313606.8497427     
  -815695825.86332452       -18523896.149527907        1449531600.1984885     
  -756889549.36736500       -21607420.322028875        1456742660.3883557     
  -698631232.36773241       -26517476.148949087        1467946787.4193497     
  -1756037704.9475551       -526811311.48426652        680037607.05307853     
  -1784092132.8800793       -500075785.26074725        806447424.80612278     
  -1809218295.9915044       -463579376.30022931        925745222.49604893     
  -1831416194.2818298       -417322084.60271257        1037931000.1228579     
  -1850685827.7510555       -361303910.16819656        1143004757.6865494     
  -2201708795.6507101       -660512638.69521308        696429892.02785623     
  -2238372280.2168441       -613883418.67388988        813855704.71298575     
  -2272992444.0267620       -560443129.46517861        927180333.78973234     
  -2305569287.0804634       -500191771.06907886        1036403779.2580959     
  -2336102809.3779478       -433129343.48559076        1141526041.1180763     
  -2685635643.1597214       -805690692.94791639        721983167.75377214     
  -2722305794.4887948       -736587062.16758823        829392540.62862349     
  -2757817569.1265354       -663622175.74948239        935711566.34982634     
  -2792170967.0729418       -586796033.69359887        1040940244.9173807     
  -2825365988.3280158       -506108635.99993753        1145078576.3312864     
  -3207818247.4745884       -962345474.24237657        756697434.23082650     
  -3235892675.6959305       -868186715.74184203        853057932.55303574     
  -3263693671.2908239       -773116515.15314078        951338920.17633152     
  -3291221234.2592669       -677134872.47627234        1051540397.1007130     
  -3318475364.6012588       -580241787.71123719        1153662363.3261807     
  -3768256608.5953107       -1130476982.5785933        800572691.45901918     
  -3779132923.8382530       -1008682379.3966517        884851880.48622286     
  -3790620750.5196271       -888926147.67615390        974062395.26924741     
  -3802720088.6394362       -771208287.41709971        1068204235.8080922     
  -3815430938.1976776       -655528798.61948872        1167277402.1027579     
  -1850685827.7510555       -361303910.16819656        1143004757.6865494     
  -1835321565.4627047       -295586003.30417645        1190526376.9452646     
  -1823340800.7192571       -241146421.58983266        1240346151.7705650     
  -1814743533.5207129       -197985165.02516848        1292464082.1624515     
  -1809529763.8670707       -166102233.61017573        1346880168.1209240     
  -2336102809.3779478       -433129343.48559076        1141526041.1180763     
  -2312493300.9023056       -352030855.45304996        1182785469.8357425     
  -2292382178.3144531       -282593653.71313930        1224539875.1689270     
  -2275769441.6143894       -224817738.26585925        1266789257.1176298     
  -2262655090.8021140       -178703109.11120808        1309533615.6818500     
  -2825365988.3280158       -506108635.99993753        1145078576.3312864     
  -2798663173.5252752       -411175148.75693405        1179941778.1078706     
  -2775573632.9532089       -328285908.94951344        1213496777.5489049     
  -2756097366.6118197       -257440916.57767868        1245743574.6543896     
  -2740234374.5011044       -198640171.64142644        1276682169.4243252     
  -3318475364.6012588       -580241787.71123719        1153662363.3261807     
  -3293831183.3316126       -473018883.21582901        1181995301.7616475     
  -3272915164.6355281       -378223187.29895747        1207216858.9104979     
  -3255727308.5130048       -295854699.96062291        1229327034.7727318     
  -3242267614.9640431       -225913421.20082796        1248325829.3483481     
  -3815430938.1976776       -655528798.61948872        1167277402.1027579     
  -3797997330.3213186       -537562058.82973397        1188946040.7970750     
  -3784406773.3614078       -432405488.76146889        1205700119.2537081     
  -3774659267.3179436       -340059088.41469550        1217539637.4726560     
  -3768754812.1909285       -260522857.78941405        1224464595.4539201     
  -1809529763.8670707       -166102233.61017573        1346880168.1209240     
  -1779052422.1096001       -133682740.96641964        1364628164.0925555     
  -1749834996.2593477       -105462968.01338762        1383196976.6414533     
  -1721877486.3163128       -81442914.751083434        1402586605.7676179     
  -1695179892.2804935       -61622581.179497600        1422797051.4710488     
  -2262655090.8021140       -178703109.11120808        1309533615.6818500     
  -2223357470.2474637       -134386917.34485829        1317514550.0370102     
  -2186926354.9990954       -99625743.266117811        1328714105.5536752     
  -2153361745.0570126       -74419586.874993682        1343132282.2318437     
  -2122663640.4212132       -58768448.171480775        1360769080.0715179     
  -2740234374.5011044       -198640171.64142644        1276682169.4243252     
  -2685265604.9085922       -140372019.68027508        1273021687.8641026     
  -2634769930.0214300       -97014183.403624177        1274977632.0496228     
  -2588747349.8396192       -68566662.811478257        1282550001.9808853     
  -2547197864.3631587       -55029457.903833985        1295738797.6578908     
  -3242267614.9640431       -225913421.20082796        1248325829.3483481     
  -3164776826.0929875       -151638047.97267175        1231149577.5738313     
  -3093365721.3263497       -97628288.425906062        1221987556.1292961     
  -3028034300.6641312       -63884142.560535192        1220839765.0147409     
  -2968782564.1063285       -50405610.376554012        1227706204.2301683     
  -3768754812.1909285       -260522857.78941405        1224464595.4539201     
  -3661891133.8006511       -168185002.22205019        1191898219.1661985     
  -3562713728.9138575       -101468058.33296645        1169743877.7926962     
  -3471222597.5305486       -60372026.122161627        1158001571.3334129     
  -3387417739.6507225       -44896905.589638114        1156671299.7883475     
  -1695179892.2804935       -61622581.179497600        1422797051.4710488     
  -1645150786.0374198       -39478545.557081521        1416425385.0052204     
  -1596944677.0374625       -23411167.411720932        1415687384.7624669     
  -1550561565.2806251       -13420446.743427277        1420583050.7427888     
  -1506001450.7669051       -9506383.5521897078        1431112382.9461851     
  -2122663640.4212132       -58768448.171480775        1360769080.0715179     
  -2059637623.4815047       -39746469.784176946        1353330176.1427975     
  -1997917101.6799390       -25076141.857348204        1350975704.3503618     
  -1937502075.0165141       -14757464.390989661        1353705664.6942110     
  -1878392543.4912322       -8790437.3851031065        1361520057.1743455     
  -2547197864.3631587       -55029457.903833985        1295738797.6578908     
  -2472744176.9747868       -39600308.826032639        1287836408.7220838     
  -2399078482.6195817       -26797803.192120671        1284469217.8357706     
  -2326200781.2975426       -16621941.002092957        1285637224.9989531     
  -2254111073.0086703       -9072722.2559549809        1291340430.2116301     
  -2968782564.1063285       -50405610.376554012        1227706204.2301683     
  -2884470446.5172653       -39040062.682647467        1219944082.7430785     
  -2800428819.8563938       -28576151.416043043        1216167925.2186942     
  -2716657684.1237125       -19013876.576742530        1216377731.6570151     
  -2633157039.3192210       -10353238.164738894        1220573502.0580397     
  -3387417739.6507225       -44896905.589638114        1156671299.7883475     
  -3294816432.1089411       -38065731.354019165        1149653198.2057829     
  -3201968113.3903751       -30411186.529122949        1146071826.4991317     
  -3108872783.4950199       -21933271.114925027        1145927184.6683969     
  -3015530442.4228811       -12631985.111453652        1149219272.7135754     
  -1506001450.7669051       -9506383.5521897078        1431112382.9461851     
  -1461351613.5574481       -8402276.6441531181        1426406106.6662314     
  -1416749244.8797688       -7456398.1753747463        1425468913.9813273     
  -1372194344.7338634       -6668748.1458444595        1428300804.8914731     
  -1327686913.1197364       -6039326.5555732846        1434901779.3966682     
  -1878392543.4912322       -8790437.3851031065        1361520057.1743455     
  -1823102977.4123511       -6433417.2886086702        1355613880.8283207     
  -1768132542.9703581       -5140169.3150703907        1353833893.8971581     
  -1713481240.1652532       -4910693.4644954205        1356180096.3808584     
  -1659149068.9970388       -5744989.7368879318        1362652488.2794218     
  -2254111073.0086703       -9072722.2559549809        1291340430.2116301     
  -2187161475.7180409       -5156698.2682945728        1283917413.5102379     
  -2120802673.1694136       -3209990.0873061419        1280977692.0435185     
  -2055034665.3627872       -3232597.7129881382        1282521265.8114736     
  -1989857452.2981668       -5224521.1453502178        1288548134.8141081     
  -2633157039.3192210       -10353238.164738894        1220573502.0580397     
  -2553527108.4745212       -4572119.5832195282        1211316704.7119792     
  -2474759635.4769382       -1665860.4920808077        1206900308.4204054     
  -2396854620.3264680       -1634460.8913257122        1207324313.1833198     
  -2319812063.0231123       -4477920.7809543610        1212588719.0007231     
  -3015530442.4228811       -12631985.111453652        1149219272.7135754     
  -2922199875.6817913       -4679681.2333824635        1137811754.4335482     
  -2830003429.8929276       -507780.52939581871        1131601743.0278220     
  -2738941105.0562921       -116282.99950397015        1130589238.4963977     
  -2649012901.1718855       -3505188.6437137127        1134774240.8392720     
  -1327686913.1197364       -6039326.5555732846        1434901779.3966682     
  -1272798901.8743811       -2983618.9760084152        1428227132.6724608     
  -1218316974.5588379       -1281524.4958216548        1426762052.6891997     
  -1164241131.1731117       -933043.11501979828        1430506539.4468858     
  -1110571371.7171984       -1938174.8335977793        1439460592.9455147     
  -1659149068.9970388       -5744989.7368879318        1362652488.2794218     
  -1591104566.3972490       -3307343.9103327990        1355789124.0257528     
  -1523295936.9938846       -1655942.0718719959        1353979200.6314006     
  -1455723180.7869518       -790784.22151470184        1357222718.0963631     
  -1388386297.7764487       -711870.35925126076        1365519676.4206398     
  -1989857452.2981668       -5224521.1453502178        1288548134.8141081     
  -1909102532.2914565       -3538759.2560641766        1281694632.2199292     
  -1828413274.7477889       -2071872.2435891628        1279738444.6034338     
  -1747789679.6671631       -823860.10792088509        1282679571.9646232     
  -1667231747.0495808        205277.15093898773        1290518014.3034987     
  -2319812063.0231123       -4477920.7809543610        1212588719.0007231     
  -2226792799.5569987       -3677865.0131884813        1205943657.2549839     
  -2133668987.8205421       -2529315.0109513998        1204039784.6052980     
  -2040440627.8137443       -1032270.7742413282        1206877101.0516660     
  -1947107719.5365984        813267.69696271420        1214455606.5940888     
  -2649012901.1718855       -3505188.6437137127        1134774240.8392720     
  -2544175368.1938839       -3724661.1817240715        1128536199.1309226     
  -2439063076.2121544       -3028270.3739809990        1126883220.6369927     
  -2333676025.2266927       -1416016.2204636335        1129815305.3574920     
  -2228014215.2375031        1112101.2788171768        1137332453.2924104     
  -1110571371.7171984       -1938174.8335977793        1439460592.9455147     
  -1066808999.0741318       -6387428.3177385330        1433948060.0719895     
  -1022951689.1309452       -10520224.134811163        1433381897.0135806     
  -978999441.88764501       -14336562.284838080        1437762103.7702904     
  -934952257.34422588       -17836442.767804205        1447088680.3421156     
  -1388386297.7764487       -711870.35925126076        1365519676.4206398     
  -1332102170.6135032       -4421830.8443096280        1359441878.4072094     
  -1275894069.7660372       -8385212.3809649944        1357879223.3633947     
  -1219761995.2340543       -12602014.969228327        1360831711.2891977     
  -1163705947.0175495       -17072238.609090447        1368299342.1846154     
  -1667231747.0495808        205277.15093898773        1290518014.3034987     
  -1599657942.0681915       -3135013.3454782963        1283675493.5986342     
  -1532331127.0178776       -7298603.6121404767        1280916889.0178814     
  -1465251301.8986461       -12285493.649080217        1282242200.5612473     
  -1398418466.7104864       -18095683.456260681        1287651428.2287271     
  -1947107719.5365984        813267.69696271420        1214455606.5940888     
  -1869476313.4381952       -2526975.8212302923        1206648905.6462574     
  -1792262860.8864660       -7260397.8283418417        1202494893.9770393     
  -1715467361.8814151       -13386998.324378490        1201993571.5864389     
  -1639089816.4230316       -20906777.309306741        1205144938.4744473     
  -2228014215.2375031        1112101.2788171768        1137332453.2924104     
  -2141557284.7235198       -2597718.2716001272        1128362114.5500820     
  -2055689271.3718050       -8270595.0295699835        1122613238.2408719     
  -1970410175.1823673       -15906528.995136976        1120085824.3647697     
  -1885719996.1551957       -25505520.168255091        1120779872.9217806     
  -934952257.34422588       -17836442.767804205        1447088680.3421156     
  -875050061.85560942       -17266903.631447852        1446313606.8497427     
  -815695825.86332452       -18523896.149527907        1449531600.1984885     
  -756889549.36736500       -21607420.322028875        1456742660.3883557     
  -698631232.36773241       -26517476.148949087        1467946787.4193497     
  -1163705947.0175495       -17072238.609090447        1368299342.1846154     
  -1093046668.3236990       -17765220.094614208        1365221129.4514244     
  -1022709425.0652769       -19531653.031571984        1366715880.1784928     
  -952694217.24228382       -22371537.419959843        1372783594.3658237     
  -883001044.85472095       -26284873.259770691        1383424272.0134149     
  -1398418466.7104864       -18095683.456260681        1287651428.2287271     
  -1315345257.3281429       -19554131.318681955        1282533654.3257682     
  -1232368159.3203330       -21332950.429548144        1282568740.5022044     
  -1149487172.6870487       -23432140.788836539        1287756686.7580459     
  -1066702297.4282957       -25851702.396561503        1298097493.0932856     
  -1639089816.4230316       -20906777.309306741        1205144938.4744473     
  -1541945828.8689473       -22633637.303666890        1198251181.4727666     
  -1444672028.6284866       -23927788.343446374        1197090181.1696270     
  -1347268415.7016580       -24789230.428670704        1201661937.5650177     
  -1249734990.0884671       -25217963.559331357        1211966450.6589658     
  -1885719996.1551957       -25505520.168255091        1120779872.9217806     
  -1772848382.9461048       -27003738.049547911        1112373710.8924277     
  -1659621032.9897459       -27316166.773286998        1110280202.1807542     
  -1546037946.2861187       -26442806.339462996        1114499346.7867587     
  -1432099122.8352253       -24383656.748083889        1125031144.7104430     
  -3768256608.5953107       -1130476982.5785933        800572691.45901918     
  -3779132923.8382530       -1008682379.3966517        884851880.48622286     
  -3790620750.5196271       -888926147.67615390        974062395.26924741     
  -3802720088.6394362       -771208287.41709971        1068204235.8080922     
  -3815430938.1976776       -655528798.61948872        1167277402.1027579     
  -4339785489.2631083       -1301935646.7789326        858758705.58063030     
  -4335258438.9877138       -1125721692.2340262        942357190.77964175     
  -4331869725.3279076       -953302193.07441568        1020314781.0762535     
  -4329619348.2836895       -784677149.30010021        1092631476.4704657     
  -4328507307.8550606       -619846560.91108060        1159307276.9622786     
  -4895239652.2192011       -1468571895.6657603        936405242.73794019     
  -4905515581.1632404       -1247000493.1792207        1018708394.7354106     
  -4917456671.9000254       -1030979630.0018284        1084798431.1722620     
  -4931062924.4295540       -820509306.13358414        1134675352.0484931     
  -4946334338.7518263       -615589521.57448697        1168339157.3641050     
  -5434619097.4635878       -1630385729.2390761        1033512302.9309489     
  -5489904350.3648338       -1372518782.2322350        1113905492.3535304     
  -5547381590.2359819       -1121958458.4583931        1167513345.5572722     
  -5607050817.0770264       -878704757.91755033        1194335862.5421748     
  -5668912030.8879728       -642757680.60970783        1194373043.3082373     
  -5957923824.9962692       -1787377147.4988809        1150079886.1596558     
  -6088424746.5924931       -1502276559.3930688        1227948483.6340003     
  -6221644480.3357744       -1226238678.4441085        1268459524.2312853     
  -6357583026.2261105       -959263504.65200043        1271613007.9515102     
  -6496240384.2635002       -701351038.01674271        1237408934.7946756     
  -3815430938.1976776       -655528798.61948872        1167277402.1027579     
  -3797997330.3213186       -537562058.82973397        1188946040.7970750     
  -3784406773.3614078       -432405488.76146889        1205700119.2537081     
  -3774659267.3179436       -340059088.41469550        1217539637.4726560     
  -3768754812.1909285       -260522857.78941405        1224464595.4539201     
  -4328507307.8550606       -619846560.91108060        1159307276.9622786     
  -4298240177.0055370       -464092391.38047516        1141370897.5540574     
  -4278586102.4973598       -343715076.32101929        1129500843.0380669     
  -4269545084.3305254       -258714615.73271155        1123697113.4143069     
  -4271117122.5050359       -209091009.61555290        1123959708.6827767     
  -4946334338.7518263       -615589521.57448697        1168339157.3641050     
  -4871859727.4150944       -412635735.04881787        1102899420.1909652     
  -4814768177.8446054       -267625487.74395680        1054506893.0399710     
  -4775059690.0403614       -180558779.65990376        1023161575.9111221     
  -4752734264.0023565       -151435610.79665661        1008863468.8044182     
  -5668912030.8879728       -642757680.60970783        1194373043.3082373     
  -5518855981.5499926       -383192089.83476257        1073531608.7077990     
  -5392952999.4031525       -204136723.03028417        980718269.25942063     
  -5291203084.4474497       -105591580.19627213        915933024.96310270     
  -5213606236.6828890       -87556661.332724333        879175875.81884527     
  -6496240384.2635002       -701351038.01674271        1237408934.7946756     
  -6239228939.4102278       -375761455.73830867        1053267463.1045578     
  -6013140567.1729937       -153248782.18000245        908134971.69641578     
  -5817975267.5517941       -33813017.341815948        802011460.57024765     
  -5653733040.5466328       -17454161.223753691        734896929.72605467     
  -3768754812.1909285       -260522857.78941405        1224464595.4539201     
  -3661891133.8006511       -168185002.22205019        1191898219.1661985     
  -3562713728.9138575       -101468058.33296645        1169743877.7926962     
  -3471222597.5305486       -60372026.122161627        1158001571.3334129     
  -3387417739.6507225       -44896905.589638114        1156671299.7883475     
  -4271117122.5050359       -209091009.61555290        1123959708.6827767     
  -4148436749.9916987       -144978472.74544024        1090525357.0473230     
  -4030167579.8975043       -95569943.939129353        1065359193.3685992     
  -3916309612.2224488       -60865423.196612120        1048461217.6466054     
  -3806862846.9665294       -40864910.517894745        1039831429.8813411     
  -4752734264.0023565       -151435610.79665661        1008863468.8044182     
  -4620362474.3873596       -117385975.73021722        978382058.08630037     
  -4489126816.1071587       -87123445.113093376        954024988.36742485     
  -4359027289.1617498       -60648018.945283413        935792259.64778936     
  -4230063893.5511389       -37959697.226789474        923683871.92739499     
  -5213606236.6828890       -87556661.332724333        879175875.81884527     
  -5077668306.9876299       -85407511.176375389        855468322.28313327     
  -4939591437.5428171       -76128561.854858875        835741262.78917229     
  -4799375628.3484573       -59719813.368175745        819994697.33696651     
  -4657020879.4045439       -36181265.716325760        808228625.92650974     
  -5653733040.5466328       -17454161.223753691        734896929.72605467     
  -5520354247.7925072       -49043079.083916426        721784149.63781750     
  -5381561444.2044830       -62585294.164428711        710508016.63384295     
  -5237354629.7825642       -58080806.465288162        701068530.71413124     
  -5087733804.5267525       -35529615.986499071        693465691.87868536     
  -3387417739.6507225       -44896905.589638114        1156671299.7883475     
  -3294816432.1089411       -38065731.354019165        1149653198.2057829     
  -3201968113.3903751       -30411186.529122949        1146071826.4991317     
  -3108872783.4950199       -21933271.114925027        1145927184.6683969     
  -3015530442.4228811       -12631985.111453652        1149219272.7135754     
  -3806862846.9665294       -40864910.517894745        1039831429.8813411     
  -3702982997.7915483       -30107350.784684420        1031751521.6594914     
  -3599685052.6509867       -21289471.166205406        1028004595.8570511     
  -3496969011.5448422       -14411271.662444830        1028590652.4740200     
  -3394834874.4731145       -9472752.2734193802        1033509691.5104001     
  -4230063893.5511389       -37959697.226789474        923683871.92739499     
  -4112344781.1901150       -22507535.530135632        913575089.31985569     
  -3996036488.0747142       -11758104.652224302        908695541.67522192     
  -3881139014.2049360       -5711404.5930478573        909045228.99349129     
  -3767652359.5807791       -4367435.3526113033        914624151.27466655     
  -4657020879.4045439       -36181265.716325760        808228625.92650974     
  -4522901782.3046379       -15266285.590374947        795123901.18687809     
  -4391022419.6615572       -1817086.9871757030        788144663.95364487     
  -4261382791.4753013        4166330.0932686329        787290914.22681069     
  -4133982897.7458735        2683965.6509654522        792562652.00637722     
  -5087733804.5267525       -35529615.986499071        693465691.87868536     
  -4934654001.1351204       -8383600.9654018879        676397957.26055408     
  -4784642847.4115162        8533581.8289351463        666351962.69231927     
  -4637700343.3559408        15221932.396510839        663327708.17397702     
  -4493826488.9683962        11681450.737315416        667325193.70552981     
  -3015530442.4228811       -12631985.111453652        1149219272.7135754     
  -2922199875.6817913       -4679681.2333824635        1137811754.4335482     
  -2830003429.8929276       -507780.52939581871        1131601743.0278220     
  -2738941105.0562921       -116282.99950397015        1130589238.4963977     
  -2649012901.1718855       -3505188.6437137127        1134774240.8392720     
  -3394834874.4731145       -9472752.2734193802        1033509691.5104001     
  -3289806831.7785501       -5425837.0532383919        1023125785.3640972     
  -3185357176.8225589       -3306880.9616296291        1017443674.3056797     
  -3081485909.6051397       -3115883.9985938072        1016463358.3351467     
  -2978193030.1262875       -4852846.1641200781        1020184837.4524974     
  -3767652359.5807791       -4367435.3526113033        914624151.27466655     
  -3652343160.3225036       -4650804.6072547436        905912212.67802191     
  -3537056615.5891418       -5009688.9449415207        901406357.38284671     
  -3421792725.3806944       -5444088.3656837940        901106585.38913894     
  -3306551489.6971655       -5954002.8694722652        905012896.69689906     
  -4133982897.7458735        2683965.6509654522        792562652.00637722     
  -4009808861.3136439       -2354583.8954246044        786171036.37532246     
  -3885101746.1926775       -5616204.4793431759        783489792.25932002     
  -3759861552.3829679       -7100896.1007885933        784518919.65836954     
  -3634088279.8845115       -6808658.7597603798        789258418.57246923     
  -4493826488.9683962        11681450.737315416        667325193.70552981     
  -4362203934.7519817        1462825.0822393894        663902256.45599866     
  -4229492568.6331644       -5126427.5648293495        663693978.93510330     
  -4095692390.6119556       -8086307.2039201260        666700361.14284265     
  -3960803400.6883411       -7416813.8350033760        672921403.07921767     
  -2649012901.1718855       -3505188.6437137127        1134774240.8392720     
  -2544175368.1938839       -3724661.1817240715        1128536199.1309226     
  -2439063076.2121544       -3028270.3739809990        1126883220.6369927     
  -2333676025.2266927       -1416016.2204636335        1129815305.3574920     
  -2228014215.2375031        1112101.2788171768        1137332453.2924104     
  -2978193030.1262875       -4852846.1641200781        1020184837.4524974     
  -2860833186.3218012       -3190230.4134703875        1014430513.8078802     
  -2743435951.2940235       -1402977.2518448830        1013289345.6718274     
  -2626001325.0429530        508913.32074785233        1016761333.0443425     
  -2508529307.5685968        2545441.3043024540        1024846475.9254204     
  -3306551489.6971655       -5954002.8694722652        905012896.69689906     
  -3176589071.3686447       -2385219.7208889723        899465362.03883660     
  -3046826629.5972695        516974.90387129784        898559075.18348217     
  -2917264164.3830442        2752581.0048034191        902294036.13083375     
  -2787901675.7259636        4321598.5819172859        910670244.88089371     
  -3634088279.8845115       -6808658.7597603798        789258418.57246923     
  -3491443023.3344150       -1309629.1039848328        783640743.82378912     
  -3349235111.1218991        2731586.0931692123        782692409.17195225     
  -3207464543.2469673        5314986.8317161798        786413414.61696780     
  -3066131319.7096238        6440573.1116435528        794803760.15882850     
  -3960803400.6883411       -7416813.8350033760        672921403.07921767     
  -3805395042.2191119        36541.437232732773        666956659.16273677     
  -3650661395.8679032        5240856.3160681725        665689347.63724232     
  -3496602461.6347222        8196130.8014776707        669119468.50274026     
  -3343218239.5195632        8902364.8934793472        677247021.75922740     
  -2228014215.2375031        1112101.2788171768        1137332453.2924104     
  -2141557284.7235198       -2597718.2716001272        1128362114.5500820     
  -2055689271.3718050       -8270595.0295699835        1122613238.2408719     
  -1970410175.1823673       -15906528.995136976        1120085824.3647697     
  -1885719996.1551957       -25505520.168255091        1120779872.9217806     
  -2508529307.5685968        2545441.3043024540        1024846475.9254204     
  -2413882556.0115318       -2675363.5204364061        1015855959.9572527     
  -2319543362.5127773       -8921361.8728691339        1010292532.8062663     
  -2225511727.0723367       -16192553.753021002        1008156194.4724541     
  -2131787649.6902044       -24488939.160864711        1009446944.9558210     
  -2787901675.7259636        4321598.5819172859        910670244.88089371     
  -2684477599.1713543       -2233940.3308113813        901987803.97484016     
  -2581079721.5710921       -8876809.0913733244        896938078.27003145     
  -2477708042.9251766       -15607007.699762583        895521067.76646090     
  -2374362563.2336173       -22424536.155987144        897736772.46413767     
  -3066131319.7096238        6440573.1116435528        794803760.15882850     
  -2953342414.2029915       -1273448.7027297020        786757646.60284615     
  -2840298348.5467544       -8136936.6850805283        782549874.63217187     
  -2726999122.7408991       -14149890.835373998        782180444.24680078     
  -2613444736.7854342       -19312311.153634906        785649355.44674039     
  -3343218239.5195632        8902364.8934793472        677247021.75922740     
  -3220477001.1064448        206111.36380052567        670165487.84126937     
  -3097199243.4397593       -6701744.6539882421        667127921.89268184     
  -2973384966.5194907       -11821203.159843802        668134323.91346633     
  -2849034170.3456626       -15152264.153812885        673184693.90361929     
  -1885719996.1551957       -25505520.168255091        1120779872.9217806     
  -1772848382.9461048       -27003738.049547911        1112373710.8924277     
  -1659621032.9897459       -27316166.773286998        1110280202.1807542     
  -1546037946.2861187       -26442806.339462996        1114499346.7867587     
  -1432099122.8352253       -24383656.748083889        1125031144.7104430     
  -2131787649.6902044       -24488939.160864711        1009446944.9558210     
  -2002748008.0946732       -22644637.289133072        1001995699.2204095     
  -1873700137.2217882       -20772904.492906213        999897394.36773062     
  -1744644037.0715528       -18873740.772167325        1003152030.3977852     
  -1615579707.6439712       -16947146.126941502        1011759607.3105677     
  -2374362563.2336173       -22424536.155987144        897736772.46413767     
  -2231896928.7800694       -18060325.189768195        890835017.64110506     
  -2089770572.5190861       -14827041.532101631        888326491.26585519     
  -1947983494.4506662       -12724685.182982087        890211193.33838475     
  -1806535694.5748134       -11753256.142421365        896489123.85870695     
  -2613444736.7854342       -19312311.153634906        785649355.44674039     
  -2460295145.0022922       -13250801.751453996        778891666.15450859     
  -2307832338.8816333       -9478577.8908754587        775567492.87511909     
  -2156056318.4234505       -7995639.5719015598        775676835.60856450     
  -2004967083.6277525       -8801986.7945370674        779219694.35483491     
  -2849034170.3456626       -15152264.153812885        673184693.90361929     
  -2687942656.7613444       -8216066.9741748571        666165644.76062584     
  -2527885436.3094273       -4727513.5692113638        661620399.19552231     
  -2368862508.9899063       -4686603.9389063120        659548957.20830488     
  -2210873874.8027954       -8093338.0832771063        659951318.79898000     
  -5957923824.9962692       -1787377147.4988809        1150079886.1596558     
  -6088424746.5924931       -1502276559.3930688        1227948483.6340003     
  -6221644480.3357744       -1226238678.4441085        1268459524.2312853     
  -6357583026.2261105       -959263504.65200043        1271613007.9515102     
  -6496240384.2635002       -701351038.01674271        1237408934.7946756     
  -6810543124.2379494       -2043162937.2713847        1353802967.9611034     
  -6828499791.2020102       -1395468614.7280235        1202782115.5904307     
  -6897821934.9093056       -918992547.99543476        1092015846.4821248     
  -7018509555.3598299       -613734737.07361817        1021504160.6361846     
  -7190562652.5535860       -479695181.96257401        991247058.05261052     
  -8337866284.6093311       -2501359885.3827996        1712376523.8723335     
  -8021529725.1142988       -1424547136.8538091        1275711779.6277719     
  -7805205306.9586744       -681108192.78951263        956913758.78500211     
  -7688893030.1424561       -271043053.18990898        755982461.34402478     
  -7672592894.6656485       -194351718.05499935        672917887.30484009     
  -10539893306.110418       -3161967991.8331256        2225800553.8933458     
  -9667514548.3293591       -1589512125.7704268        1446737475.7460227     
  -8943794596.4838829       -512585612.82634163        863153261.13991714     
  -8368733450.5739918        68811546.999127865        475047910.07502991     
  -7942331110.5996838        154679353.70598364        282421422.55136245     
  -13416624188.741205       -4024987256.6223617        2894075058.0241413     
  -11766454260.847189       -1890363581.4778755        1715859203.9451840     
  -10313589803.484932       -413424808.10592365        810734353.54687083     
  -9058030816.6544342        405829063.49349356        178700506.82920223     
  -7999777300.3556986        567398033.32037401       -180242336.20782274     
  -6496240384.2635002       -701351038.01674271        1237408934.7946756     
  -6239228939.4102278       -375761455.73830867        1053267463.1045578     
  -6013140567.1729937       -153248782.18000245        908134971.69641578     
  -5817975267.5517941       -33813017.341815948        802011460.57024765     
  -5653733040.5466328       -17454161.223753691        734896929.72605467     
  -7190562652.5535860       -479695181.96257401        991247058.05261052     
  -6900486470.7129860       -304353851.89415574        846939783.25192153     
  -6623223059.6585588       -171721757.77965379        723730614.82335901     
  -6358772419.3903074       -81798899.619066715        621619552.76692390     
  -6107134549.9082298       -34585277.412396669        540606597.08261573     
  -7672592894.6656485       -194351718.05499935        672917887.30484009     
  -7400625901.2944231       -184610817.83360577        589573494.86175036     
  -7123361376.8795137       -157211480.79992199        509416334.88094079     
  -6840799321.4209156       -112153706.95394802        432446407.36241150     
  -6552939734.9186287       -49437496.295680046        358663712.30616218     
  -7942331110.5996838        154679353.70598364        282421422.55136245     
  -7739647231.1545458       -16532353.556662083        281168597.93404454     
  -7513555518.8358593       -109717951.24081230        265192131.86916164     
  -7264055973.6436214       -124877439.34646225        234492024.35671067     
  -6991148595.5778341       -62010817.873610497        189068275.39669117     
  -7999777300.3556986        567398033.32037401       -180242336.20782274     
  -7917550460.2933540        199881540.93667650       -78274907.531193376     
  -7793805485.5275946       -29241169.102309704       -8941994.2119788341     
  -7628542376.0584269       -119970096.79660082        27756403.749818999     
  -7421761131.8858452       -72305242.146174431        31820286.354202028     
  -5653733040.5466328       -17454161.223753691        734896929.72605467     
  -5520354247.7925072       -49043079.083916426        721784149.63781750     
  -5381561444.2044830       -62585294.164428711        710508016.63384295     
  -5237354629.7825642       -58080806.465288162        701068530.71413124     
  -5087733804.5267525       -35529615.986499071        693465691.87868536     
  -6107134549.9082298       -34585277.412396669        540606597.08261573     
  -5959192044.0851345       -36394437.994086027        534223408.17093176     
  -5810248310.5686092       -34866172.931008577        530334176.70223385     
  -5660303349.3586578       -30000482.223172903        528938902.67652237     
  -5509357160.4552746       -21797365.870566845        530037586.09379780     
  -6552939734.9186287       -49437496.295680046        358663712.30616218     
  -6388555486.4302168       -20903490.719991684        353861867.57381809     
  -6227582793.3888369       -3741336.6344206333        352211290.64318627     
  -6070021655.7944946        2048965.9610228539        353711981.51426560     
  -5915872073.6471920       -3532582.9336583614        358363940.18705636     
  -6991148595.5778341       -62010817.873610497        189068275.39669117     
  -6808444574.8277483       -2570237.2616353035        180699527.84647962     
  -6633564892.6651602        30789214.725337505        176139358.45670334     
  -6466509549.0900784        38067538.087288380        175387767.22735918     
  -6307278544.1025009        19264732.824237108        178444754.15845203     
  -7421761131.8858452       -72305242.146174431        31820286.354202028     
  -7218859309.2777309        18605322.380990982        14736388.988913752     
  -7028194608.3975821        68725481.148266792        2118380.1427834290     
  -6849767029.2454033        78055234.155641079       -6033740.1841939446     
  -6683576571.8211956        46594581.403116703       -9719971.9920094423     
  -5087733804.5267525       -35529615.986499071        693465691.87868536     
  -4934654001.1351204       -8383600.9654018879        676397957.26055408     
  -4784642847.4115162        8533581.8289351463        666351962.69231927     
  -4637700343.3559408        15221932.396510839        663327708.17397702     
  -4493826488.9683962        11681450.737315416        667325193.70552981     
  -5509357160.4552746       -21797365.870566845        530037586.09379780     
  -5344417102.3220921       -9413907.7680766582        515120126.17841089     
  -5180490020.6861057       -407037.98956871033        505710942.99553758     
  -5017575915.5473156        5223243.4649443626        501810036.54517913     
  -4855674786.9057217        7476936.5954813957        503417406.82733560     
  -5915872073.6471920       -3532582.9336583614        358363940.18705636     
  -5743395941.6792593       -7208936.0218083858        347995040.34038055     
  -5569877113.0376844       -7409633.5311627388        341620953.90883970     
  -5395315587.7224760       -4134675.4617428780        339241680.89243585     
  -5219711365.7336359        2615938.1864664555        340857221.29116637     
  -6307278544.1025009        19264732.824237108        178444754.15845203     
  -6131590519.2066116       -1768685.7265965939        175022699.74646175     
  -5952804124.4662485       -12474204.795857906        174081995.43222573     
  -5770919359.8814249       -12851824.383574247        175622641.21575019     
  -5585936225.4521265       -2901544.4897146225        179644637.09702864     
  -6683576571.8211956        46594581.403116703       -9719971.9920094423     
  -6509000834.9041519        6906843.1175570488       -3796895.6033424838     
  -6329271054.9718018       -15600751.783646822        3094067.5656946660     
  -6144387232.0241566       -20928203.300539732        10952917.515118899     
  -5954349366.0612087       -9075511.4330792427        19779654.244912203     
  -4493826488.9683962        11681450.737315416        667325193.70552981     
  -4362203934.7519817        1462825.0822393894        663902256.45599866     
  -4229492568.6331644       -5126427.5648293495        663693978.93510330     
  -4095692390.6119556       -8086307.2039201260        666700361.14284265     
  -3960803400.6883411       -7416813.8350033760        672921403.07921767     
  -4855674786.9057217        7476936.5954813957        503417406.82733560     
  -4713987101.8312159        2535196.7593069077        500067133.69972724     
  -4572032418.2133121       -1516547.9321908951        500026866.31457740     
  -4429810736.0519972       -4678297.4790034294        503296604.67188090     
  -4287322055.3472791       -6950051.8811261654        509876348.77164119     
  -5219711365.7336359        2615938.1864664555        340857221.29116637     
  -5067686132.6187010        3032809.3238844872        336620830.03332597     
  -4916215714.3193569        1600297.7426710129        335789790.53176010     
  -4765300110.8356009       -1681596.5571606159        338364102.78647166     
  -4614939322.1674299       -6812873.5756175518        344343766.79746020     
  -5585936225.4521265       -2901544.4897146225        179644637.09702864     
  -5423301027.1144247        2955662.7759897709        173563345.45679149     
  -5262042456.9512959        4224109.4597799778        170982751.58665439     
  -5102160514.9627523        903795.56161355972        171902855.48661676     
  -4943655201.1487913       -7005278.9184832573        176323657.15667257     
  -5954349366.0612087       -9075511.4330792427        19779654.244912203     
  -5780831785.3183832        2303757.1156477928        10894679.970126113     
  -5609512646.1091366        6354887.2191066742        5605749.4792616451     
  -5440391948.4334612        3077878.8773317337        3912862.7723116726     
  -5273469692.2913599       -7527267.9096908569        5816019.8492751559     
  -3960803400.6883411       -7416813.8350033760        672921403.07921767     
  -3805395042.2191119        36541.437232732773        666956659.16273677     
  -3650661395.8679032        5240856.3160681725        665689347.63724232     
  -3496602461.6347222        8196130.8014776707        669119468.50274026     
  -3343218239.5195632        8902364.8934793472        677247021.75922740     
  -4287322055.3472791       -6950051.8811261654        509876348.77164119     
  -4120224998.4371257       -1744967.9133002758        503071675.19649380     
  -3953332747.4275184        2777429.7193653584        501079707.56285179     
  -3786645302.3184671        6617141.0168602467        503900445.87071508     
  -3620162663.1099606        9774165.9791815281        511533890.12009335     
  -4614939322.1674299       -6812873.5756175518        344343766.79746020     
  -4435824213.8148689       -3757255.0117480755        337247387.48402554     
  -4256444005.1453791        182031.27520895004        335078987.66262305     
  -4076798696.1589761        5004985.2852203846        337838567.33323979     
  -3896888286.8556499        10711607.018307924        345526126.49588263     
  -4943655201.1487913       -7005278.9184832573        176323657.15667257     
  -4752192688.3523397       -6000319.8581075668        169483796.02533740     
  -4559995169.0214977       -2545339.0164313316        167687187.93655080     
  -4367062643.1562691        3359663.6065371037        170933832.89030492     
  -4173395110.7566428        11714688.010823965        179223730.88660535     
  -5273469692.2913599       -7527267.9096908569        5816019.8492751559     
  -5069330422.0495501       -8474162.4523990154       -219099.17957354872     
  -4863986239.0558729       -5404681.1555619240       -1095691.6153634794     
  -4657437143.3103294        1681175.9808356762        3186242.5419147313     
  -4449683134.8129234        12783408.956773758        12626703.292252837     
  -3343218239.5195632        8902364.8934793472        677247021.75922740     
  -3220477001.1064448        206111.36380052567        670165487.84126937     
  -3097199243.4397593       -6701744.6539882421        667127921.89268184     
  -2973384966.5194907       -11821203.159843802        668134323.91346633     
  -2849034170.3456626       -15152264.153812885        673184693.90361929     
  -3620162663.1099606        9774165.9791815281        511533890.12009335     
  -3486883403.7503338        2977737.6084544659        504754190.16719884     
  -3353394353.4649210       -3119387.6763341427        501598271.01326233     
  -3219695512.2537298       -8517209.8751742840        502066132.65828067     
  -3085786880.1167440       -13215728.988060951        506157775.10225952     
  -3896888286.8556499        10711607.018307924        345526126.49588263     
  -3754271541.3221269        5454843.3747377396        338667077.45896804     
  -3611771733.1906080       -191711.60884737968        335011622.05059969     
  -3469388862.4610882       -6228057.9324271679        334559760.27076602     
  -3327122929.1335692       -12654195.596021891        337311492.11948317     
  -4173395110.7566428        11714688.010823965        179223730.88660535     
  -4022641413.8218336        7637428.6626434326        171904149.71658367     
  -3872331382.6168060        2081283.5485043526        167367975.00469416     
  -3722465017.1415739       -4953747.3316183090        165615206.75092742     
  -3573042317.3961310       -13467663.977692604        166645844.95529231     
  -4449683134.8129234        12783408.956773758        12626703.292252837     
  -4291993021.2494330        9525493.4721944332        4465406.9400373008     
  -4135073301.7435250        3699597.7956843376       -1332670.1244581034     
  -3978923976.2951956       -4694278.0727539062       -4767527.9012503503     
  -3823545044.9044404       -15656134.133120537       -5839166.3903167006     
  -2849034170.3456626       -15152264.153812885        673184693.90361929     
  -2687942656.7613444       -8216066.9741748571        666165644.76062584     
  -2527885436.3094273       -4727513.5692113638        661620399.19552231     
  -2368862508.9899063       -4686603.9389063120        659548957.20830488     
  -2210873874.8027954       -8093338.0832771063        659951318.79898000     
  -3085786880.1167440       -13215728.988060951        506157775.10225952     
  -2916860712.7150683       -7829516.6239510775        497365468.77537900     
  -2748421608.1748505       -4066847.1313465834        492483704.45676810     
  -2580469566.4960752       -1927720.5102195740        491512482.14644790     
  -2413004587.6787419       -1412136.7605842352        494451801.84439605     
  -3327122929.1335692       -12654195.596021891        337311492.11948317     
  -3146257140.9705734       -7586477.9642645121        327384363.92482108     
  -2965331185.3980541       -2318202.3007849455        322804516.16882867     
  -2784345062.4160528        3150631.3943246603        323571948.85149765     
  -2603298772.0245285        8820023.1211564541        329686661.97284788     
  -3573042317.3961310       -13467663.977692604        166645844.95529231     
  -3376131941.5278220       -7486950.9950728416        156222330.20896539     
  -3178614167.9790702        518420.92238390446        152582834.33169076     
  -2980488996.7498407        10548451.774748921        155727357.32348204     
  -2781756427.8401642        22603141.561939120        165655899.18433076     
  -3823545044.9044404       -15656134.133120537       -5839166.3903167006     
  -3606485114.3868675       -7530935.7164735794       -16120632.372202702     
  -3388270555.9178638        4443022.5382664204       -18181341.054637969     
  -3168901369.4974632        20265740.630994439       -12021292.437631149     
  -2948377555.1256509        39937218.561773062        2359513.4788360149     
 </DataArray>
 <DataArray  type="Float64" Name="VM" NumberOfComponents="1" format="ascii">
   12935671493.035879     
   11340747865.473454     
   10210241495.536398     
   9272779156.2762508     
   8303908548.9908056     
   10130308560.524832     
   9322011730.8807793     
   8826372188.8997936     
   8443536678.5197725     
   8035692216.3377981     
   7982324929.5392542     
   7734956244.6694660     
   7669159067.2211094     
   7669618489.1225986     
   7666402556.3318157     
   6491633890.5849819     
   6586868706.8733921     
   6757436172.1223755     
   6961253898.5551605     
   7171661778.0092068     
   5657788235.1823502     
   5890910405.9358349     
   6116393457.3183584     
   6331780946.7664633     
   6536851695.4020700     
   8303908548.9908056     
   8020505656.8514891     
   7779241536.6688166     
   7569423088.5856829     
   7386079589.5310659     
   8035692216.3377981     
   7746717068.4355679     
   7473430487.1192751     
   7213871802.4569473     
   6968049771.8497458     
   7666402556.3318157     
   7381050060.9587812     
   7101100870.4079685     
   6826633320.5489368     
   6557851879.7862473     
   7171661778.0092068     
   6910938876.2824831     
   6658121248.7165976     
   6409350182.3419552     
   6161480186.4420042     
   6536851695.4020700     
   6328730498.8866014     
   6142797862.6418142     
   5965142360.7509995     
   5786755677.0151443     
   7386079589.5310659     
   7228224994.6522827     
   7062809084.4885244     
   6889134224.4113054     
   6707016380.8222418     
   6968049771.8497458     
   6814351163.1532745     
   6656008461.2030354     
   6492737603.7505426     
   6324489654.4846573     
   6557851879.7862473     
   6407510414.5651884     
   6255530380.5695858     
   6101880109.0669651     
   5946589838.1384010     
   6161480186.4420042     
   6012702959.3661728     
   5865269215.9050274     
   5719217716.9586725     
   5574605053.3551359     
   5786755677.0151443     
   5636390525.0420160     
   5490243966.8783331     
   5348229461.4022741     
   5210395031.9005718     
   6707016380.8222418     
   6512460323.8812208     
   6321487388.5671721     
   6133979243.5906019     
   5949915434.3926878     
   6324489654.4846573     
   6138196755.0018616     
   5954216126.0474491     
   5772524449.6505499     
   5593147653.8892603     
   5946589838.1384010     
   5771355714.3936787     
   5597537837.0523071     
   5425163063.1578083     
   5254293383.7860975     
   5574605053.3551359     
   5413743360.0748901     
   5253817567.9650097     
   5094874219.2023468     
   4937026065.3322859     
   5210395031.9005718     
   5067746325.0829325     
   4926031359.5342646     
   4785300605.8537607     
   4645758939.5555983     
   5949915434.3926878     
   5782014800.3916035     
   5612701186.1441574     
   5441935760.8172560     
   5269719718.7659378     
   5593147653.8892603     
   5433102697.3786259     
   5272479626.2475128     
   5111291991.5116854     
   4949587279.2019939     
   5254293383.7860975     
   5102623052.1228218     
   4951293898.5540428     
   4800369304.5432520     
   4649944973.1768188     
   4937026065.3322859     
   4794145713.5653687     
   4652593860.1936846     
   4512476425.2166328     
   4373934529.9041090     
   4645758939.5555983     
   4511929195.8026953     
   4380458945.6039524     
   4251483345.2157602     
   4125180201.0027051     
   5269719718.7659378     
   5065098671.6795959     
   4861286522.2263784     
   4658281227.8945875     
   4456142259.3959312     
   4949587279.2019939     
   4758259234.8740826     
   4567965922.1190529     
   4378764026.9510698     
   4190777665.6887269     
   4649944973.1768188     
   4472257981.2857227     
   4295919481.5466413     
   4121058319.0621562     
   3947880432.2025833     
   4373934529.9041090     
   4210500059.7793541     
   4048835665.9491286     
   3889155457.9528275     
   3731763400.1457028     
   4125180201.0027051     
   3976891253.0889468     
   3830915766.2845097     
   3687562494.6295018     
   3547244082.8467488     
   4456142259.3959312     
   4296770647.8937683     
   4136924985.2940068     
   3976587489.0165744     
   3815754470.4131670     
   4190777665.6887269     
   4037459352.2954812     
   3884205221.8357401     
   3731034090.2293854     
   3577988926.6894822     
   3947880432.2025833     
   3802518861.5732622     
   3657991393.0464773     
   3514382024.2605400     
   3371815857.6773920     
   3731763400.1457028     
   3596258908.8664927     
   3462600953.0226259     
   3330960839.8753762     
   3201571720.5431933     
   3547244082.8467488     
   3423375713.7263064     
   3302591470.4956346     
   3185156092.9719458     
   3071414799.8786206     
   3815754470.4131670     
   3602833747.4986267     
   3390640492.0761008     
   3179150870.5197296     
   2968550469.4640822     
   3577988926.6894822     
   3383232515.8094811     
   3189840234.5175271     
   2997935707.0337377     
   2807825099.7866988     
   3371815857.6773920     
   3193221587.4465199     
   3016443011.6570630     
   2841734719.5524683     
   2669509941.8900251     
   3201571720.5431933     
   3037666429.6595392     
   2875809635.9937892     
   2716358966.6927261     
   2559811202.9686017     
   3071414799.8786206     
   2921360797.9327736     
   2773355580.1037850     
   2627821171.8553634     
   2485305347.8831639     
   5657788235.1823502     
   5890910405.9358349     
   6116393457.3183584     
   6331780946.7664633     
   6536851695.4020700     
   5151423102.5218830     
   5311329126.3003407     
   5467866478.7004385     
   5618141431.4417076     
   5760689646.3112488     
   4643449970.1711264     
   4755545539.5284224     
   4868764151.8323879     
   4980471717.7340765     
   5088743599.4101248     
   4134132634.1275878     
   4224397213.8062153     
   4320581701.1963816     
   4421029200.5393848     
   4524285025.4849854     
   3624990843.9644122     
   3719708262.7634072     
   3825677210.4902673     
   3942833234.6462879     
   4071082901.5413094     
   6536851695.4020700     
   6328730498.8866014     
   6142797862.6418142     
   5965142360.7509995     
   5786755677.0151443     
   5760689646.3112488     
   5652188594.7319164     
   5559688756.9074106     
   5474127609.6288919     
   5389964829.7924471     
   5088743599.4101248     
   5054121429.7782116     
   5030011499.8388691     
   5011207079.8547354     
   4994506883.3950281     
   4524285025.4849854     
   4539124627.2643003     
   4558633677.3949099     
   4580331906.2886696     
   4602495476.7337561     
   4071082901.5413094     
   4112526654.9512997     
   4151318971.7453589     
   4186561104.8800740     
   4217520463.0713425     
   5786755677.0151443     
   5636390525.0420160     
   5490243966.8783331     
   5348229461.4022741     
   5210395031.9005718     
   5389964829.7924471     
   5248982474.4764595     
   5111233267.0764141     
   4976758882.2711058     
   4845653328.5628338     
   4994506883.3950281     
   4867325493.4816818     
   4743335630.8929920     
   4622504968.0763903     
   4504873496.9212112     
   4602495476.7337561     
   4494090438.0126104     
   4389896590.9517841     
   4289595611.6324291     
   4193096203.8375030     
   4217520463.0713425     
   4133245915.3625240     
   4055443928.2876787     
   3983261136.2354026     
   3916400846.1653376     
   5210395031.9005718     
   5067746325.0829325     
   4926031359.5342646     
   4785300605.8537607     
   4645758939.5555983     
   4845653328.5628338     
   4720645266.9373302     
   4597457814.4917316     
   4476230102.6671896     
   4357222044.2265930     
   4504873496.9212112     
   4395814574.5400124     
   4289363917.2037950     
   4185713272.2635231     
   4085141419.0113721     
   4193096203.8375030     
   4098174731.9727769     
   4006486075.8570261     
   3918239448.1588616     
   3833700819.7746372     
   3916400846.1653376     
   3833660411.7303410     
   3754542699.7658634     
   3679243215.7176480     
   3607991974.8951216     
   4645758939.5555983     
   4511929195.8026953     
   4380458945.6039524     
   4251483345.2157602     
   4125180201.0027051     
   4357222044.2265930     
   4233594915.9403915     
   4112638612.6088991     
   3994536360.5165749     
   3879521526.0000992     
   4085141419.0113721     
   3972993413.9868951     
   3864023202.4198141     
   3758463221.3583417     
   3656607172.8698454     
   3833700819.7746372     
   3734349688.0119367     
   3638894416.3789220     
   3547612837.3475165     
   3460857678.3653002     
   3607991974.8951216     
   3522704332.5433397     
   3442244930.9839897     
   3366923815.1199369     
   3297140288.1908460     
   4125180201.0027051     
   3976891253.0889468     
   3830915766.2845097     
   3687562494.6295018     
   3547244082.8467488     
   3879521526.0000992     
   3745381429.3165345     
   3614464585.1519294     
   3487153976.1177187     
   3363939572.1549435     
   3656607172.8698454     
   3536984699.8882847     
   3421542509.7139068     
   3310720672.3516011     
   3205062168.8814292     
   3460857678.3653002     
   3355958548.9891100     
   3256203265.0203414     
   3162061107.9330568     
   3074092057.4975963     
   3297140288.1908460     
   3206890681.6802592     
   3122699008.3223300     
   3045026953.1456509     
   2974407787.3541427     
   3547244082.8467488     
   3423375713.7263064     
   3302591470.4956346     
   3185156092.9719458     
   3071414799.8786206     
   3363939572.1549435     
   3251989374.3068824     
   3143469820.0454092     
   3038676757.5779424     
   2937980501.7754021     
   3205062168.8814292     
   3105023994.0666227     
   3008759432.6677675     
   2916587914.7752819     
   2828895614.9488540     
   3074092057.4975963     
   2986012078.4422002     
   2902023521.8031640     
   2822457203.4371939     
   2747701307.9133725     
   2974407787.3541427     
   2898329583.4101191     
   2826606880.6498117     
   2759565844.7268004     
   2697579792.4649820     
   3071414799.8786206     
   2921360797.9327736     
   2773355580.1037850     
   2627821171.8553634     
   2485305347.8831639     
   2937980501.7754021     
   2800114923.3346548     
   2666237008.8321815     
   2537011507.4922328     
   2413270143.1486816     
   2828895614.9488540     
   2705945745.5202966     
   2589159639.1726260     
   2479403565.7389197     
   2377720531.4435768     
   2747701307.9133725     
   2641618254.9870191     
   2543942987.0949545     
   2455636997.4349127     
   2377809504.7957211     
   2697579792.4649820     
   2609209243.3367662     
   2531386980.1491604     
   2465030903.1201520     
   2411154884.4126339     
   3624990843.9644122     
   3719708262.7634072     
   3825677210.4902673     
   3942833234.6462879     
   4071082901.5413094     
   3137985081.0498500     
   3255535909.2295337     
   3382503107.3862491     
   3518417229.0698442     
   3662820190.1411953     
   2694765990.1612425     
   2830542363.3514786     
   2973629372.9025126     
   3122944640.2581644     
   3277577097.6134582     
   2298822712.6071701     
   2449519751.5439281     
   2604937286.6705308     
   2763152753.8897953     
   2922736354.1181512     
   1955364798.1300793     
   2119422469.0257876     
   2284835451.9217000     
   2448643473.0378671     
   2608888297.8703985     
   4071082901.5413094     
   4112526654.9512997     
   4151318971.7453589     
   4186561104.8800740     
   4217520463.0713425     
   3662820190.1411953     
   3702210834.1484046     
   3740220806.6233706     
   3775950603.5094190     
   3808650222.8787961     
   3277577097.6134582     
   3320787197.9819689     
   3364241698.2695265     
   3407117175.6948271     
   3448735101.9871678     
   2922736354.1181512     
   2975638821.8208842     
   3030768266.7490950     
   3087442516.7108707     
   3145128651.3225794     
   2608888297.8703985     
   2676815296.2610154     
   2749255697.7149792     
   2825701705.9669108     
   2905801016.0027461     
   4217520463.0713425     
   4133245915.3625240     
   4055443928.2876787     
   3983261136.2354026     
   3916400846.1653376     
   3808650222.8787961     
   3755807998.7497439     
   3708935632.9997611     
   3667557597.4008017     
   3631577468.9516048     
   3448735101.9871678     
   3422743368.9650297     
   3401840409.1596370     
   3385796211.3298159     
   3374594994.8213224     
   3145128651.3225794     
   3141675014.4080510     
   3141837285.7644224     
   3145515183.7573209     
   3152695113.7982178     
   2905801016.0027461     
   2920907405.3179417     
   2937380429.5815606     
   2955166300.7272949     
   2974226823.5969458     
   3916400846.1653376     
   3833660411.7303410     
   3754542699.7658634     
   3679243215.7176480     
   3607991974.8951216     
   3631577468.9516048     
   3560038577.2275438     
   3492905088.9652920     
   3430402405.6250973     
   3372797133.4018764     
   3374594994.8213224     
   3315671630.7646914     
   3262144872.5812836     
   3214251019.2260408     
   3172274962.8850160     
   3152695113.7982178     
   3107463804.1866455     
   3068812077.4413528     
   3036955142.1520681     
   3012164425.3686957     
   2974226823.5969458     
   2943112997.8250332     
   2919915471.2462397     
   2904785819.8804450     
   2897941005.5212402     
   3607991974.8951216     
   3522704332.5433397     
   3442244930.9839897     
   3366923815.1199369     
   3297140288.1908460     
   3372797133.4018764     
   3303136546.3811684     
   3238848636.1010232     
   3180234766.3215427     
   3127662758.2313738     
   3172274962.8850160     
   3117331415.6106491     
   3068178298.1994433     
   3025081357.0794764     
   2988349512.8504820     
   3012164425.3686957     
   2970704302.7833686     
   2935273283.1887884     
   2906080015.3537331     
   2883356074.9807167     
   2897941005.5212402     
   2868317206.9296346     
   2844741648.8028426     
   2827355750.7297821     
   2816309646.9393129     
   3297140288.1908460     
   3206890681.6802592     
   3122699008.3223300     
   3045026953.1456509     
   2974407787.3541427     
   3127662758.2313738     
   3051774921.0824909     
   2982664653.4208302     
   2920778962.0450068     
   2866621690.0499930     
   2988349512.8504820     
   2926799025.9238849     
   2872716939.9379001     
   2826504937.5354538     
   2788604349.9969306     
   2883356074.9807167     
   2835640103.4358816     
   2796013195.8205762     
   2764803783.4624624     
   2742364058.1871247     
   2816309646.9393129     
   2781317426.5333147     
   2754938557.3425770     
   2737410979.9423590     
   2728985240.4585891     
   2974407787.3541427     
   2898329583.4101191     
   2826606880.6498117     
   2759565844.7268004     
   2697579792.4649820     
   2866621690.0499930     
   2803253234.2209501     
   2745401290.2736812     
   2693400854.1466255     
   2647622972.0364866     
   2788604349.9969306     
   2738132343.3199534     
   2694281407.8452902     
   2657356987.3483500     
   2627686230.4590693     
   2742364058.1871247     
   2704232252.8541589     
   2673721246.1332850     
   2651074407.9004097     
   2636544176.8199267     
   2728985240.4585891     
   2701838113.3373685     
   2683194018.4069133     
   2673217080.3856297     
   2672073087.7149591     
   2697579792.4649820     
   2609209243.3367662     
   2531386980.1491604     
   2465030903.1201520     
   2411154884.4126339     
   2647622972.0364866     
   2578880970.4560814     
   2520348529.1512585     
   2472715749.7924457     
   2436707974.3530631     
   2627686230.4590693     
   2576717446.5918694     
   2535319318.8167281     
   2503974187.7652359     
   2483166795.8948627     
   2636544176.8199267     
   2601371677.4880567     
   2574893733.5992742     
   2557424077.8141336     
   2549266623.6361547     
   2672073087.7149591     
   2650730182.3619881     
   2637047312.8460984     
   2631214885.8795300     
   2633413402.8622794     
   1955364798.1300793     
   2119422469.0257876     
   2284835451.9217000     
   2448643473.0378671     
   2608888297.8703985     
   1653884349.6311066     
   1820333280.4344478     
   1988477545.5988324     
   2155620728.9028339     
   2320004868.8108492     
   1393716013.4331601     
   1571088264.9989233     
   1749462663.1960361     
   1926835536.9747248     
   2101956609.4584854     
   1207174458.7651999     
   1399110502.9363453     
   1590619669.9489911     
   1780925195.7100286     
   1969568553.7145360     
   1136942447.0453269     
   1335252066.0142355     
   1533863934.0207095     
   1732778051.0647480     
   1931994417.1463525     
   2608888297.8703985     
   2676815296.2610154     
   2749255697.7149792     
   2825701705.9669108     
   2905801016.0027461     
   2320004868.8108492     
   2407044960.1261134     
   2496528756.0381351     
   2588067430.3970828     
   2681386085.1180153     
   2101956609.4584854     
   2205695810.2806082     
   2309344066.0352635     
   2412665700.9896674     
   2515494260.0351734     
   1969568553.7145360     
   2086706863.0514536     
   2200989457.9087434     
   2312341478.1479206     
   2420710892.3061204     
   1931994417.1463525     
   2058641383.4838226     
   2179858530.8484931     
   2295645859.2403636     
   2406003368.6594348     
   2905801016.0027461     
   2920907405.3179417     
   2937380429.5815606     
   2955166300.7272949     
   2974226823.5969458     
   2681386085.1180153     
   2703312462.9922819     
   2727623341.5330143     
   2754302318.3480344     
   2783342406.3845143     
   2515494260.0351734     
   2544094228.0781150     
   2576119606.3363328     
   2611572499.4835539     
   2650459069.9753160     
   2420710892.3061204     
   2454379526.6576738     
   2492511964.8283076     
   2535111692.2465038     
   2582183049.4214869     
   2406003368.6594348     
   2441596686.8468037     
   2482680355.5338702     
   2529254374.7206345     
   2581318744.4070997     
   2974226823.5969458     
   2943112997.8250332     
   2919915471.2462397     
   2904785819.8804450     
   2897941005.5212402     
   2783342406.3845143     
   2767009051.7303033     
   2758198267.9512310     
   2757000863.2773576     
   2763541469.8006845     
   2650459069.9753160     
   2645711375.7601609     
   2647800433.3548999     
   2656764798.4252048     
   2672656438.2002015     
   2582183049.4214869     
   2585476814.0994778     
   2594645389.0172057     
   2609696873.3237529     
   2630642331.2597761     
   2581318744.4070997     
   2589119374.7341290     
   2601613473.4367638     
   2618801040.5150065     
   2640682075.9688535     
   2897941005.5212402     
   2868317206.9296346     
   2844741648.8028426     
   2827355750.7297821     
   2816309646.9393129     
   2763541469.8006845     
   2741196673.8030319     
   2725520946.3373184     
   2716611605.1625967     
   2714570593.7237749     
   2672656438.2002015     
   2655885265.8558750     
   2646362595.6571155     
   2644139227.8736801     
   2649267775.4701490     
   2630642331.2597761     
   2617046504.7731137     
   2611223575.6473331     
   2613187798.9765887     
   2622953833.0433788     
   2640682075.9688535     
   2627319110.2554832     
   2622189837.9148545     
   2625294258.9469647     
   2636632373.3518195     
   2816309646.9393129     
   2781317426.5333147     
   2754938557.3425770     
   2737410979.9423590     
   2728985240.4585891     
   2714570593.7237749     
   2690177941.8082767     
   2674599948.2126284     
   2667981855.5971603     
   2670473156.1641021     
   2649267775.4701490     
   2632970483.6668530     
   2625593620.2847786     
   2627204940.0710773     
   2637872911.4837284     
   2622953833.0433788     
   2611755909.5067477     
   2609515542.3917179     
   2616249946.9661384     
   2631976310.1451311     
   2636632373.3518195     
   2627243815.1913218     
   2626809144.2825866     
   2635328360.6255989     
   2652801464.2203712     
   2728985240.4585891     
   2701838113.3373685     
   2683194018.4069133     
   2673217080.3856297     
   2672073087.7149591     
   2670473156.1641021     
   2650816456.3971467     
   2639183311.7493868     
   2635660355.8377461     
   2640333958.2931590     
   2637872911.4837284     
   2623428407.5047388     
   2616494647.1018839     
   2617106870.3620667     
   2625299900.9327474     
   2631976310.1451311     
   2620473434.3878880     
   2615953966.8189273     
   2618425770.4761086     
   2627896582.5750093     
   2652801464.2203712     
   2642101444.7422776     
   2637855321.5860257     
   2640063094.7516298     
   2648724764.2390814     
   2672073087.7149591     
   2650730182.3619881     
   2637047312.8460984     
   2631214885.8795300     
   2633413402.8622794     
   2640333958.2931590     
   2626450287.0107937     
   2621519740.0374565     
   2625672895.2164683     
   2639029110.3000150     
   2625299900.9327474     
   2617210643.3903728     
   2619348197.2774677     
   2631781402.1106772     
   2654571127.8179507     
   2627896582.5750093     
   2623227076.9228349     
   2630102435.8977704     
   2648542702.8855777     
   2678565116.0486732     
   2648724764.2390814     
   2644463026.8770151     
   2653180807.3403053     
   2674878105.6289487     
   2709554921.7429318     
   1136942447.0453269     
   1335252066.0142355     
   1533863934.0207095     
   1732778051.0647480     
   1931994417.1463525     
   1207174458.7650208     
   1399110502.9362075     
   1590619669.9488897     
   1780925195.7099617     
   1969568553.7145038     
   1393716013.4328942     
   1571088264.9987063     
   1749462663.1958668     
   1926835536.9746029     
   2101956609.4584119     
   1653884349.6308370     
   1820333280.4342127     
   1988477545.5986366     
   2155620728.9026794     
   2320004868.8107381     
   1955364798.1298623     
   2119422469.0255828     
   2284835451.9215131     
   2448643473.0377026     
   2608888297.8702593     
   1931994417.1463525     
   2058641383.4838226     
   2179858530.8484931     
   2295645859.2403636     
   2406003368.6594348     
   1969568553.7145038     
   2086706863.0514057     
   2200989457.9086833     
   2312341478.1478505     
   2420710892.3060408     
   2101956609.4584119     
   2205695810.2805095     
   2309344066.0351424     
   2412665700.9895306     
   2515494260.0350208     
   2320004868.8107381     
   2407044960.1259680     
   2496528756.0379615     
   2588067430.3968859     
   2681386085.1178012     
   2608888297.8702593     
   2676815296.2608347     
   2749255697.7147622     
   2825701705.9666638     
   2905801016.0024786     
   2406003368.6594348     
   2441596686.8468037     
   2482680355.5338702     
   2529254374.7206345     
   2581318744.4070997     
   2420710892.3060408     
   2454379526.6575875     
   2492511964.8282084     
   2535111692.2463951     
   2582183049.4213586     
   2515494260.0350208     
   2544094228.0779495     
   2576119606.3361502     
   2611572499.4833508     
   2650459069.9750800     
   2681386085.1178012     
   2703312462.9920568     
   2727623341.5327702     
   2754302318.3477616     
   2783342406.3842044     
   2905801016.0024786     
   2920907405.3176737     
   2937380429.5812807     
   2955166300.7269912     
   2974226823.5966058     
   2581318744.4070997     
   2589119374.7341290     
   2601613473.4367638     
   2618801040.5150065     
   2640682075.9688535     
   2582183049.4213586     
   2585476814.0994282     
   2594645389.0172496     
   2609696873.3239059     
   2630642331.2600474     
   2650459069.9750800     
   2645711375.7600594     
   2647800433.3549623     
   2656764798.4254608     
   2672656438.2006760     
   2783342406.3842044     
   2767009051.7301564     
   2758198267.9512868     
   2757000863.2776542     
   2763541469.8012681     
   2974226823.5966058     
   2943112997.8248467     
   2919915471.2462587     
   2904785819.8807201     
   2897941005.5218248     
   2640682075.9688535     
   2627319110.2554832     
   2622189837.9148545     
   2625294258.9469647     
   2636632373.3518195     
   2630642331.2600474     
   2617046504.7734599     
   2611223575.6477742     
   2613187798.9771290     
   2622953833.0440331     
   2672656438.2006760     
   2655885265.8564692     
   2646362595.6578617     
   2644139227.8745923     
   2649267775.4712567     
   2763541469.8012681     
   2741196673.8037429     
   2725520946.3381834     
   2716611605.1636558     
   2714570593.7250552     
   2897941005.5218248     
   2868317206.9302974     
   2844741648.8036261     
   2827355750.7307310     
   2816309646.9404678     
   2636632373.3518195     
   2627243815.1913218     
   2626809144.2825866     
   2635328360.6255989     
   2652801464.2203712     
   2622953833.0440331     
   2611755909.5072393     
   2609515542.3920321     
   2616249946.9662561     
   2631976310.1450429     
   2649267775.4712567     
   2632970483.6677327     
   2625593620.2853971     
   2627204940.0714159     
   2637872911.4837642     
   2714570593.7250552     
   2690177941.8093643     
   2674599948.2134967     
   2667981855.5977798     
   2670473156.1644440     
   2816309646.9404678     
   2781317426.5344014     
   2754938557.3435855     
   2737410979.9432659     
   2728985240.4593701     
   2652801464.2203712     
   2642101444.7422776     
   2637855321.5860257     
   2640063094.7516298     
   2648724764.2390814     
   2631976310.1450429     
   2620473434.3879099     
   2615953966.8190346     
   2618425770.4762816     
   2627896582.5752201     
   2637872911.4837642     
   2623428407.5049691     
   2616494647.1022553     
   2617106870.3625226     
   2625299900.9332380     
   2670473156.1644440     
   2650816456.3977551     
   2639183311.7501721     
   2635660355.8386183     
   2640333958.2940307     
   2728985240.4593701     
   2701838113.3384781     
   2683194018.4082313     
   2673217080.3870263     
   2672073087.7163110     
   2648724764.2390814     
   2644463026.8770151     
   2653180807.3403053     
   2674878105.6289487     
   2709554921.7429318     
   2627896582.5752201     
   2623227076.9242253     
   2630102435.9004450     
   2648542702.8896050     
   2678565116.0541663     
   2625299900.9332380     
   2617210643.3927026     
   2619348197.2818117     
   2631781402.1172333     
   2654571127.8268862     
   2640333958.2940307     
   2626450287.0136065     
   2621519740.0424762     
   2625672895.2239819     
   2639029110.3102837     
   2672073087.7163110     
   2650730182.3648343     
   2637047312.8507738     
   2631214885.8863668     
   2633413402.8716631     
   1955364798.1298623     
   2119422469.0255828     
   2284835451.9215131     
   2448643473.0377026     
   2608888297.8702593     
   2298822712.6070199     
   2449519751.5437841     
   2604937286.6703973     
   2763152753.8896723     
   2922736354.1180391     
   2694765990.1611419     
   2830542363.3513865     
   2973629372.9024315     
   3122944640.2580905     
   3277577097.6133900     
   3137985081.0497794     
   3255535909.2294807     
   3382503107.3862143     
   3518417229.0698237     
   3662820190.1411843     
   3624990843.9643512     
   3719708262.7633815     
   3825677210.4902730     
   3942833234.6463208     
   4071082901.5413651     
   2608888297.8702593     
   2676815296.2608347     
   2749255697.7147622     
   2825701705.9666638     
   2905801016.0024786     
   2922736354.1180391     
   2975638821.8207254     
   3030768266.7488923     
   3087442516.7106271     
   3145128651.3223004     
   3277577097.6133900     
   3320787197.9818478     
   3364241698.2693534     
   3407117175.6946049     
   3448735101.9868956     
   3662820190.1411843     
   3702210834.1483355     
   3740220806.6232448     
   3775950603.5092349     
   3808650222.8785510     
   4071082901.5413651     
   4112526654.9512944     
   4151318971.7452946     
   4186561104.8799448     
   4217520463.0711460     
   2905801016.0024786     
   2920907405.3176737     
   2937380429.5812807     
   2955166300.7269912     
   2974226823.5966058     
   3145128651.3223004     
   3141675014.4077778     
   3141837285.7641463     
   3145515183.7570314     
   3152695113.7979069     
   3448735101.9868956     
   3422743368.9647751     
   3401840409.1593919     
   3385796211.3295746     
   3374594994.8210773     
   3808650222.8785510     
   3755807998.7495294     
   3708935632.9995737     
   3667557597.4006371     
   3631577468.9514575     
   4217520463.0711460     
   4133245915.3623738     
   4055443928.2875724     
   3983261136.2353377     
   3916400846.1653113     
   2974226823.5966058     
   2943112997.8248467     
   2919915471.2462587     
   2904785819.8807201     
   2897941005.5218248     
   3152695113.7979069     
   3107463804.1864409     
   3068812077.4412918     
   3036955142.1521873     
   3012164425.3690362     
   3374594994.8210773     
   3315671630.7644882     
   3262144872.5811391     
   3214251019.2259803     
   3172274962.8850627     
   3631577468.9514575     
   3560038577.2273664     
   3492905088.9650850     
   3430402405.6248703     
   3372797133.4016385     
   3916400846.1653113     
   3833660411.7302170     
   3754542699.7656288     
   3679243215.7173004     
   3607991974.8946409     
   2897941005.5218248     
   2868317206.9302974     
   2844741648.8036261     
   2827355750.7307310     
   2816309646.9404678     
   3012164425.3690362     
   2970704302.7836432     
   2935273283.1890259     
   2906080015.3539691     
   2883356074.9809866     
   3172274962.8850627     
   3117331415.6105204     
   3068178298.1991615     
   3025081357.0790701     
   2988349512.8499837     
   3372797133.4016385     
   3303136546.3806758     
   3238848636.1003041     
   3180234766.3206172     
   3127662758.2302723     
   3607991974.8946409     
   3522704332.5425639     
   3442244930.9829469     
   3366923815.1186538     
   3297140288.1893449     
   2816309646.9404678     
   2781317426.5344014     
   2754938557.3435855     
   2737410979.9432659     
   2728985240.4593701     
   2883356074.9809866     
   2835640103.4361005     
   2796013195.8207173     
   2764803783.4624982     
   2742364058.1870255     
   2988349512.8499837     
   2926799025.9233623     
   2872716939.9373159     
   2826504937.5347738     
   2788604349.9961109     
   3127662758.2302723     
   3051774921.0814056     
   2982664653.4197206     
   2920778962.0438333     
   2866621690.0486913     
   3297140288.1893449     
   3206890681.6788445     
   3122699008.3209419     
   3045026953.1442399     
   2974407787.3526397     
   2728985240.4593701     
   2701838113.3384781     
   2683194018.4082313     
   2673217080.3870263     
   2672073087.7163110     
   2742364058.1870255     
   2704232252.8542914     
   2673721246.1335869     
   2651074407.9008174     
   2636544176.8203673     
   2788604349.9961109     
   2738132343.3192606     
   2694281407.8447075     
   2657356987.3478699     
   2627686230.4586744     
   2866621690.0486913     
   2803253234.2196231     
   2745401290.2723565     
   2693400854.1453419     
   2647622972.0352888     
   2974407787.3526397     
   2898329583.4083786     
   2826606880.6479101     
   2759565844.7248082     
   2697579792.4629912     
   2672073087.7163110     
   2650730182.3648343     
   2637047312.8507738     
   2631214885.8863668     
   2633413402.8716631     
   2636544176.8203673     
   2601371677.4893899     
   2574893733.6016836     
   2557424077.8178453     
   2549266623.6414151     
   2627686230.4586744     
   2576717446.5918250     
   2535319318.8170824     
   2503974187.7660856     
   2483166795.8963161     
   2647622972.0352888     
   2578880970.4548330     
   2520348529.1498928     
   2472715749.7908936     
   2436707974.3513179     
   2697579792.4629912     
   2609209243.3345389     
   2531386980.1464858     
   2465030903.1168222     
   2411154884.4084764     
   3624990843.9643512     
   3719708262.7633815     
   3825677210.4902730     
   3942833234.6463208     
   4071082901.5413651     
   4134132634.1275363     
   4224397213.8062053     
   4320581701.1964092     
   4421029200.5394516     
   4524285025.4850874     
   4643449970.1711054     
   4755545539.5284376     
   4868764151.8324413     
   4980471717.7341681     
   5088743599.4102592     
   5151423102.5219135     
   5311329126.3003912     
   5467866478.7005177     
   5618141431.4418163     
   5760689646.3113937     
   5657788235.1824532     
   5890910405.9359350     
   6116393457.3184643     
   6331780946.7665825     
   6536851695.4022093     
   4071082901.5413651     
   4112526654.9512944     
   4151318971.7452946     
   4186561104.8799448     
   4217520463.0711460     
   4524285025.4850874     
   4539124627.2643538     
   4558633677.3949156     
   4580331906.2886209     
   4602495476.7336502     
   5088743599.4102592     
   5054121429.7783146     
   5030011499.8389368     
   5011207079.8547668     
   4994506883.3950195     
   5760689646.3113937     
   5652188594.7320538     
   5559688756.9075375     
   5474127609.6290016     
   5389964829.7925406     
   6536851695.4022093     
   6328730498.8867569     
   6142797862.6419830     
   5965142360.7511845     
   5786755677.0153408     
   4217520463.0711460     
   4133245915.3623738     
   4055443928.2875724     
   3983261136.2353377     
   3916400846.1653113     
   4602495476.7336502     
   4494090438.0125694     
   4389896590.9518089     
   4289595611.6325207     
   4193096203.8376584     
   4994506883.3950195     
   4867325493.4817476     
   4743335630.8931313     
   4622504968.0766039     
   4504873496.9215002     
   5389964829.7925406     
   5248982474.4766245     
   5111233267.0766468     
   4976758882.2714090     
   4845653328.5632029     
   5786755677.0153408     
   5636390525.0422678     
   5490243966.8786373     
   5348229461.4026279     
   5210395031.9009781     
   3916400846.1653113     
   3833660411.7302170     
   3754542699.7656288     
   3679243215.7173004     
   3607991974.8946409     
   4193096203.8376584     
   4098174731.9728017     
   4006486075.8569093     
   3918239448.1585875     
   3833700819.7741828     
   4504873496.9215002     
   4395814574.5401678     
   4289363917.2037959     
   4185713272.2633533     
   4085141419.0110111     
   4845653328.5632029     
   4720645266.9375868     
   4597457814.4918528     
   4476230102.6671543     
   4357222044.2263851     
   5210395031.9009781     
   5067746325.0832624     
   4926031359.5345039     
   4785300605.8538847     
   4645758939.5555868     
   3607991974.8946409     
   3522704332.5425639     
   3442244930.9829469     
   3366923815.1186538     
   3297140288.1893449     
   3833700819.7741828     
   3734349688.0112062     
   3638894416.3779440     
   3547612837.3463149     
   3460857678.3639007     
   4085141419.0110111     
   3972993413.9862771     
   3864023202.4189668     
   3758463221.3572836     
   3656607172.8686056     
   4357222044.2263851     
   4233594915.9399400     
   4112638612.6082282     
   3994536360.5157084     
   3879521525.9990559     
   4645758939.5555868     
   4511929195.8024549     
   4380458945.6035070     
   4251483345.2151284     
   4125180201.0019088     
   3297140288.1893449     
   3206890681.6788445     
   3122699008.3209419     
   3045026953.1442399     
   2974407787.3526397     
   3460857678.3639007     
   3355958548.9878941     
   3256203265.0192885     
   3162061107.9321437     
   3074092057.4967847     
   3656607172.8686056     
   3536984699.8872647     
   3421542509.7131033     
   3310720672.3510180     
   3205062168.8810596     
   3879521525.9990559     
   3745381429.3156834     
   3614464585.1512756     
   3487153976.1172876     
   3363939572.1547399     
   4125180201.0019088     
   3976891253.0882349     
   3830915766.2839007     
   3687562494.6290216     
   3547244082.8464222     
   2974407787.3526397     
   2898329583.4083786     
   2826606880.6479101     
   2759565844.7248082     
   2697579792.4629912     
   3074092057.4967847     
   2986012078.4410396     
   2902023521.8016863     
   2822457203.4354186     
   2747701307.9113393     
   3205062168.8810596     
   3105023994.0657973     
   3008759432.6664538     
   2916587914.7734432     
   2828895614.9464850     
   3363939572.1547399     
   3251989374.3061361     
   3143469820.0440321     
   3038676757.5758548     
   2937980501.7725334     
   3547244082.8464222     
   3423375713.7253895     
   3302591470.4939985     
   3185156092.9694672     
   3071414799.8751645     
   2697579792.4629912     
   2609209243.3345389     
   2531386980.1464858     
   2465030903.1168222     
   2411154884.4084764     
   2747701307.9113393     
   2641618254.9847908     
   2543942987.0925364     
   2455636997.4322877     
   2377809504.7928810     
   2828895614.9464850     
   2705945745.5179949     
   2589159639.1706238     
   2479403565.7374454     
   2377720531.4428658     
   2937980501.7725334     
   2800114923.3321218     
   2666237008.8304839     
   2537011507.4918675     
   2413270143.1501737     
   3071414799.8751645     
   2921360797.9298081     
   2773355580.1020560     
   2627821171.8556428     
   2485305347.8862777     
   5657788235.1824532     
   5890910405.9359350     
   6116393457.3184643     
   6331780946.7665825     
   6536851695.4022093     
   6491633890.5851488     
   6586868706.8735590     
   6757436172.1225462     
   6961253898.5553265     
   7171661778.0093651     
   7982324929.5394545     
   7734956244.6696835     
   7669159067.2213364     
   7669618489.1228209     
   7666402556.3320312     
   10130308560.525038     
   9322011730.8810253     
   8826372188.9000721     
   8443536678.5200739     
   8035692216.3381042     
   12935671493.036057     
   11340747865.473703     
   10210241495.536724     
   9272779156.2766399     
   8303908548.9912462     
   6536851695.4022093     
   6328730498.8867569     
   6142797862.6419830     
   5965142360.7511845     
   5786755677.0153408     
   7171661778.0093651     
   6910938876.2826729     
   6658121248.7168112     
   6409350182.3422003     
   6161480186.4422817     
   7666402556.3320312     
   7381050060.9590130     
   7101100870.4082289     
   6826633320.5492249     
   6557851879.7865715     
   8035692216.3381042     
   7746717068.4358711     
   7473430487.1195831     
   7213871802.4572659     
   6968049771.8500824     
   8303908548.9912462     
   8020505656.8518858     
   7779241536.6691847     
   7569423088.5860252     
   7386079589.5313911     
   5786755677.0153408     
   5636390525.0422678     
   5490243966.8786373     
   5348229461.4026279     
   5210395031.9009781     
   6161480186.4422817     
   6012702959.3664827     
   5865269215.9053669     
   5719217716.9590416     
   5574605053.3555336     
   6557851879.7865715     
   6407510414.5655241     
   6255530380.5699282     
   6101880109.0673094     
   5946589838.1387472     
   6968049771.8500824     
   6814351163.1535978     
   6656008461.2033424     
   6492737603.7508240     
   6324489654.4849167     
   7386079589.5313911     
   7228224994.6525660     
   7062809084.4887609     
   6889134224.4114876     
   6707016380.8223667     
   5210395031.9009781     
   5067746325.0832624     
   4926031359.5345039     
   4785300605.8538847     
   4645758939.5555868     
   5574605053.3555336     
   5413743360.0752754     
   5253817567.9653702     
   5094874219.2026634     
   4937026065.3325529     
   5946589838.1387472     
   5771355714.3940954     
   5597537837.0527887     
   5425163063.1583376     
   5254293383.7866774     
   6324489654.4849167     
   6138196755.0022840     
   5954216126.0480328     
   5772524449.6513004     
   5593147653.8901682     
   6707016380.8223667     
   6512460323.8816128     
   6321487388.5678473     
   6133979243.5915613     
   5949915434.3939381     
   4645758939.5555868     
   4511929195.8024549     
   4380458945.6035070     
   4251483345.2151284     
   4125180201.0019088     
   4937026065.3325529     
   4794145713.5654144     
   4652593860.1935234     
   4512476425.2162733     
   4373934529.9035635     
   5254293383.7866774     
   5102623052.1231709     
   4951293898.5541601     
   4800369304.5431442     
   4649944973.1764841     
   5593147653.8901682     
   5433102697.3792887     
   5272479626.2479162     
   5111291991.5118151     
   4949587279.2018404     
   5949915434.3939381     
   5782014800.3925858     
   5612701186.1448441     
   5441935760.8176279     
   5269719718.7659674     
   4125180201.0019088     
   3976891253.0882349     
   3830915766.2839007     
   3687562494.6290216     
   3547244082.8464222     
   4373934529.9035635     
   4210500059.7786956     
   4048835665.9483876     
   3889155457.9520397     
   3731763400.1449032     
   4649944973.1764841     
   4472257981.2849941     
   4295919481.5455465     
   4121058319.0607290     
   3947880432.2008624     
   4949587279.2018404     
   4758259234.8731737     
   4567965922.1173992     
   4378764026.9486961     
   4190777665.6856656     
   5269719718.7659674     
   5065098671.6784058     
   4861286522.2239780     
   4658281227.8909864     
   4456142259.3911409     
   3547244082.8464222     
   3423375713.7253895     
   3302591470.4939985     
   3185156092.9694672     
   3071414799.8751645     
   3731763400.1449032     
   3596258908.8652186     
   3462600953.0207615     
   3330960839.8728089     
   3201571720.5398016     
   3947880432.2008624     
   3802518861.5712881     
   3657991393.0441651     
   3514382024.2578101     
   3371815857.6741514     
   4190777665.6856656     
   4037459352.2924666     
   3884205221.8327374     
   3731034090.2263536     
   3577988926.6863794     
   4456142259.3911409     
   4296770647.8893843     
   4136924985.2900467     
   3976587489.0130591     
   3815754470.4100971     
   3071414799.8751645     
   2921360797.9298081     
   2773355580.1020560     
   2627821171.8556428     
   2485305347.8862777     
   3201571720.5398016     
   3037666429.6564436     
   2875809635.9914837     
   2716358966.6917667     
   2559811202.9696012     
   3371815857.6741514     
   3193221587.4432712     
   3016443011.6540461     
   2841734719.5499768     
   2669509941.8884373     
   3577988926.6863794     
   3383232515.8061872     
   3189840234.5140224     
   2997935707.0300837     
   2807825099.7830248     
   3815754470.4100971     
   3602833747.4954619     
   3390640492.0726333     
   3179150870.5157847     
   2968550469.4595323     
 </DataArray>
 <DataArray  type="Float64" Name="strain" NumberOfComponents="3" format="ascii">
  0.20348546686257177        0.0000000000000000       0.12540991918104588     
  0.18665575310672625       -2.7326211612936011E-002   7.4353898837623916E-002
  0.16982603935088075       -4.4677535548989476E-002   3.5131821987030812E-002
  0.15299632559503523       -5.2053971808160432E-002   7.7436886292665472E-003
  0.13616661183918971       -4.9455520390448815E-002  -7.8105012356688014E-003
  0.15985504847600374        0.0000000000000000        9.6451357335380183E-002
  0.15317768184329936       -2.1845703978804934E-002   6.2691957282328861E-002
  0.14650031521059495       -3.6175879435311531E-002   3.7403307982730893E-002
  0.13982294857789054       -4.2990526369519784E-002   2.0585409436586342E-002
  0.13314558194518614       -4.2289644781429721E-002   1.2238261643895104E-002
  0.12645763864990364        0.0000000000000000        7.4202982701137676E-002
  0.12656942640096486       -1.6365196344673854E-002   5.5280843783872768E-002
  0.12668121415202610       -2.7674223321633575E-002   4.1466262880685764E-002
  0.12679300190308737       -3.3927080930879171E-002   3.2759239991576594E-002
  0.12690478965414856       -3.5123769172410627E-002   2.9159775116545369E-002
  0.10329323738427149        0.0000000000000000        5.8664795278318346E-002
  0.10683098677972286       -1.0884688710542779E-002   5.2120558342255659E-002
  0.11036873617517422       -1.9172567207955619E-002   4.7320686680895389E-002
  0.11390648557062562       -2.4863635492238540E-002   4.4265180294237490E-002
  0.11744423496607699       -2.7957893563391525E-002   4.2954039182282036E-002
   9.0361844679107253E-002   0.0000000000000000        4.9836795066922193E-002
   9.3962362979573277E-002  -5.4041810764117017E-003   5.3211100957477539E-002
   9.7562881280039315E-002  -1.0670911094277674E-002   5.4966579383359804E-002
  0.10116339958050535       -1.5800190053597913E-002   5.5103230344568953E-002
  0.10476391788097139       -2.0792017954372431E-002   5.3621053841105042E-002
  0.13616661183918971       -4.9455520390448815E-002  -7.8105012356688014E-003
  0.13295858204289926       -4.2919111317076430E-002  -3.3919126596806404E-003
  0.12975055224660878       -3.8481674609264889E-002  -3.8748641584801860E-004
  0.12654252245031827       -3.6143210267014267E-002   1.2027774958294456E-003
  0.12333449265402782       -3.5903718290324543E-002   1.3788790753512803E-003
  0.13314558194518614       -4.2289644781429721E-002   1.2238261643895104E-002
  0.12891145875145382       -3.8422696929827242E-002   1.2183972577145395E-002
  0.12467733555772147       -3.5739145073498228E-002   1.1491659047667503E-002
  0.12044321236398908       -3.4238989212442741E-002   1.0161321055461185E-002
  0.11620908917025677       -3.3922229346660726E-002   8.1929586005264898E-003
  0.12690478965414856       -3.5123769172410627E-002   2.9159775116545369E-002
  0.12242071093240137       -3.3926282542578068E-002   2.5548184777345502E-002
  0.11793663221065412       -3.2996615537731588E-002   2.2074707844844197E-002
  0.11345255348890693       -3.2334768157871223E-002   1.8739344319041569E-002
  0.10896847476715971       -3.1940740402996895E-002   1.5542094199937538E-002
  0.11744423496607699       -2.7957893563391525E-002   4.2954039182282036E-002
  0.11348633858574188       -2.9429868155328900E-002   3.6700723940919222E-002
  0.10952844220540683       -3.0254086001964928E-002   3.1361659975682084E-002
  0.10557054582507173       -3.0430547103299687E-002   2.6936847286570590E-002
  0.10161264944473668       -2.9959251459333099E-002   2.3426285873584654E-002
  0.10476391788097139       -2.0792017954372431E-002   5.3621053841105042E-002
  0.10210834171147545       -2.4933453768079723E-002   4.5641590067866770E-002
   9.9452765541979515E-002  -2.7511556466198264E-002   3.9352515440181125E-002
   9.6797189372483550E-002  -2.8526326048728151E-002   3.4753829958048148E-002
   9.4141613202987626E-002  -2.7977762515669288E-002   3.1845533621467748E-002
  0.12333449265402782       -3.5903718290324543E-002   1.3788790753512803E-003
  0.12040734843319595       -3.6404385252736204E-002   6.3857685618765037E-004
  0.11748020421236412       -3.6286397727789764E-002   9.1796472853775124E-005
  0.11455305999153229       -3.5549755715485208E-002  -2.6146207465069238E-004
  0.11162591577070041       -3.4194459215822592E-002  -4.2119878632518315E-004
  0.11620908917025677       -3.3922229346660726E-002   8.1929586005264898E-003
  0.11346122506081560       -3.3999385586442638E-002   7.8303128733496763E-003
  0.11071336095137445       -3.3680978042078868E-002   7.6327055331245341E-003
  0.10796549684193329       -3.2967006713569585E-002   7.6001365798511397E-003
  0.10521763273249216       -3.1857471600914511E-002   7.7326060135293750E-003
  0.10896847476715971       -3.1940740402996895E-002   1.5542094199937538E-002
  0.10637140732023129       -3.1594385920149043E-002   1.5334014261535175E-002
  0.10377433987330283       -3.1075558356368032E-002   1.5262489261206439E-002
  0.10117727242637437       -3.0384257711653911E-002   1.5327519198951594E-002
   9.8580204979445946E-002  -2.9520483986006513E-002   1.5529104074770261E-002
  0.10161264944473668       -2.9959251459333099E-002   2.3426285873584654E-002
   9.9137895211442950E-002  -2.9189386253855490E-002   2.3149681020744224E-002
   9.6663140978149209E-002  -2.8470138670657223E-002   2.2981147657099615E-002
   9.4188386744855482E-002  -2.7801508709738177E-002   2.2920685782650482E-002
   9.1713632511561727E-002  -2.7183496371098473E-002   2.2968295397397212E-002
   9.4141613202987626E-002  -2.7977762515669288E-002   3.1845533621467748E-002
   9.1760688734450618E-002  -2.6784386587561923E-002   3.1277313150976843E-002
   8.9379764265913569E-002  -2.5864718984946366E-002   3.0788680720803534E-002
   8.6998839797376576E-002  -2.5218759707822582E-002   3.0379636330948059E-002
   8.4617915328839555E-002  -2.4846508756190433E-002   3.0050179981410297E-002
  0.11162591577070041       -3.4194459215822592E-002  -4.2119878632518315E-004
  0.10851788146398367       -3.2660118226478518E-002  -1.6453214281600403E-004
  0.10540984715726687       -3.1386342745129581E-002   1.3407626117803439E-004
  0.10230181285055007       -3.0373132771775987E-002   4.7462642565726521E-004
   9.9193778543833322E-002  -2.9620488306417558E-002   8.5711835062107777E-004
  0.10521763273249216       -3.1857471600914511E-002   7.7326060135293750E-003
  0.10218433189147008       -3.0628474500588379E-002   7.5843169890111722E-003
   9.9151031050447994E-002  -2.9556117209065882E-002   7.5435531353972296E-003
   9.6117730209425878E-002  -2.8640399726346456E-002   7.6103144526877137E-003
   9.3084429368403832E-002  -2.7881322052430768E-002   7.7846009408826800E-003
   9.8580204979445946E-002  -2.9520483986006513E-002   1.5529104074770261E-002
   9.5687221014538054E-002  -2.8596830774698434E-002   1.5079785081416247E-002
   9.2794237049630177E-002  -2.7725891673001907E-002   1.4803574669385963E-002
   8.9901253084722327E-002  -2.6907666680917201E-002   1.4700472838679798E-002
   8.7008269119814421E-002  -2.6142155798444006E-002   1.4770479589297600E-002
   9.1713632511561727E-002  -2.7183496371098473E-002   2.2968295397397212E-002
   8.9026548833187585E-002  -2.6565187048808309E-002   2.2321872134399071E-002
   8.6339465154813444E-002  -2.5895666136938070E-002   2.1914140863144402E-002
   8.3652381476439330E-002  -2.5174933635487697E-002   2.1745101583633356E-002
   8.0965297798065161E-002  -2.4402989544457174E-002   2.1814754295865716E-002
   8.4617915328839555E-002  -2.4846508756190433E-002   3.0050179981410297E-002
   8.2202315347418647E-002  -2.4533543322918280E-002   2.9310578147959940E-002
   7.9786715365997726E-002  -2.4065440600874240E-002   2.8875251716672587E-002
   7.7371115384576833E-002  -2.3442200590058276E-002   2.8744200687548412E-002
   7.4955515403155926E-002  -2.2663823290470425E-002   2.8917425060587115E-002
   9.9193778543833322E-002  -2.9620488306417558E-002   8.5711835062107777E-004
   9.6358715207534862E-002  -2.8942554878514604E-002   4.7210279871595651E-004
   9.3523651871236430E-002  -2.8153478017527031E-002   2.4291581078020319E-004
   9.0688588534937983E-002  -2.7253257723455031E-002   1.6955738681299903E-004
   8.7853525198639537E-002  -2.6241893996298726E-002   2.5202752681474649E-004
   9.3084429368403832E-002  -2.7881322052430768E-002   7.7846009408826800E-003
   9.0403128765774998E-002  -2.7165766181837359E-002   7.5210783031397499E-003
   8.7721828163146248E-002  -2.6380614109085654E-002   7.4092525687673577E-003
   8.5040527560517457E-002  -2.5525865834175543E-002   7.4491237377647124E-003
   8.2359226957888665E-002  -2.4601521357107137E-002   7.6406918101329380E-003
   8.7008269119814421E-002  -2.6142155798444006E-002   1.4770479589297600E-002
   8.4476599590256565E-002  -2.5388977485160336E-002   1.4586902634790927E-002
   8.1944930060698723E-002  -2.4607750200644450E-002   1.4550890923055705E-002
   7.9413260531140853E-002  -2.3798473944896002E-002   1.4662444454091917E-002
   7.6881591001582955E-002  -2.2961148717915325E-002   1.4921563227899975E-002
   8.0965297798065161E-002  -2.4402989544457174E-002   2.1814754295865716E-002
   7.8579127680979438E-002  -2.3612188788483451E-002   2.1669575793669182E-002
   7.6192957563893812E-002  -2.2834886292203215E-002   2.1667830873645329E-002
   7.3806787446808089E-002  -2.2071082055616541E-002   2.1809519535794571E-002
   7.1420617329722463E-002  -2.1320776078723513E-002   2.2094641780116629E-002
   7.4955515403155926E-002  -2.2663823290470425E-002   2.8917425060587115E-002
   7.2710713037943742E-002  -2.1835400091806331E-002   2.8769097779774599E-002
   7.0465910672731585E-002  -2.1062022383761848E-002   2.8760072420536339E-002
   6.8221108307519360E-002  -2.0343690166337101E-002   2.8890348982872287E-002
   6.5976305942307190E-002  -1.9680403439531813E-002   2.9159927466782087E-002
   8.7853525198639537E-002  -2.6241893996298726E-002   2.5202752681474649E-004
   8.4446469555249704E-002  -2.5205416069383091E-002  -9.4942977658107885E-006
   8.1039413911859759E-002  -2.4229853176033350E-002  -4.7479969989494553E-005
   7.7632358268469842E-002  -2.3315205316249678E-002   1.3807051014458338E-004
   7.4225302625079981E-002  -2.2461472490031498E-002   5.4715714263620097E-004
   8.2359226957888665E-002  -2.4601521357107137E-002   7.6406918101329380E-003
   7.9173209873262373E-002  -2.3660958110800517E-002   7.3442978277788729E-003
   7.5987192788636193E-002  -2.2757553528176988E-002   7.2664448105946300E-003
   7.2801175704009971E-002  -2.1891307609236244E-002   7.4071327585803343E-003
   6.9615158619383666E-002  -2.1062220353978534E-002   7.7663616717357220E-003
   7.6881591001582955E-002  -2.2961148717915325E-002   1.4921563227899975E-002
   7.3911617288532627E-002  -2.2116500152218110E-002   1.4614053457656123E-002
   7.0941643575482397E-002  -2.1285253880320834E-002   1.4520089465394126E-002
   6.7971669862432083E-002  -2.0467409902223361E-002   1.4639671251114504E-002
   6.5001696149381810E-002  -1.9662968217925958E-002   1.4972798814816640E-002
   7.1420617329722463E-002  -2.1320776078723513E-002   2.2094641780116629E-002
   6.8661691801060451E-002  -2.0572042193635620E-002   2.1799772591865593E-002
   6.5902766272398397E-002  -1.9812954232464576E-002   2.1713453994409094E-002
   6.3143840743736329E-002  -1.9043512195210534E-002   2.1835685987746850E-002
   6.0384915215074345E-002  -1.8263716081872966E-002   2.2166468571878963E-002
   6.5976305942307190E-002  -1.9680403439531813E-002   2.9159927466782087E-002
   6.3423433410845692E-002  -1.9027584235053130E-002   2.8901455230407186E-002
   6.0870560879384195E-002  -1.8340654584608318E-002   2.8846538397639149E-002
   5.8317688347922669E-002  -1.7619614488197266E-002   2.8995176968477560E-002
   5.5764815816461144E-002  -1.6864463945820196E-002   2.9347370942922668E-002
   7.4225302625079981E-002  -2.2461472490031498E-002   5.4715714263620097E-004
   7.1580844488257578E-002  -2.1618723330807221E-002   1.9350096738168787E-004
   6.8936386351435175E-002  -2.0737026472004455E-002  -5.7749038731569335E-005
   6.6291928214612716E-002  -1.9816381913623136E-002  -2.0659287570393148E-004
   6.3647470077790369E-002  -1.8856789655663508E-002  -2.5303054353564836E-004
   6.9615158619383666E-002  -2.1062220353978534E-002   7.7663616717357220E-003
   6.7082210707060386E-002  -2.0240497546837766E-002   7.4491798210480353E-003
   6.4549262794737078E-002  -1.9396344972247792E-002   7.2526122502174217E-003
   6.2016314882413784E-002  -1.8529762630208876E-002   7.1766589592442281E-003
   5.9483366970090490E-002  -1.7640750520721227E-002   7.2213199481290236E-003
   6.5001696149381810E-002  -1.9662968217925958E-002   1.4972798814816640E-002
   6.2598466572274095E-002  -1.8862271762868393E-002   1.4675573356565802E-002
   6.0195236995166462E-002  -1.8055663472491254E-002   1.4517170288889089E-002
   5.7792007418058761E-002  -1.7243143346794842E-002   1.4497589611785967E-002
   5.5388777840951114E-002  -1.6424711385778501E-002   1.4616831325257151E-002
   6.0384915215074345E-002  -1.8263716081872966E-002   2.2166468571878963E-002
   5.8129612083898816E-002  -1.7484045978899035E-002   2.1872681573935820E-002
   5.5874308952723335E-002  -1.6714981972734709E-002   2.1735925077283006E-002
   5.3619005821547841E-002  -1.5956524063380363E-002   2.1756199081920634E-002
   5.1363702690372319E-002  -1.5208672250835664E-002   2.1933503587848610E-002
   5.5764815816461144E-002  -1.6864463945820196E-002   2.9347370942922668E-002
   5.3675647241934465E-002  -1.6105820194929565E-002   2.9040504473157425E-002
   5.1586478667407648E-002  -1.5374300472978303E-002   2.8908876615399370E-002
   4.9497310092880845E-002  -1.4669904779966055E-002   2.8952487369648228E-002
   4.7408141518354097E-002  -1.3992633115893161E-002   2.9171336735904108E-002
   6.3647470077790369E-002  -1.8856789655663508E-002  -2.5303054353564836E-004
   6.0070430561246724E-002  -1.7906909976694085E-002  -6.9856073621443748E-004
   5.6493391044703023E-002  -1.7015403155283104E-002  -7.8785811257175986E-004
   5.2916351528159239E-002  -1.6182269191430551E-002  -5.2092267260578362E-004
   4.9339312011615677E-002  -1.5407508085135913E-002   1.0224558368099324E-004
   5.9483366970090490E-002  -1.7640750520721227E-002   7.2213199481290236E-003
   5.6231430937208005E-002  -1.6755877191098112E-002   6.7696343089810318E-003
   5.2979494904325602E-002  -1.5901711188654688E-002   6.6119228208337266E-003
   4.9727558871443298E-002  -1.5078252513389817E-002   6.7481854836864419E-003
   4.6475622838560660E-002  -1.4285501165304471E-002   7.1784222975403988E-003
   5.5388777840951114E-002  -1.6424711385778501E-002   1.4616831325257151E-002
   5.2399686626408454E-002  -1.5604844405502194E-002   1.4186655770019568E-002
   4.9410595411865640E-002  -1.4788019222025967E-002   1.3988195700460920E-002
   4.6421504197322834E-002  -1.3974235835349590E-002   1.4021451116580944E-002
   4.3432412982780166E-002  -1.3163494245472585E-002   1.4286422018380485E-002
   5.1363702690372319E-002  -1.5208672250835664E-002   2.1933503587848610E-002
   4.8575197628847662E-002  -1.4453811619906248E-002   2.1552503646900714E-002
   4.5786692567323040E-002  -1.3674327255397398E-002   2.1340960526310029E-002
   4.2998187505798424E-002  -1.2870219157308887E-002   2.1298874226077086E-002
   4.0209682444273781E-002  -1.2041487325640921E-002   2.1426244746200834E-002
   4.7408141518354097E-002  -1.3992633115893161E-002   2.9171336735904108E-002
   4.4757963944525969E-002  -1.3302778834310414E-002   2.8867177939625177E-002
   4.2107786370697842E-002  -1.2560635288768857E-002   2.8670217298381817E-002
   3.9457608796869714E-002  -1.1766202479268524E-002   2.8580454812174666E-002
   3.6807431223041531E-002  -1.0919480405809256E-002   2.8597890481002697E-002
   9.0361844679107253E-002   0.0000000000000000        4.9836795066922193E-002
   9.3962362979573277E-002  -5.4041810764117017E-003   5.3211100957477539E-002
   9.7562881280039315E-002  -1.0670911094277674E-002   5.4966579383359804E-002
  0.10116339958050535       -1.5800190053597913E-002   5.5103230344568953E-002
  0.10476391788097139       -2.0792017954372431E-002   5.3621053841105042E-002
   8.2425056311529674E-002   0.0000000000000000        4.4785533127011168E-002
   8.4635811928250829E-002  -4.5742087146205136E-003   4.8269238001989914E-002
   8.6846567544971970E-002  -9.0376003102070855E-003   5.0592244974151955E-002
   8.9057323161693125E-002  -1.3390174786759712E-002   5.1754554043497325E-002
   9.1268078778414280E-002  -1.7631932144278391E-002   5.1756165210026003E-002
   7.4244468058657462E-002   0.0000000000000000        4.0577560518647228E-002
   7.5523590553490116E-002  -3.7442363528293267E-003   4.4144030438537582E-002
   7.6802713048322771E-002  -7.4042895261364969E-003   4.7007932017467655E-002
   7.8081835543155440E-002  -1.0980159519921507E-002   4.9169265255437418E-002
   7.9360958037988094E-002  -1.4471846334184364E-002   5.0628030152446886E-002
   6.5820079920490618E-002   0.0000000000000000        3.7212877241830360E-002
   6.6625698855291168E-002  -2.9142639910381390E-003   4.0835478267120549E-002
   6.7431317790091747E-002  -5.7709787420659082E-003   4.4213640513306833E-002
   6.8236936724892297E-002  -8.5701442530833078E-003   4.7347363980389204E-002
   6.9042555659692889E-002  -1.1311760524090332E-002   5.0236648668367696E-002
   5.7151891897029142E-002   0.0000000000000000        3.4691483296560577E-002
   5.7942136833654005E-002  -2.0842916292469517E-003   3.8343581487738802E-002
   5.8732381770278862E-002  -4.1376679579953213E-003   4.2209370461669518E-002
   5.9522626706903725E-002  -6.1601289862451020E-003   4.6288850218352745E-002
   6.0312871643528568E-002  -8.1516747139963042E-003   5.0582020757788448E-002
  0.10476391788097139       -2.0792017954372431E-002   5.3621053841105042E-002
  0.10210834171147545       -2.4933453768079723E-002   4.5641590067866770E-002
   9.9452765541979515E-002  -2.7511556466198264E-002   3.9352515440181125E-002
   9.6797189372483550E-002  -2.8526326048728151E-002   3.4753829958048148E-002
   9.4141613202987626E-002  -2.7977762515669288E-002   3.1845533621467748E-002
   9.1268078778414280E-002  -1.7631932144278391E-002   5.1756165210026003E-002
   9.0064972576656105E-002  -2.1207745077170714E-002   4.6519703044007571E-002
   8.8861866374897930E-002  -2.3562486279844214E-002   4.2497791667912066E-002
   8.7658760173139796E-002  -2.4696155752298936E-002   3.9690431081739433E-002
   8.6455653971381635E-002  -2.4608753494534855E-002   3.8097621285489755E-002
   7.9360958037988094E-002  -1.4471846334184364E-002   5.0628030152446886E-002
   7.9134483448337983E-002  -1.7482036386261696E-002   4.7792308208278358E-002
   7.8908008858687886E-002  -1.9613416093490151E-002   4.5695298698403067E-002
   7.8681534269037817E-002  -2.0865985455869721E-002   4.4337001622820907E-002
   7.8455059679387665E-002  -2.1239744473400414E-002   4.3717416981531976E-002
   6.9042555659692889E-002  -1.1311760524090332E-002   5.0236648668367696E-002
   6.9316874326521102E-002  -1.3756327695352694E-002   4.9459405560679168E-002
   6.9591192993349316E-002  -1.5664345907136081E-002   4.8945036531654156E-002
   6.9865511660177571E-002  -1.7035815159440516E-002   4.8693541581292576E-002
   7.0139830327005756E-002  -1.7870735452265963E-002   4.8704920709594528E-002
   6.0312871643528568E-002  -8.1516747139963042E-003   5.0582020757788448E-002
   6.0612145211205427E-002  -1.0030619004443677E-002   5.1520995101210033E-002
   6.0911418778882252E-002  -1.1715275720782035E-002   5.2247005167665381E-002
   6.1210692346559098E-002  -1.3205644863011295E-002   5.2760050957154442E-002
   6.1509965914235944E-002  -1.4501726431131533E-002   5.3060132469677328E-002
   9.4141613202987626E-002  -2.7977762515669288E-002   3.1845533621467748E-002
   9.1760688734450618E-002  -2.6784386587561923E-002   3.1277313150976843E-002
   8.9379764265913569E-002  -2.5864718984946366E-002   3.0788680720803534E-002
   8.6998839797376576E-002  -2.5218759707822582E-002   3.0379636330948059E-002
   8.4617915328839555E-002  -2.4846508756190433E-002   3.0050179981410297E-002
   8.6455653971381635E-002  -2.4608753494534855E-002   3.8097621285489755E-002
   8.4200767560574652E-002  -2.3964883015330687E-002   3.7070293965608028E-002
   8.1945881149767696E-002  -2.3429147823465016E-002   3.6215454720868727E-002
   7.9690994738960741E-002  -2.3001547918937961E-002   3.5533103551271775E-002
   7.7436108328153772E-002  -2.2682083301749423E-002   3.5023240456817248E-002
   7.8455059679387665E-002  -2.1239744473400414E-002   4.3717416981531976E-002
   7.6419111361135439E-002  -2.1145379443099348E-002   4.2396555850412701E-002
   7.4383163042883241E-002  -2.0993576661983641E-002   4.1341082829260481E-002
   7.2347214724630987E-002  -2.0784336130053354E-002   4.0550997918075357E-002
   7.0311266406378775E-002  -2.0517657847308385E-002   4.0026301116857295E-002
   7.0139830327005756E-002  -1.7870735452265963E-002   4.8704920709594528E-002
   6.8415720136132979E-002  -1.8325875870868046E-002   4.7256098805390792E-002
   6.6691609945260161E-002  -1.8558005500502312E-002   4.6165565045978914E-002
   6.4967499754387342E-002  -1.8567124341168740E-002   4.5433319431358761E-002
   6.3243389563514524E-002  -1.8353232392867389E-002   4.5059361961530243E-002
   6.1509965914235944E-002  -1.4501726431131533E-002   5.3060132469677328E-002
   6.0190593885567231E-002  -1.5506372298636762E-002   5.1648922830542399E-002
   5.8871221856898498E-002  -1.6122434339020907E-002   5.0688901371023970E-002
   5.7551849828229786E-002  -1.6349912552284157E-002   5.0180068091121945E-002
   5.6232477799561059E-002  -1.6188806938426323E-002   5.0122422990836288E-002
   8.4617915328839555E-002  -2.4846508756190433E-002   3.0050179981410297E-002
   8.2202315347418647E-002  -2.4533543322918280E-002   2.9310578147959940E-002
   7.9786715365997726E-002  -2.4065440600874240E-002   2.8875251716672587E-002
   7.7371115384576833E-002  -2.3442200590058276E-002   2.8744200687548412E-002
   7.4955515403155926E-002  -2.2663823290470425E-002   2.8917425060587115E-002
   7.7436108328153772E-002  -2.2682083301749423E-002   3.5023240456817248E-002
   7.5305364943786673E-002  -2.2360070818349793E-002   3.4455369051434863E-002
   7.3174621559419561E-002  -2.1924827315189362E-002   3.4152935437997196E-002
   7.1043878175052450E-002  -2.1376352792268120E-002   3.4115939616503985E-002
   6.8913134790685338E-002  -2.0714647249585993E-002   3.4344381586955366E-002
   7.0311266406378775E-002  -2.0517657847308385E-002   4.0026301116857295E-002
   6.8426542008847069E-002  -2.0186598313781300E-002   3.9588253870531741E-002
   6.6541817611315376E-002  -1.9784214029504480E-002   3.9376806805932474E-002
   6.4657093213783712E-002  -1.9310504994477909E-002   3.9391959923059272E-002
   6.2772368816251992E-002  -1.8765471208701631E-002   3.9633713221912385E-002
   6.3243389563514524E-002  -1.8353232392867389E-002   4.5059361961530243E-002
   6.1565846542599854E-002  -1.8013125809212823E-002   4.4709232605250608E-002
   5.9888303521685171E-002  -1.7643600743819612E-002   4.4546865820478579E-002
   5.8210760500770488E-002  -1.7244657196687739E-002   4.4572261607214406E-002
   5.6533217479855791E-002  -1.6816295167817248E-002   4.4785419965458199E-002
   5.6232477799561059E-002  -1.6188806938426323E-002   5.0122422990836288E-002
   5.4723278545045023E-002  -1.5839653304644305E-002   4.9818305255591264E-002
   5.3214079290528973E-002  -1.5502987458134745E-002   4.9663112481635581E-002
   5.1704880036012930E-002  -1.5178809398897534E-002   4.9656844668969205E-002
   5.0195680781496888E-002  -1.4867119126932837E-002   4.9799501817592462E-002
   7.4955515403155926E-002  -2.2663823290470425E-002   2.8917425060587115E-002
   7.2710713037943742E-002  -2.1835400091806331E-002   2.8769097779774599E-002
   7.0465910672731585E-002  -2.1062022383761848E-002   2.8760072420536339E-002
   6.8221108307519360E-002  -2.0343690166337101E-002   2.8890348982872287E-002
   6.5976305942307190E-002  -1.9680403439531813E-002   2.9159927466782087E-002
   6.8913134790685338E-002  -2.0714647249585993E-002   3.4344381586955366E-002
   6.6818374769086308E-002  -2.0009801241654704E-002   3.4067411576278087E-002
   6.4723614747487251E-002  -1.9331905322985968E-002   3.3951224331253048E-002
   6.2628854725888208E-002  -1.8680959493579608E-002   3.3995819851880008E-002
   6.0534094704289138E-002  -1.8056963753435684E-002   3.4201198138159000E-002
   6.2772368816251992E-002  -1.8765471208701631E-002   3.9633713221912385E-002
   6.0849131982344012E-002  -1.8184202391503167E-002   3.9256195882727538E-002
   5.8925895148436040E-002  -1.7601788262209973E-002   3.9060942153272646E-002
   5.7002658314528096E-002  -1.7018228820822111E-002   3.9047952033547877E-002
   5.5079421480620075E-002  -1.6433524067339611E-002   3.9217225523553223E-002
   5.6533217479855791E-002  -1.6816295167817248E-002   4.4785419965458199E-002
   5.4802984677716937E-002  -1.6358603541351584E-002   4.4335450699122661E-002
   5.3072751875578028E-002  -1.5871671201434005E-002   4.4089225886595224E-002
   5.1342519073439126E-002  -1.5355498148064700E-002   4.4046745527875825E-002
   4.9612286271300203E-002  -1.4810084381243566E-002   4.4208009622964506E-002
   5.0195680781496888E-002  -1.4867119126932837E-002   4.9799501817592462E-002
   4.8679932855204985E-002  -1.4533004691199961E-002   4.9305176025463526E-002
   4.7164184928913111E-002  -1.4141554140658000E-002   4.9036075531220663E-002
   4.5648437002621237E-002  -1.3692767475307167E-002   4.8992200334863817E-002
   4.4132689076329362E-002  -1.3186644695147465E-002   4.9173550436392932E-002
   6.5976305942307190E-002  -1.9680403439531813E-002   2.9159927466782087E-002
   6.3423433410845692E-002  -1.9027584235053130E-002   2.8901455230407186E-002
   6.0870560879384195E-002  -1.8340654584608318E-002   2.8846538397639149E-002
   5.8317688347922669E-002  -1.7619614488197266E-002   2.8995176968477560E-002
   5.5764815816461144E-002  -1.6864463945820196E-002   2.9347370942922668E-002
   6.0534094704289138E-002  -1.8056963753435684E-002   3.4201198138159000E-002
   5.8184168910061798E-002  -1.7435387964945287E-002   3.3957765565721582E-002
   5.5834243115834500E-002  -1.6791701990499397E-002   3.3916671064145754E-002
   5.3484317321607140E-002  -1.6125905830097959E-002   3.4077914633431600E-002
   5.1134391527379863E-002  -1.5437999483741138E-002   3.4441496273579397E-002
   5.5079421480620075E-002  -1.6433524067339611E-002   3.9217225523553223E-002
   5.2931225090881974E-002  -1.5843191694837389E-002   3.8976832355042415E-002
   5.0783028701143915E-002  -1.5242749396390365E-002   3.8937559924648410E-002
   4.8634832311405800E-002  -1.4632197171998484E-002   3.9099408232371041E-002
   4.6486635921667699E-002  -1.4011535021661914E-002   3.9462377278210448E-002
   4.9612286271300203E-002  -1.4810084381243566E-002   4.4208009622964506E-002
   4.7664601953306351E-002  -1.4250995424729379E-002   4.3958655598369790E-002
   4.5716917635312493E-002  -1.3693796802281305E-002   4.3909204979146764E-002
   4.3769233317318613E-002  -1.3138488513899066E-002   4.4059657765295433E-002
   4.1821548999324734E-002  -1.2585070559582717E-002   4.4410013956816048E-002
   4.4132689076329362E-002  -1.3186644695147465E-002   4.9173550436392932E-002
   4.2384299497334771E-002  -1.2658799154621592E-002   4.8903235295703451E-002
   4.0635909918340180E-002  -1.2144844208172356E-002   4.8831606227640795E-002
   3.8887520339345602E-002  -1.1644779855799661E-002   4.8958663232204991E-002
   3.7139130760350997E-002  -1.1158606097503576E-002   4.9284406309395956E-002
   5.5764815816461144E-002  -1.6864463945820196E-002   2.9347370942922668E-002
   5.3675647241934465E-002  -1.6105820194929565E-002   2.9040504473157425E-002
   5.1586478667407648E-002  -1.5374300472978303E-002   2.8908876615399370E-002
   4.9497310092880845E-002  -1.4669904779966055E-002   2.8952487369648228E-002
   4.7408141518354097E-002  -1.3992633115893161E-002   2.9171336735904108E-002
   5.1134391527379863E-002  -1.5437999483741138E-002   3.4441496273579397E-002
   4.9216006326538123E-002  -1.4745487925969469E-002   3.4092831352828756E-002
   4.7297621125696382E-002  -1.4065876131323901E-002   3.3910494567441440E-002
   4.5379235924854641E-002  -1.3399164099804371E-002   3.3894485917417144E-002
   4.3460850724012901E-002  -1.2745351831410956E-002   3.4044805402755729E-002
   4.6486635921667699E-002  -1.4011535021661914E-002   3.9462377278210448E-002
   4.4730123617867115E-002  -1.3385155657009318E-002   3.9086138172287843E-002
   4.2973611314066525E-002  -1.2757451789669708E-002   3.8867316725084242E-002
   4.1217099010265948E-002  -1.2128423419642795E-002   3.8805912936600066E-002
   3.9460586706465350E-002  -1.1498070546928807E-002   3.8901926806834825E-002
   4.1821548999324734E-002  -1.2585070559582717E-002   4.4410013956816048E-002
   4.0217999115921430E-002  -1.2024823388049305E-002   4.4020424931534428E-002
   3.8614449232518069E-002  -1.1449027448015466E-002   4.3779343088327899E-002
   3.7010899349114737E-002  -1.0857682739481110E-002   4.3686768427196702E-002
   3.5407349465711349E-002  -1.0250789262446519E-002   4.3742700948140804E-002
   3.7139130760350997E-002  -1.1158606097503576E-002   4.9284406309395956E-002
   3.5679632820700996E-002  -1.0664491119089098E-002   4.8895691630568283E-002
   3.4220134881051009E-002  -1.0140603106361071E-002   4.8646573657172260E-002
   3.2760636941401002E-002  -9.5869420593195261E-003   4.8537052389207538E-002
   3.1301139001751022E-002  -9.0035079779644533E-003   4.8567127826674161E-002
   4.7408141518354097E-002  -1.3992633115893161E-002   2.9171336735904108E-002
   4.4757963944525969E-002  -1.3302778834310414E-002   2.8867177939625177E-002
   4.2107786370697842E-002  -1.2560635288768857E-002   2.8670217298381817E-002
   3.9457608796869714E-002  -1.1766202479268524E-002   2.8580454812174666E-002
   3.6807431223041531E-002  -1.0919480405809256E-002   2.8597890481002697E-002
   4.3460850724012901E-002  -1.2745351831410956E-002   3.4044805402755729E-002
   4.0938665074645914E-002  -1.2080629029208118E-002   3.3751972200047525E-002
   3.8416479425278899E-002  -1.1381185396260957E-002   3.3607924691225699E-002
   3.5894293775911898E-002  -1.0647020932569078E-002   3.3612662876290778E-002
   3.3372108126544897E-002  -9.8781356381327790E-003   3.3766186755241567E-002
   3.9460586706465350E-002  -1.1498070546928807E-002   3.8901926806834825E-002
   3.7107980520410214E-002  -1.0858479224106043E-002   3.8602850764482943E-002
   3.4755374334355049E-002  -1.0201735503753154E-002   3.8494147954868149E-002
   3.2402768148299857E-002  -9.5278393858698220E-003   3.8575818377990755E-002
   3.0050161962244748E-002  -8.8367908704564124E-003   3.8847862033850433E-002
   3.5407349465711349E-002  -1.0250789262446519E-002   4.3742700948140804E-002
   3.3265910281818856E-002  -9.6363294190040250E-003   4.3419813632931174E-002
   3.1124471097926314E-002  -9.0222856112451913E-003   4.3328887089309140E-002
   2.8983031914033727E-002  -8.4086578391705819E-003   4.3469921317275603E-002
   2.6841592730141223E-002  -7.7954461027799904E-003   4.3842916316829475E-002
   3.1301139001751022E-002  -9.0035079779644533E-003   4.8567127826674161E-002
   2.9412454358871826E-002  -8.4141796139015623E-003   4.8202860805391989E-002
   2.7523769715992602E-002  -7.8428357187373676E-003   4.8112142094548671E-002
   2.5635085073113434E-002  -7.2894762924712100E-003   4.8294971694144401E-002
   2.3746400430234238E-002  -6.7541013351035684E-003   4.8751349604178262E-002
   5.7151891897029142E-002   0.0000000000000000        3.4691483296560577E-002
   5.7942136833654005E-002  -2.0842916292469517E-003   3.8343581487738802E-002
   5.8732381770278862E-002  -4.1376679579953213E-003   4.2209370461669518E-002
   5.9522626706903725E-002  -6.1601289862451020E-003   4.6288850218352745E-002
   6.0312871643528568E-002  -8.1516747139963042E-003   5.0582020757788448E-002
   4.8651910086698238E-002   0.0000000000000000        3.2790222150005738E-002
   4.9590611016222967E-002  -1.7096847827820739E-003   3.6965843743967761E-002
   5.0529311945747689E-002  -3.4331931039014250E-003   4.1224686540977024E-002
   5.1468012875272411E-002  -5.1705249633580471E-003   4.5566750541033541E-002
   5.2406713804797139E-002  -6.9216803611519551E-003   4.9992035744137256E-002
   4.0732140587923106E-002   0.0000000000000000        3.1285937269333701E-002
   4.1688827930642450E-002  -1.3350779363171953E-003   3.5940343427243671E-002
   4.2645515273361780E-002  -2.7287182498075277E-003   4.0547501208495623E-002
   4.3602202616081123E-002  -4.1809209404709948E-003   4.5107410613089545E-002
   4.4558889958800467E-002  -5.6916860083075990E-003   4.9620071641025464E-002
   3.3392583400703744E-002   0.0000000000000000        3.0178628654544477E-002
   3.4236787576912439E-002  -9.6047108985231706E-004   3.5267080537566518E-002
   3.5080991753121134E-002  -2.0242433957136301E-003   4.0177814464225296E-002
   3.5925195929329835E-002  -3.1913169175839377E-003   4.4910830434520793E-002
   3.6769400105538530E-002  -4.4616916554632482E-003   4.9466128448453023E-002
   2.6633238525040154E-002   0.0000000000000000        2.9468296305638065E-002
   2.7234489955032949E-002  -5.8586424338743798E-004   3.4946055074936325E-002
   2.7835741385025752E-002  -1.3197685416197341E-003   4.0115626308166057E-002
   2.8436992815018550E-002  -2.2017128946968841E-003   4.4977010005327264E-002
   2.9038244245011349E-002  -3.2316973026188930E-003   4.9530206166419954E-002
   6.0312871643528568E-002  -8.1516747139963042E-003   5.0582020757788448E-002
   6.0612145211205427E-002  -1.0030619004443677E-002   5.1520995101210033E-002
   6.0911418778882252E-002  -1.1715275720782035E-002   5.2247005167665381E-002
   6.1210692346559098E-002  -1.3205644863011295E-002   5.2760050957154442E-002
   6.1509965914235944E-002  -1.4501726431131533E-002   5.3060132469677328E-002
   5.2406713804797139E-002  -6.9216803611519551E-003   4.9992035744137256E-002
   5.2532091972780824E-002  -8.5855078630606325E-003   5.1219796409675097E-002
   5.2657470140764516E-002  -1.0060856034861643E-002   5.2312730552792834E-002
   5.2782848308748215E-002  -1.1347724876554922E-002   5.3270838173490508E-002
   5.2908226476731893E-002  -1.2446114388140514E-002   5.4094119271768201E-002
   4.4558889958800467E-002  -5.6916860083075990E-003   4.9620071641025464E-002
   4.4588510481637193E-002  -7.1403967216775886E-003   5.1130810384678149E-002
   4.4618131004473913E-002  -8.4064363489412576E-003   5.2584860360456981E-002
   4.4647751527310646E-002  -9.4898048900985514E-003   5.3982221568361903E-002
   4.4677372050147372E-002  -1.0390502345149513E-002   5.5322894008393027E-002
   3.6769400105538530E-002  -4.4616916554632482E-003   4.9466128448453023E-002
   3.6781400737774486E-002  -5.6952855802945533E-003   5.1254037026219217E-002
   3.6793401370010442E-002  -6.7520166630208548E-003   5.3063394590657773E-002
   3.6805402002246419E-002  -7.6318849036421856E-003   5.4894201141768656E-002
   3.6817402634482382E-002  -8.3348903021584955E-003   5.6746456679551825E-002
   2.9038244245011349E-002  -3.2316973026188930E-003   4.9530206166419954E-002
   2.9110762741192737E-002  -4.2501744389114937E-003   5.1589476334298341E-002
   2.9183281237374133E-002  -5.0975969771005006E-003   5.3748333243395230E-002
   2.9255799733555528E-002  -5.7739649171858008E-003   5.6006776893710676E-002
   2.9328318229736916E-002  -6.2792782591674992E-003   5.8364807285244603E-002
   6.1509965914235944E-002  -1.4501726431131533E-002   5.3060132469677328E-002
   6.0190593885567231E-002  -1.5506372298636762E-002   5.1648922830542399E-002
   5.8871221856898498E-002  -1.6122434339020907E-002   5.0688901371023970E-002
   5.7551849828229786E-002  -1.6349912552284157E-002   5.0180068091121945E-002
   5.6232477799561059E-002  -1.6188806938426323E-002   5.0122422990836288E-002
   5.2908226476731893E-002  -1.2446114388140514E-002   5.4094119271768201E-002
   5.1988090195021125E-002  -1.3296583330921551E-002   5.3349815028205572E-002
   5.1067953913310364E-002  -1.3839690466201118E-002   5.2952794098942428E-002
   5.0147817631599589E-002  -1.4075435793979234E-002   5.2903056483978729E-002
   4.9227681349888829E-002  -1.4003819314255886E-002   5.3200602183314613E-002
   4.4677372050147372E-002  -1.0390502345149513E-002   5.5322894008393027E-002
   4.4052566650077618E-002  -1.1086794363206360E-002   5.5164273140783121E-002
   4.3427761250007857E-002  -1.1556946593381256E-002   5.5249030722155805E-002
   4.2802955849938089E-002  -1.1800959035674310E-002   5.5577166752510981E-002
   4.2178150449868328E-002  -1.1818831690085428E-002   5.6148681231848671E-002
   3.6817402634482382E-002  -8.3348903021584955E-003   5.6746456679551825E-002
   3.6384023250736669E-002  -8.8770053954911297E-003   5.7092297168275137E-002
   3.5950643866990963E-002  -9.2742027205614582E-003   5.7577611240664010E-002
   3.5517264483245263E-002  -9.5264822773693560E-003   5.8202398896718480E-002
   3.5083885099499550E-002  -9.6338440659149392E-003   5.8966660136438538E-002
   2.9328318229736916E-002  -6.2792782591674992E-003   5.8364807285244603E-002
   2.8982459996998309E-002  -6.6672164277759675E-003   5.9133887110681543E-002
   2.8636601764259702E-002  -6.9914588477416276E-003   5.9938535654467107E-002
   2.8290743531521109E-002  -7.2520055190644552E-003   6.0778752916601293E-002
   2.7944885298782488E-002  -7.4488564417445058E-003   6.1654538897084138E-002
   5.6232477799561059E-002  -1.6188806938426323E-002   5.0122422990836288E-002
   5.4723278545045023E-002  -1.5839653304644305E-002   4.9818305255591264E-002
   5.3214079290528973E-002  -1.5502987458134745E-002   4.9663112481635581E-002
   5.1704880036012930E-002  -1.5178809398897534E-002   4.9656844668969205E-002
   5.0195680781496888E-002  -1.4867119126932837E-002   4.9799501817592462E-002
   4.9227681349888829E-002  -1.4003819314255886E-002   5.3200602183314613E-002
   4.7879307128542520E-002  -1.3771684521208624E-002   5.2864243585538442E-002
   4.6530932907196246E-002  -1.3525874909014971E-002   5.2700610092812468E-002
   4.5182558685849944E-002  -1.3266390477675007E-002   5.2709701705136447E-002
   4.3834184464503628E-002  -1.2993231227188595E-002   5.2891518422510428E-002
   4.2178150449868328E-002  -1.1818831690085428E-002   5.6148681231848671E-002
   4.1014401405452414E-002  -1.1703715737772950E-002   5.5806244377960348E-002
   3.9850652361036465E-002  -1.1548762359895338E-002   5.5660332772882806E-002
   3.8686903316620530E-002  -1.1353971556452454E-002   5.5710946416615899E-002
   3.7523154272204609E-002  -1.1119343327444381E-002   5.5958085309159647E-002
   3.5083885099499550E-002  -9.6338440659149392E-003   5.8966660136438538E-002
   3.4128561375774608E-002  -9.6357469543373007E-003   5.8644307632856892E-002
   3.3173237652049666E-002  -9.5716498107756356E-003   5.8542280521846554E-002
   3.2217913928324744E-002  -9.4415526352299561E-003   5.8660578803407533E-002
   3.1262590204599774E-002  -9.2454554277001527E-003   5.8999202477539883E-002
   2.7944885298782488E-002  -7.4488564417445058E-003   6.1654538897084138E-002
   2.7221787039509171E-002  -7.5677781709016234E-003   6.1378433350227996E-002
   2.6498688780235848E-002  -7.5945372616559384E-003   6.1346453339703774E-002
   2.5775590520962528E-002  -7.5291337140073900E-003   6.1558598865511495E-002
   2.5052492261689208E-002  -7.3715675279559245E-003   6.2014869927651151E-002
   5.0195680781496888E-002  -1.4867119126932837E-002   4.9799501817592462E-002
   4.8679932855204985E-002  -1.4533004691199961E-002   4.9305176025463526E-002
   4.7164184928913111E-002  -1.4141554140658000E-002   4.9036075531220663E-002
   4.5648437002621237E-002  -1.3692767475307167E-002   4.8992200334863817E-002
   4.4132689076329362E-002  -1.3186644695147465E-002   4.9173550436392932E-002
   4.3834184464503628E-002  -1.2993231227188595E-002   5.2891518422510428E-002
   4.2535924543334998E-002  -1.2691433549326475E-002   5.2490390537520026E-002
   4.1237664622166388E-002  -1.2346033835859332E-002   5.2299013364889978E-002
   3.9939404700997758E-002  -1.1957032086787257E-002   5.2317386904620553E-002
   3.8641144779829134E-002  -1.1524428302110090E-002   5.2545511156711494E-002
   3.7523154272204609E-002  -1.1119343327444381E-002   5.5958085309159647E-002
   3.6426907770633704E-002  -1.0849862407453149E-002   5.5636421252103663E-002
   3.5330661269062792E-002  -1.0550513531060797E-002   5.5509033321882693E-002
   3.4234414767491894E-002  -1.0221296698267291E-002   5.5575921518496635E-002
   3.3138168265921003E-002  -9.8622119090726879E-003   5.5837085841945550E-002
   3.1262590204599774E-002  -9.2454554277001527E-003   5.8999202477539883E-002
   3.0352882537101070E-002  -9.0082912655797716E-003   5.8743268169214484E-002
   2.9443174869602386E-002  -8.7549932262621123E-003   5.8666135402198623E-002
   2.8533467202103688E-002  -8.4855613097472964E-003   5.8767804176492126E-002
   2.7623759534604990E-002  -8.1999955160353549E-003   5.9048274492095043E-002
   2.5052492261689208E-002  -7.3715675279559245E-003   6.2014869927651151E-002
   2.4313848842737157E-002  -7.1667201237063383E-003   6.1810931288852622E-002
   2.3575205423785127E-002  -6.9594729214635803E-003   6.1770319605837870E-002
   2.2836562004833080E-002  -6.7498259212273280E-003   6.1893034878606992E-002
   2.2097918585881046E-002  -6.5377791229979110E-003   6.2179077107160086E-002
   4.4132689076329362E-002  -1.3186644695147465E-002   4.9173550436392932E-002
   4.2384299497334771E-002  -1.2658799154621592E-002   4.8903235295703451E-002
   4.0635909918340180E-002  -1.2144844208172356E-002   4.8831606227640795E-002
   3.8887520339345602E-002  -1.1644779855799661E-002   4.8958663232204991E-002
   3.7139130760350997E-002  -1.1158606097503576E-002   4.9284406309395956E-002
   3.8641144779829134E-002  -1.1524428302110090E-002   5.2545511156711494E-002
   3.7094824000896545E-002  -1.1072666247574664E-002   5.2257558481067001E-002
   3.5548503221963956E-002  -1.0626189688927742E-002   5.2175057332919522E-002
   3.4002182443031374E-002  -1.0184998626169058E-002   5.2298007712269126E-002
   3.2455861664098778E-002  -9.7490930592992742E-003   5.2626409619116327E-002
   3.3138168265921003E-002  -9.8622119090726879E-003   5.5837085841945550E-002
   3.1800681741920862E-002  -9.4865333405276531E-003   5.5540100729533831E-002
   3.0463195217920722E-002  -9.1075351696830731E-003   5.5455332599489773E-002
   2.9125708693920567E-002  -8.7252173965387883E-003   5.5582781451813335E-002
   2.7788222169920447E-002  -8.3395800210948889E-003   5.5922447286504681E-002
   2.7623759534604990E-002  -8.1999955160353549E-003   5.9048274492095043E-002
   2.6501872720407708E-002  -7.9004004334807393E-003   5.8750862041104385E-002
   2.5379985906210469E-002  -7.5888806504384593E-003   5.8672432027351805E-002
   2.4258099092013229E-002  -7.2654361669084074E-003   5.8812984450837283E-002
   2.3136212277815975E-002  -6.9300669828906009E-003   5.9172519311560826E-002
   2.2097918585881046E-002  -6.5377791229979110E-003   6.2179077107160086E-002
   2.1198396936357125E-002  -6.3142675264337700E-003   6.1889842415778662E-002
   2.0298875286833204E-002  -6.0702261311938455E-003   6.1826355616505541E-002
   1.9399353637309297E-002  -5.8056549372779570E-003   6.1988616709341110E-002
   1.8499831987785376E-002  -5.5205539446862018E-003   6.2376625694285148E-002
   3.7139130760350997E-002  -1.1158606097503576E-002   4.9284406309395956E-002
   3.5679632820700996E-002  -1.0664491119089098E-002   4.8895691630568283E-002
   3.4220134881051009E-002  -1.0140603106361071E-002   4.8646573657172260E-002
   3.2760636941401002E-002  -9.5869420593195261E-003   4.8537052389207538E-002
   3.1301139001751022E-002  -9.0035079779644533E-003   4.8567127826674161E-002
   3.2455861664098778E-002  -9.7490930592992742E-003   5.2626409619116327E-002
   3.1145303678200217E-002  -9.3052653034998434E-003   5.2288119244712938E-002
   2.9834745692301656E-002  -8.8403076739534681E-003   5.2108112072381127E-002
   2.8524187706403116E-002  -8.3542201706598637E-003   5.2086388102120913E-002
   2.7213629720504534E-002  -7.8470027936192732E-003   5.2222947333931957E-002
   2.7788222169920447E-002  -8.3395800210948889E-003   5.5922447286504681E-002
   2.6645290634413420E-002  -7.9460394879107971E-003   5.5625938055959140E-002
   2.5502359098906368E-002  -7.5400122415459139E-003   5.5506398524125276E-002
   2.4359427563399316E-002  -7.1214982820002552E-003   5.5563828691002945E-002
   2.3216496027892289E-002  -6.6904976092739821E-003   5.5798228556592305E-002
   2.3136212277815975E-002  -6.9300669828906009E-003   5.9172519311560826E-002
   2.2179593689340540E-002  -6.5868136723217299E-003   5.8909148064307006E-002
   2.1222975100865127E-002  -6.2397168091383355E-003   5.8841433012404749E-002
   2.0266356512389720E-002  -5.8887763933405642E-003   5.8969374155854098E-002
   1.9309737923914279E-002  -5.5339924249285799E-003   5.9292971494655171E-002
   1.8499831987785376E-002  -5.5205539446862018E-003   6.2376625694285148E-002
   1.7748212842981642E-002  -5.2275878567324408E-003   6.2137749269756404E-002
   1.6996593698177923E-002  -4.9394213767307571E-003   6.2113215537219213E-002
   1.6244974553374196E-002  -4.6560545046810398E-003   6.2303024496673909E-002
   1.5493355408570483E-002  -4.3774872405835108E-003   6.2707176148120158E-002
   3.1301139001751022E-002  -9.0035079779644533E-003   4.8567127826674161E-002
   2.9412454358871826E-002  -8.4141796139015623E-003   4.8202860805391989E-002
   2.7523769715992602E-002  -7.8428357187373676E-003   4.8112142094548671E-002
   2.5635085073113434E-002  -7.2894762924712100E-003   4.8294971694144401E-002
   2.3746400430234238E-002  -6.7541013351035684E-003   4.8751349604178262E-002
   2.7213629720504534E-002  -7.8470027936192732E-003   5.2222947333931957E-002
   2.5585928961314244E-002  -7.3325018559483035E-003   5.1924217863841715E-002
   2.3958228202123955E-002  -6.8245636707644497E-003   5.1873907850690459E-002
   2.2330527442933748E-002  -6.3231882380672955E-003   5.2072017294478273E-002
   2.0702826683743403E-002  -5.8283755578574237E-003   5.2518546195205351E-002
   2.3216496027892289E-002  -6.6904976092739821E-003   5.5798228556592305E-002
   2.1824650298891281E-002  -6.2508240979949892E-003   5.5576458354105157E-002
   2.0432804569890266E-002  -5.8062916227914069E-003   5.5577978755057628E-002
   1.9040958840889181E-002  -5.3569001836635717E-003   5.5802789759449488E-002
   1.7649113111888243E-002  -4.9026497806110569E-003   5.6250891367280731E-002
   1.9309737923914279E-002  -5.5339924249285799E-003   5.9292971494655171E-002
   1.8128618371602859E-002  -5.1691463400414805E-003   5.9159582276182482E-002
   1.6947498819291428E-002  -4.7880195748183155E-003   5.9224354807649857E-002
   1.5766379266980046E-002  -4.3906121292594750E-003   5.9487289089056837E-002
   1.4585259714668584E-002  -3.9769240033647457E-003   5.9948385120403583E-002
   1.5493355408570483E-002  -4.3774872405835108E-003   6.2707176148120158E-002
   1.4497833179449013E-002  -4.0874685820881940E-003   6.2673589630073856E-002
   1.3502310950327549E-002  -3.7697475268454739E-003   6.2813036008467327E-002
   1.2506788721206096E-002  -3.4243240748558570E-003   6.3125515283301237E-002
   1.1511266492084615E-002  -3.0511982261185455E-003   6.3611027454575142E-002
   2.6633238525040154E-002   0.0000000000000000        2.9468296305638065E-002
   2.7234489955032949E-002  -5.8586424338743798E-004   3.4946055074936325E-002
   2.7835741385025752E-002  -1.3197685416197341E-003   4.0115626308166057E-002
   2.8436992815018550E-002  -2.2017128946968841E-003   4.4977010005327264E-002
   2.9038244245011349E-002  -3.2316973026188930E-003   4.9530206166419954E-002
   2.0116732077311000E-002   0.0000000000000000        2.9020432616668493E-002
   2.0449264640877842E-002  -4.3939818254089096E-004   3.4313589551933241E-002
   2.0781797204444688E-002  -9.8982640621529411E-004   3.9377496290414607E-002
   2.1114329768011534E-002  -1.6512846710232095E-003   4.4212152832112578E-002
   2.1446862331578380E-002  -2.4237729769646310E-003   4.8817559177027181E-002
   1.3505690173894958E-002   0.0000000000000000        2.8700529981689794E-002
   1.3648441210320982E-002  -2.9293212169434349E-004   3.3846095096632389E-002
   1.3791192246747009E-002  -6.5988427081085238E-004   3.8841347354076718E-002
   1.3933943283173036E-002  -1.1008564473495314E-003   4.3686286754022814E-002
   1.4076694319599060E-002  -1.6158486513103728E-003   4.8380913296470651E-002
   6.8001128147920200E-003   0.0000000000000000        2.8508588400701973E-002
   6.8320196633623658E-003  -1.4646606084779581E-004   3.3543571709033743E-002
   6.8639265119327117E-003  -3.2994213540641585E-004   3.8507179499152409E-002
   6.8958333605030550E-003  -5.5042822367585686E-004   4.3399411771057952E-002
   6.9277402090734009E-003  -8.0792432565612144E-004   4.8220268524750372E-002
   2.1926904736346842E-015   0.0000000000000000        2.8444607873705022E-002
   1.9940646356353398E-015  -1.2490009027033011E-015   3.3406019389137322E-002
   1.7941377550290127E-015  -1.9723805921856297E-015   3.8374992725641648E-002
   1.5957287574641654E-015  -2.1788126858268697E-015   4.3351527883217986E-002
   1.3964523981613297E-015  -1.8552867575571952E-015   4.8335624861866364E-002
   2.9038244245011349E-002  -3.2316973026188930E-003   4.9530206166419954E-002
   2.9110762741192737E-002  -4.2501744389114937E-003   5.1589476334298341E-002
   2.9183281237374133E-002  -5.0975969771005006E-003   5.3748333243395230E-002
   2.9255799733555528E-002  -5.7739649171858008E-003   5.6006776893710676E-002
   2.9328318229736916E-002  -6.2792782591674992E-003   5.8364807285244603E-002
   2.1446862331578380E-002  -2.4237729769646310E-003   4.8817559177027181E-002
   2.1589538477662328E-002  -3.1876308291839571E-003   5.1218286928383920E-002
   2.1732214623746277E-002  -3.8231977328256044E-003   5.3659743238327243E-002
   2.1874890769830225E-002  -4.3304736878895375E-003   5.6141928106857135E-002
   2.2017566915914177E-002  -4.7094586943757927E-003   5.8664841533973652E-002
   1.4076694319599060E-002  -1.6158486513103728E-003   4.8380913296470651E-002
   1.4230669932953641E-002  -2.1250872194564199E-003   5.1080334981779794E-002
   1.4384645546308221E-002  -2.5487984885507221E-003   5.3761627043043630E-002
   1.4538621159662798E-002  -2.8869824585932681E-003   5.6424789480262076E-002
   1.4692596773017378E-002  -3.1396391295840688E-003   5.9069822293435222E-002
   6.9277402090734009E-003  -8.0792432565612144E-004   4.8220268524750372E-002
   7.0341571070666768E-003  -1.0625436097288796E-003   5.1175620494486006E-002
   7.1405740050599518E-003  -1.2743992442758468E-003   5.4053984657544359E-002
   7.2469909030532294E-003  -1.4434912292969949E-003   5.6855361013925416E-002
   7.3534078010465071E-003  -1.5698195647923536E-003   5.9579749563629235E-002
   1.3964523981613297E-015  -1.8552867575571952E-015   4.8335624861866364E-002
   1.4398204850607499E-015  -1.3418086086680603E-015   5.1504143466502506E-002
   1.4810201676151991E-015  -9.6342205047061924E-016   5.4536816081829448E-002
   1.5228703714731395E-015  -7.2657808589116080E-016   5.7433642707847198E-002
   1.5664552988070568E-015  -6.3837823915946501E-016   6.0194623344555748E-002
   2.9328318229736916E-002  -6.2792782591674992E-003   5.8364807285244603E-002
   2.8982459996998309E-002  -6.6672164277759675E-003   5.9133887110681543E-002
   2.8636601764259702E-002  -6.9914588477416276E-003   5.9938535654467107E-002
   2.8290743531521109E-002  -7.2520055190644552E-003   6.0778752916601293E-002
   2.7944885298782488E-002  -7.4488564417445058E-003   6.1654538897084138E-002
   2.2017566915914177E-002  -4.7094586943757927E-003   5.8664841533973652E-002
   2.1720001361483249E-002  -5.0004123208320997E-003   5.9488160270358074E-002
   2.1422435807052310E-002  -5.2435941358062906E-003   6.0372495645009190E-002
   2.1124870252621386E-002  -5.4390041392984182E-003   6.1317847657927013E-002
   2.0827304698190448E-002  -5.5866423313083724E-003   6.2324216309111544E-002
   1.4692596773017378E-002  -3.1396391295840688E-003   5.9069822293435222E-002
   1.4468771816812213E-002  -3.3336082138882613E-003   5.9931456003606401E-002
   1.4244946860607047E-002  -3.4957294238710359E-003   6.0879554271962344E-002
   1.4021121904401874E-002  -3.6260027595323525E-003   6.1914117098503078E-002
   1.3797296948196709E-002  -3.7244282208722529E-003   6.3035144483228694E-002
   7.3534078010465071E-003  -1.5698195647923536E-003   5.9579749563629235E-002
   7.2287713629851976E-003  -1.6668041069444290E-003   6.0463774310426446E-002
   7.1041349249238855E-003  -1.7478647119357677E-003   6.1459711535326624E-002
   6.9794984868625813E-003  -1.8130013797663012E-003   6.2567561238329600E-002
   6.8548620488012675E-003  -1.8622141104361403E-003   6.3787323419435590E-002
   1.5664552988070568E-015  -6.3837823915946501E-016   6.0194623344555748E-002
   2.2083029849184754E-015  -5.6205040621648550E-016   6.1085115190818357E-002
   2.8510180327678825E-015  -4.4408920985006262E-016   6.2112967435101946E-002
   3.4954678040932663E-015  -2.5673907444456745E-016   6.3278180077406529E-002
   4.1355807667287081E-015  -2.7755575615628914E-017   6.4580753117732176E-002
   2.7944885298782488E-002  -7.4488564417445058E-003   6.1654538897084138E-002
   2.7221787039509171E-002  -7.5677781709016234E-003   6.1378433350227996E-002
   2.6498688780235848E-002  -7.5945372616559384E-003   6.1346453339703774E-002
   2.5775590520962528E-002  -7.5291337140073900E-003   6.1558598865511495E-002
   2.5052492261689208E-002  -7.3715675279559245E-003   6.2014869927651151E-002
   2.0827304698190448E-002  -5.5866423313083724E-003   6.2324216309111544E-002
   2.0332494232370549E-002  -5.6758336281760441E-003   6.2200488178577804E-002
   1.9837683766550641E-002  -5.6959029462414698E-003   6.2289210098619013E-002
   1.9342873300730742E-002  -5.6468502855044952E-003   6.2590382069235145E-002
   1.8848062834910841E-002  -5.5286756459652087E-003   6.3104004090426102E-002
   1.3797296948196709E-002  -3.7244282208722529E-003   6.3035144483228694E-002
   1.3499098790073206E-002  -3.7838890854505064E-003   6.3040753109416842E-002
   1.3200900631949711E-002  -3.7972686308269978E-003   6.3227136300422856E-002
   1.2902702473826216E-002  -3.7645668570016411E-003   6.3594294056246767E-002
   1.2604504315702706E-002  -3.6857837639745206E-003   6.4142226376888614E-002
   6.8548620488012675E-003  -1.8622141104361403E-003   6.3787323419435590E-002
   6.7216007126171548E-003  -1.8919445427249340E-003   6.3899228142745026E-002
   6.5883393764330431E-003  -1.8986343154124997E-003   6.4160231945115345E-002
   6.4550780402489304E-003  -1.8822834284987805E-003   6.4570334826546477E-002
   6.3218167040648135E-003  -1.8428918819838186E-003   6.5129536787038630E-002
   4.1355807667287081E-015  -2.7755575615628914E-017   6.4580753117732176E-002
   2.3904489498960402E-015   6.3143934525555778E-016   6.4775913278562414E-002
   6.4705185653934905E-016   1.9637069748057456E-015   6.5088497032696493E-002
  -1.0963452368173421E-015   4.0852737859253807E-015   6.5518504380134485E-002
  -2.8414770536500100E-015   6.8833827526759706E-015   6.6065935320876290E-002
   2.5052492261689208E-002  -7.3715675279559245E-003   6.2014869927651151E-002
   2.4313848842737157E-002  -7.1667201237063383E-003   6.1810931288852622E-002
   2.3575205423785127E-002  -6.9594729214635803E-003   6.1770319605837870E-002
   2.2836562004833080E-002  -6.7498259212273280E-003   6.1893034878606992E-002
   2.2097918585881046E-002  -6.5377791229979110E-003   6.2179077107160086E-002
   1.8848062834910841E-002  -5.5286756459652087E-003   6.3104004090426102E-002
   1.8278079846481089E-002  -5.3750400927772418E-003   6.2868369657180193E-002
   1.7708096858051341E-002  -5.2196046910942956E-003   6.2806729129195132E-002
   1.7138113869621593E-002  -5.0623694409162902E-003   6.2919082506470561E-002
   1.6568130881191835E-002  -4.9033343422434372E-003   6.3205429789006867E-002
   1.2604504315702706E-002  -3.6857837639745206E-003   6.4142226376888614E-002
   1.2213848707272029E-002  -3.5833600618481176E-003   6.3874296199697242E-002
   1.1823193098841342E-002  -3.4797364607250733E-003   6.3791026877243223E-002
   1.1432537490410660E-002  -3.3749129606053373E-003   6.3892418409526835E-002
   1.1041881881979979E-002  -3.2688895614889635E-003   6.4178470796547760E-002
   6.3218167040648135E-003  -1.8428918819838186E-003   6.5129536787038630E-002
   6.1211554251099738E-003  -1.7916800309190212E-003   6.4828710916403492E-002
   5.9204941461551384E-003  -1.7398682303558753E-003   6.4723212849982406E-002
   5.7198328672003022E-003  -1.6874564802944530E-003   6.4813042587775690E-002
   5.5191715882454556E-003  -1.6344447807344897E-003   6.5098200129783165E-002
  -2.8414770536500100E-015   6.8833827526759706E-015   6.6065935320876290E-002
  -5.0653925498522767E-015   1.0130785099704553E-014   6.5731613807298889E-002
  -7.2858385991025898E-015   1.3350431871117507E-014   6.5603287047412501E-002
  -9.5062846483529029E-015   1.6674162051089070E-014   6.5680955041217057E-002
  -1.1730200144555170E-014   1.9984014443252818E-014   6.5964617788712709E-002
   2.2097918585881046E-002  -6.5377791229979110E-003   6.2179077107160086E-002
   2.1198396936357125E-002  -6.3142675264337700E-003   6.1889842415778662E-002
   2.0298875286833204E-002  -6.0702261311938455E-003   6.1826355616505541E-002
   1.9399353637309297E-002  -5.8056549372779570E-003   6.1988616709341110E-002
   1.8499831987785376E-002  -5.5205539446862018E-003   6.2376625694285148E-002
   1.6568130881191835E-002  -4.9033343422434372E-003   6.3205429789006867E-002
   1.5894140253844669E-002  -4.7357006448200678E-003   6.2937480507011756E-002
   1.5220149626497492E-002  -4.5526695983905269E-003   6.2894845377261643E-002
   1.4546158999150309E-002  -4.3542412029549150E-003   6.3077524399756474E-002
   1.3872168371803134E-002  -4.1404154585134023E-003   6.3485517574496331E-002
   1.1041881881979979E-002  -3.2688895614889635E-003   6.4178470796547760E-002
   1.0592988536945926E-002  -3.1571337632061713E-003   6.3926674474269252E-002
   1.0144095191911874E-002  -3.0351130655870973E-003   6.3899758564372286E-002
   9.6952018468778253E-003  -2.9028274686319841E-003   6.4097723066856516E-002
   9.2463085018437696E-003  -2.7602769723406584E-003   6.4520567981722010E-002
   5.5191715882454556E-003  -1.6344447807344897E-003   6.5098200129783165E-002
   5.2949417856609070E-003  -1.5785668815923720E-003   6.4857424317551468E-002
   5.0707119830763637E-003  -1.5175565327838064E-003   6.4841095177837482E-002
   4.8464821804918186E-003  -1.4514137343089421E-003   6.5049212710641222E-002
   4.6222523779072718E-003  -1.3801384861678312E-003   6.5481776915962603E-002
  -1.1730200144555170E-014   1.9984014443252818E-014   6.5964617788712709E-002
  -1.0394463068053028E-014   2.1427304375265521E-014   6.5729730036857864E-002
  -9.0465829272190490E-015   1.9678703111480900E-014   6.5718855217657274E-002
  -7.7065090420269655E-015   1.3940237852949622E-014   6.5931993331110605E-002
  -6.3629657098829284E-015   4.8849813083506888E-015   6.6369144377218137E-002
   1.8499831987785376E-002  -5.5205539446862018E-003   6.2376625694285148E-002
   1.7748212842981642E-002  -5.2275878567324408E-003   6.2137749269756404E-002
   1.6996593698177923E-002  -4.9394213767307571E-003   6.2113215537219213E-002
   1.6244974553374196E-002  -4.6560545046810398E-003   6.2303024496673909E-002
   1.5493355408570483E-002  -4.3774872405835108E-003   6.2707176148120158E-002
   1.3872168371803134E-002  -4.1404154585134023E-003   6.3485517574496331E-002
   1.3328282442543707E-002  -3.9206908925506490E-003   6.3237635762584982E-002
   1.2784396513284273E-002  -3.7045660325513707E-003   6.3190877689770580E-002
   1.2240510584024849E-002  -3.4920408785154150E-003   6.3345243356053030E-002
   1.1696624654765411E-002  -3.2831154304433507E-003   6.3700732761432344E-002
   9.2463085018437696E-003  -2.7602769723406584E-003   6.4520567981722010E-002
   8.8969368352337305E-003  -2.6137939283687184E-003   6.4264880684416936E-002
   8.5475651686236914E-003  -2.4697106883718734E-003   6.4197098173313843E-002
   8.1981935020136436E-003  -2.3280272523499568E-003   6.4317220448412787E-002
   7.8488218354036098E-003  -2.1887436203030797E-003   6.4625247509713518E-002
   4.6222523779072718E-003  -1.3801384861678312E-003   6.5481776915962603E-002
   4.4541760210517114E-003  -1.3068969641868017E-003   6.5219484035252198E-002
   4.2860996641961649E-003  -1.2348553441924037E-003   6.5131876987848850E-002
   4.1180233073406115E-003  -1.1640136261845263E-003   6.5218955773752460E-002
   3.9499469504850641E-003  -1.0943718101629196E-003   6.5480720392963127E-002
  -6.3629657098829284E-015   4.8849813083506888E-015   6.6369144377218137E-002
  -2.3349377986647823E-015  -5.0515147620444623E-015   6.6101445815090976E-002
   1.6965595595053173E-015  -1.2850831510036187E-014   6.5995214133375751E-002
   5.7211180237715098E-015  -1.8866852524723754E-014   6.6050449332072825E-002
   9.7560848288935631E-015  -2.2759572004815709E-014   6.6267151411182001E-002
   1.5493355408570483E-002  -4.3774872405835108E-003   6.2707176148120158E-002
   1.4497833179449013E-002  -4.0874685820881940E-003   6.2673589630073856E-002
   1.3502310950327549E-002  -3.7697475268454739E-003   6.2813036008467327E-002
   1.2506788721206096E-002  -3.4243240748558570E-003   6.3125515283301237E-002
   1.1511266492084615E-002  -3.0511982261185455E-003   6.3611027454575142E-002
   1.1696624654765411E-002  -3.2831154304433507E-003   6.3700732761432344E-002
   1.0893097237293835E-002  -3.0656014365703366E-003   6.3659275690194944E-002
   1.0089569819822251E-002  -2.8273106451326413E-003   6.3828775345817157E-002
   9.2860424023506714E-003  -2.5682430561303482E-003   6.4209231728298899E-002
   8.4825149848790915E-003  -2.2883986695629854E-003   6.4800644837640142E-002
   7.8488218354036098E-003  -2.1887436203030797E-003   6.4625247509713518E-002
   7.2752130600013988E-003  -2.0437342910525347E-003   6.4568994286102438E-002
   6.7016042845991965E-003  -1.8848737634198504E-003   6.4761621619770754E-002
   6.1279955091969969E-003  -1.7121620374048359E-003   6.5203129510717966E-002
   5.5543867337947833E-003  -1.5255991130074253E-003   6.5893517958944436E-002
   3.9499469504850641E-003  -1.0943718101629196E-003   6.5480720392963127E-002
   3.6441806475717119E-003  -1.0218671455348161E-003   6.5402745417796185E-002
   3.3384143446583722E-003  -9.4243688170698309E-004   6.5611574830327840E-002
   3.0326480417450343E-003  -8.5608101867932530E-004   6.6107208630558439E-002
   2.7268817388316803E-003  -7.6279955645186526E-004   6.6889646818487178E-002
   9.7560848288935631E-015  -2.2759572004815709E-014   6.6267151411182001E-002
   4.7704895589362195E-015  -1.6930901125533637E-014   6.6160529085276476E-002
  -2.1163626406917047E-016   5.8009153036664429E-015   6.6378634977489193E-002
  -5.2059051514063981E-015   4.6025683264616646E-014   6.6921469087820096E-002
  -1.0186296250935811E-014   1.0369483049998962E-013   6.7789031416268797E-002
   2.1926904736346842E-015   0.0000000000000000        2.8444607873705022E-002
   1.9940646356353398E-015  -1.2490009027033011E-015   3.3406019389137322E-002
   1.7941377550290127E-015  -1.9723805921856297E-015   3.8374992725641648E-002
   1.5957287574641654E-015  -2.1788126858268697E-015   4.3351527883217986E-002
   1.3964523981613297E-015  -1.8552867575571952E-015   4.8335624861866364E-002
  -6.8001128147877682E-003   0.0000000000000000        2.8508588400699413E-002
  -6.8320196633585017E-003   1.4646606084604916E-004   3.3543571709031800E-002
  -6.8639265119292319E-003   3.2994213540361080E-004   3.8507179499151091E-002
  -6.8958333604999611E-003   5.5042822367268318E-004   4.3399411771057293E-002
  -6.9277402090706930E-003   8.0792432565327324E-004   4.8220268524750413E-002
  -1.3505690173891111E-002   0.0000000000000000        2.8700529981685607E-002
  -1.3648441210317485E-002   2.9293212169334646E-004   3.3846095096629072E-002
  -1.3791192246743862E-002   6.5988427080919659E-004   3.8841347354074317E-002
  -1.3933943283170236E-002   1.1008564473475486E-003   4.3686286754021378E-002
  -1.4076694319596614E-002   1.6158486513084048E-003   4.8380913296470228E-002
  -2.0116732077307822E-002   0.0000000000000000        2.9020432616663608E-002
  -2.0449264640874959E-002   4.3939818254064462E-004   3.4313589551929119E-002
  -2.0781797204442096E-002   9.8982640621478020E-004   3.9377496290411332E-002
  -2.1114329768009227E-002   1.6512846710224089E-003   4.4212152832110226E-002
  -2.1446862331576364E-002   2.4237729769635294E-003   4.8817559177025793E-002
  -2.6633238525037919E-002   0.0000000000000000        2.9468296305633405E-002
  -2.7234489955030920E-002   5.8586424338794192E-004   3.4946055074931988E-002
  -2.7835741385023930E-002   1.3197685416203673E-003   4.0115626308162122E-002
  -2.8436992815016937E-002   2.2017128946972744E-003   4.4977010005323843E-002
  -2.9038244245009941E-002   3.2316973026186666E-003   4.9530206166417137E-002
   1.3964523981613297E-015  -1.8552867575571952E-015   4.8335624861866364E-002
   1.4398204850607499E-015  -1.3418086086680603E-015   5.1504143466502506E-002
   1.4810201676151991E-015  -9.6342205047061924E-016   5.4536816081829448E-002
   1.5228703714731395E-015  -7.2657808589116080E-016   5.7433642707847198E-002
   1.5664552988070568E-015  -6.3837823915946501E-016   6.0194623344555748E-002
  -6.9277402090706930E-003   8.0792432565327324E-004   4.8220268524750413E-002
  -7.0341571070638631E-003   1.0625436097266394E-003   5.1175620494485652E-002
  -7.1405740050570305E-003   1.2743992442740331E-003   5.4053984657543699E-002
  -7.2469909030501937E-003   1.4434912292954746E-003   5.6855361013924514E-002
  -7.3534078010433655E-003   1.5698195647909641E-003   5.9579749563628083E-002
  -1.4076694319596614E-002   1.6158486513084048E-003   4.8380913296470228E-002
  -1.4230669932951011E-002   2.1250872194546141E-003   5.1080334981778767E-002
  -1.4384645546305412E-002   2.5487984885490572E-003   5.3761627043042069E-002
  -1.4538621159659811E-002   2.8869824585916895E-003   5.6424789480260154E-002
  -1.4692596773014210E-002   3.1396391295825665E-003   5.9069822293432939E-002
  -2.1446862331576364E-002   2.4237729769635294E-003   4.8817559177025793E-002
  -2.1589538477660011E-002   3.1876308291826057E-003   5.1218286928381818E-002
  -2.1732214623743664E-002   3.8231977328240748E-003   5.3659743238324564E-002
  -2.1874890769827314E-002   4.3304736878879155E-003   5.6141928106854040E-002
  -2.2017566915910964E-002   4.7094586943741551E-003   5.8664841533970273E-002
  -2.9038244245009941E-002   3.2316973026186666E-003   4.9530206166417137E-002
  -2.9110762741190864E-002   4.2501744389105839E-003   5.1589476334294795E-002
  -2.9183281237371787E-002   5.0975969770990746E-003   5.3748333243391150E-002
  -2.9255799733552707E-002   5.7739649171840912E-003   5.6006776893706235E-002
  -2.9328318229733634E-002   6.2792782591657575E-003   5.8364807285240045E-002
   1.5664552988070568E-015  -6.3837823915946501E-016   6.0194623344555748E-002
   2.2083029849184754E-015  -5.6205040621648550E-016   6.1085115190818357E-002
   2.8510180327678825E-015  -4.4408920985006262E-016   6.2112967435101946E-002
   3.4954678040932663E-015  -2.5673907444456745E-016   6.3278180077406529E-002
   4.1355807667287081E-015  -2.7755575615628914E-017   6.4580753117732176E-002
  -7.3534078010433655E-003   1.5698195647909641E-003   5.9579749563628083E-002
  -7.2287713629808218E-003   1.6668041069431913E-003   6.0463774310425412E-002
  -7.1041349249182789E-003   1.7478647119347143E-003   6.1459711535325520E-002
  -6.9794984868557387E-003   1.8130013797657083E-003   6.2567561238328490E-002
  -6.8548620487931915E-003   1.8622141104360501E-003   6.3787323419434161E-002
  -1.4692596773014210E-002   3.1396391295825665E-003   5.9069822293432939E-002
  -1.4468771816807963E-002   3.3336082138868926E-003   5.9931456003604285E-002
  -1.4244946860601721E-002   3.4957294238699005E-003   6.0879554271960235E-002
  -1.4021121904395473E-002   3.6260027595316317E-003   6.1914117098500830E-002
  -1.3797296948189234E-002   3.7244282208720864E-003   6.3035144483225947E-002
  -2.2017566915910964E-002   4.7094586943741551E-003   5.8664841533970273E-002
  -2.1720001361479217E-002   5.0004123208306130E-003   5.9488160270354973E-002
  -2.1422435807047464E-002   5.2435941358050936E-003   6.0372495645006075E-002
  -2.1124870252615714E-002   5.4390041392975621E-003   6.1317847657923592E-002
  -2.0827304698183960E-002   5.5866423313081295E-003   6.2324216309107498E-002
  -2.9328318229733634E-002   6.2792782591657575E-003   5.8364807285240045E-002
  -2.8982459996994572E-002   6.6672164277743404E-003   5.9133887110677408E-002
  -2.8636601764255521E-002   6.9914588477402763E-003   5.9938535654462978E-002
  -2.8290743531516463E-002   7.2520055190635072E-003   6.0778752916596776E-002
  -2.7944885298777401E-002   7.4488564417441727E-003   6.1654538897078781E-002
   4.1355807667287081E-015  -2.7755575615628914E-017   6.4580753117732176E-002
   2.3904489498960402E-015   6.3143934525555778E-016   6.4775913278562414E-002
   6.4705185653934905E-016   1.9637069748057456E-015   6.5088497032696493E-002
  -1.0963452368173421E-015   4.0852737859253807E-015   6.5518504380134485E-002
  -2.8414770536500100E-015   6.8833827526759706E-015   6.6065935320876290E-002
  -6.8548620487931915E-003   1.8622141104360501E-003   6.3787323419434161E-002
  -6.7216007126124069E-003   1.8919445427260789E-003   6.3899228142744777E-002
  -6.5883393764316171E-003   1.8986343154161062E-003   6.4160231945116580E-002
  -6.4550780402508274E-003   1.8822834285062255E-003   6.4570334826549586E-002
  -6.3218167040700428E-003   1.8428918819963780E-003   6.5129536787043835E-002
  -1.3797296948189234E-002   3.7244282208720864E-003   6.3035144483225947E-002
  -1.3499098790068553E-002   3.7838890854515021E-003   6.3040753109416175E-002
  -1.3200900631947883E-002   3.7972686308302799E-003   6.3227136300424994E-002
  -1.2902702473827209E-002   3.7645668570083666E-003   6.3594294056252387E-002
  -1.2604504315706529E-002   3.6857837639857893E-003   6.4142226376898342E-002
  -2.0827304698183960E-002   5.5866423313081295E-003   6.2324216309107498E-002
  -2.0332494232366057E-002   5.6758336281769513E-003   6.2200488178576666E-002
  -1.9837683766548157E-002   5.6959029462444657E-003   6.2289210098621775E-002
  -1.9342873300730250E-002   5.6468502855104661E-003   6.2590382069242764E-002
  -1.8848062834912350E-002   5.5286756459752562E-003   6.3104004090439703E-002
  -2.7944885298777401E-002   7.4488564417441727E-003   6.1654538897078781E-002
  -2.7221787039504924E-002   7.5677781709024075E-003   6.1378433350226219E-002
  -2.6498688780232437E-002   7.5945372616586307E-003   6.1346453339706897E-002
  -2.5775590520959950E-002   7.5291337140126705E-003   6.1558598865520849E-002
  -2.5052492261687466E-002   7.3715675279646953E-003   6.2014869927668026E-002
  -2.8414770536500100E-015   6.8833827526759706E-015   6.6065935320876290E-002
  -5.0653925498522767E-015   1.0130785099704553E-014   6.5731613807298889E-002
  -7.2858385991025898E-015   1.3350431871117507E-014   6.5603287047412501E-002
  -9.5062846483529029E-015   1.6674162051089070E-014   6.5680955041217057E-002
  -1.1730200144555170E-014   1.9984014443252818E-014   6.5964617788712709E-002
  -6.3218167040700428E-003   1.8428918819963780E-003   6.5129536787043835E-002
  -6.1211554251194410E-003   1.7916800309371039E-003   6.4828710916409543E-002
  -5.9204941461688497E-003   1.7398682303790339E-003   6.4723212849989872E-002
  -5.7198328672182514E-003   1.6874564803220794E-003   6.4813042587784808E-002
  -5.5191715882676635E-003   1.6344447807664364E-003   6.5098200129794392E-002
  -1.2604504315706529E-002   3.6857837639857893E-003   6.4142226376898342E-002
  -1.2213848707279505E-002   3.5833600618640632E-003   6.3874296199708219E-002
  -1.1823193098852477E-002   3.4797364607446341E-003   6.3791026877256504E-002
  -1.1432537490425445E-002   3.3749129606275956E-003   6.3892418409542961E-002
  -1.1041881881998412E-002   3.2688895615128888E-003   6.4178470796567688E-002
  -1.8848062834912350E-002   5.5286756459752562E-003   6.3104004090439703E-002
  -1.8278079846485263E-002   5.3750400927910572E-003   6.2868369657195097E-002
  -1.7708096858058173E-002   5.2196046911102759E-003   6.2806729129212396E-002
  -1.7138113869631079E-002   5.0623694409330840E-003   6.2919082506491517E-002
  -1.6568130881203999E-002   4.9033343422593412E-003   6.3205429789032541E-002
  -2.5052492261687466E-002   7.3715675279646953E-003   6.2014869927668026E-002
  -2.4313848842736706E-002   7.1667201237180234E-003   6.1810931288870025E-002
  -2.3575205423785939E-002   6.9594729214759316E-003   6.1770319605857521E-002
  -2.2836562004835168E-002   6.7498259212385760E-003   6.1893034878630501E-002
  -2.2097918585884405E-002   6.5377791230057936E-003   6.2179077107188951E-002
  -1.1730200144555170E-014   1.9984014443252818E-014   6.5964617788712709E-002
  -1.0394463068053028E-014   2.1427304375265521E-014   6.5729730036857864E-002
  -9.0465829272190490E-015   1.9678703111480900E-014   6.5718855217657274E-002
  -7.7065090420269655E-015   1.3940237852949622E-014   6.5931993331110605E-002
  -6.3629657098829284E-015   4.8849813083506888E-015   6.6369144377218137E-002
  -5.5191715882676635E-003   1.6344447807664364E-003   6.5098200129794392E-002
  -5.2949417856805493E-003   1.5785668816257481E-003   6.4857424317559143E-002
  -5.0707119830934264E-003   1.5175565328139004E-003   6.4841095177841424E-002
  -4.8464821805063165E-003   1.4514137343310442E-003   6.5049212710641097E-002
  -4.6222523779191893E-003   1.3801384861769073E-003   6.5481776915958301E-002
  -1.1041881881998412E-002   3.2688895615128888E-003   6.4178470796567688E-002
  -1.0592988536962141E-002   3.1571337632299579E-003   6.3926674474284351E-002
  -1.0144095191925861E-002   3.0351130656083997E-003   6.3899758564381848E-002
  -9.6952018468895781E-003   2.9028274686479817E-003   6.4097723066860263E-002
  -9.2463085018533089E-003   2.7602769723488185E-003   6.4520567981719484E-002
  -1.6568130881203999E-002   4.9033343422593412E-003   6.3205429789032541E-002
  -1.5894140253855178E-002   4.7357006448341954E-003   6.2937480507033530E-002
  -1.5220149626506333E-002   4.5526695984027046E-003   6.2894845377278796E-002
  -1.4546158999157505E-002   4.3542412029648914E-003   6.3077524399768242E-002
  -1.3872168371808663E-002   4.1404154585207575E-003   6.3485517574501993E-002
  -2.2097918585884405E-002   6.5377791230057936E-003   6.2179077107188951E-002
  -2.1198396936359644E-002   6.3142675264384329E-003   6.1889842415806640E-002
  -2.0298875286834859E-002   6.0702261311971623E-003   6.1826355616531992E-002
  -1.9399353637310095E-002   5.8056549372818948E-003   6.1988616709365049E-002
  -1.8499831987785320E-002   5.5205539446926966E-003   6.2376625694305632E-002
  -6.3629657098829284E-015   4.8849813083506888E-015   6.6369144377218137E-002
  -2.3349377986647823E-015  -5.0515147620444623E-015   6.6101445815090976E-002
   1.6965595595053173E-015  -1.2850831510036187E-014   6.5995214133375751E-002
   5.7211180237715098E-015  -1.8866852524723754E-014   6.6050449332072825E-002
   9.7560848288935631E-015  -2.2759572004815709E-014   6.6267151411182001E-002
  -4.6222523779191893E-003   1.3801384861769073E-003   6.5481776915958301E-002
  -4.4541760210560031E-003   1.3068969641816530E-003   6.5219484035252295E-002
  -4.2860996641928030E-003   1.2348553441754728E-003   6.5131876987852527E-002
  -4.1180233073296098E-003   1.1640136261585679E-003   6.5218955773759024E-002
  -3.9499469504664167E-003   1.0943718101306676E-003   6.5480720392971647E-002
  -9.2463085018533089E-003   2.7602769723488185E-003   6.4520567981719484E-002
  -8.8969368352368600E-003   2.6137939283683298E-003   6.4264880684421932E-002
  -8.5475651686204267E-003   2.4697106883641157E-003   6.4197098173324724E-002
  -8.1981935020039830E-003   2.3280272523360547E-003   6.4317220448427803E-002
  -7.8488218353875445E-003   2.1887436202841504E-003   6.4625247509731143E-002
  -1.3872168371808663E-002   4.1404154585207575E-003   6.3485517574501993E-002
  -1.3328282442544921E-002   3.9206908925550205E-003   6.3237635762599970E-002
  -1.2784396513281168E-002   3.7045660325524879E-003   6.3190877689792341E-002
  -1.2240510584017419E-002   3.4920408785134600E-003   6.3345243356078940E-002
  -1.1696624654753678E-002   3.2831154304377164E-003   6.3700732761459961E-002
  -1.8499831987785320E-002   5.5205539446926966E-003   6.2376625694305632E-002
  -1.7748212842980171E-002   5.2275878567416834E-003   6.2137749269786213E-002
  -1.6996593698175032E-002   4.9394213767412071E-003   6.2113215537255156E-002
  -1.6244974553369894E-002   4.6560545046909242E-003   6.2303024496712586E-002
  -1.5493355408564745E-002   4.3774872405910603E-003   6.2707176148158350E-002
   9.7560848288935631E-015  -2.2759572004815709E-014   6.6267151411182001E-002
   4.7704895589362195E-015  -1.6930901125533637E-014   6.6160529085276476E-002
  -2.1163626406917047E-016   5.8009153036664429E-015   6.6378634977489193E-002
  -5.2059051514063981E-015   4.6025683264616646E-014   6.6921469087820096E-002
  -1.0186296250935811E-014   1.0369483049998962E-013   6.7789031416268797E-002
  -3.9499469504664167E-003   1.0943718101306676E-003   6.5480720392971647E-002
  -3.6441806475619679E-003   1.0218671455089756E-003   6.5402745417832892E-002
  -3.3384143446575400E-003   9.4243688171061213E-004   6.5611574830394953E-002
  -3.0326480417531086E-003   8.5608101873533432E-004   6.6107208630657485E-002
  -2.7268817388486563E-003   7.6279955658342669E-004   6.6889646818620974E-002
  -7.8488218353875445E-003   2.1887436202841504E-003   6.4625247509731143E-002
  -7.2752130599910642E-003   2.0437342910350764E-003   6.4568994286164888E-002
  -6.7016042845945761E-003   1.8848737634151874E-003   6.4761621619881957E-002
  -6.1279955091980837E-003   1.7121620374245562E-003   6.5203129510882557E-002
  -5.5543867338015938E-003   1.5255991130632696E-003   6.5893517959166481E-002
  -1.1696624654753678E-002   3.2831154304377164E-003   6.3700732761459961E-002
  -1.0893097237282484E-002   3.0656014365610801E-003   6.3659275690272382E-002
  -1.0089569819811317E-002   2.8273106451197696E-003   6.3828775345950758E-002
  -9.2860424023401677E-003   2.5682430561138215E-003   6.4209231728495478E-002
  -8.4825149848689677E-003   2.2883986695430569E-003   6.4800644837905819E-002
  -1.5493355408564745E-002   4.3774872405910603E-003   6.2707176148158350E-002
  -1.4497833179436252E-002   4.0874685820872503E-003   6.2673589630155513E-002
  -1.3502310950307770E-002   3.7697475268244907E-003   6.2813036008601164E-002
  -1.2506788721179272E-002   3.4243240748030104E-003   6.3125515283495415E-002
  -1.1511266492050795E-002   3.0511982260228443E-003   6.3611027454838487E-002
  -2.6633238525037919E-002   0.0000000000000000        2.9468296305633405E-002
  -2.7234489955030920E-002   5.8586424338794192E-004   3.4946055074931988E-002
  -2.7835741385023930E-002   1.3197685416203673E-003   4.0115626308162122E-002
  -2.8436992815016937E-002   2.2017128946972744E-003   4.4977010005323843E-002
  -2.9038244245009941E-002   3.2316973026186666E-003   4.9530206166417137E-002
  -3.3392583400702440E-002   0.0000000000000000        3.0178628654540438E-002
  -3.4236787576911287E-002   9.6047108985272342E-004   3.5267080537562716E-002
  -3.5080991753120142E-002   2.0242433957141674E-003   4.0177814464221737E-002
  -3.5925195929328996E-002   3.1913169175843362E-003   4.4910830434517490E-002
  -3.6769400105537843E-002   4.4616916554632274E-003   4.9466128448449970E-002
  -4.0732140587922440E-002   0.0000000000000000        3.1285937269330127E-002
  -4.1688827930641978E-002   1.3350779363175054E-003   3.5940343427240354E-002
  -4.2645515273361509E-002   2.7287182498079684E-003   4.0547501208492473E-002
  -4.3602202616081040E-002   4.1809209404713955E-003   4.5107410613086499E-002
  -4.4558889958800578E-002   5.6916860083077872E-003   4.9620071641022417E-002
  -4.8651910086697926E-002   0.0000000000000000        3.2790222150002483E-002
  -4.9590611016222967E-002   1.7096847827822858E-003   3.6965843743964881E-002
  -5.0529311945748022E-002   3.4331931039017706E-003   4.1224686540974366E-002
  -5.1468012875273084E-002   5.1705249633584600E-003   4.5566750541030897E-002
  -5.2406713804798125E-002   6.9216803611523402E-003   4.9992035744134501E-002
  -5.7151891897028878E-002   0.0000000000000000        3.4691483296557496E-002
  -5.7942136833654290E-002   2.0842916292470670E-003   3.8343581487736325E-002
  -5.8732381770279687E-002   4.1376679579955694E-003   4.2209370461667388E-002
  -5.9522626706905106E-002   6.1601289862455166E-003   4.6288850218350663E-002
  -6.0312871643530518E-002   8.1516747139969096E-003   5.0582020757786179E-002
  -2.9038244245009941E-002   3.2316973026186666E-003   4.9530206166417137E-002
  -2.9110762741190864E-002   4.2501744389105839E-003   5.1589476334294795E-002
  -2.9183281237371787E-002   5.0975969770990746E-003   5.3748333243391150E-002
  -2.9255799733552707E-002   5.7739649171840912E-003   5.6006776893706235E-002
  -2.9328318229733634E-002   6.2792782591657575E-003   5.8364807285240045E-002
  -3.6769400105537843E-002   4.4616916554632274E-003   4.9466128448449970E-002
  -3.6781400737773182E-002   5.6952855802940312E-003   5.1254037026215511E-002
  -3.6793401370008520E-002   6.7520166630199423E-003   5.3063394590653498E-002
  -3.6805402002243859E-002   7.6318849036409583E-003   5.4894201141763958E-002
  -3.6817402634479197E-002   8.3348903021571025E-003   5.6746456679546829E-002
  -4.4558889958800578E-002   5.6916860083077872E-003   4.9620071641022417E-002
  -4.4588510481636583E-002   7.1403967216774750E-003   5.1130810384674388E-002
  -4.4618131004472587E-002   8.4064363489408222E-003   5.2584860360452547E-002
  -4.4647751527308606E-002   9.4898048900977881E-003   5.3982221568356879E-002
  -4.4677372050144604E-002   1.0390502345148413E-002   5.5322894008387427E-002
  -5.2406713804798125E-002   6.9216803611523402E-003   4.9992035744134501E-002
  -5.2532091972781067E-002   8.5855078630609136E-003   5.1219796409671392E-002
  -5.2657470140764016E-002   1.0060856034861683E-002   5.2312730552788247E-002
  -5.2782848308746966E-002   1.1347724876554643E-002   5.3270838173485040E-002
  -5.2908226476729908E-002   1.2446114388139747E-002   5.4094119271761755E-002
  -6.0312871643530518E-002   8.1516747139969096E-003   5.0582020757786179E-002
  -6.0612145211206642E-002   1.0030619004444361E-002   5.1520995101206585E-002
  -6.0911418778882787E-002   1.1715275720782559E-002   5.2247005167660683E-002
  -6.1210692346558918E-002   1.3205644863011458E-002   5.2760050957148426E-002
  -6.1509965914235069E-002   1.4501726431131075E-002   5.3060132469669875E-002
  -2.9328318229733634E-002   6.2792782591657575E-003   5.8364807285240045E-002
  -2.8982459996994572E-002   6.6672164277743404E-003   5.9133887110677408E-002
  -2.8636601764255521E-002   6.9914588477402763E-003   5.9938535654462978E-002
  -2.8290743531516463E-002   7.2520055190635072E-003   6.0778752916596776E-002
  -2.7944885298777401E-002   7.4488564417441727E-003   6.1654538897078781E-002
  -3.6817402634479197E-002   8.3348903021571025E-003   5.6746456679546829E-002
  -3.6384023250733435E-002   8.8770053954896795E-003   5.7092297168270439E-002
  -3.5950643866987667E-002   9.2742027205601797E-003   5.7577611240659257E-002
  -3.5517264483241912E-002   9.5264822773685025E-003   5.8202398896713227E-002
  -3.5083885099496150E-002   9.6338440659147206E-003   5.8966660136432446E-002
  -4.4677372050144604E-002   1.0390502345148413E-002   5.5322894008387427E-002
  -4.4052566650075162E-002   1.1086794363205043E-002   5.5164273140777778E-002
  -4.3427761250005713E-002   1.1556946593380081E-002   5.5249030722150323E-002
  -4.2802955849936257E-002   1.1800959035673457E-002   5.5577166752505028E-002
  -4.2178150449866808E-002   1.1818831690085227E-002   5.6148681231841933E-002
  -5.2908226476729908E-002   1.2446114388139747E-002   5.4094119271761755E-002
  -5.1988090195019765E-002   1.3296583330920408E-002   5.3349815028199354E-002
  -5.1067953913309636E-002   1.3839690466199983E-002   5.2952794098936162E-002
  -5.0147817631599513E-002   1.4075435793978405E-002   5.2903056483972109E-002
  -4.9227681349889370E-002   1.4003819314255740E-002   5.3200602183307300E-002
  -6.1509965914235069E-002   1.4501726431131075E-002   5.3060132469669875E-002
  -6.0190593885567266E-002   1.5506372298635752E-002   5.1648922830535272E-002
  -5.8871221856899456E-002   1.6122434339019845E-002   5.0688901371016837E-002
  -5.7551849828231666E-002   1.6349912552283383E-002   5.0180068091114555E-002
  -5.6232477799563849E-002   1.6188806938426309E-002   5.0122422990828391E-002
  -2.7944885298777401E-002   7.4488564417441727E-003   6.1654538897078781E-002
  -2.7221787039504924E-002   7.5677781709024075E-003   6.1378433350226219E-002
  -2.6498688780232437E-002   7.5945372616586307E-003   6.1346453339706897E-002
  -2.5775590520959950E-002   7.5291337140126705E-003   6.1558598865520849E-002
  -2.5052492261687466E-002   7.3715675279646953E-003   6.2014869927668026E-002
  -3.5083885099496150E-002   9.6338440659147206E-003   5.8966660136432446E-002
  -3.4128561375770861E-002   9.6357469543379079E-003   5.8644307632854560E-002
  -3.3173237652045579E-002   9.5716498107772247E-003   5.8542280521849011E-002
  -3.2217913928320289E-002   9.4415526352327438E-003   5.8660578803415811E-002
  -3.1262590204595021E-002   9.2454554277044410E-003   5.8999202477554968E-002
  -4.2178150449866808E-002   1.1818831690085227E-002   5.6148681231841933E-002
  -4.1014401405449617E-002   1.1703715737773391E-002   5.5806244377956962E-002
  -3.9850652361032426E-002   1.1548762359895898E-002   5.5660332772883389E-002
  -3.8686903316615243E-002   1.1353971556452829E-002   5.5710946416621304E-002
  -3.7523154272198066E-002   1.1119343327444103E-002   5.5958085309170638E-002
  -4.9227681349889370E-002   1.4003819314255740E-002   5.3200602183307300E-002
  -4.7879307128541188E-002   1.3771684521208869E-002   5.2864243585533405E-002
  -4.6530932907193019E-002   1.3525874909014588E-002   5.2700610092810088E-002
  -4.5182558685844830E-002   1.3266390477672854E-002   5.2709701705137321E-002
  -4.3834184464496662E-002   1.2993231227183794E-002   5.2891518422515049E-002
  -5.6232477799563849E-002   1.6188806938426309E-002   5.0122422990828391E-002
  -5.4723278545045592E-002   1.5839653304644388E-002   4.9818305255583922E-002
  -5.3214079290527301E-002   1.5502987458133159E-002   4.9663112481629038E-002
  -5.1704880036009038E-002   1.5178809398893016E-002   4.9656844668963869E-002
  -5.0195680781490754E-002   1.4867119126923511E-002   4.9799501817588271E-002
  -2.5052492261687466E-002   7.3715675279646953E-003   6.2014869927668026E-002
  -2.4313848842736706E-002   7.1667201237180234E-003   6.1810931288870025E-002
  -2.3575205423785939E-002   6.9594729214759316E-003   6.1770319605857521E-002
  -2.2836562004835168E-002   6.7498259212385760E-003   6.1893034878630501E-002
  -2.2097918585884405E-002   6.5377791230057936E-003   6.2179077107188951E-002
  -3.1262590204595021E-002   9.2454554277044410E-003   5.8999202477554968E-002
  -3.0352882537096143E-002   9.0082912655849445E-003   5.8743268169227231E-002
  -2.9443174869597282E-002   8.7549932262672853E-003   5.8666135402210190E-002
  -2.8533467202098411E-002   8.4855613097513417E-003   5.8767804176503867E-002
  -2.7623759534599539E-002   8.1999955160370619E-003   5.9048274492108282E-002
  -3.7523154272198066E-002   1.1119343327444103E-002   5.5958085309170638E-002
  -3.6426907770625877E-002   1.0849862407451963E-002   5.5636421252110310E-002
  -3.5330661269053695E-002   1.0550513531058632E-002   5.5509033321885802E-002
  -3.4234414767481514E-002   1.0221296698264134E-002   5.5575921518497190E-002
  -3.3138168265909360E-002   9.8622119090683302E-003   5.5837085841944689E-002
  -4.3834184464496662E-002   1.2993231227183794E-002   5.2891518422515049E-002
  -4.2535924543325922E-002   1.2691433549318946E-002   5.2490390537519097E-002
  -4.1237664622155230E-002   1.2346033835850010E-002   5.2299013364884232E-002
  -3.9939404700984504E-002   1.1957032086776911E-002   5.2317386904610526E-002
  -3.8641144779813764E-002   1.1524428302099654E-002   5.2545511156698005E-002
  -5.0195680781490754E-002   1.4867119126923511E-002   4.9799501817588271E-002
  -4.8679932855196277E-002   1.4533004691185916E-002   4.9305176025453756E-002
  -4.7164184928901814E-002   1.4141554140641374E-002   4.9036075531205620E-002
  -4.5648437002607352E-002   1.3692767475289729E-002   4.8992200334843902E-002
  -4.4132689076312862E-002   1.3186644695130867E-002   4.9173550436368452E-002
  -2.2097918585884405E-002   6.5377791230057936E-003   6.2179077107188951E-002
  -2.1198396936359644E-002   6.3142675264384329E-003   6.1889842415806640E-002
  -2.0298875286834859E-002   6.0702261311971623E-003   6.1826355616531992E-002
  -1.9399353637310095E-002   5.8056549372818948E-003   6.1988616709365049E-002
  -1.8499831987785320E-002   5.5205539446926966E-003   6.2376625694305632E-002
  -2.7623759534599539E-002   8.1999955160370619E-003   5.9048274492108282E-002
  -2.6501872720402483E-002   7.9004004334806976E-003   5.8750862041115959E-002
  -2.5379985906205382E-002   7.5888806504382234E-003   5.8672432027360694E-002
  -2.4258099092008292E-002   7.2654361669095141E-003   5.8812984450842404E-002
  -2.3136212277811222E-002   6.9300669828947226E-003   5.9172519311561061E-002
  -3.3138168265909360E-002   9.8622119090683302E-003   5.5837085841944689E-002
  -3.1800681741910621E-002   9.4865333405228791E-003   5.5540100729530265E-002
  -3.0463195217911868E-002   9.1075351696791249E-003   5.5455332599482134E-002
  -2.9125708693913115E-002   8.7252173965371351E-003   5.5582781451800345E-002
  -2.7788222169914376E-002   8.3395800210968873E-003   5.5922447286484947E-002
  -3.8641144779813764E-002   1.1524428302099654E-002   5.2545511156698005E-002
  -3.7094824000884034E-002   1.1072666247565185E-002   5.2257558481049307E-002
  -3.5548503221954283E-002   1.0626189688920189E-002   5.2175057332896249E-002
  -3.4002182443024533E-002   1.0184998626164701E-002   5.2298007712238859E-002
  -3.2455861664094789E-002   9.7490930592990382E-003   5.2626409619077177E-002
  -4.4132689076312862E-002   1.3186644695130867E-002   4.9173550436368452E-002
  -4.2384299497322780E-002   1.2658799154607353E-002   4.8903235295673309E-002
  -4.0635909918332665E-002   1.2144844208161087E-002   4.8831606227603019E-002
  -3.8887520339342563E-002   1.1644779855792403E-002   4.8958663232157987E-002
  -3.7139130760352468E-002   1.1158606097501134E-002   4.9284406309337780E-002
  -1.8499831987785320E-002   5.5205539446926966E-003   6.2376625694305632E-002
  -1.7748212842980171E-002   5.2275878567416834E-003   6.2137749269786213E-002
  -1.6996593698175032E-002   4.9394213767412071E-003   6.2113215537255156E-002
  -1.6244974553369894E-002   4.6560545046909242E-003   6.2303024496712586E-002
  -1.5493355408564745E-002   4.3774872405910603E-003   6.2707176148158350E-002
  -2.3136212277811222E-002   6.9300669828947226E-003   5.9172519311561061E-002
  -2.2179593689336842E-002   6.5868136723290227E-003   5.8909148064312411E-002
  -2.1222975100862462E-002   6.2397168091474359E-003   5.8841433012413777E-002
  -2.0266356512388096E-002   5.8887763933497990E-003   5.8969374155865235E-002
  -1.9309737923913706E-002   5.5339924249362404E-003   5.9292971494666669E-002
  -2.7788222169914376E-002   8.3395800210968873E-003   5.5922447286484947E-002
  -2.6645290634409138E-002   7.9460394879163204E-003   5.5625938055940821E-002
  -2.5502359098903922E-002   7.5400122415537132E-003   5.5506398524108193E-002
  -2.4359427563398702E-002   7.1214982820085610E-003   5.5563828690987388E-002
  -2.3216496027893468E-002   6.6904976092814206E-003   5.5798228556578178E-002
  -3.2455861664094789E-002   9.7490930592990382E-003   5.2626409619077177E-002
  -3.1145303678197105E-002   9.3052653035038055E-003   5.2288119244671152E-002
  -2.9834745692299391E-002   8.8403076739599663E-003   5.2108112072338370E-002
  -2.8524187706401694E-002   8.3542201706674341E-003   5.2086388102079016E-002
  -2.7213629720503993E-002   7.8470027936267117E-003   5.2222947333892718E-002
  -3.7139130760352468E-002   1.1158606097501134E-002   4.9284406309337780E-002
  -3.5679632820700663E-002   1.0664491119090930E-002   4.8895691630503557E-002
  -3.4220134881048900E-002   1.0140603106366192E-002   4.8646573657104453E-002
  -3.2760636941397102E-002   9.5869420593262186E-003   4.8537052389140023E-002
  -3.1301139001745318E-002   9.0035079779717253E-003   4.8567127826610490E-002
  -1.5493355408564745E-002   4.3774872405910603E-003   6.2707176148158350E-002
  -1.4497833179436252E-002   4.0874685820872503E-003   6.2673589630155513E-002
  -1.3502310950307770E-002   3.7697475268244907E-003   6.2813036008601164E-002
  -1.2506788721179272E-002   3.4243240748030104E-003   6.3125515283495415E-002
  -1.1511266492050795E-002   3.0511982260228443E-003   6.3611027454838487E-002
  -1.9309737923913706E-002   5.5339924249362404E-003   5.9292971494666669E-002
  -1.8128618371588578E-002   5.1691463400415916E-003   5.9159582276228390E-002
  -1.6947498819263419E-002   4.7880195748001841E-003   5.9224354807734692E-002
  -1.5766379266938264E-002   4.3906121292120875E-003   5.9487289089185699E-002
  -1.4585259714613164E-002   3.9769240032774267E-003   5.9948385120581316E-002
  -2.3216496027893468E-002   6.6904976092814206E-003   5.5798228556578178E-002
  -2.1824650298875641E-002   6.2508240979960161E-003   5.5576458354116620E-002
  -2.0432804569857813E-002   5.8062916227758637E-003   5.5577978755095528E-002
  -1.9040958840839960E-002   5.3569001836213000E-003   5.5802789759515324E-002
  -1.7649113111822122E-002   4.9026497805321201E-003   5.6250891367375710E-002
  -2.7213629720503993E-002   7.8470027936267117E-003   5.2222947333892718E-002
  -2.5585928961297452E-002   7.3325018559502880E-003   5.1924217863819885E-002
  -2.3958228202090880E-002   6.8245636707516613E-003   5.1873907850683840E-002
  -2.2330527442884281E-002   6.3231882380304447E-003   5.2072017294484102E-002
  -2.0702826683677795E-002   5.8283755577868135E-003   5.2518546195221852E-002
  -3.1301139001745318E-002   9.0035079779717253E-003   4.8567127826610490E-002
  -2.9412454358854007E-002   8.4141796139047265E-003   4.8202860805338532E-002
  -2.7523769715962661E-002   7.8428357187272785E-003   4.8112142094499349E-002
  -2.5635085073071332E-002   7.2894762924395444E-003   4.8294971694092872E-002
  -2.3746400430180004E-002   6.7541013350413959E-003   4.8751349604119198E-002
  -5.7151891897028878E-002   0.0000000000000000        3.4691483296557496E-002
  -5.7942136833654290E-002   2.0842916292470670E-003   3.8343581487736325E-002
  -5.8732381770279687E-002   4.1376679579955694E-003   4.2209370461667388E-002
  -5.9522626706905106E-002   6.1601289862455166E-003   4.6288850218350663E-002
  -6.0312871643530518E-002   8.1516747139969096E-003   5.0582020757786179E-002
  -6.5820079920490479E-002   0.0000000000000000        3.7212877241827313E-002
  -6.6625698855291765E-002   2.9142639910381312E-003   4.0835478267117808E-002
  -6.7431317790093051E-002   5.7709787420659455E-003   4.4213640513304321E-002
  -6.8236936724894323E-002   8.5701442530834431E-003   4.7347363980386845E-002
  -6.9042555659695609E-002   1.1311760524090627E-002   5.0236648668365406E-002
  -7.4244468058657878E-002   0.0000000000000000        4.0577560518644078E-002
  -7.5523590553491241E-002   3.7442363528291940E-003   4.4144030438534460E-002
  -7.6802713048324603E-002   7.4042895261363156E-003   4.7007932017464685E-002
  -7.8081835543157979E-002   1.0980159519921366E-002   4.9169265255434705E-002
  -7.9360958037991328E-002   1.4471846334184347E-002   5.0628030152444554E-002
  -8.2425056311531075E-002   0.0000000000000000        4.4785533127007782E-002
  -8.4635811928252730E-002   4.5742087146202568E-003   4.8269238001986320E-002
  -8.6846567544974398E-002   9.0376003102066865E-003   5.0592244974148465E-002
  -8.9057323161696025E-002   1.3390174786759296E-002   5.1754554043494244E-002
  -9.1268078778417680E-002   1.7631932144278068E-002   5.1756165210023616E-002
  -9.0361844679110084E-002   0.0000000000000000        4.9836795066918418E-002
  -9.3962362979576219E-002   5.4041810764113209E-003   5.3211100957473348E-002
  -9.7562881280042354E-002   1.0670911094277060E-002   5.4966579383355696E-002
 -0.10116339958050850        1.5800190053597212E-002   5.5103230344565442E-002
 -0.10476391788097462        2.0792017954371789E-002   5.3621053841102606E-002
  -6.0312871643530518E-002   8.1516747139969096E-003   5.0582020757786179E-002
  -6.0612145211206642E-002   1.0030619004444361E-002   5.1520995101206585E-002
  -6.0911418778882787E-002   1.1715275720782559E-002   5.2247005167660683E-002
  -6.1210692346558918E-002   1.3205644863011458E-002   5.2760050957148426E-002
  -6.1509965914235069E-002   1.4501726431131075E-002   5.3060132469669875E-002
  -6.9042555659695609E-002   1.1311760524090627E-002   5.0236648668365406E-002
  -6.9316874326523253E-002   1.3756327695353104E-002   4.9459405560675823E-002
  -6.9591192993350898E-002   1.5664345907136477E-002   4.8945036531649569E-002
  -6.9865511660178528E-002   1.7035815159440765E-002   4.8693541581286630E-002
  -7.0139830327006172E-002   1.7870735452265966E-002   4.8704920709586992E-002
  -7.9360958037991328E-002   1.4471846334184347E-002   5.0628030152444554E-002
  -7.9134483448340828E-002   1.7482036386261845E-002   4.7792308208275160E-002
  -7.8908008858690315E-002   1.9613416093490415E-002   4.5695298698398744E-002
  -7.8681534269039843E-002   2.0865985455870081E-002   4.4337001622815293E-002
  -7.8455059679389330E-002   2.1239744473400841E-002   4.3717416981524787E-002
  -9.1268078778417680E-002   1.7631932144278068E-002   5.1756165210023616E-002
  -9.0064972576659408E-002   2.1207745077170589E-002   4.6519703044004622E-002
  -8.8861866374901122E-002   2.3562486279844360E-002   4.2497791667908229E-002
  -8.7658760173142808E-002   2.4696155752299383E-002   3.9690431081734451E-002
  -8.6455653971384536E-002   2.4608753494535708E-002   3.8097621285483295E-002
 -0.10476391788097462        2.0792017954371789E-002   5.3621053841102606E-002
 -0.10210834171147892        2.4933453768079327E-002   4.5641590067864168E-002
  -9.9452765541983221E-002   2.7511556466198260E-002   3.9352515440178017E-002
  -9.6797189372487477E-002   2.8526326048728703E-002   3.4753829958044068E-002
  -9.4141613202991775E-002   2.7977762515670600E-002   3.1845533621462370E-002
  -6.1509965914235069E-002   1.4501726431131075E-002   5.3060132469669875E-002
  -6.0190593885567266E-002   1.5506372298635752E-002   5.1648922830535272E-002
  -5.8871221856899456E-002   1.6122434339019845E-002   5.0688901371016837E-002
  -5.7551849828231666E-002   1.6349912552283383E-002   5.0180068091114555E-002
  -5.6232477799563849E-002   1.6188806938426309E-002   5.0122422990828391E-002
  -7.0139830327006172E-002   1.7870735452265966E-002   4.8704920709586992E-002
  -6.8415720136134450E-002   1.8325875870867828E-002   4.7256098805383992E-002
  -6.6691609945262756E-002   1.8558005500502031E-002   4.6165565045972634E-002
  -6.4967499754391089E-002   1.8567124341168712E-002   4.5433319431352898E-002
  -6.3243389563519353E-002   1.8353232392867735E-002   4.5059361961524783E-002
  -7.8455059679389330E-002   2.1239744473400841E-002   4.3717416981524787E-002
  -7.6419111361138242E-002   2.1145379443099844E-002   4.2396555850406352E-002
  -7.4383163042887182E-002   2.0993576661984238E-002   4.1341082829255076E-002
  -7.2347214724636080E-002   2.0784336130054027E-002   4.0550997918070875E-002
  -7.0311266406385034E-002   2.0517657847309204E-002   4.0026301116853784E-002
  -8.6455653971384536E-002   2.4608753494535708E-002   3.8097621285483295E-002
  -8.4200767560578621E-002   2.3964883015331895E-002   3.7070293965602442E-002
  -8.1945881149772651E-002   2.3429147823466435E-002   3.6215454720864133E-002
  -7.9690994738966750E-002   2.3001547918939359E-002   3.5533103551268548E-002
  -7.7436108328160766E-002   2.2682083301750623E-002   3.5023240456815423E-002
  -9.4141613202991775E-002   2.7977762515670600E-002   3.1845533621462370E-002
  -9.1760688734455545E-002   2.6784386587563932E-002   3.1277313150972090E-002
  -8.9379764265919245E-002   2.5864718984948604E-002   3.0788680720799860E-002
  -8.6998839797382974E-002   2.5218759707824688E-002   3.0379636330945689E-002
  -8.4617915328846716E-002   2.4846508756192112E-002   3.0050179981409700E-002
  -5.6232477799563849E-002   1.6188806938426309E-002   5.0122422990828391E-002
  -5.4723278545045592E-002   1.5839653304644388E-002   4.9818305255583922E-002
  -5.3214079290527301E-002   1.5502987458133159E-002   4.9663112481629038E-002
  -5.1704880036009038E-002   1.5178809398893016E-002   4.9656844668963869E-002
  -5.0195680781490754E-002   1.4867119126923511E-002   4.9799501817588271E-002
  -6.3243389563519353E-002   1.8353232392867735E-002   4.5059361961524783E-002
  -6.1565846542602380E-002   1.8013125809213000E-002   4.4709232605244627E-002
  -5.9888303521685414E-002   1.7643600743818176E-002   4.4546865820472216E-002
  -5.8210760500768483E-002   1.7244657196683465E-002   4.4572261607207536E-002
  -5.6533217479851475E-002   1.6816295167808581E-002   4.4785419965450671E-002
  -7.0311266406385034E-002   2.0517657847309204E-002   4.0026301116853784E-002
  -6.8426542008851232E-002   2.0186598313781647E-002   3.9588253870527078E-002
  -6.6541817611317458E-002   1.9784214029503169E-002   3.9376806805926284E-002
  -6.4657093213783698E-002   1.9310504994473884E-002   3.9391959923051292E-002
  -6.2772368816249924E-002   1.8765471208693707E-002   3.9633713221902220E-002
  -7.7436108328160766E-002   2.2682083301750623E-002   3.5023240456815423E-002
  -7.5305364943792100E-002   2.2360070818350276E-002   3.4455369051431387E-002
  -7.3174621559423406E-002   2.1924827315188189E-002   3.4152935437991278E-002
  -7.1043878175054698E-002   2.1376352792264318E-002   3.4115939616495131E-002
  -6.8913134790686045E-002   2.0714647249578791E-002   3.4344381586943015E-002
  -8.4617915328846716E-002   2.4846508756192112E-002   3.0050179981409700E-002
  -8.2202315347425003E-002   2.4533543322918905E-002   2.9310578147957345E-002
  -7.9786715366003277E-002   2.4065440600873168E-002   2.8875251716667168E-002
  -7.7371115384581579E-002   2.3442200590054887E-002   2.8744200687539006E-002
  -7.4955515403159839E-002   2.2663823290463903E-002   2.8917425060572960E-002
  -5.0195680781490754E-002   1.4867119126923511E-002   4.9799501817588271E-002
  -4.8679932855196277E-002   1.4533004691185916E-002   4.9305176025453756E-002
  -4.7164184928901814E-002   1.4141554140641374E-002   4.9036075531205620E-002
  -4.5648437002607352E-002   1.3692767475289729E-002   4.8992200334843902E-002
  -4.4132689076312862E-002   1.3186644695130867E-002   4.9173550436368452E-002
  -5.6533217479851475E-002   1.6816295167808581E-002   4.4785419965450671E-002
  -5.4802984677709651E-002   1.6358603541338779E-002   4.4335450699110879E-002
  -5.3072751875567835E-002   1.5871671201418969E-002   4.4089225886579451E-002
  -5.1342519073426032E-002   1.5355498148049138E-002   4.4046745527856354E-002
  -4.9612286271284195E-002   1.4810084381229438E-002   4.4208009622941552E-002
  -6.2772368816249924E-002   1.8765471208693707E-002   3.9633713221902220E-002
  -6.0849131982338787E-002   1.8184202391491606E-002   3.9256195882714284E-002
  -5.8925895148427651E-002   1.7601788262196681E-002   3.9060942153256693E-002
  -5.7002658314516487E-002   1.7018228820808744E-002   3.9047952033529357E-002
  -5.5079421480605392E-002   1.6433524067327954E-002   3.9217225523532295E-002
  -6.8913134790686045E-002   2.0714647249578791E-002   3.4344381586943015E-002
  -6.6818374769083616E-002   2.0009801241644479E-002   3.4067411576263973E-002
  -6.4723614747481242E-002   1.9331905322974335E-002   3.3951224331237199E-002
  -6.2628854725878855E-002   1.8680959493568360E-002   3.3995819851862681E-002
  -6.0534094704276391E-002   1.8056963753426553E-002   3.4201198138140335E-002
  -7.4955515403159839E-002   2.2663823290463903E-002   2.8917425060572960E-002
  -7.2710713037944213E-002   2.1835400091797227E-002   2.8769097779759945E-002
  -7.0465910672728602E-002   2.1062022383752002E-002   2.8760072420521143E-002
  -6.8221108307512990E-002   2.0343690166327772E-002   2.8890348982856515E-002
  -6.5976305942297336E-002   1.9680403439524985E-002   2.9159927466766100E-002
  -4.4132689076312862E-002   1.3186644695130867E-002   4.9173550436368452E-002
  -4.2384299497322780E-002   1.2658799154607353E-002   4.8903235295673309E-002
  -4.0635909918332665E-002   1.2144844208161087E-002   4.8831606227603019E-002
  -3.8887520339342563E-002   1.1644779855792403E-002   4.8958663232157987E-002
  -3.7139130760352468E-002   1.1158606097501134E-002   4.9284406309337780E-002
  -4.9612286271284195E-002   1.4810084381229438E-002   4.4208009622941552E-002
  -4.7664601953296006E-002   1.4250995424717833E-002   4.3958655598341473E-002
  -4.5716917635307830E-002   1.3693796802272701E-002   4.3909204979112521E-002
  -4.3769233317319627E-002   1.3138488513893896E-002   4.4059657765254841E-002
  -4.1821548999331458E-002   1.2585070559581357E-002   4.4410013956768218E-002
  -5.5079421480605392E-002   1.6433524067327954E-002   3.9217225523532295E-002
  -5.2931225090872974E-002   1.5843191694828410E-002   3.8976832355016255E-002
  -5.0783028701140522E-002   1.5242749396384203E-002   3.8937559924617560E-002
  -4.8634832311408090E-002   1.4632197171995279E-002   3.9099408232336132E-002
  -4.6486635921675651E-002   1.4011535021661775E-002   3.9462377278172062E-002
  -6.0534094704276391E-002   1.8056963753426553E-002   3.4201198138140335E-002
  -5.8184168910053659E-002   1.7435387964938993E-002   3.3957765565697531E-002
  -5.5834243115830837E-002   1.6791701990495650E-002   3.3916671064117929E-002
  -5.3484317321608035E-002   1.6125905830096772E-002   3.4077914633401936E-002
  -5.1134391527385283E-002   1.5437999483742179E-002   3.4441496273549234E-002
  -6.5976305942297336E-002   1.9680403439524985E-002   2.9159927466766100E-002
  -6.3423433410838032E-002   1.9027584235049438E-002   2.8901455230385259E-002
  -6.0870560879378727E-002   1.8340654584607319E-002   2.8846538397613836E-002
  -5.8317688347919422E-002   1.7619614488198238E-002   2.8995176968452080E-002
  -5.5764815816460117E-002   1.6864463945822472E-002   2.9347370942899853E-002
  -3.7139130760352468E-002   1.1158606097501134E-002   4.9284406309337780E-002
  -3.5679632820700663E-002   1.0664491119090930E-002   4.8895691630503557E-002
  -3.4220134881048900E-002   1.0140603106366192E-002   4.8646573657104453E-002
  -3.2760636941397102E-002   9.5869420593262186E-003   4.8537052389140023E-002
  -3.1301139001745318E-002   9.0035079779717253E-003   4.8567127826610490E-002
  -4.1821548999331458E-002   1.2585070559581357E-002   4.4410013956768218E-002
  -4.0217999115923352E-002   1.2024823388050387E-002   4.4020424931480950E-002
  -3.8614449232515280E-002   1.1449027448016069E-002   4.3779343088271541E-002
  -3.7010899349107174E-002   1.0857682739478000E-002   4.3686768427139679E-002
  -3.5407349465699081E-002   1.0250789262436610E-002   4.3742700948085578E-002
  -4.6486635921675651E-002   1.4011535021661775E-002   3.9462377278172062E-002
  -4.4730123617868510E-002   1.3385155657009914E-002   3.9086138172243073E-002
  -4.2973611314061334E-002   1.2757451789665905E-002   3.8867316725034698E-002
  -4.1217099010254131E-002   1.2128423419629841E-002   3.8805912936546637E-002
  -3.9460586706447018E-002   1.1498070546901634E-002   3.8901926806779299E-002
  -5.1134391527385283E-002   1.5437999483742179E-002   3.4441496273549234E-002
  -4.9216006326536207E-002   1.4745487925969462E-002   3.4092831352790003E-002
  -4.7297621125687167E-002   1.4065876131315762E-002   3.3910494567394117E-002
  -4.5379235924838113E-002   1.3399164099781596E-002   3.3894485917361369E-002
  -4.3460850723989058E-002   1.2745351831366589E-002   3.4044805402692085E-002
  -5.5764815816460117E-002   1.6864463945822472E-002   2.9347370942899853E-002
  -5.3675647241926416E-002   1.6105820194928899E-002   2.9040504473121675E-002
  -5.1586478667392716E-002   1.5374300472965660E-002   2.8908876615349549E-002
  -4.9497310092858959E-002   1.4669904779933390E-002   2.8952487369583543E-002
  -4.7408141518325314E-002   1.3992633115831432E-002   2.9171336735823505E-002
  -3.1301139001745318E-002   9.0035079779717253E-003   4.8567127826610490E-002
  -2.9412454358854007E-002   8.4141796139047265E-003   4.8202860805338532E-002
  -2.7523769715962661E-002   7.8428357187272785E-003   4.8112142094499349E-002
  -2.5635085073071332E-002   7.2894762924395444E-003   4.8294971694092872E-002
  -2.3746400430180004E-002   6.7541013350413959E-003   4.8751349604119198E-002
  -3.5407349465699081E-002   1.0250789262436610E-002   4.3742700948085578E-002
  -3.3265910281798886E-002   9.6363294189878157E-003   4.3419813632884413E-002
  -3.1124471097898607E-002   9.0222856112271710E-003   4.3328887089268325E-002
  -2.8983031913998376E-002   8.4086578391549746E-003   4.3469921317237356E-002
  -2.6841592730098146E-002   7.7954461027708311E-003   4.3842916316791269E-002
  -3.9460586706447018E-002   1.1498070546901634E-002   3.8901926806779299E-002
  -3.7107980520385650E-002   1.0858479224070877E-002   3.8602850764447888E-002
  -3.4755374334324261E-002   1.0201735503727070E-002   3.8494147954853723E-002
  -3.2402768148262859E-002   9.5278393858702955E-003   3.8575818377996673E-002
  -3.0050161962201449E-002   8.8367908705003773E-003   3.8847862033877301E-002
  -4.3460850723989058E-002   1.2745351831366589E-002   3.4044805402692085E-002
  -4.0938665074614272E-002   1.2080629029153897E-002   3.3751972200028707E-002
  -3.8416479425239514E-002   1.1381185396226911E-002   3.3607924691255162E-002
  -3.5894293775864672E-002   1.0647020932585561E-002   3.3612662876371130E-002
  -3.3372108126489858E-002   9.8781356382298124E-003   3.3766186755376182E-002
  -4.7408141518325314E-002   1.3992633115831432E-002   2.9171336735823505E-002
  -4.4757963944484863E-002   1.3302778834237139E-002   2.8867177939627120E-002
  -4.2107786370644398E-002   1.2560635288726946E-002   2.8670217298472633E-002
  -3.9457608796803913E-002   1.1766202479301095E-002   2.8580454812359879E-002
  -3.6807431222963538E-002   1.0919480405959359E-002   2.8597890481289134E-002
  -9.0361844679110084E-002   0.0000000000000000        4.9836795066918418E-002
  -9.3962362979576219E-002   5.4041810764113209E-003   5.3211100957473348E-002
  -9.7562881280042354E-002   1.0670911094277060E-002   5.4966579383355696E-002
 -0.10116339958050850        1.5800190053597212E-002   5.5103230344565442E-002
 -0.10476391788097462        2.0792017954371789E-002   5.3621053841102606E-002
 -0.10329323738427557        0.0000000000000000        5.8664795278314481E-002
 -0.10683098677972673        1.0884688710542998E-002   5.2120558342252002E-002
 -0.11036873617517791        1.9172567207955946E-002   4.7320686680892073E-002
 -0.11390648557062907        2.4863635492238845E-002   4.4265180294234666E-002
 -0.11744423496608024        2.7957893563391702E-002   4.2954039182279788E-002
 -0.12645763864990819        0.0000000000000000        7.4202982701134457E-002
 -0.12656942640096927        1.6365196344674673E-002   5.5280843783870111E-002
 -0.12668121415203035        2.7674223321634828E-002   4.1466262880683426E-002
 -0.12679300190309140        3.3927080930880468E-002   3.2759239991574408E-002
 -0.12690478965415247        3.5123769172411584E-002   2.9159775116543073E-002
 -0.15985504847600801        0.0000000000000000        9.6451357335378324E-002
 -0.15317768184330385        2.1845703978806346E-002   6.2691957282327654E-002
 -0.14650031521059967        3.6175879435313724E-002   3.7403307982729742E-002
 -0.13982294857789548        4.2990526369522081E-002   2.0585409436584629E-002
 -0.13314558194519133        4.2289644781431483E-002   1.2238261643892372E-002
 -0.20348546686257496        0.0000000000000000       0.12540991918104613     
 -0.18665575310673044        2.7326211612938023E-002   7.4353898837624638E-002
 -0.16982603935088592        4.4677535548992599E-002   3.5131821987031069E-002
 -0.15299632559504137        5.2053971808163728E-002   7.7436886292654300E-003
 -0.13616661183919684        4.9455520390451396E-002  -7.8105012356723194E-003
 -0.10476391788097462        2.0792017954371789E-002   5.3621053841102606E-002
 -0.10210834171147892        2.4933453768079327E-002   4.5641590067864168E-002
  -9.9452765541983221E-002   2.7511556466198260E-002   3.9352515440178017E-002
  -9.6797189372487477E-002   2.8526326048728703E-002   3.4753829958044068E-002
  -9.4141613202991775E-002   2.7977762515670600E-002   3.1845533621462370E-002
 -0.11744423496608024        2.7957893563391702E-002   4.2954039182279788E-002
 -0.11348633858574565        2.9429868155328998E-002   3.6700723940916599E-002
 -0.10952844220541104        3.0254086001965233E-002   3.1361659975678892E-002
 -0.10557054582507645        3.0430547103300426E-002   2.6936847286566701E-002
 -0.10161264944474185        2.9959251459334542E-002   2.3426285873580015E-002
 -0.12690478965415247        3.5123769172411584E-002   2.9159775116543073E-002
 -0.12242071093240568        3.3926282542578685E-002   2.5548184777342515E-002
 -0.11793663221065896        3.2996615537732199E-002   2.2074707844840769E-002
 -0.11345255348891217        3.2334768157872104E-002   1.8739344319037832E-002
 -0.10896847476716542        3.1940740402998477E-002   1.5542094199933696E-002
 -0.13314558194519133        4.2289644781431483E-002   1.2238261643892372E-002
 -0.12891145875145912        3.8422696929828366E-002   1.2183972577141929E-002
 -0.12467733555772693        3.5739145073499096E-002   1.1491659047663671E-002
 -0.12044321236399472        3.4238989212443741E-002   1.0161321055457462E-002
 -0.11620908917026253        3.3922229346662336E-002   8.1929586005232841E-003
 -0.13616661183919684        4.9455520390451396E-002  -7.8105012356723194E-003
 -0.13295858204290595        4.2919111317078047E-002  -3.3919126596850466E-003
 -0.12975055224661503        3.8481674609266145E-002  -3.8748641585241612E-004
 -0.12654252245032410        3.6143210267015453E-002   1.2027774958254900E-003
 -0.12333449265403321        3.5903718290326320E-002   1.3788790753487545E-003
  -9.4141613202991775E-002   2.7977762515670600E-002   3.1845533621462370E-002
  -9.1760688734455545E-002   2.6784386587563932E-002   3.1277313150972090E-002
  -8.9379764265919245E-002   2.5864718984948604E-002   3.0788680720799860E-002
  -8.6998839797382974E-002   2.5218759707824688E-002   3.0379636330945689E-002
  -8.4617915328846716E-002   2.4846508756192112E-002   3.0050179981409700E-002
 -0.10161264944474185        2.9959251459334542E-002   2.3426285873580015E-002
  -9.9137895211448487E-002   2.9189386253857575E-002   2.3149681020740377E-002
  -9.6663140978155107E-002   2.8470138670659569E-002   2.2981147657096801E-002
  -9.4188386744861768E-002   2.7801508709740411E-002   2.2920685782649303E-002
  -9.1713632511568416E-002   2.7183496371100263E-002   2.2968295397397906E-002
 -0.10896847476716542        3.1940740402998477E-002   1.5542094199933696E-002
 -0.10637140732023699        3.1594385920151222E-002   1.5334014261532117E-002
 -0.10377433987330852        3.1075558356370506E-002   1.5262489261204739E-002
 -0.10117727242638003        3.0384257711656187E-002   1.5327519198951509E-002
  -9.8580204979451580E-002   2.9520483986008324E-002   1.5529104074772444E-002
 -0.11620908917026253        3.3922229346662336E-002   8.1929586005232841E-003
 -0.11346122506082097        3.3999385586444823E-002   7.8303128733474506E-003
 -0.11071336095137936        3.3680978042081429E-002   7.6327055331238108E-003
 -0.10796549684193775        3.2967006713571868E-002   7.6001365798522309E-003
 -0.10521763273249619        3.1857471600916454E-002   7.7326060135329217E-003
 -0.12333449265403321        3.5903718290326320E-002   1.3788790753487545E-003
 -0.12040734843320047        3.6404385252738508E-002   6.3857685618626259E-004
 -0.11748020421236770        3.6286397727792359E-002   9.1796472853948596E-005
 -0.11455305999153492        3.5549755715487699E-002  -2.6146207464840428E-004
 -0.11162591577070219        3.4194459215824591E-002  -4.2119878632040919E-004
  -8.4617915328846716E-002   2.4846508756192112E-002   3.0050179981409700E-002
  -8.2202315347425003E-002   2.4533543322918905E-002   2.9310578147957345E-002
  -7.9786715366003277E-002   2.4065440600873168E-002   2.8875251716667168E-002
  -7.7371115384581579E-002   2.3442200590054887E-002   2.8744200687539006E-002
  -7.4955515403159839E-002   2.2663823290463903E-002   2.8917425060572960E-002
  -9.1713632511568416E-002   2.7183496371100263E-002   2.2968295397397906E-002
  -8.9026548833194483E-002   2.6565187048809183E-002   2.2321872134397805E-002
  -8.6339465154820591E-002   2.5895666136937716E-002   2.1914140863139961E-002
  -8.3652381476446658E-002   2.5174933635485654E-002   2.1745101583624429E-002
  -8.0965297798072780E-002   2.4402989544453302E-002   2.1814754295851210E-002
  -9.8580204979451580E-002   2.9520483986008324E-002   1.5529104074772444E-002
  -9.5687221014545271E-002   2.8596830774699489E-002   1.5079785081416490E-002
  -9.2794237049638920E-002   2.7725891673002372E-002   1.4803574669383054E-002
  -8.9901253084732555E-002   2.6907666680916667E-002   1.4700472838672221E-002
  -8.7008269119826259E-002   2.6142155798442618E-002   1.4770479589283875E-002
 -0.10521763273249619        3.1857471600916454E-002   7.7326060135329217E-003
 -0.10218433189147721        3.0628474500589781E-002   7.5843169890133424E-003
  -9.9151031050458194E-002   2.9556117209066948E-002   7.5435531353964490E-003
  -9.6117730209439214E-002   2.8640399726347555E-002   7.6103144526825086E-003
  -9.3084429368420207E-002   2.7881322052432059E-002   7.7846009408712412E-003
 -0.11162591577070219        3.4194459215824591E-002  -4.2119878632040919E-004
 -0.10851788146399033        3.2660118226480045E-002  -1.6453214281150763E-004
 -0.10540984715727847        3.1386342745131565E-002   1.3407626118010219E-004
 -0.10230181285056658        3.0373132771778454E-002   4.7462642565515231E-004
  -9.9193778543854749E-002   2.9620488306421389E-002   8.5711835061286212E-004
  -7.4955515403159839E-002   2.2663823290463903E-002   2.8917425060572960E-002
  -7.2710713037944213E-002   2.1835400091797227E-002   2.8769097779759945E-002
  -7.0465910672728602E-002   2.1062022383752002E-002   2.8760072420521143E-002
  -6.8221108307512990E-002   2.0343690166327772E-002   2.8890348982856515E-002
  -6.5976305942297336E-002   1.9680403439524985E-002   2.9159927466766100E-002
  -8.0965297798072780E-002   2.4402989544453302E-002   2.1814754295851210E-002
  -7.8579127680983463E-002   2.3612188788477859E-002   2.1669575793654847E-002
  -7.6192957563894242E-002   2.2834886292196710E-002   2.1667830873631687E-002
  -7.3806787446804925E-002   2.2071082055609925E-002   2.1809519535781505E-002
  -7.1420617329715691E-002   2.1320776078717629E-002   2.2094641780104451E-002
  -8.7008269119826259E-002   2.6142155798442618E-002   1.4770479589283875E-002
  -8.4476599590264434E-002   2.5388977485158247E-002   1.4586902634777459E-002
  -8.1944930060702637E-002   2.4607750200641300E-002   1.4550890923042938E-002
  -7.9413260531140881E-002   2.3798473944891992E-002   1.4662444454080440E-002
  -7.6881591001579083E-002   2.2961148717910190E-002   1.4921563227889942E-002
  -9.3084429368420207E-002   2.7881322052432059E-002   7.7846009408712412E-003
  -9.0403128765787030E-002   2.7165766181838618E-002   7.5210783031276311E-003
  -8.7721828163153825E-002   2.6380614109086143E-002   7.4092525687550238E-003
  -8.5040527560520621E-002   2.5525865834173992E-002   7.4491237377533924E-003
  -8.2359226957887444E-002   2.4601521357102571E-002   7.6406918101224776E-003
  -9.9193778543854749E-002   2.9620488306421389E-002   8.5711835061286212E-004
  -9.6358715207551293E-002   2.8942554878519378E-002   4.7210279870546490E-004
  -9.3523651871247809E-002   2.8153478017530792E-002   2.4291581076800461E-004
  -9.0688588534944339E-002   2.7253257723456166E-002   1.6955738680017249E-004
  -8.7853525198640869E-002   2.6241893996295285E-002   2.5202752680192342E-004
  -6.5976305942297336E-002   1.9680403439524985E-002   2.9159927466766100E-002
  -6.3423433410838032E-002   1.9027584235049438E-002   2.8901455230385259E-002
  -6.0870560879378727E-002   1.8340654584607319E-002   2.8846538397613836E-002
  -5.8317688347919422E-002   1.7619614488198238E-002   2.8995176968452080E-002
  -5.5764815816460117E-002   1.6864463945822472E-002   2.9347370942899853E-002
  -7.1420617329715691E-002   2.1320776078717629E-002   2.2094641780104451E-002
  -6.8661691801052263E-002   2.0572042193630624E-002   2.1799772591848066E-002
  -6.5902766272388807E-002   1.9812954232460350E-002   2.1713453994390244E-002
  -6.3143840743725421E-002   1.9043512195206676E-002   2.1835685987730988E-002
  -6.0384915215061924E-002   1.8263716081869497E-002   2.2166468571870712E-002
  -7.6881591001579083E-002   2.2961148717910190E-002   1.4921563227889942E-002
  -7.3911617288522413E-002   2.2116500152211879E-002   1.4614053457641107E-002
  -7.0941643575465702E-002   2.1285253880313715E-002   1.4520089465380331E-002
  -6.7971669862409045E-002   2.0467409902215225E-002   1.4639671251107059E-002
  -6.5001696149352375E-002   1.9662968217916715E-002   1.4972798814821581E-002
  -8.2359226957887444E-002   2.4601521357102571E-002   7.6406918101224776E-003
  -7.9173209873248454E-002   2.3660958110793238E-002   7.3442978277646204E-003
  -7.5987192788609478E-002   2.2757553528166968E-002   7.2664448105838678E-003
  -7.2801175703970517E-002   2.1891307609223636E-002   7.4071327585798798E-003
  -6.9615158619331499E-002   2.1062220353963615E-002   7.7663616717528992E-003
  -8.7853525198640869E-002   2.6241893996295285E-002   2.5202752680192342E-004
  -8.4446469555230497E-002   2.5205416069374431E-002  -9.4942977815204443E-006
  -8.1039413911820068E-002   2.4229853176020000E-002  -4.7479969999084104E-005
  -7.7632358268409668E-002   2.3315205316232240E-002   1.3807051014963836E-004
  -7.4225302624999268E-002   2.2461472490010848E-002   5.4715714266428961E-004
  -5.5764815816460117E-002   1.6864463945822472E-002   2.9347370942899853E-002
  -5.3675647241926416E-002   1.6105820194928899E-002   2.9040504473121675E-002
  -5.1586478667392716E-002   1.5374300472965660E-002   2.8908876615349549E-002
  -4.9497310092858959E-002   1.4669904779933390E-002   2.8952487369583543E-002
  -4.7408141518325314E-002   1.3992633115831432E-002   2.9171336735823505E-002
  -6.0384915215061924E-002   1.8263716081869497E-002   2.2166468571870712E-002
  -5.8129612083881177E-002   1.7484045978892582E-002   2.1872681573911951E-002
  -5.5874308952700347E-002   1.6714981972719034E-002   2.1735925077241369E-002
  -5.3619005821519621E-002   1.5956524063349076E-002   2.1756199081858829E-002
  -5.1363702690338769E-002   1.5208672250782707E-002   2.1933503587764580E-002
  -6.5001696149352375E-002   1.9662968217916715E-002   1.4972798814821581E-002
  -6.2598466572242467E-002   1.8862271762856264E-002   1.4675573356555283E-002
  -6.0195236995132566E-002   1.8055663472472248E-002   1.4517170288859321E-002
  -5.7792007418022664E-002   1.7243143346764987E-002   1.4497589611733194E-002
  -5.5388777840912708E-002   1.6424711385734148E-002   1.4616831325177604E-002
  -6.9615158619331499E-002   2.1062220353963615E-002   7.7663616717528992E-003
  -6.7082210707010440E-002   2.0240497546819891E-002   7.4491798210519593E-003
  -6.4549262794689283E-002   1.9396344972225765E-002   7.2526122502034138E-003
  -6.2016314882368140E-002   1.8529762630180895E-002   7.1766589592068544E-003
  -5.9483366970047059E-002   1.7640750520685783E-002   7.2213199480626669E-003
  -7.4225302624999268E-002   2.2461472490010848E-002   5.4715714266428961E-004
  -7.1580844488184858E-002   2.1618723330783740E-002   1.9350096740161637E-004
  -6.8936386351370504E-002   2.0737026471979031E-002  -5.7749038726517821E-005
  -6.6291928214556151E-002   1.9816381913596741E-002  -2.0659287572084850E-004
  -6.3647470077741741E-002   1.8856789655636863E-002  -2.5303054358039034E-004
  -4.7408141518325314E-002   1.3992633115831432E-002   2.9171336735823505E-002
  -4.4757963944484863E-002   1.3302778834237139E-002   2.8867177939627120E-002
  -4.2107786370644398E-002   1.2560635288726946E-002   2.8670217298472633E-002
  -3.9457608796803913E-002   1.1766202479301095E-002   2.8580454812359879E-002
  -3.6807431222963538E-002   1.0919480405959359E-002   2.8597890481289134E-002
  -5.1363702690338769E-002   1.5208672250782707E-002   2.1933503587764580E-002
  -4.8575197628798056E-002   1.4453811619842827E-002   2.1552503646933091E-002
  -4.5786692567257439E-002   1.3674327255351809E-002   2.1340960526459951E-002
  -4.2998187505716823E-002   1.2870219157310049E-002   2.1298874226346076E-002
  -4.0209682444176109E-002   1.2041487325717304E-002   2.1426244746590495E-002
  -5.5388777840912708E-002   1.6424711385734148E-002   1.4616831325177604E-002
  -5.2399686626354899E-002   1.5604844405448459E-002   1.4186655770075579E-002
  -4.9410595411796973E-002   1.4788019221977186E-002   1.3988195700649242E-002
  -4.6421504197239165E-002   1.3974235835319006E-002   1.4021451116898231E-002
  -4.3432412982681259E-002   1.3163494245475249E-002   1.4286422018823408E-002
  -5.9483366970047059E-002   1.7640750520685783E-002   7.2213199480626669E-003
  -5.6231430937155005E-002   1.6755877191054563E-002   6.7696343090551669E-003
  -5.2979494904263090E-002   1.5901711188601751E-002   6.6119228210399332E-003
  -4.9727558871371084E-002   1.5078252513328351E-002   6.7481854840175555E-003
  -4.6475622838479100E-002   1.4285501165233139E-002   7.1784222979876661E-003
  -6.3647470077741741E-002   1.8856789655636863E-002  -2.5303054358039034E-004
  -6.0070430561198762E-002   1.7906909976659779E-002  -6.9856073612878378E-004
  -5.6493391044655727E-002   1.7015403155227093E-002  -7.8785811236764536E-004
  -5.2916351528112693E-002   1.6182269191337223E-002  -5.2092267229734979E-004
  -4.9339312011569714E-002   1.5407508084991139E-002   1.0224558408289397E-004
 </DataArray>
 </PointData>
 </Piece>
 <Piece  NumberOfPoints="          1600 "  NumberOfCells="         1024 ">
 <Points>
 <DataArray  type="Float64" NumberOfComponents="3"  format="ascii" >
  0.50000000000000000        0.0000000000000000        0.0000000000000000     
  0.53125000000000000        0.0000000000000000        0.0000000000000000     
  0.56250000000000000        0.0000000000000000        0.0000000000000000     
  0.59375000000000000        0.0000000000000000        0.0000000000000000     
  0.62500000000000000        0.0000000000000000        0.0000000000000000     
  0.50000000000000000        3.1250000000000000E-002   0.0000000000000000     
  0.53125000000000000        3.1250000000000000E-002   0.0000000000000000     
  0.56250000000000000        3.1250000000000000E-002   0.0000000000000000     
  0.59375000000000000        3.1250000000000000E-002   0.0000000000000000     
  0.62500000000000000        3.1250000000000000E-002   0.0000000000000000     
  0.50000000000000000        6.2500000000000000E-002   0.0000000000000000     
  0.53125000000000000        6.2500000000000000E-002   0.0000000000000000     
  0.56250000000000000        6.2500000000000000E-002   0.0000000000000000     
  0.59375000000000000        6.2500000000000000E-002   0.0000000000000000     
  0.62500000000000000        6.2500000000000000E-002   0.0000000000000000     
  0.50000000000000000        9.3750000000000000E-002   0.0000000000000000     
  0.53125000000000000        9.3750000000000000E-002   0.0000000000000000     
  0.56250000000000000        9.3750000000000000E-002   0.0000000000000000     
  0.59375000000000000        9.3750000000000000E-002   0.0000000000000000     
  0.62500000000000000        9.3750000000000000E-002   0.0000000000000000     
  0.50000000000000000       0.12500000000000000        0.0000000000000000     
  0.53125000000000000       0.12500000000000000        0.0000000000000000     
  0.56250000000000000       0.12500000000000000        0.0000000000000000     
  0.59375000000000000       0.12500000000000000        0.0000000000000000     
  0.62500000000000000       0.12500000000000000        0.0000000000000000     
  0.62500000000000000        0.0000000000000000        0.0000000000000000     
  0.65625000000000000        0.0000000000000000        0.0000000000000000     
  0.68750000000000000        0.0000000000000000        0.0000000000000000     
  0.71875000000000000        0.0000000000000000        0.0000000000000000     
  0.75000000000000000        0.0000000000000000        0.0000000000000000     
  0.62500000000000000        3.1250000000000000E-002   0.0000000000000000     
  0.65625000000000000        3.1250000000000000E-002   0.0000000000000000     
  0.68750000000000000        3.1250000000000000E-002   0.0000000000000000     
  0.71875000000000000        3.1250000000000000E-002   0.0000000000000000     
  0.75000000000000000        3.1250000000000000E-002   0.0000000000000000     
  0.62500000000000000        6.2500000000000000E-002   0.0000000000000000     
  0.65625000000000000        6.2500000000000000E-002   0.0000000000000000     
  0.68750000000000000        6.2500000000000000E-002   0.0000000000000000     
  0.71875000000000000        6.2500000000000000E-002   0.0000000000000000     
  0.75000000000000000        6.2500000000000000E-002   0.0000000000000000     
  0.62500000000000000        9.3750000000000000E-002   0.0000000000000000     
  0.65625000000000000        9.3750000000000000E-002   0.0000000000000000     
  0.68750000000000000        9.3750000000000000E-002   0.0000000000000000     
  0.71875000000000000        9.3750000000000000E-002   0.0000000000000000     
  0.75000000000000000        9.3750000000000000E-002   0.0000000000000000     
  0.62500000000000000       0.12500000000000000        0.0000000000000000     
  0.65625000000000000       0.12500000000000000        0.0000000000000000     
  0.68750000000000000       0.12500000000000000        0.0000000000000000     
  0.71875000000000000       0.12500000000000000        0.0000000000000000     
  0.75000000000000000       0.12500000000000000        0.0000000000000000     
  0.75000000000000000        0.0000000000000000        0.0000000000000000     
  0.78125000000000000        0.0000000000000000        0.0000000000000000     
  0.81250000000000000        0.0000000000000000        0.0000000000000000     
  0.84375000000000000        0.0000000000000000        0.0000000000000000     
  0.87500000000000000        0.0000000000000000        0.0000000000000000     
  0.75000000000000000        3.1250000000000000E-002   0.0000000000000000     
  0.78125000000000000        3.1250000000000000E-002   0.0000000000000000     
  0.81250000000000000        3.1250000000000000E-002   0.0000000000000000     
  0.84375000000000000        3.1250000000000000E-002   0.0000000000000000     
  0.87500000000000000        3.1250000000000000E-002   0.0000000000000000     
  0.75000000000000000        6.2500000000000000E-002   0.0000000000000000     
  0.78125000000000000        6.2500000000000000E-002   0.0000000000000000     
  0.81250000000000000        6.2500000000000000E-002   0.0000000000000000     
  0.84375000000000000        6.2500000000000000E-002   0.0000000000000000     
  0.87500000000000000        6.2500000000000000E-002   0.0000000000000000     
  0.75000000000000000        9.3750000000000000E-002   0.0000000000000000     
  0.78125000000000000        9.3750000000000000E-002   0.0000000000000000     
  0.81250000000000000        9.3750000000000000E-002   0.0000000000000000     
  0.84375000000000000        9.3750000000000000E-002   0.0000000000000000     
  0.87500000000000000        9.3750000000000000E-002   0.0000000000000000     
  0.75000000000000000       0.12500000000000000        0.0000000000000000     
  0.78125000000000000       0.12500000000000000        0.0000000000000000     
  0.81250000000000000       0.12500000000000000        0.0000000000000000     
  0.84375000000000000       0.12500000000000000        0.0000000000000000     
  0.87500000000000000       0.12500000000000000        0.0000000000000000     
  0.87500000000000000        0.0000000000000000        0.0000000000000000     
  0.90625000000000000        0.0000000000000000        0.0000000000000000     
  0.93750000000000000        0.0000000000000000        0.0000000000000000     
  0.96875000000000000        0.0000000000000000        0.0000000000000000     
   1.0000000000000000        0.0000000000000000        0.0000000000000000     
  0.87500000000000000        3.1250000000000000E-002   0.0000000000000000     
  0.90625000000000000        3.1250000000000000E-002   0.0000000000000000     
  0.93750000000000000        3.1250000000000000E-002   0.0000000000000000     
  0.96875000000000000        3.1250000000000000E-002   0.0000000000000000     
   1.0000000000000000        3.1250000000000000E-002   0.0000000000000000     
  0.87500000000000000        6.2500000000000000E-002   0.0000000000000000     
  0.90625000000000000        6.2500000000000000E-002   0.0000000000000000     
  0.93750000000000000        6.2500000000000000E-002   0.0000000000000000     
  0.96875000000000000        6.2500000000000000E-002   0.0000000000000000     
   1.0000000000000000        6.2500000000000000E-002   0.0000000000000000     
  0.87500000000000000        9.3750000000000000E-002   0.0000000000000000     
  0.90625000000000000        9.3750000000000000E-002   0.0000000000000000     
  0.93750000000000000        9.3750000000000000E-002   0.0000000000000000     
  0.96875000000000000        9.3750000000000000E-002   0.0000000000000000     
   1.0000000000000000        9.3750000000000000E-002   0.0000000000000000     
  0.87500000000000000       0.12500000000000000        0.0000000000000000     
  0.90625000000000000       0.12500000000000000        0.0000000000000000     
  0.93750000000000000       0.12500000000000000        0.0000000000000000     
  0.96875000000000000       0.12500000000000000        0.0000000000000000     
   1.0000000000000000       0.12500000000000000        0.0000000000000000     
   1.0000000000000000        0.0000000000000000        0.0000000000000000     
   1.0312500000000000        0.0000000000000000        0.0000000000000000     
   1.0625000000000000        0.0000000000000000        0.0000000000000000     
   1.0937500000000000        0.0000000000000000        0.0000000000000000     
   1.1250000000000000        0.0000000000000000        0.0000000000000000     
   1.0000000000000000        3.1250000000000000E-002   0.0000000000000000     
   1.0312500000000000        3.1250000000000000E-002   0.0000000000000000     
   1.0625000000000000        3.1250000000000000E-002   0.0000000000000000     
   1.0937500000000000        3.1250000000000000E-002   0.0000000000000000     
   1.1250000000000000        3.1250000000000000E-002   0.0000000000000000     
   1.0000000000000000        6.2500000000000000E-002   0.0000000000000000     
   1.0312500000000000        6.2500000000000000E-002   0.0000000000000000     
   1.0625000000000000        6.2500000000000000E-002   0.0000000000000000     
   1.0937500000000000        6.2500000000000000E-002   0.0000000000000000     
   1.1250000000000000        6.2500000000000000E-002   0.0000000000000000     
   1.0000000000000000        9.3750000000000000E-002   0.0000000000000000     
   1.0312500000000000        9.3750000000000000E-002   0.0000000000000000     
   1.0625000000000000        9.3750000000000000E-002   0.0000000000000000     
   1.0937500000000000        9.3750000000000000E-002   0.0000000000000000     
   1.1250000000000000        9.3750000000000000E-002   0.0000000000000000     
   1.0000000000000000       0.12500000000000000        0.0000000000000000     
   1.0312500000000000       0.12500000000000000        0.0000000000000000     
   1.0625000000000000       0.12500000000000000        0.0000000000000000     
   1.0937500000000000       0.12500000000000000        0.0000000000000000     
   1.1250000000000000       0.12500000000000000        0.0000000000000000     
   1.1250000000000000        0.0000000000000000        0.0000000000000000     
   1.1562500000000000        0.0000000000000000        0.0000000000000000     
   1.1875000000000000        0.0000000000000000        0.0000000000000000     
   1.2187500000000000        0.0000000000000000        0.0000000000000000     
   1.2500000000000000        0.0000000000000000        0.0000000000000000     
   1.1250000000000000        3.1250000000000000E-002   0.0000000000000000     
   1.1562500000000000        3.1250000000000000E-002   0.0000000000000000     
   1.1875000000000000        3.1250000000000000E-002   0.0000000000000000     
   1.2187500000000000        3.1250000000000000E-002   0.0000000000000000     
   1.2500000000000000        3.1250000000000000E-002   0.0000000000000000     
   1.1250000000000000        6.2500000000000000E-002   0.0000000000000000     
   1.1562500000000000        6.2500000000000000E-002   0.0000000000000000     
   1.1875000000000000        6.2500000000000000E-002   0.0000000000000000     
   1.2187500000000000        6.2500000000000000E-002   0.0000000000000000     
   1.2500000000000000        6.2500000000000000E-002   0.0000000000000000     
   1.1250000000000000        9.3750000000000000E-002   0.0000000000000000     
   1.1562500000000000        9.3750000000000000E-002   0.0000000000000000     
   1.1875000000000000        9.3750000000000000E-002   0.0000000000000000     
   1.2187500000000000        9.3750000000000000E-002   0.0000000000000000     
   1.2500000000000000        9.3750000000000000E-002   0.0000000000000000     
   1.1250000000000000       0.12500000000000000        0.0000000000000000     
   1.1562500000000000       0.12500000000000000        0.0000000000000000     
   1.1875000000000000       0.12500000000000000        0.0000000000000000     
   1.2187500000000000       0.12500000000000000        0.0000000000000000     
   1.2500000000000000       0.12500000000000000        0.0000000000000000     
   1.2500000000000000        0.0000000000000000        0.0000000000000000     
   1.2812500000000000        0.0000000000000000        0.0000000000000000     
   1.3125000000000000        0.0000000000000000        0.0000000000000000     
   1.3437500000000000        0.0000000000000000        0.0000000000000000     
   1.3750000000000000        0.0000000000000000        0.0000000000000000     
   1.2500000000000000        3.1250000000000000E-002   0.0000000000000000     
   1.2812500000000000        3.1250000000000000E-002   0.0000000000000000     
   1.3125000000000000        3.1250000000000000E-002   0.0000000000000000     
   1.3437500000000000        3.1250000000000000E-002   0.0000000000000000     
   1.3750000000000000        3.1250000000000000E-002   0.0000000000000000     
   1.2500000000000000        6.2500000000000000E-002   0.0000000000000000     
   1.2812500000000000        6.2500000000000000E-002   0.0000000000000000     
   1.3125000000000000        6.2500000000000000E-002   0.0000000000000000     
   1.3437500000000000        6.2500000000000000E-002   0.0000000000000000     
   1.3750000000000000        6.2500000000000000E-002   0.0000000000000000     
   1.2500000000000000        9.3750000000000000E-002   0.0000000000000000     
   1.2812500000000000        9.3750000000000000E-002   0.0000000000000000     
   1.3125000000000000        9.3750000000000000E-002   0.0000000000000000     
   1.3437500000000000        9.3750000000000000E-002   0.0000000000000000     
   1.3750000000000000        9.3750000000000000E-002   0.0000000000000000     
   1.2500000000000000       0.12500000000000000        0.0000000000000000     
   1.2812500000000000       0.12500000000000000        0.0000000000000000     
   1.3125000000000000       0.12500000000000000        0.0000000000000000     
   1.3437500000000000       0.12500000000000000        0.0000000000000000     
   1.3750000000000000       0.12500000000000000        0.0000000000000000     
   1.3750000000000000        0.0000000000000000        0.0000000000000000     
   1.4062500000000000        0.0000000000000000        0.0000000000000000     
   1.4375000000000000        0.0000000000000000        0.0000000000000000     
   1.4687500000000000        0.0000000000000000        0.0000000000000000     
   1.5000000000000000        0.0000000000000000        0.0000000000000000     
   1.3750000000000000        3.1250000000000000E-002   0.0000000000000000     
   1.4062500000000000        3.1250000000000000E-002   0.0000000000000000     
   1.4375000000000000        3.1250000000000000E-002   0.0000000000000000     
   1.4687500000000000        3.1250000000000000E-002   0.0000000000000000     
   1.5000000000000000        3.1250000000000000E-002   0.0000000000000000     
   1.3750000000000000        6.2500000000000000E-002   0.0000000000000000     
   1.4062500000000000        6.2500000000000000E-002   0.0000000000000000     
   1.4375000000000000        6.2500000000000000E-002   0.0000000000000000     
   1.4687500000000000        6.2500000000000000E-002   0.0000000000000000     
   1.5000000000000000        6.2500000000000000E-002   0.0000000000000000     
   1.3750000000000000        9.3750000000000000E-002   0.0000000000000000     
   1.4062500000000000        9.3750000000000000E-002   0.0000000000000000     
   1.4375000000000000        9.3750000000000000E-002   0.0000000000000000     
   1.4687500000000000        9.3750000000000000E-002   0.0000000000000000     
   1.5000000000000000        9.3750000000000000E-002   0.0000000000000000     
   1.3750000000000000       0.12500000000000000        0.0000000000000000     
   1.4062500000000000       0.12500000000000000        0.0000000000000000     
   1.4375000000000000       0.12500000000000000        0.0000000000000000     
   1.4687500000000000       0.12500000000000000        0.0000000000000000     
   1.5000000000000000       0.12500000000000000        0.0000000000000000     
  0.50000000000000000       0.12500000000000000        0.0000000000000000     
  0.53125000000000000       0.12500000000000000        0.0000000000000000     
  0.56250000000000000       0.12500000000000000        0.0000000000000000     
  0.59375000000000000       0.12500000000000000        0.0000000000000000     
  0.62500000000000000       0.12500000000000000        0.0000000000000000     
  0.50000000000000000       0.15625000000000000        0.0000000000000000     
  0.53125000000000000       0.15625000000000000        0.0000000000000000     
  0.56250000000000000       0.15625000000000000        0.0000000000000000     
  0.59375000000000000       0.15625000000000000        0.0000000000000000     
  0.62500000000000000       0.15625000000000000        0.0000000000000000     
  0.50000000000000000       0.18750000000000000        0.0000000000000000     
  0.53125000000000000       0.18750000000000000        0.0000000000000000     
  0.56250000000000000       0.18750000000000000        0.0000000000000000     
  0.59375000000000000       0.18750000000000000        0.0000000000000000     
  0.62500000000000000       0.18750000000000000        0.0000000000000000     
  0.50000000000000000       0.21875000000000000        0.0000000000000000     
  0.53125000000000000       0.21875000000000000        0.0000000000000000     
  0.56250000000000000       0.21875000000000000        0.0000000000000000     
  0.59375000000000000       0.21875000000000000        0.0000000000000000     
  0.62500000000000000       0.21875000000000000        0.0000000000000000     
  0.50000000000000000       0.25000000000000000        0.0000000000000000     
  0.53125000000000000       0.25000000000000000        0.0000000000000000     
  0.56250000000000000       0.25000000000000000        0.0000000000000000     
  0.59375000000000000       0.25000000000000000        0.0000000000000000     
  0.62500000000000000       0.25000000000000000        0.0000000000000000     
  0.62500000000000000       0.12500000000000000        0.0000000000000000     
  0.65625000000000000       0.12500000000000000        0.0000000000000000     
  0.68750000000000000       0.12500000000000000        0.0000000000000000     
  0.71875000000000000       0.12500000000000000        0.0000000000000000     
  0.75000000000000000       0.12500000000000000        0.0000000000000000     
  0.62500000000000000       0.15625000000000000        0.0000000000000000     
  0.65625000000000000       0.15625000000000000        0.0000000000000000     
  0.68750000000000000       0.15625000000000000        0.0000000000000000     
  0.71875000000000000       0.15625000000000000        0.0000000000000000     
  0.75000000000000000       0.15625000000000000        0.0000000000000000     
  0.62500000000000000       0.18750000000000000        0.0000000000000000     
  0.65625000000000000       0.18750000000000000        0.0000000000000000     
  0.68750000000000000       0.18750000000000000        0.0000000000000000     
  0.71875000000000000       0.18750000000000000        0.0000000000000000     
  0.75000000000000000       0.18750000000000000        0.0000000000000000     
  0.62500000000000000       0.21875000000000000        0.0000000000000000     
  0.65625000000000000       0.21875000000000000        0.0000000000000000     
  0.68750000000000000       0.21875000000000000        0.0000000000000000     
  0.71875000000000000       0.21875000000000000        0.0000000000000000     
  0.75000000000000000       0.21875000000000000        0.0000000000000000     
  0.62500000000000000       0.25000000000000000        0.0000000000000000     
  0.65625000000000000       0.25000000000000000        0.0000000000000000     
  0.68750000000000000       0.25000000000000000        0.0000000000000000     
  0.71875000000000000       0.25000000000000000        0.0000000000000000     
  0.75000000000000000       0.25000000000000000        0.0000000000000000     
  0.75000000000000000       0.12500000000000000        0.0000000000000000     
  0.78125000000000000       0.12500000000000000        0.0000000000000000     
  0.81250000000000000       0.12500000000000000        0.0000000000000000     
  0.84375000000000000       0.12500000000000000        0.0000000000000000     
  0.87500000000000000       0.12500000000000000        0.0000000000000000     
  0.75000000000000000       0.15625000000000000        0.0000000000000000     
  0.78125000000000000       0.15625000000000000        0.0000000000000000     
  0.81250000000000000       0.15625000000000000        0.0000000000000000     
  0.84375000000000000       0.15625000000000000        0.0000000000000000     
  0.87500000000000000       0.15625000000000000        0.0000000000000000     
  0.75000000000000000       0.18750000000000000        0.0000000000000000     
  0.78125000000000000       0.18750000000000000        0.0000000000000000     
  0.81250000000000000       0.18750000000000000        0.0000000000000000     
  0.84375000000000000       0.18750000000000000        0.0000000000000000     
  0.87500000000000000       0.18750000000000000        0.0000000000000000     
  0.75000000000000000       0.21875000000000000        0.0000000000000000     
  0.78125000000000000       0.21875000000000000        0.0000000000000000     
  0.81250000000000000       0.21875000000000000        0.0000000000000000     
  0.84375000000000000       0.21875000000000000        0.0000000000000000     
  0.87500000000000000       0.21875000000000000        0.0000000000000000     
  0.75000000000000000       0.25000000000000000        0.0000000000000000     
  0.78125000000000000       0.25000000000000000        0.0000000000000000     
  0.81250000000000000       0.25000000000000000        0.0000000000000000     
  0.84375000000000000       0.25000000000000000        0.0000000000000000     
  0.87500000000000000       0.25000000000000000        0.0000000000000000     
  0.87500000000000000       0.12500000000000000        0.0000000000000000     
  0.90625000000000000       0.12500000000000000        0.0000000000000000     
  0.93750000000000000       0.12500000000000000        0.0000000000000000     
  0.96875000000000000       0.12500000000000000        0.0000000000000000     
   1.0000000000000000       0.12500000000000000        0.0000000000000000     
  0.87500000000000000       0.15625000000000000        0.0000000000000000     
  0.90625000000000000       0.15625000000000000        0.0000000000000000     
  0.93750000000000000       0.15625000000000000        0.0000000000000000     
  0.96875000000000000       0.15625000000000000        0.0000000000000000     
   1.0000000000000000       0.15625000000000000        0.0000000000000000     
  0.87500000000000000       0.18750000000000000        0.0000000000000000     
  0.90625000000000000       0.18750000000000000        0.0000000000000000     
  0.93750000000000000       0.18750000000000000        0.0000000000000000     
  0.96875000000000000       0.18750000000000000        0.0000000000000000     
   1.0000000000000000       0.18750000000000000        0.0000000000000000     
  0.87500000000000000       0.21875000000000000        0.0000000000000000     
  0.90625000000000000       0.21875000000000000        0.0000000000000000     
  0.93750000000000000       0.21875000000000000        0.0000000000000000     
  0.96875000000000000       0.21875000000000000        0.0000000000000000     
   1.0000000000000000       0.21875000000000000        0.0000000000000000     
  0.87500000000000000       0.25000000000000000        0.0000000000000000     
  0.90625000000000000       0.25000000000000000        0.0000000000000000     
  0.93750000000000000       0.25000000000000000        0.0000000000000000     
  0.96875000000000000       0.25000000000000000        0.0000000000000000     
   1.0000000000000000       0.25000000000000000        0.0000000000000000     
   1.0000000000000000       0.12500000000000000        0.0000000000000000     
   1.0312500000000000       0.12500000000000000        0.0000000000000000     
   1.0625000000000000       0.12500000000000000        0.0000000000000000     
   1.0937500000000000       0.12500000000000000        0.0000000000000000     
   1.1250000000000000       0.12500000000000000        0.0000000000000000     
   1.0000000000000000       0.15625000000000000        0.0000000000000000     
   1.0312500000000000       0.15625000000000000        0.0000000000000000     
   1.0625000000000000       0.15625000000000000        0.0000000000000000     
   1.0937500000000000       0.15625000000000000        0.0000000000000000     
   1.1250000000000000       0.15625000000000000        0.0000000000000000     
   1.0000000000000000       0.18750000000000000        0.0000000000000000     
   1.0312500000000000       0.18750000000000000        0.0000000000000000     
   1.0625000000000000       0.18750000000000000        0.0000000000000000     
   1.0937500000000000       0.18750000000000000        0.0000000000000000     
   1.1250000000000000       0.18750000000000000        0.0000000000000000     
   1.0000000000000000       0.21875000000000000        0.0000000000000000     
   1.0312500000000000       0.21875000000000000        0.0000000000000000     
   1.0625000000000000       0.21875000000000000        0.0000000000000000     
   1.0937500000000000       0.21875000000000000        0.0000000000000000     
   1.1250000000000000       0.21875000000000000        0.0000000000000000     
   1.0000000000000000       0.25000000000000000        0.0000000000000000     
   1.0312500000000000       0.25000000000000000        0.0000000000000000     
   1.0625000000000000       0.25000000000000000        0.0000000000000000     
   1.0937500000000000       0.25000000000000000        0.0000000000000000     
   1.1250000000000000       0.25000000000000000        0.0000000000000000     
   1.1250000000000000       0.12500000000000000        0.0000000000000000     
   1.1562500000000000       0.12500000000000000        0.0000000000000000     
   1.1875000000000000       0.12500000000000000        0.0000000000000000     
   1.2187500000000000       0.12500000000000000        0.0000000000000000     
   1.2500000000000000       0.12500000000000000        0.0000000000000000     
   1.1250000000000000       0.15625000000000000        0.0000000000000000     
   1.1562500000000000       0.15625000000000000        0.0000000000000000     
   1.1875000000000000       0.15625000000000000        0.0000000000000000     
   1.2187500000000000       0.15625000000000000        0.0000000000000000     
   1.2500000000000000       0.15625000000000000        0.0000000000000000     
   1.1250000000000000       0.18750000000000000        0.0000000000000000     
   1.1562500000000000       0.18750000000000000        0.0000000000000000     
   1.1875000000000000       0.18750000000000000        0.0000000000000000     
   1.2187500000000000       0.18750000000000000        0.0000000000000000     
   1.2500000000000000       0.18750000000000000        0.0000000000000000     
   1.1250000000000000       0.21875000000000000        0.0000000000000000     
   1.1562500000000000       0.21875000000000000        0.0000000000000000     
   1.1875000000000000       0.21875000000000000        0.0000000000000000     
   1.2187500000000000       0.21875000000000000        0.0000000000000000     
   1.2500000000000000       0.21875000000000000        0.0000000000000000     
   1.1250000000000000       0.25000000000000000        0.0000000000000000     
   1.1562500000000000       0.25000000000000000        0.0000000000000000     
   1.1875000000000000       0.25000000000000000        0.0000000000000000     
   1.2187500000000000       0.25000000000000000        0.0000000000000000     
   1.2500000000000000       0.25000000000000000        0.0000000000000000     
   1.2500000000000000       0.12500000000000000        0.0000000000000000     
   1.2812500000000000       0.12500000000000000        0.0000000000000000     
   1.3125000000000000       0.12500000000000000        0.0000000000000000     
   1.3437500000000000       0.12500000000000000        0.0000000000000000     
   1.3750000000000000       0.12500000000000000        0.0000000000000000     
   1.2500000000000000       0.15625000000000000        0.0000000000000000     
   1.2812500000000000       0.15625000000000000        0.0000000000000000     
   1.3125000000000000       0.15625000000000000        0.0000000000000000     
   1.3437500000000000       0.15625000000000000        0.0000000000000000     
   1.3750000000000000       0.15625000000000000        0.0000000000000000     
   1.2500000000000000       0.18750000000000000        0.0000000000000000     
   1.2812500000000000       0.18750000000000000        0.0000000000000000     
   1.3125000000000000       0.18750000000000000        0.0000000000000000     
   1.3437500000000000       0.18750000000000000        0.0000000000000000     
   1.3750000000000000       0.18750000000000000        0.0000000000000000     
   1.2500000000000000       0.21875000000000000        0.0000000000000000     
   1.2812500000000000       0.21875000000000000        0.0000000000000000     
   1.3125000000000000       0.21875000000000000        0.0000000000000000     
   1.3437500000000000       0.21875000000000000        0.0000000000000000     
   1.3750000000000000       0.21875000000000000        0.0000000000000000     
   1.2500000000000000       0.25000000000000000        0.0000000000000000     
   1.2812500000000000       0.25000000000000000        0.0000000000000000     
   1.3125000000000000       0.25000000000000000        0.0000000000000000     
   1.3437500000000000       0.25000000000000000        0.0000000000000000     
   1.3750000000000000       0.25000000000000000        0.0000000000000000     
   1.3750000000000000       0.12500000000000000        0.0000000000000000     
   1.4062500000000000       0.12500000000000000        0.0000000000000000     
   1.4375000000000000       0.12500000000000000        0.0000000000000000     
   1.4687500000000000       0.12500000000000000        0.0000000000000000     
   1.5000000000000000       0.12500000000000000        0.0000000000000000     
   1.3750000000000000       0.15625000000000000        0.0000000000000000     
   1.4062500000000000       0.15625000000000000        0.0000000000000000     
   1.4375000000000000       0.15625000000000000        0.0000000000000000     
   1.4687500000000000       0.15625000000000000        0.0000000000000000     
   1.5000000000000000       0.15625000000000000        0.0000000000000000     
   1.3750000000000000       0.18750000000000000        0.0000000000000000     
   1.4062500000000000       0.18750000000000000        0.0000000000000000     
   1.4375000000000000       0.18750000000000000        0.0000000000000000     
   1.4687500000000000       0.18750000000000000        0.0000000000000000     
   1.5000000000000000       0.18750000000000000        0.0000000000000000     
   1.3750000000000000       0.21875000000000000        0.0000000000000000     
   1.4062500000000000       0.21875000000000000        0.0000000000000000     
   1.4375000000000000       0.21875000000000000        0.0000000000000000     
   1.4687500000000000       0.21875000000000000        0.0000000000000000     
   1.5000000000000000       0.21875000000000000        0.0000000000000000     
   1.3750000000000000       0.25000000000000000        0.0000000000000000     
   1.4062500000000000       0.25000000000000000        0.0000000000000000     
   1.4375000000000000       0.25000000000000000        0.0000000000000000     
   1.4687500000000000       0.25000000000000000        0.0000000000000000     
   1.5000000000000000       0.25000000000000000        0.0000000000000000     
  0.50000000000000000       0.25000000000000000        0.0000000000000000     
  0.53125000000000000       0.25000000000000000        0.0000000000000000     
  0.56250000000000000       0.25000000000000000        0.0000000000000000     
  0.59375000000000000       0.25000000000000000        0.0000000000000000     
  0.62500000000000000       0.25000000000000000        0.0000000000000000     
  0.50000000000000000       0.28125000000000000        0.0000000000000000     
  0.53125000000000000       0.28125000000000000        0.0000000000000000     
  0.56250000000000000       0.28125000000000000        0.0000000000000000     
  0.59375000000000000       0.28125000000000000        0.0000000000000000     
  0.62500000000000000       0.28125000000000000        0.0000000000000000     
  0.50000000000000000       0.31250000000000000        0.0000000000000000     
  0.53125000000000000       0.31250000000000000        0.0000000000000000     
  0.56250000000000000       0.31250000000000000        0.0000000000000000     
  0.59375000000000000       0.31250000000000000        0.0000000000000000     
  0.62500000000000000       0.31250000000000000        0.0000000000000000     
  0.50000000000000000       0.34375000000000000        0.0000000000000000     
  0.53125000000000000       0.34375000000000000        0.0000000000000000     
  0.56250000000000000       0.34375000000000000        0.0000000000000000     
  0.59375000000000000       0.34375000000000000        0.0000000000000000     
  0.62500000000000000       0.34375000000000000        0.0000000000000000     
  0.50000000000000000       0.37500000000000000        0.0000000000000000     
  0.53125000000000000       0.37500000000000000        0.0000000000000000     
  0.56250000000000000       0.37500000000000000        0.0000000000000000     
  0.59375000000000000       0.37500000000000000        0.0000000000000000     
  0.62500000000000000       0.37500000000000000        0.0000000000000000     
  0.62500000000000000       0.25000000000000000        0.0000000000000000     
  0.65625000000000000       0.25000000000000000        0.0000000000000000     
  0.68750000000000000       0.25000000000000000        0.0000000000000000     
  0.71875000000000000       0.25000000000000000        0.0000000000000000     
  0.75000000000000000       0.25000000000000000        0.0000000000000000     
  0.62500000000000000       0.28125000000000000        0.0000000000000000     
  0.65625000000000000       0.28125000000000000        0.0000000000000000     
  0.68750000000000000       0.28125000000000000        0.0000000000000000     
  0.71875000000000000       0.28125000000000000        0.0000000000000000     
  0.75000000000000000       0.28125000000000000        0.0000000000000000     
  0.62500000000000000       0.31250000000000000        0.0000000000000000     
  0.65625000000000000       0.31250000000000000        0.0000000000000000     
  0.68750000000000000       0.31250000000000000        0.0000000000000000     
  0.71875000000000000       0.31250000000000000        0.0000000000000000     
  0.75000000000000000       0.31250000000000000        0.0000000000000000     
  0.62500000000000000       0.34375000000000000        0.0000000000000000     
  0.65625000000000000       0.34375000000000000        0.0000000000000000     
  0.68750000000000000       0.34375000000000000        0.0000000000000000     
  0.71875000000000000       0.34375000000000000        0.0000000000000000     
  0.75000000000000000       0.34375000000000000        0.0000000000000000     
  0.62500000000000000       0.37500000000000000        0.0000000000000000     
  0.65625000000000000       0.37500000000000000        0.0000000000000000     
  0.68750000000000000       0.37500000000000000        0.0000000000000000     
  0.71875000000000000       0.37500000000000000        0.0000000000000000     
  0.75000000000000000       0.37500000000000000        0.0000000000000000     
  0.75000000000000000       0.25000000000000000        0.0000000000000000     
  0.78125000000000000       0.25000000000000000        0.0000000000000000     
  0.81250000000000000       0.25000000000000000        0.0000000000000000     
  0.84375000000000000       0.25000000000000000        0.0000000000000000     
  0.87500000000000000       0.25000000000000000        0.0000000000000000     
  0.75000000000000000       0.28125000000000000        0.0000000000000000     
  0.78125000000000000       0.28125000000000000        0.0000000000000000     
  0.81250000000000000       0.28125000000000000        0.0000000000000000     
  0.84375000000000000       0.28125000000000000        0.0000000000000000     
  0.87500000000000000       0.28125000000000000        0.0000000000000000     
  0.75000000000000000       0.31250000000000000        0.0000000000000000     
  0.78125000000000000       0.31250000000000000        0.0000000000000000     
  0.81250000000000000       0.31250000000000000        0.0000000000000000     
  0.84375000000000000       0.31250000000000000        0.0000000000000000     
  0.87500000000000000       0.31250000000000000        0.0000000000000000     
  0.75000000000000000       0.34375000000000000        0.0000000000000000     
  0.78125000000000000       0.34375000000000000        0.0000000000000000     
  0.81250000000000000       0.34375000000000000        0.0000000000000000     
  0.84375000000000000       0.34375000000000000        0.0000000000000000     
  0.87500000000000000       0.34375000000000000        0.0000000000000000     
  0.75000000000000000       0.37500000000000000        0.0000000000000000     
  0.78125000000000000       0.37500000000000000        0.0000000000000000     
  0.81250000000000000       0.37500000000000000        0.0000000000000000     
  0.84375000000000000       0.37500000000000000        0.0000000000000000     
  0.87500000000000000       0.37500000000000000        0.0000000000000000     
  0.87500000000000000       0.25000000000000000        0.0000000000000000     
  0.90625000000000000       0.25000000000000000        0.0000000000000000     
  0.93750000000000000       0.25000000000000000        0.0000000000000000     
  0.96875000000000000       0.25000000000000000        0.0000000000000000     
   1.0000000000000000       0.25000000000000000        0.0000000000000000     
  0.87500000000000000       0.28125000000000000        0.0000000000000000     
  0.90625000000000000       0.28125000000000000        0.0000000000000000     
  0.93750000000000000       0.28125000000000000        0.0000000000000000     
  0.96875000000000000       0.28125000000000000        0.0000000000000000     
   1.0000000000000000       0.28125000000000000        0.0000000000000000     
  0.87500000000000000       0.31250000000000000        0.0000000000000000     
  0.90625000000000000       0.31250000000000000        0.0000000000000000     
  0.93750000000000000       0.31250000000000000        0.0000000000000000     
  0.96875000000000000       0.31250000000000000        0.0000000000000000     
   1.0000000000000000       0.31250000000000000        0.0000000000000000     
  0.87500000000000000       0.34375000000000000        0.0000000000000000     
  0.90625000000000000       0.34375000000000000        0.0000000000000000     
  0.93750000000000000       0.34375000000000000        0.0000000000000000     
  0.96875000000000000       0.34375000000000000        0.0000000000000000     
   1.0000000000000000       0.34375000000000000        0.0000000000000000     
  0.87500000000000000       0.37500000000000000        0.0000000000000000     
  0.90625000000000000       0.37500000000000000        0.0000000000000000     
  0.93750000000000000       0.37500000000000000        0.0000000000000000     
  0.96875000000000000       0.37500000000000000        0.0000000000000000     
   1.0000000000000000       0.37500000000000000        0.0000000000000000     
   1.0000000000000000       0.25000000000000000        0.0000000000000000     
   1.0312500000000000       0.25000000000000000        0.0000000000000000     
   1.0625000000000000       0.25000000000000000        0.0000000000000000     
   1.0937500000000000       0.25000000000000000        0.0000000000000000     
   1.1250000000000000       0.25000000000000000        0.0000000000000000     
   1.0000000000000000       0.28125000000000000        0.0000000000000000     
   1.0312500000000000       0.28125000000000000        0.0000000000000000     
   1.0625000000000000       0.28125000000000000        0.0000000000000000     
   1.0937500000000000       0.28125000000000000        0.0000000000000000     
   1.1250000000000000       0.28125000000000000        0.0000000000000000     
   1.0000000000000000       0.31250000000000000        0.0000000000000000     
   1.0312500000000000       0.31250000000000000        0.0000000000000000     
   1.0625000000000000       0.31250000000000000        0.0000000000000000     
   1.0937500000000000       0.31250000000000000        0.0000000000000000     
   1.1250000000000000       0.31250000000000000        0.0000000000000000     
   1.0000000000000000       0.34375000000000000        0.0000000000000000     
   1.0312500000000000       0.34375000000000000        0.0000000000000000     
   1.0625000000000000       0.34375000000000000        0.0000000000000000     
   1.0937500000000000       0.34375000000000000        0.0000000000000000     
   1.1250000000000000       0.34375000000000000        0.0000000000000000     
   1.0000000000000000       0.37500000000000000        0.0000000000000000     
   1.0312500000000000       0.37500000000000000        0.0000000000000000     
   1.0625000000000000       0.37500000000000000        0.0000000000000000     
   1.0937500000000000       0.37500000000000000        0.0000000000000000     
   1.1250000000000000       0.37500000000000000        0.0000000000000000     
   1.1250000000000000       0.25000000000000000        0.0000000000000000     
   1.1562500000000000       0.25000000000000000        0.0000000000000000     
   1.1875000000000000       0.25000000000000000        0.0000000000000000     
   1.2187500000000000       0.25000000000000000        0.0000000000000000     
   1.2500000000000000       0.25000000000000000        0.0000000000000000     
   1.1250000000000000       0.28125000000000000        0.0000000000000000     
   1.1562500000000000       0.28125000000000000        0.0000000000000000     
   1.1875000000000000       0.28125000000000000        0.0000000000000000     
   1.2187500000000000       0.28125000000000000        0.0000000000000000     
   1.2500000000000000       0.28125000000000000        0.0000000000000000     
   1.1250000000000000       0.31250000000000000        0.0000000000000000     
   1.1562500000000000       0.31250000000000000        0.0000000000000000     
   1.1875000000000000       0.31250000000000000        0.0000000000000000     
   1.2187500000000000       0.31250000000000000        0.0000000000000000     
   1.2500000000000000       0.31250000000000000        0.0000000000000000     
   1.1250000000000000       0.34375000000000000        0.0000000000000000     
   1.1562500000000000       0.34375000000000000        0.0000000000000000     
   1.1875000000000000       0.34375000000000000        0.0000000000000000     
   1.2187500000000000       0.34375000000000000        0.0000000000000000     
   1.2500000000000000       0.34375000000000000        0.0000000000000000     
   1.1250000000000000       0.37500000000000000        0.0000000000000000     
   1.1562500000000000       0.37500000000000000        0.0000000000000000     
   1.1875000000000000       0.37500000000000000        0.0000000000000000     
   1.2187500000000000       0.37500000000000000        0.0000000000000000     
   1.2500000000000000       0.37500000000000000        0.0000000000000000     
   1.2500000000000000       0.25000000000000000        0.0000000000000000     
   1.2812500000000000       0.25000000000000000        0.0000000000000000     
   1.3125000000000000       0.25000000000000000        0.0000000000000000     
   1.3437500000000000       0.25000000000000000        0.0000000000000000     
   1.3750000000000000       0.25000000000000000        0.0000000000000000     
   1.2500000000000000       0.28125000000000000        0.0000000000000000     
   1.2812500000000000       0.28125000000000000        0.0000000000000000     
   1.3125000000000000       0.28125000000000000        0.0000000000000000     
   1.3437500000000000       0.28125000000000000        0.0000000000000000     
   1.3750000000000000       0.28125000000000000        0.0000000000000000     
   1.2500000000000000       0.31250000000000000        0.0000000000000000     
   1.2812500000000000       0.31250000000000000        0.0000000000000000     
   1.3125000000000000       0.31250000000000000        0.0000000000000000     
   1.3437500000000000       0.31250000000000000        0.0000000000000000     
   1.3750000000000000       0.31250000000000000        0.0000000000000000     
   1.2500000000000000       0.34375000000000000        0.0000000000000000     
   1.2812500000000000       0.34375000000000000        0.0000000000000000     
   1.3125000000000000       0.34375000000000000        0.0000000000000000     
   1.3437500000000000       0.34375000000000000        0.0000000000000000     
   1.3750000000000000       0.34375000000000000        0.0000000000000000     
   1.2500000000000000       0.37500000000000000        0.0000000000000000     
   1.2812500000000000       0.37500000000000000        0.0000000000000000     
   1.3125000000000000       0.37500000000000000        0.0000000000000000     
   1.3437500000000000       0.37500000000000000        0.0000000000000000     
   1.3750000000000000       0.37500000000000000        0.0000000000000000     
   1.3750000000000000       0.25000000000000000        0.0000000000000000     
   1.4062500000000000       0.25000000000000000        0.0000000000000000     
   1.4375000000000000       0.25000000000000000        0.0000000000000000     
   1.4687500000000000       0.25000000000000000        0.0000000000000000     
   1.5000000000000000       0.25000000000000000        0.0000000000000000     
   1.3750000000000000       0.28125000000000000        0.0000000000000000     
   1.4062500000000000       0.28125000000000000        0.0000000000000000     
   1.4375000000000000       0.28125000000000000        0.0000000000000000     
   1.4687500000000000       0.28125000000000000        0.0000000000000000     
   1.5000000000000000       0.28125000000000000        0.0000000000000000     
   1.3750000000000000       0.31250000000000000        0.0000000000000000     
   1.4062500000000000       0.31250000000000000        0.0000000000000000     
   1.4375000000000000       0.31250000000000000        0.0000000000000000     
   1.4687500000000000       0.31250000000000000        0.0000000000000000     
   1.5000000000000000       0.31250000000000000        0.0000000000000000     
   1.3750000000000000       0.34375000000000000        0.0000000000000000     
   1.4062500000000000       0.34375000000000000        0.0000000000000000     
   1.4375000000000000       0.34375000000000000        0.0000000000000000     
   1.4687500000000000       0.34375000000000000        0.0000000000000000     
   1.5000000000000000       0.34375000000000000        0.0000000000000000     
   1.3750000000000000       0.37500000000000000        0.0000000000000000     
   1.4062500000000000       0.37500000000000000        0.0000000000000000     
   1.4375000000000000       0.37500000000000000        0.0000000000000000     
   1.4687500000000000       0.37500000000000000        0.0000000000000000     
   1.5000000000000000       0.37500000000000000        0.0000000000000000     
  0.50000000000000000       0.37500000000000000        0.0000000000000000     
  0.53125000000000000       0.37500000000000000        0.0000000000000000     
  0.56250000000000000       0.37500000000000000        0.0000000000000000     
  0.59375000000000000       0.37500000000000000        0.0000000000000000     
  0.62500000000000000       0.37500000000000000        0.0000000000000000     
  0.50000000000000000       0.40625000000000000        0.0000000000000000     
  0.53125000000000000       0.40625000000000000        0.0000000000000000     
  0.56250000000000000       0.40625000000000000        0.0000000000000000     
  0.59375000000000000       0.40625000000000000        0.0000000000000000     
  0.62500000000000000       0.40625000000000000        0.0000000000000000     
  0.50000000000000000       0.43750000000000000        0.0000000000000000     
  0.53125000000000000       0.43750000000000000        0.0000000000000000     
  0.56250000000000000       0.43750000000000000        0.0000000000000000     
  0.59375000000000000       0.43750000000000000        0.0000000000000000     
  0.62500000000000000       0.43750000000000000        0.0000000000000000     
  0.50000000000000000       0.46875000000000000        0.0000000000000000     
  0.53125000000000000       0.46875000000000000        0.0000000000000000     
  0.56250000000000000       0.46875000000000000        0.0000000000000000     
  0.59375000000000000       0.46875000000000000        0.0000000000000000     
  0.62500000000000000       0.46875000000000000        0.0000000000000000     
  0.50000000000000000       0.50000000000000000        0.0000000000000000     
  0.53125000000000000       0.50000000000000000        0.0000000000000000     
  0.56250000000000000       0.50000000000000000        0.0000000000000000     
  0.59375000000000000       0.50000000000000000        0.0000000000000000     
  0.62500000000000000       0.50000000000000000        0.0000000000000000     
  0.62500000000000000       0.37500000000000000        0.0000000000000000     
  0.65625000000000000       0.37500000000000000        0.0000000000000000     
  0.68750000000000000       0.37500000000000000        0.0000000000000000     
  0.71875000000000000       0.37500000000000000        0.0000000000000000     
  0.75000000000000000       0.37500000000000000        0.0000000000000000     
  0.62500000000000000       0.40625000000000000        0.0000000000000000     
  0.65625000000000000       0.40625000000000000        0.0000000000000000     
  0.68750000000000000       0.40625000000000000        0.0000000000000000     
  0.71875000000000000       0.40625000000000000        0.0000000000000000     
  0.75000000000000000       0.40625000000000000        0.0000000000000000     
  0.62500000000000000       0.43750000000000000        0.0000000000000000     
  0.65625000000000000       0.43750000000000000        0.0000000000000000     
  0.68750000000000000       0.43750000000000000        0.0000000000000000     
  0.71875000000000000       0.43750000000000000        0.0000000000000000     
  0.75000000000000000       0.43750000000000000        0.0000000000000000     
  0.62500000000000000       0.46875000000000000        0.0000000000000000     
  0.65625000000000000       0.46875000000000000        0.0000000000000000     
  0.68750000000000000       0.46875000000000000        0.0000000000000000     
  0.71875000000000000       0.46875000000000000        0.0000000000000000     
  0.75000000000000000       0.46875000000000000        0.0000000000000000     
  0.62500000000000000       0.50000000000000000        0.0000000000000000     
  0.65625000000000000       0.50000000000000000        0.0000000000000000     
  0.68750000000000000       0.50000000000000000        0.0000000000000000     
  0.71875000000000000       0.50000000000000000        0.0000000000000000     
  0.75000000000000000       0.50000000000000000        0.0000000000000000     
  0.75000000000000000       0.37500000000000000        0.0000000000000000     
  0.78125000000000000       0.37500000000000000        0.0000000000000000     
  0.81250000000000000       0.37500000000000000        0.0000000000000000     
  0.84375000000000000       0.37500000000000000        0.0000000000000000     
  0.87500000000000000       0.37500000000000000        0.0000000000000000     
  0.75000000000000000       0.40625000000000000        0.0000000000000000     
  0.78125000000000000       0.40625000000000000        0.0000000000000000     
  0.81250000000000000       0.40625000000000000        0.0000000000000000     
  0.84375000000000000       0.40625000000000000        0.0000000000000000     
  0.87500000000000000       0.40625000000000000        0.0000000000000000     
  0.75000000000000000       0.43750000000000000        0.0000000000000000     
  0.78125000000000000       0.43750000000000000        0.0000000000000000     
  0.81250000000000000       0.43750000000000000        0.0000000000000000     
  0.84375000000000000       0.43750000000000000        0.0000000000000000     
  0.87500000000000000       0.43750000000000000        0.0000000000000000     
  0.75000000000000000       0.46875000000000000        0.0000000000000000     
  0.78125000000000000       0.46875000000000000        0.0000000000000000     
  0.81250000000000000       0.46875000000000000        0.0000000000000000     
  0.84375000000000000       0.46875000000000000        0.0000000000000000     
  0.87500000000000000       0.46875000000000000        0.0000000000000000     
  0.75000000000000000       0.50000000000000000        0.0000000000000000     
  0.78125000000000000       0.50000000000000000        0.0000000000000000     
  0.81250000000000000       0.50000000000000000        0.0000000000000000     
  0.84375000000000000       0.50000000000000000        0.0000000000000000     
  0.87500000000000000       0.50000000000000000        0.0000000000000000     
  0.87500000000000000       0.37500000000000000        0.0000000000000000     
  0.90625000000000000       0.37500000000000000        0.0000000000000000     
  0.93750000000000000       0.37500000000000000        0.0000000000000000     
  0.96875000000000000       0.37500000000000000        0.0000000000000000     
   1.0000000000000000       0.37500000000000000        0.0000000000000000     
  0.87500000000000000       0.40625000000000000        0.0000000000000000     
  0.90625000000000000       0.40625000000000000        0.0000000000000000     
  0.93750000000000000       0.40625000000000000        0.0000000000000000     
  0.96875000000000000       0.40625000000000000        0.0000000000000000     
   1.0000000000000000       0.40625000000000000        0.0000000000000000     
  0.87500000000000000       0.43750000000000000        0.0000000000000000     
  0.90625000000000000       0.43750000000000000        0.0000000000000000     
  0.93750000000000000       0.43750000000000000        0.0000000000000000     
  0.96875000000000000       0.43750000000000000        0.0000000000000000     
   1.0000000000000000       0.43750000000000000        0.0000000000000000     
  0.87500000000000000       0.46875000000000000        0.0000000000000000     
  0.90625000000000000       0.46875000000000000        0.0000000000000000     
  0.93750000000000000       0.46875000000000000        0.0000000000000000     
  0.96875000000000000       0.46875000000000000        0.0000000000000000     
   1.0000000000000000       0.46875000000000000        0.0000000000000000     
  0.87500000000000000       0.50000000000000000        0.0000000000000000     
  0.90625000000000000       0.50000000000000000        0.0000000000000000     
  0.93750000000000000       0.50000000000000000        0.0000000000000000     
  0.96875000000000000       0.50000000000000000        0.0000000000000000     
   1.0000000000000000       0.50000000000000000        0.0000000000000000     
   1.0000000000000000       0.37500000000000000        0.0000000000000000     
   1.0312500000000000       0.37500000000000000        0.0000000000000000     
   1.0625000000000000       0.37500000000000000        0.0000000000000000     
   1.0937500000000000       0.37500000000000000        0.0000000000000000     
   1.1250000000000000       0.37500000000000000        0.0000000000000000     
   1.0000000000000000       0.40625000000000000        0.0000000000000000     
   1.0312500000000000       0.40625000000000000        0.0000000000000000     
   1.0625000000000000       0.40625000000000000        0.0000000000000000     
   1.0937500000000000       0.40625000000000000        0.0000000000000000     
   1.1250000000000000       0.40625000000000000        0.0000000000000000     
   1.0000000000000000       0.43750000000000000        0.0000000000000000     
   1.0312500000000000       0.43750000000000000        0.0000000000000000     
   1.0625000000000000       0.43750000000000000        0.0000000000000000     
   1.0937500000000000       0.43750000000000000        0.0000000000000000     
   1.1250000000000000       0.43750000000000000        0.0000000000000000     
   1.0000000000000000       0.46875000000000000        0.0000000000000000     
   1.0312500000000000       0.46875000000000000        0.0000000000000000     
   1.0625000000000000       0.46875000000000000        0.0000000000000000     
   1.0937500000000000       0.46875000000000000        0.0000000000000000     
   1.1250000000000000       0.46875000000000000        0.0000000000000000     
   1.0000000000000000       0.50000000000000000        0.0000000000000000     
   1.0312500000000000       0.50000000000000000        0.0000000000000000     
   1.0625000000000000       0.50000000000000000        0.0000000000000000     
   1.0937500000000000       0.50000000000000000        0.0000000000000000     
   1.1250000000000000       0.50000000000000000        0.0000000000000000     
   1.1250000000000000       0.37500000000000000        0.0000000000000000     
   1.1562500000000000       0.37500000000000000        0.0000000000000000     
   1.1875000000000000       0.37500000000000000        0.0000000000000000     
   1.2187500000000000       0.37500000000000000        0.0000000000000000     
   1.2500000000000000       0.37500000000000000        0.0000000000000000     
   1.1250000000000000       0.40625000000000000        0.0000000000000000     
   1.1562500000000000       0.40625000000000000        0.0000000000000000     
   1.1875000000000000       0.40625000000000000        0.0000000000000000     
   1.2187500000000000       0.40625000000000000        0.0000000000000000     
   1.2500000000000000       0.40625000000000000        0.0000000000000000     
   1.1250000000000000       0.43750000000000000        0.0000000000000000     
   1.1562500000000000       0.43750000000000000        0.0000000000000000     
   1.1875000000000000       0.43750000000000000        0.0000000000000000     
   1.2187500000000000       0.43750000000000000        0.0000000000000000     
   1.2500000000000000       0.43750000000000000        0.0000000000000000     
   1.1250000000000000       0.46875000000000000        0.0000000000000000     
   1.1562500000000000       0.46875000000000000        0.0000000000000000     
   1.1875000000000000       0.46875000000000000        0.0000000000000000     
   1.2187500000000000       0.46875000000000000        0.0000000000000000     
   1.2500000000000000       0.46875000000000000        0.0000000000000000     
   1.1250000000000000       0.50000000000000000        0.0000000000000000     
   1.1562500000000000       0.50000000000000000        0.0000000000000000     
   1.1875000000000000       0.50000000000000000        0.0000000000000000     
   1.2187500000000000       0.50000000000000000        0.0000000000000000     
   1.2500000000000000       0.50000000000000000        0.0000000000000000     
   1.2500000000000000       0.37500000000000000        0.0000000000000000     
   1.2812500000000000       0.37500000000000000        0.0000000000000000     
   1.3125000000000000       0.37500000000000000        0.0000000000000000     
   1.3437500000000000       0.37500000000000000        0.0000000000000000     
   1.3750000000000000       0.37500000000000000        0.0000000000000000     
   1.2500000000000000       0.40625000000000000        0.0000000000000000     
   1.2812500000000000       0.40625000000000000        0.0000000000000000     
   1.3125000000000000       0.40625000000000000        0.0000000000000000     
   1.3437500000000000       0.40625000000000000        0.0000000000000000     
   1.3750000000000000       0.40625000000000000        0.0000000000000000     
   1.2500000000000000       0.43750000000000000        0.0000000000000000     
   1.2812500000000000       0.43750000000000000        0.0000000000000000     
   1.3125000000000000       0.43750000000000000        0.0000000000000000     
   1.3437500000000000       0.43750000000000000        0.0000000000000000     
   1.3750000000000000       0.43750000000000000        0.0000000000000000     
   1.2500000000000000       0.46875000000000000        0.0000000000000000     
   1.2812500000000000       0.46875000000000000        0.0000000000000000     
   1.3125000000000000       0.46875000000000000        0.0000000000000000     
   1.3437500000000000       0.46875000000000000        0.0000000000000000     
   1.3750000000000000       0.46875000000000000        0.0000000000000000     
   1.2500000000000000       0.50000000000000000        0.0000000000000000     
   1.2812500000000000       0.50000000000000000        0.0000000000000000     
   1.3125000000000000       0.50000000000000000        0.0000000000000000     
   1.3437500000000000       0.50000000000000000        0.0000000000000000     
   1.3750000000000000       0.50000000000000000        0.0000000000000000     
   1.3750000000000000       0.37500000000000000        0.0000000000000000     
   1.4062500000000000       0.37500000000000000        0.0000000000000000     
   1.4375000000000000       0.37500000000000000        0.0000000000000000     
   1.4687500000000000       0.37500000000000000        0.0000000000000000     
   1.5000000000000000       0.37500000000000000        0.0000000000000000     
   1.3750000000000000       0.40625000000000000        0.0000000000000000     
   1.4062500000000000       0.40625000000000000        0.0000000000000000     
   1.4375000000000000       0.40625000000000000        0.0000000000000000     
   1.4687500000000000       0.40625000000000000        0.0000000000000000     
   1.5000000000000000       0.40625000000000000        0.0000000000000000     
   1.3750000000000000       0.43750000000000000        0.0000000000000000     
   1.4062500000000000       0.43750000000000000        0.0000000000000000     
   1.4375000000000000       0.43750000000000000        0.0000000000000000     
   1.4687500000000000       0.43750000000000000        0.0000000000000000     
   1.5000000000000000       0.43750000000000000        0.0000000000000000     
   1.3750000000000000       0.46875000000000000        0.0000000000000000     
   1.4062500000000000       0.46875000000000000        0.0000000000000000     
   1.4375000000000000       0.46875000000000000        0.0000000000000000     
   1.4687500000000000       0.46875000000000000        0.0000000000000000     
   1.5000000000000000       0.46875000000000000        0.0000000000000000     
   1.3750000000000000       0.50000000000000000        0.0000000000000000     
   1.4062500000000000       0.50000000000000000        0.0000000000000000     
   1.4375000000000000       0.50000000000000000        0.0000000000000000     
   1.4687500000000000       0.50000000000000000        0.0000000000000000     
   1.5000000000000000       0.50000000000000000        0.0000000000000000     
  0.50000000000000000       0.50000000000000000        0.0000000000000000     
  0.53125000000000000       0.50000000000000000        0.0000000000000000     
  0.56250000000000000       0.50000000000000000        0.0000000000000000     
  0.59375000000000000       0.50000000000000000        0.0000000000000000     
  0.62500000000000000       0.50000000000000000        0.0000000000000000     
  0.50000000000000000       0.53125000000000000        0.0000000000000000     
  0.53125000000000000       0.53125000000000000        0.0000000000000000     
  0.56250000000000000       0.53125000000000000        0.0000000000000000     
  0.59375000000000000       0.53125000000000000        0.0000000000000000     
  0.62500000000000000       0.53125000000000000        0.0000000000000000     
  0.50000000000000000       0.56250000000000000        0.0000000000000000     
  0.53125000000000000       0.56250000000000000        0.0000000000000000     
  0.56250000000000000       0.56250000000000000        0.0000000000000000     
  0.59375000000000000       0.56250000000000000        0.0000000000000000     
  0.62500000000000000       0.56250000000000000        0.0000000000000000     
  0.50000000000000000       0.59375000000000000        0.0000000000000000     
  0.53125000000000000       0.59375000000000000        0.0000000000000000     
  0.56250000000000000       0.59375000000000000        0.0000000000000000     
  0.59375000000000000       0.59375000000000000        0.0000000000000000     
  0.62500000000000000       0.59375000000000000        0.0000000000000000     
  0.50000000000000000       0.62500000000000000        0.0000000000000000     
  0.53125000000000000       0.62500000000000000        0.0000000000000000     
  0.56250000000000000       0.62500000000000000        0.0000000000000000     
  0.59375000000000000       0.62500000000000000        0.0000000000000000     
  0.62500000000000000       0.62500000000000000        0.0000000000000000     
  0.62500000000000000       0.50000000000000000        0.0000000000000000     
  0.65625000000000000       0.50000000000000000        0.0000000000000000     
  0.68750000000000000       0.50000000000000000        0.0000000000000000     
  0.71875000000000000       0.50000000000000000        0.0000000000000000     
  0.75000000000000000       0.50000000000000000        0.0000000000000000     
  0.62500000000000000       0.53125000000000000        0.0000000000000000     
  0.65625000000000000       0.53125000000000000        0.0000000000000000     
  0.68750000000000000       0.53125000000000000        0.0000000000000000     
  0.71875000000000000       0.53125000000000000        0.0000000000000000     
  0.75000000000000000       0.53125000000000000        0.0000000000000000     
  0.62500000000000000       0.56250000000000000        0.0000000000000000     
  0.65625000000000000       0.56250000000000000        0.0000000000000000     
  0.68750000000000000       0.56250000000000000        0.0000000000000000     
  0.71875000000000000       0.56250000000000000        0.0000000000000000     
  0.75000000000000000       0.56250000000000000        0.0000000000000000     
  0.62500000000000000       0.59375000000000000        0.0000000000000000     
  0.65625000000000000       0.59375000000000000        0.0000000000000000     
  0.68750000000000000       0.59375000000000000        0.0000000000000000     
  0.71875000000000000       0.59375000000000000        0.0000000000000000     
  0.75000000000000000       0.59375000000000000        0.0000000000000000     
  0.62500000000000000       0.62500000000000000        0.0000000000000000     
  0.65625000000000000       0.62500000000000000        0.0000000000000000     
  0.68750000000000000       0.62500000000000000        0.0000000000000000     
  0.71875000000000000       0.62500000000000000        0.0000000000000000     
  0.75000000000000000       0.62500000000000000        0.0000000000000000     
  0.75000000000000000       0.50000000000000000        0.0000000000000000     
  0.78125000000000000       0.50000000000000000        0.0000000000000000     
  0.81250000000000000       0.50000000000000000        0.0000000000000000     
  0.84375000000000000       0.50000000000000000        0.0000000000000000     
  0.87500000000000000       0.50000000000000000        0.0000000000000000     
  0.75000000000000000       0.53125000000000000        0.0000000000000000     
  0.78125000000000000       0.53125000000000000        0.0000000000000000     
  0.81250000000000000       0.53125000000000000        0.0000000000000000     
  0.84375000000000000       0.53125000000000000        0.0000000000000000     
  0.87500000000000000       0.53125000000000000        0.0000000000000000     
  0.75000000000000000       0.56250000000000000        0.0000000000000000     
  0.78125000000000000       0.56250000000000000        0.0000000000000000     
  0.81250000000000000       0.56250000000000000        0.0000000000000000     
  0.84375000000000000       0.56250000000000000        0.0000000000000000     
  0.87500000000000000       0.56250000000000000        0.0000000000000000     
  0.75000000000000000       0.59375000000000000        0.0000000000000000     
  0.78125000000000000       0.59375000000000000        0.0000000000000000     
  0.81250000000000000       0.59375000000000000        0.0000000000000000     
  0.84375000000000000       0.59375000000000000        0.0000000000000000     
  0.87500000000000000       0.59375000000000000        0.0000000000000000     
  0.75000000000000000       0.62500000000000000        0.0000000000000000     
  0.78125000000000000       0.62500000000000000        0.0000000000000000     
  0.81250000000000000       0.62500000000000000        0.0000000000000000     
  0.84375000000000000       0.62500000000000000        0.0000000000000000     
  0.87500000000000000       0.62500000000000000        0.0000000000000000     
  0.87500000000000000       0.50000000000000000        0.0000000000000000     
  0.90625000000000000       0.50000000000000000        0.0000000000000000     
  0.93750000000000000       0.50000000000000000        0.0000000000000000     
  0.96875000000000000       0.50000000000000000        0.0000000000000000     
   1.0000000000000000       0.50000000000000000        0.0000000000000000     
  0.87500000000000000       0.53125000000000000        0.0000000000000000     
  0.90625000000000000       0.53125000000000000        0.0000000000000000     
  0.93750000000000000       0.53125000000000000        0.0000000000000000     
  0.96875000000000000       0.53125000000000000        0.0000000000000000     
   1.0000000000000000       0.53125000000000000        0.0000000000000000     
  0.87500000000000000       0.56250000000000000        0.0000000000000000     
  0.90625000000000000       0.56250000000000000        0.0000000000000000     
  0.93750000000000000       0.56250000000000000        0.0000000000000000     
  0.96875000000000000       0.56250000000000000        0.0000000000000000     
   1.0000000000000000       0.56250000000000000        0.0000000000000000     
  0.87500000000000000       0.59375000000000000        0.0000000000000000     
  0.90625000000000000       0.59375000000000000        0.0000000000000000     
  0.93750000000000000       0.59375000000000000        0.0000000000000000     
  0.96875000000000000       0.59375000000000000        0.0000000000000000     
   1.0000000000000000       0.59375000000000000        0.0000000000000000     
  0.87500000000000000       0.62500000000000000        0.0000000000000000     
  0.90625000000000000       0.62500000000000000        0.0000000000000000     
  0.93750000000000000       0.62500000000000000        0.0000000000000000     
  0.96875000000000000       0.62500000000000000        0.0000000000000000     
   1.0000000000000000       0.62500000000000000        0.0000000000000000     
   1.0000000000000000       0.50000000000000000        0.0000000000000000     
   1.0312500000000000       0.50000000000000000        0.0000000000000000     
   1.0625000000000000       0.50000000000000000        0.0000000000000000     
   1.0937500000000000       0.50000000000000000        0.0000000000000000     
   1.1250000000000000       0.50000000000000000        0.0000000000000000     
   1.0000000000000000       0.53125000000000000        0.0000000000000000     
   1.0312500000000000       0.53125000000000000        0.0000000000000000     
   1.0625000000000000       0.53125000000000000        0.0000000000000000     
   1.0937500000000000       0.53125000000000000        0.0000000000000000     
   1.1250000000000000       0.53125000000000000        0.0000000000000000     
   1.0000000000000000       0.56250000000000000        0.0000000000000000     
   1.0312500000000000       0.56250000000000000        0.0000000000000000     
   1.0625000000000000       0.56250000000000000        0.0000000000000000     
   1.0937500000000000       0.56250000000000000        0.0000000000000000     
   1.1250000000000000       0.56250000000000000        0.0000000000000000     
   1.0000000000000000       0.59375000000000000        0.0000000000000000     
   1.0312500000000000       0.59375000000000000        0.0000000000000000     
   1.0625000000000000       0.59375000000000000        0.0000000000000000     
   1.0937500000000000       0.59375000000000000        0.0000000000000000     
   1.1250000000000000       0.59375000000000000        0.0000000000000000     
   1.0000000000000000       0.62500000000000000        0.0000000000000000     
   1.0312500000000000       0.62500000000000000        0.0000000000000000     
   1.0625000000000000       0.62500000000000000        0.0000000000000000     
   1.0937500000000000       0.62500000000000000        0.0000000000000000     
   1.1250000000000000       0.62500000000000000        0.0000000000000000     
   1.1250000000000000       0.50000000000000000        0.0000000000000000     
   1.1562500000000000       0.50000000000000000        0.0000000000000000     
   1.1875000000000000       0.50000000000000000        0.0000000000000000     
   1.2187500000000000       0.50000000000000000        0.0000000000000000     
   1.2500000000000000       0.50000000000000000        0.0000000000000000     
   1.1250000000000000       0.53125000000000000        0.0000000000000000     
   1.1562500000000000       0.53125000000000000        0.0000000000000000     
   1.1875000000000000       0.53125000000000000        0.0000000000000000     
   1.2187500000000000       0.53125000000000000        0.0000000000000000     
   1.2500000000000000       0.53125000000000000        0.0000000000000000     
   1.1250000000000000       0.56250000000000000        0.0000000000000000     
   1.1562500000000000       0.56250000000000000        0.0000000000000000     
   1.1875000000000000       0.56250000000000000        0.0000000000000000     
   1.2187500000000000       0.56250000000000000        0.0000000000000000     
   1.2500000000000000       0.56250000000000000        0.0000000000000000     
   1.1250000000000000       0.59375000000000000        0.0000000000000000     
   1.1562500000000000       0.59375000000000000        0.0000000000000000     
   1.1875000000000000       0.59375000000000000        0.0000000000000000     
   1.2187500000000000       0.59375000000000000        0.0000000000000000     
   1.2500000000000000       0.59375000000000000        0.0000000000000000     
   1.1250000000000000       0.62500000000000000        0.0000000000000000     
   1.1562500000000000       0.62500000000000000        0.0000000000000000     
   1.1875000000000000       0.62500000000000000        0.0000000000000000     
   1.2187500000000000       0.62500000000000000        0.0000000000000000     
   1.2500000000000000       0.62500000000000000        0.0000000000000000     
   1.2500000000000000       0.50000000000000000        0.0000000000000000     
   1.2812500000000000       0.50000000000000000        0.0000000000000000     
   1.3125000000000000       0.50000000000000000        0.0000000000000000     
   1.3437500000000000       0.50000000000000000        0.0000000000000000     
   1.3750000000000000       0.50000000000000000        0.0000000000000000     
   1.2500000000000000       0.53125000000000000        0.0000000000000000     
   1.2812500000000000       0.53125000000000000        0.0000000000000000     
   1.3125000000000000       0.53125000000000000        0.0000000000000000     
   1.3437500000000000       0.53125000000000000        0.0000000000000000     
   1.3750000000000000       0.53125000000000000        0.0000000000000000     
   1.2500000000000000       0.56250000000000000        0.0000000000000000     
   1.2812500000000000       0.56250000000000000        0.0000000000000000     
   1.3125000000000000       0.56250000000000000        0.0000000000000000     
   1.3437500000000000       0.56250000000000000        0.0000000000000000     
   1.3750000000000000       0.56250000000000000        0.0000000000000000     
   1.2500000000000000       0.59375000000000000        0.0000000000000000     
   1.2812500000000000       0.59375000000000000        0.0000000000000000     
   1.3125000000000000       0.59375000000000000        0.0000000000000000     
   1.3437500000000000       0.59375000000000000        0.0000000000000000     
   1.3750000000000000       0.59375000000000000        0.0000000000000000     
   1.2500000000000000       0.62500000000000000        0.0000000000000000     
   1.2812500000000000       0.62500000000000000        0.0000000000000000     
   1.3125000000000000       0.62500000000000000        0.0000000000000000     
   1.3437500000000000       0.62500000000000000        0.0000000000000000     
   1.3750000000000000       0.62500000000000000        0.0000000000000000     
   1.3750000000000000       0.50000000000000000        0.0000000000000000     
   1.4062500000000000       0.50000000000000000        0.0000000000000000     
   1.4375000000000000       0.50000000000000000        0.0000000000000000     
   1.4687500000000000       0.50000000000000000        0.0000000000000000     
   1.5000000000000000       0.50000000000000000        0.0000000000000000     
   1.3750000000000000       0.53125000000000000        0.0000000000000000     
   1.4062500000000000       0.53125000000000000        0.0000000000000000     
   1.4375000000000000       0.53125000000000000        0.0000000000000000     
   1.4687500000000000       0.53125000000000000        0.0000000000000000     
   1.5000000000000000       0.53125000000000000        0.0000000000000000     
   1.3750000000000000       0.56250000000000000        0.0000000000000000     
   1.4062500000000000       0.56250000000000000        0.0000000000000000     
   1.4375000000000000       0.56250000000000000        0.0000000000000000     
   1.4687500000000000       0.56250000000000000        0.0000000000000000     
   1.5000000000000000       0.56250000000000000        0.0000000000000000     
   1.3750000000000000       0.59375000000000000        0.0000000000000000     
   1.4062500000000000       0.59375000000000000        0.0000000000000000     
   1.4375000000000000       0.59375000000000000        0.0000000000000000     
   1.4687500000000000       0.59375000000000000        0.0000000000000000     
   1.5000000000000000       0.59375000000000000        0.0000000000000000     
   1.3750000000000000       0.62500000000000000        0.0000000000000000     
   1.4062500000000000       0.62500000000000000        0.0000000000000000     
   1.4375000000000000       0.62500000000000000        0.0000000000000000     
   1.4687500000000000       0.62500000000000000        0.0000000000000000     
   1.5000000000000000       0.62500000000000000        0.0000000000000000     
  0.50000000000000000       0.62500000000000000        0.0000000000000000     
  0.53125000000000000       0.62500000000000000        0.0000000000000000     
  0.56250000000000000       0.62500000000000000        0.0000000000000000     
  0.59375000000000000       0.62500000000000000        0.0000000000000000     
  0.62500000000000000       0.62500000000000000        0.0000000000000000     
  0.50000000000000000       0.65625000000000000        0.0000000000000000     
  0.53125000000000000       0.65625000000000000        0.0000000000000000     
  0.56250000000000000       0.65625000000000000        0.0000000000000000     
  0.59375000000000000       0.65625000000000000        0.0000000000000000     
  0.62500000000000000       0.65625000000000000        0.0000000000000000     
  0.50000000000000000       0.68750000000000000        0.0000000000000000     
  0.53125000000000000       0.68750000000000000        0.0000000000000000     
  0.56250000000000000       0.68750000000000000        0.0000000000000000     
  0.59375000000000000       0.68750000000000000        0.0000000000000000     
  0.62500000000000000       0.68750000000000000        0.0000000000000000     
  0.50000000000000000       0.71875000000000000        0.0000000000000000     
  0.53125000000000000       0.71875000000000000        0.0000000000000000     
  0.56250000000000000       0.71875000000000000        0.0000000000000000     
  0.59375000000000000       0.71875000000000000        0.0000000000000000     
  0.62500000000000000       0.71875000000000000        0.0000000000000000     
  0.50000000000000000       0.75000000000000000        0.0000000000000000     
  0.53125000000000000       0.75000000000000000        0.0000000000000000     
  0.56250000000000000       0.75000000000000000        0.0000000000000000     
  0.59375000000000000       0.75000000000000000        0.0000000000000000     
  0.62500000000000000       0.75000000000000000        0.0000000000000000     
  0.62500000000000000       0.62500000000000000        0.0000000000000000     
  0.65625000000000000       0.62500000000000000        0.0000000000000000     
  0.68750000000000000       0.62500000000000000        0.0000000000000000     
  0.71875000000000000       0.62500000000000000        0.0000000000000000     
  0.75000000000000000       0.62500000000000000        0.0000000000000000     
  0.62500000000000000       0.65625000000000000        0.0000000000000000     
  0.65625000000000000       0.65625000000000000        0.0000000000000000     
  0.68750000000000000       0.65625000000000000        0.0000000000000000     
  0.71875000000000000       0.65625000000000000        0.0000000000000000     
  0.75000000000000000       0.65625000000000000        0.0000000000000000     
  0.62500000000000000       0.68750000000000000        0.0000000000000000     
  0.65625000000000000       0.68750000000000000        0.0000000000000000     
  0.68750000000000000       0.68750000000000000        0.0000000000000000     
  0.71875000000000000       0.68750000000000000        0.0000000000000000     
  0.75000000000000000       0.68750000000000000        0.0000000000000000     
  0.62500000000000000       0.71875000000000000        0.0000000000000000     
  0.65625000000000000       0.71875000000000000        0.0000000000000000     
  0.68750000000000000       0.71875000000000000        0.0000000000000000     
  0.71875000000000000       0.71875000000000000        0.0000000000000000     
  0.75000000000000000       0.71875000000000000        0.0000000000000000     
  0.62500000000000000       0.75000000000000000        0.0000000000000000     
  0.65625000000000000       0.75000000000000000        0.0000000000000000     
  0.68750000000000000       0.75000000000000000        0.0000000000000000     
  0.71875000000000000       0.75000000000000000        0.0000000000000000     
  0.75000000000000000       0.75000000000000000        0.0000000000000000     
  0.75000000000000000       0.62500000000000000        0.0000000000000000     
  0.78125000000000000       0.62500000000000000        0.0000000000000000     
  0.81250000000000000       0.62500000000000000        0.0000000000000000     
  0.84375000000000000       0.62500000000000000        0.0000000000000000     
  0.87500000000000000       0.62500000000000000        0.0000000000000000     
  0.75000000000000000       0.65625000000000000        0.0000000000000000     
  0.78125000000000000       0.65625000000000000        0.0000000000000000     
  0.81250000000000000       0.65625000000000000        0.0000000000000000     
  0.84375000000000000       0.65625000000000000        0.0000000000000000     
  0.87500000000000000       0.65625000000000000        0.0000000000000000     
  0.75000000000000000       0.68750000000000000        0.0000000000000000     
  0.78125000000000000       0.68750000000000000        0.0000000000000000     
  0.81250000000000000       0.68750000000000000        0.0000000000000000     
  0.84375000000000000       0.68750000000000000        0.0000000000000000     
  0.87500000000000000       0.68750000000000000        0.0000000000000000     
  0.75000000000000000       0.71875000000000000        0.0000000000000000     
  0.78125000000000000       0.71875000000000000        0.0000000000000000     
  0.81250000000000000       0.71875000000000000        0.0000000000000000     
  0.84375000000000000       0.71875000000000000        0.0000000000000000     
  0.87500000000000000       0.71875000000000000        0.0000000000000000     
  0.75000000000000000       0.75000000000000000        0.0000000000000000     
  0.78125000000000000       0.75000000000000000        0.0000000000000000     
  0.81250000000000000       0.75000000000000000        0.0000000000000000     
  0.84375000000000000       0.75000000000000000        0.0000000000000000     
  0.87500000000000000       0.75000000000000000        0.0000000000000000     
  0.87500000000000000       0.62500000000000000        0.0000000000000000     
  0.90625000000000000       0.62500000000000000        0.0000000000000000     
  0.93750000000000000       0.62500000000000000        0.0000000000000000     
  0.96875000000000000       0.62500000000000000        0.0000000000000000     
   1.0000000000000000       0.62500000000000000        0.0000000000000000     
  0.87500000000000000       0.65625000000000000        0.0000000000000000     
  0.90625000000000000       0.65625000000000000        0.0000000000000000     
  0.93750000000000000       0.65625000000000000        0.0000000000000000     
  0.96875000000000000       0.65625000000000000        0.0000000000000000     
   1.0000000000000000       0.65625000000000000        0.0000000000000000     
  0.87500000000000000       0.68750000000000000        0.0000000000000000     
  0.90625000000000000       0.68750000000000000        0.0000000000000000     
  0.93750000000000000       0.68750000000000000        0.0000000000000000     
  0.96875000000000000       0.68750000000000000        0.0000000000000000     
   1.0000000000000000       0.68750000000000000        0.0000000000000000     
  0.87500000000000000       0.71875000000000000        0.0000000000000000     
  0.90625000000000000       0.71875000000000000        0.0000000000000000     
  0.93750000000000000       0.71875000000000000        0.0000000000000000     
  0.96875000000000000       0.71875000000000000        0.0000000000000000     
   1.0000000000000000       0.71875000000000000        0.0000000000000000     
  0.87500000000000000       0.75000000000000000        0.0000000000000000     
  0.90625000000000000       0.75000000000000000        0.0000000000000000     
  0.93750000000000000       0.75000000000000000        0.0000000000000000     
  0.96875000000000000       0.75000000000000000        0.0000000000000000     
   1.0000000000000000       0.75000000000000000        0.0000000000000000     
   1.0000000000000000       0.62500000000000000        0.0000000000000000     
   1.0312500000000000       0.62500000000000000        0.0000000000000000     
   1.0625000000000000       0.62500000000000000        0.0000000000000000     
   1.0937500000000000       0.62500000000000000        0.0000000000000000     
   1.1250000000000000       0.62500000000000000        0.0000000000000000     
   1.0000000000000000       0.65625000000000000        0.0000000000000000     
   1.0312500000000000       0.65625000000000000        0.0000000000000000     
   1.0625000000000000       0.65625000000000000        0.0000000000000000     
   1.0937500000000000       0.65625000000000000        0.0000000000000000     
   1.1250000000000000       0.65625000000000000        0.0000000000000000     
   1.0000000000000000       0.68750000000000000        0.0000000000000000     
   1.0312500000000000       0.68750000000000000        0.0000000000000000     
   1.0625000000000000       0.68750000000000000        0.0000000000000000     
   1.0937500000000000       0.68750000000000000        0.0000000000000000     
   1.1250000000000000       0.68750000000000000        0.0000000000000000     
   1.0000000000000000       0.71875000000000000        0.0000000000000000     
   1.0312500000000000       0.71875000000000000        0.0000000000000000     
   1.0625000000000000       0.71875000000000000        0.0000000000000000     
   1.0937500000000000       0.71875000000000000        0.0000000000000000     
   1.1250000000000000       0.71875000000000000        0.0000000000000000     
   1.0000000000000000       0.75000000000000000        0.0000000000000000     
   1.0312500000000000       0.75000000000000000        0.0000000000000000     
   1.0625000000000000       0.75000000000000000        0.0000000000000000     
   1.0937500000000000       0.75000000000000000        0.0000000000000000     
   1.1250000000000000       0.75000000000000000        0.0000000000000000     
   1.1250000000000000       0.62500000000000000        0.0000000000000000     
   1.1562500000000000       0.62500000000000000        0.0000000000000000     
   1.1875000000000000       0.62500000000000000        0.0000000000000000     
   1.2187500000000000       0.62500000000000000        0.0000000000000000     
   1.2500000000000000       0.62500000000000000        0.0000000000000000     
   1.1250000000000000       0.65625000000000000        0.0000000000000000     
   1.1562500000000000       0.65625000000000000        0.0000000000000000     
   1.1875000000000000       0.65625000000000000        0.0000000000000000     
   1.2187500000000000       0.65625000000000000        0.0000000000000000     
   1.2500000000000000       0.65625000000000000        0.0000000000000000     
   1.1250000000000000       0.68750000000000000        0.0000000000000000     
   1.1562500000000000       0.68750000000000000        0.0000000000000000     
   1.1875000000000000       0.68750000000000000        0.0000000000000000     
   1.2187500000000000       0.68750000000000000        0.0000000000000000     
   1.2500000000000000       0.68750000000000000        0.0000000000000000     
   1.1250000000000000       0.71875000000000000        0.0000000000000000     
   1.1562500000000000       0.71875000000000000        0.0000000000000000     
   1.1875000000000000       0.71875000000000000        0.0000000000000000     
   1.2187500000000000       0.71875000000000000        0.0000000000000000     
   1.2500000000000000       0.71875000000000000        0.0000000000000000     
   1.1250000000000000       0.75000000000000000        0.0000000000000000     
   1.1562500000000000       0.75000000000000000        0.0000000000000000     
   1.1875000000000000       0.75000000000000000        0.0000000000000000     
   1.2187500000000000       0.75000000000000000        0.0000000000000000     
   1.2500000000000000       0.75000000000000000        0.0000000000000000     
   1.2500000000000000       0.62500000000000000        0.0000000000000000     
   1.2812500000000000       0.62500000000000000        0.0000000000000000     
   1.3125000000000000       0.62500000000000000        0.0000000000000000     
   1.3437500000000000       0.62500000000000000        0.0000000000000000     
   1.3750000000000000       0.62500000000000000        0.0000000000000000     
   1.2500000000000000       0.65625000000000000        0.0000000000000000     
   1.2812500000000000       0.65625000000000000        0.0000000000000000     
   1.3125000000000000       0.65625000000000000        0.0000000000000000     
   1.3437500000000000       0.65625000000000000        0.0000000000000000     
   1.3750000000000000       0.65625000000000000        0.0000000000000000     
   1.2500000000000000       0.68750000000000000        0.0000000000000000     
   1.2812500000000000       0.68750000000000000        0.0000000000000000     
   1.3125000000000000       0.68750000000000000        0.0000000000000000     
   1.3437500000000000       0.68750000000000000        0.0000000000000000     
   1.3750000000000000       0.68750000000000000        0.0000000000000000     
   1.2500000000000000       0.71875000000000000        0.0000000000000000     
   1.2812500000000000       0.71875000000000000        0.0000000000000000     
   1.3125000000000000       0.71875000000000000        0.0000000000000000     
   1.3437500000000000       0.71875000000000000        0.0000000000000000     
   1.3750000000000000       0.71875000000000000        0.0000000000000000     
   1.2500000000000000       0.75000000000000000        0.0000000000000000     
   1.2812500000000000       0.75000000000000000        0.0000000000000000     
   1.3125000000000000       0.75000000000000000        0.0000000000000000     
   1.3437500000000000       0.75000000000000000        0.0000000000000000     
   1.3750000000000000       0.75000000000000000        0.0000000000000000     
   1.3750000000000000       0.62500000000000000        0.0000000000000000     
   1.4062500000000000       0.62500000000000000        0.0000000000000000     
   1.4375000000000000       0.62500000000000000        0.0000000000000000     
   1.4687500000000000       0.62500000000000000        0.0000000000000000     
   1.5000000000000000       0.62500000000000000        0.0000000000000000     
   1.3750000000000000       0.65625000000000000        0.0000000000000000     
   1.4062500000000000       0.65625000000000000        0.0000000000000000     
   1.4375000000000000       0.65625000000000000        0.0000000000000000     
   1.4687500000000000       0.65625000000000000        0.0000000000000000     
   1.5000000000000000       0.65625000000000000        0.0000000000000000     
   1.3750000000000000       0.68750000000000000        0.0000000000000000     
   1.4062500000000000       0.68750000000000000        0.0000000000000000     
   1.4375000000000000       0.68750000000000000        0.0000000000000000     
   1.4687500000000000       0.68750000000000000        0.0000000000000000     
   1.5000000000000000       0.68750000000000000        0.0000000000000000     
   1.3750000000000000       0.71875000000000000        0.0000000000000000     
   1.4062500000000000       0.71875000000000000        0.0000000000000000     
   1.4375000000000000       0.71875000000000000        0.0000000000000000     
   1.4687500000000000       0.71875000000000000        0.0000000000000000     
   1.5000000000000000       0.71875000000000000        0.0000000000000000     
   1.3750000000000000       0.75000000000000000        0.0000000000000000     
   1.4062500000000000       0.75000000000000000        0.0000000000000000     
   1.4375000000000000       0.75000000000000000        0.0000000000000000     
   1.4687500000000000       0.75000000000000000        0.0000000000000000     
   1.5000000000000000       0.75000000000000000        0.0000000000000000     
  0.50000000000000000       0.75000000000000000        0.0000000000000000     
  0.53125000000000000       0.75000000000000000        0.0000000000000000     
  0.56250000000000000       0.75000000000000000        0.0000000000000000     
  0.59375000000000000       0.75000000000000000        0.0000000000000000     
  0.62500000000000000       0.75000000000000000        0.0000000000000000     
  0.50000000000000000       0.78125000000000000        0.0000000000000000     
  0.53125000000000000       0.78125000000000000        0.0000000000000000     
  0.56250000000000000       0.78125000000000000        0.0000000000000000     
  0.59375000000000000       0.78125000000000000        0.0000000000000000     
  0.62500000000000000       0.78125000000000000        0.0000000000000000     
  0.50000000000000000       0.81250000000000000        0.0000000000000000     
  0.53125000000000000       0.81250000000000000        0.0000000000000000     
  0.56250000000000000       0.81250000000000000        0.0000000000000000     
  0.59375000000000000       0.81250000000000000        0.0000000000000000     
  0.62500000000000000       0.81250000000000000        0.0000000000000000     
  0.50000000000000000       0.84375000000000000        0.0000000000000000     
  0.53125000000000000       0.84375000000000000        0.0000000000000000     
  0.56250000000000000       0.84375000000000000        0.0000000000000000     
  0.59375000000000000       0.84375000000000000        0.0000000000000000     
  0.62500000000000000       0.84375000000000000        0.0000000000000000     
  0.50000000000000000       0.87500000000000000        0.0000000000000000     
  0.53125000000000000       0.87500000000000000        0.0000000000000000     
  0.56250000000000000       0.87500000000000000        0.0000000000000000     
  0.59375000000000000       0.87500000000000000        0.0000000000000000     
  0.62500000000000000       0.87500000000000000        0.0000000000000000     
  0.62500000000000000       0.75000000000000000        0.0000000000000000     
  0.65625000000000000       0.75000000000000000        0.0000000000000000     
  0.68750000000000000       0.75000000000000000        0.0000000000000000     
  0.71875000000000000       0.75000000000000000        0.0000000000000000     
  0.75000000000000000       0.75000000000000000        0.0000000000000000     
  0.62500000000000000       0.78125000000000000        0.0000000000000000     
  0.65625000000000000       0.78125000000000000        0.0000000000000000     
  0.68750000000000000       0.78125000000000000        0.0000000000000000     
  0.71875000000000000       0.78125000000000000        0.0000000000000000     
  0.75000000000000000       0.78125000000000000        0.0000000000000000     
  0.62500000000000000       0.81250000000000000        0.0000000000000000     
  0.65625000000000000       0.81250000000000000        0.0000000000000000     
  0.68750000000000000       0.81250000000000000        0.0000000000000000     
  0.71875000000000000       0.81250000000000000        0.0000000000000000     
  0.75000000000000000       0.81250000000000000        0.0000000000000000     
  0.62500000000000000       0.84375000000000000        0.0000000000000000     
  0.65625000000000000       0.84375000000000000        0.0000000000000000     
  0.68750000000000000       0.84375000000000000        0.0000000000000000     
  0.71875000000000000       0.84375000000000000        0.0000000000000000     
  0.75000000000000000       0.84375000000000000        0.0000000000000000     
  0.62500000000000000       0.87500000000000000        0.0000000000000000     
  0.65625000000000000       0.87500000000000000        0.0000000000000000     
  0.68750000000000000       0.87500000000000000        0.0000000000000000     
  0.71875000000000000       0.87500000000000000        0.0000000000000000     
  0.75000000000000000       0.87500000000000000        0.0000000000000000     
  0.75000000000000000       0.75000000000000000        0.0000000000000000     
  0.78125000000000000       0.75000000000000000        0.0000000000000000     
  0.81250000000000000       0.75000000000000000        0.0000000000000000     
  0.84375000000000000       0.75000000000000000        0.0000000000000000     
  0.87500000000000000       0.75000000000000000        0.0000000000000000     
  0.75000000000000000       0.78125000000000000        0.0000000000000000     
  0.78125000000000000       0.78125000000000000        0.0000000000000000     
  0.81250000000000000       0.78125000000000000        0.0000000000000000     
  0.84375000000000000       0.78125000000000000        0.0000000000000000     
  0.87500000000000000       0.78125000000000000        0.0000000000000000     
  0.75000000000000000       0.81250000000000000        0.0000000000000000     
  0.78125000000000000       0.81250000000000000        0.0000000000000000     
  0.81250000000000000       0.81250000000000000        0.0000000000000000     
  0.84375000000000000       0.81250000000000000        0.0000000000000000     
  0.87500000000000000       0.81250000000000000        0.0000000000000000     
  0.75000000000000000       0.84375000000000000        0.0000000000000000     
  0.78125000000000000       0.84375000000000000        0.0000000000000000     
  0.81250000000000000       0.84375000000000000        0.0000000000000000     
  0.84375000000000000       0.84375000000000000        0.0000000000000000     
  0.87500000000000000       0.84375000000000000        0.0000000000000000     
  0.75000000000000000       0.87500000000000000        0.0000000000000000     
  0.78125000000000000       0.87500000000000000        0.0000000000000000     
  0.81250000000000000       0.87500000000000000        0.0000000000000000     
  0.84375000000000000       0.87500000000000000        0.0000000000000000     
  0.87500000000000000       0.87500000000000000        0.0000000000000000     
  0.87500000000000000       0.75000000000000000        0.0000000000000000     
  0.90625000000000000       0.75000000000000000        0.0000000000000000     
  0.93750000000000000       0.75000000000000000        0.0000000000000000     
  0.96875000000000000       0.75000000000000000        0.0000000000000000     
   1.0000000000000000       0.75000000000000000        0.0000000000000000     
  0.87500000000000000       0.78125000000000000        0.0000000000000000     
  0.90625000000000000       0.78125000000000000        0.0000000000000000     
  0.93750000000000000       0.78125000000000000        0.0000000000000000     
  0.96875000000000000       0.78125000000000000        0.0000000000000000     
   1.0000000000000000       0.78125000000000000        0.0000000000000000     
  0.87500000000000000       0.81250000000000000        0.0000000000000000     
  0.90625000000000000       0.81250000000000000        0.0000000000000000     
  0.93750000000000000       0.81250000000000000        0.0000000000000000     
  0.96875000000000000       0.81250000000000000        0.0000000000000000     
   1.0000000000000000       0.81250000000000000        0.0000000000000000     
  0.87500000000000000       0.84375000000000000        0.0000000000000000     
  0.90625000000000000       0.84375000000000000        0.0000000000000000     
  0.93750000000000000       0.84375000000000000        0.0000000000000000     
  0.96875000000000000       0.84375000000000000        0.0000000000000000     
   1.0000000000000000       0.84375000000000000        0.0000000000000000     
  0.87500000000000000       0.87500000000000000        0.0000000000000000     
  0.90625000000000000       0.87500000000000000        0.0000000000000000     
  0.93750000000000000       0.87500000000000000        0.0000000000000000     
  0.96875000000000000       0.87500000000000000        0.0000000000000000     
   1.0000000000000000       0.87500000000000000        0.0000000000000000     
   1.0000000000000000       0.75000000000000000        0.0000000000000000     
   1.0312500000000000       0.75000000000000000        0.0000000000000000     
   1.0625000000000000       0.75000000000000000        0.0000000000000000     
   1.0937500000000000       0.75000000000000000        0.0000000000000000     
   1.1250000000000000       0.75000000000000000        0.0000000000000000     
   1.0000000000000000       0.78125000000000000        0.0000000000000000     
   1.0312500000000000       0.78125000000000000        0.0000000000000000     
   1.0625000000000000       0.78125000000000000        0.0000000000000000     
   1.0937500000000000       0.78125000000000000        0.0000000000000000     
   1.1250000000000000       0.78125000000000000        0.0000000000000000     
   1.0000000000000000       0.81250000000000000        0.0000000000000000     
   1.0312500000000000       0.81250000000000000        0.0000000000000000     
   1.0625000000000000       0.81250000000000000        0.0000000000000000     
   1.0937500000000000       0.81250000000000000        0.0000000000000000     
   1.1250000000000000       0.81250000000000000        0.0000000000000000     
   1.0000000000000000       0.84375000000000000        0.0000000000000000     
   1.0312500000000000       0.84375000000000000        0.0000000000000000     
   1.0625000000000000       0.84375000000000000        0.0000000000000000     
   1.0937500000000000       0.84375000000000000        0.0000000000000000     
   1.1250000000000000       0.84375000000000000        0.0000000000000000     
   1.0000000000000000       0.87500000000000000        0.0000000000000000     
   1.0312500000000000       0.87500000000000000        0.0000000000000000     
   1.0625000000000000       0.87500000000000000        0.0000000000000000     
   1.0937500000000000       0.87500000000000000        0.0000000000000000     
   1.1250000000000000       0.87500000000000000        0.0000000000000000     
   1.1250000000000000       0.75000000000000000        0.0000000000000000     
   1.1562500000000000       0.75000000000000000        0.0000000000000000     
   1.1875000000000000       0.75000000000000000        0.0000000000000000     
   1.2187500000000000       0.75000000000000000        0.0000000000000000     
   1.2500000000000000       0.75000000000000000        0.0000000000000000     
   1.1250000000000000       0.78125000000000000        0.0000000000000000     
   1.1562500000000000       0.78125000000000000        0.0000000000000000     
   1.1875000000000000       0.78125000000000000        0.0000000000000000     
   1.2187500000000000       0.78125000000000000        0.0000000000000000     
   1.2500000000000000       0.78125000000000000        0.0000000000000000     
   1.1250000000000000       0.81250000000000000        0.0000000000000000     
   1.1562500000000000       0.81250000000000000        0.0000000000000000     
   1.1875000000000000       0.81250000000000000        0.0000000000000000     
   1.2187500000000000       0.81250000000000000        0.0000000000000000     
   1.2500000000000000       0.81250000000000000        0.0000000000000000     
   1.1250000000000000       0.84375000000000000        0.0000000000000000     
   1.1562500000000000       0.84375000000000000        0.0000000000000000     
   1.1875000000000000       0.84375000000000000        0.0000000000000000     
   1.2187500000000000       0.84375000000000000        0.0000000000000000     
   1.2500000000000000       0.84375000000000000        0.0000000000000000     
   1.1250000000000000       0.87500000000000000        0.0000000000000000     
   1.1562500000000000       0.87500000000000000        0.0000000000000000     
   1.1875000000000000       0.87500000000000000        0.0000000000000000     
   1.2187500000000000       0.87500000000000000        0.0000000000000000     
   1.2500000000000000       0.87500000000000000        0.0000000000000000     
   1.2500000000000000       0.75000000000000000        0.0000000000000000     
   1.2812500000000000       0.75000000000000000        0.0000000000000000     
   1.3125000000000000       0.75000000000000000        0.0000000000000000     
   1.3437500000000000       0.75000000000000000        0.0000000000000000     
   1.3750000000000000       0.75000000000000000        0.0000000000000000     
   1.2500000000000000       0.78125000000000000        0.0000000000000000     
   1.2812500000000000       0.78125000000000000        0.0000000000000000     
   1.3125000000000000       0.78125000000000000        0.0000000000000000     
   1.3437500000000000       0.78125000000000000        0.0000000000000000     
   1.3750000000000000       0.78125000000000000        0.0000000000000000     
   1.2500000000000000       0.81250000000000000        0.0000000000000000     
   1.2812500000000000       0.81250000000000000        0.0000000000000000     
   1.3125000000000000       0.81250000000000000        0.0000000000000000     
   1.3437500000000000       0.81250000000000000        0.0000000000000000     
   1.3750000000000000       0.81250000000000000        0.0000000000000000     
   1.2500000000000000       0.84375000000000000        0.0000000000000000     
   1.2812500000000000       0.84375000000000000        0.0000000000000000     
   1.3125000000000000       0.84375000000000000        0.0000000000000000     
   1.3437500000000000       0.84375000000000000        0.0000000000000000     
   1.3750000000000000       0.84375000000000000        0.0000000000000000     
   1.2500000000000000       0.87500000000000000        0.0000000000000000     
   1.2812500000000000       0.87500000000000000        0.0000000000000000     
   1.3125000000000000       0.87500000000000000        0.0000000000000000     
   1.3437500000000000       0.87500000000000000        0.0000000000000000     
   1.3750000000000000       0.87500000000000000        0.0000000000000000     
   1.3750000000000000       0.75000000000000000        0.0000000000000000     
   1.4062500000000000       0.75000000000000000        0.0000000000000000     
   1.4375000000000000       0.75000000000000000        0.0000000000000000     
   1.4687500000000000       0.75000000000000000        0.0000000000000000     
   1.5000000000000000       0.75000000000000000        0.0000000000000000     
   1.3750000000000000       0.78125000000000000        0.0000000000000000     
   1.4062500000000000       0.78125000000000000        0.0000000000000000     
   1.4375000000000000       0.78125000000000000        0.0000000000000000     
   1.4687500000000000       0.78125000000000000        0.0000000000000000     
   1.5000000000000000       0.78125000000000000        0.0000000000000000     
   1.3750000000000000       0.81250000000000000        0.0000000000000000     
   1.4062500000000000       0.81250000000000000        0.0000000000000000     
   1.4375000000000000       0.81250000000000000        0.0000000000000000     
   1.4687500000000000       0.81250000000000000        0.0000000000000000     
   1.5000000000000000       0.81250000000000000        0.0000000000000000     
   1.3750000000000000       0.84375000000000000        0.0000000000000000     
   1.4062500000000000       0.84375000000000000        0.0000000000000000     
   1.4375000000000000       0.84375000000000000        0.0000000000000000     
   1.4687500000000000       0.84375000000000000        0.0000000000000000     
   1.5000000000000000       0.84375000000000000        0.0000000000000000     
   1.3750000000000000       0.87500000000000000        0.0000000000000000     
   1.4062500000000000       0.87500000000000000        0.0000000000000000     
   1.4375000000000000       0.87500000000000000        0.0000000000000000     
   1.4687500000000000       0.87500000000000000        0.0000000000000000     
   1.5000000000000000       0.87500000000000000        0.0000000000000000     
  0.50000000000000000       0.87500000000000000        0.0000000000000000     
  0.53125000000000000       0.87500000000000000        0.0000000000000000     
  0.56250000000000000       0.87500000000000000        0.0000000000000000     
  0.59375000000000000       0.87500000000000000        0.0000000000000000     
  0.62500000000000000       0.87500000000000000        0.0000000000000000     
  0.50000000000000000       0.90625000000000000        0.0000000000000000     
  0.53125000000000000       0.90625000000000000        0.0000000000000000     
  0.56250000000000000       0.90625000000000000        0.0000000000000000     
  0.59375000000000000       0.90625000000000000        0.0000000000000000     
  0.62500000000000000       0.90625000000000000        0.0000000000000000     
  0.50000000000000000       0.93750000000000000        0.0000000000000000     
  0.53125000000000000       0.93750000000000000        0.0000000000000000     
  0.56250000000000000       0.93750000000000000        0.0000000000000000     
  0.59375000000000000       0.93750000000000000        0.0000000000000000     
  0.62500000000000000       0.93750000000000000        0.0000000000000000     
  0.50000000000000000       0.96875000000000000        0.0000000000000000     
  0.53125000000000000       0.96875000000000000        0.0000000000000000     
  0.56250000000000000       0.96875000000000000        0.0000000000000000     
  0.59375000000000000       0.96875000000000000        0.0000000000000000     
  0.62500000000000000       0.96875000000000000        0.0000000000000000     
  0.50000000000000000        1.0000000000000000        0.0000000000000000     
  0.53125000000000000        1.0000000000000000        0.0000000000000000     
  0.56250000000000000        1.0000000000000000        0.0000000000000000     
  0.59375000000000000        1.0000000000000000        0.0000000000000000     
  0.62500000000000000        1.0000000000000000        0.0000000000000000     
  0.62500000000000000       0.87500000000000000        0.0000000000000000     
  0.65625000000000000       0.87500000000000000        0.0000000000000000     
  0.68750000000000000       0.87500000000000000        0.0000000000000000     
  0.71875000000000000       0.87500000000000000        0.0000000000000000     
  0.75000000000000000       0.87500000000000000        0.0000000000000000     
  0.62500000000000000       0.90625000000000000        0.0000000000000000     
  0.65625000000000000       0.90625000000000000        0.0000000000000000     
  0.68750000000000000       0.90625000000000000        0.0000000000000000     
  0.71875000000000000       0.90625000000000000        0.0000000000000000     
  0.75000000000000000       0.90625000000000000        0.0000000000000000     
  0.62500000000000000       0.93750000000000000        0.0000000000000000     
  0.65625000000000000       0.93750000000000000        0.0000000000000000     
  0.68750000000000000       0.93750000000000000        0.0000000000000000     
  0.71875000000000000       0.93750000000000000        0.0000000000000000     
  0.75000000000000000       0.93750000000000000        0.0000000000000000     
  0.62500000000000000       0.96875000000000000        0.0000000000000000     
  0.65625000000000000       0.96875000000000000        0.0000000000000000     
  0.68750000000000000       0.96875000000000000        0.0000000000000000     
  0.71875000000000000       0.96875000000000000        0.0000000000000000     
  0.75000000000000000       0.96875000000000000        0.0000000000000000     
  0.62500000000000000        1.0000000000000000        0.0000000000000000     
  0.65625000000000000        1.0000000000000000        0.0000000000000000     
  0.68750000000000000        1.0000000000000000        0.0000000000000000     
  0.71875000000000000        1.0000000000000000        0.0000000000000000     
  0.75000000000000000        1.0000000000000000        0.0000000000000000     
  0.75000000000000000       0.87500000000000000        0.0000000000000000     
  0.78125000000000000       0.87500000000000000        0.0000000000000000     
  0.81250000000000000       0.87500000000000000        0.0000000000000000     
  0.84375000000000000       0.87500000000000000        0.0000000000000000     
  0.87500000000000000       0.87500000000000000        0.0000000000000000     
  0.75000000000000000       0.90625000000000000        0.0000000000000000     
  0.78125000000000000       0.90625000000000000        0.0000000000000000     
  0.81250000000000000       0.90625000000000000        0.0000000000000000     
  0.84375000000000000       0.90625000000000000        0.0000000000000000     
  0.87500000000000000       0.90625000000000000        0.0000000000000000     
  0.75000000000000000       0.93750000000000000        0.0000000000000000     
  0.78125000000000000       0.93750000000000000        0.0000000000000000     
  0.81250000000000000       0.93750000000000000        0.0000000000000000     
  0.84375000000000000       0.93750000000000000        0.0000000000000000     
  0.87500000000000000       0.93750000000000000        0.0000000000000000     
  0.75000000000000000       0.96875000000000000        0.0000000000000000     
  0.78125000000000000       0.96875000000000000        0.0000000000000000     
  0.81250000000000000       0.96875000000000000        0.0000000000000000     
  0.84375000000000000       0.96875000000000000        0.0000000000000000     
  0.87500000000000000       0.96875000000000000        0.0000000000000000     
  0.75000000000000000        1.0000000000000000        0.0000000000000000     
  0.78125000000000000        1.0000000000000000        0.0000000000000000     
  0.81250000000000000        1.0000000000000000        0.0000000000000000     
  0.84375000000000000        1.0000000000000000        0.0000000000000000     
  0.87500000000000000        1.0000000000000000        0.0000000000000000     
  0.87500000000000000       0.87500000000000000        0.0000000000000000     
  0.90625000000000000       0.87500000000000000        0.0000000000000000     
  0.93750000000000000       0.87500000000000000        0.0000000000000000     
  0.96875000000000000       0.87500000000000000        0.0000000000000000     
   1.0000000000000000       0.87500000000000000        0.0000000000000000     
  0.87500000000000000       0.90625000000000000        0.0000000000000000     
  0.90625000000000000       0.90625000000000000        0.0000000000000000     
  0.93750000000000000       0.90625000000000000        0.0000000000000000     
  0.96875000000000000       0.90625000000000000        0.0000000000000000     
   1.0000000000000000       0.90625000000000000        0.0000000000000000     
  0.87500000000000000       0.93750000000000000        0.0000000000000000     
  0.90625000000000000       0.93750000000000000        0.0000000000000000     
  0.93750000000000000       0.93750000000000000        0.0000000000000000     
  0.96875000000000000       0.93750000000000000        0.0000000000000000     
   1.0000000000000000       0.93750000000000000        0.0000000000000000     
  0.87500000000000000       0.96875000000000000        0.0000000000000000     
  0.90625000000000000       0.96875000000000000        0.0000000000000000     
  0.93750000000000000       0.96875000000000000        0.0000000000000000     
  0.96875000000000000       0.96875000000000000        0.0000000000000000     
   1.0000000000000000       0.96875000000000000        0.0000000000000000     
  0.87500000000000000        1.0000000000000000        0.0000000000000000     
  0.90625000000000000        1.0000000000000000        0.0000000000000000     
  0.93750000000000000        1.0000000000000000        0.0000000000000000     
  0.96875000000000000        1.0000000000000000        0.0000000000000000     
   1.0000000000000000        1.0000000000000000        0.0000000000000000     
   1.0000000000000000       0.87500000000000000        0.0000000000000000     
   1.0312500000000000       0.87500000000000000        0.0000000000000000     
   1.0625000000000000       0.87500000000000000        0.0000000000000000     
   1.0937500000000000       0.87500000000000000        0.0000000000000000     
   1.1250000000000000       0.87500000000000000        0.0000000000000000     
   1.0000000000000000       0.90625000000000000        0.0000000000000000     
   1.0312500000000000       0.90625000000000000        0.0000000000000000     
   1.0625000000000000       0.90625000000000000        0.0000000000000000     
   1.0937500000000000       0.90625000000000000        0.0000000000000000     
   1.1250000000000000       0.90625000000000000        0.0000000000000000     
   1.0000000000000000       0.93750000000000000        0.0000000000000000     
   1.0312500000000000       0.93750000000000000        0.0000000000000000     
   1.0625000000000000       0.93750000000000000        0.0000000000000000     
   1.0937500000000000       0.93750000000000000        0.0000000000000000     
   1.1250000000000000       0.93750000000000000        0.0000000000000000     
   1.0000000000000000       0.96875000000000000        0.0000000000000000     
   1.0312500000000000       0.96875000000000000        0.0000000000000000     
   1.0625000000000000       0.96875000000000000        0.0000000000000000     
   1.0937500000000000       0.96875000000000000        0.0000000000000000     
   1.1250000000000000       0.96875000000000000        0.0000000000000000     
   1.0000000000000000        1.0000000000000000        0.0000000000000000     
   1.0312500000000000        1.0000000000000000        0.0000000000000000     
   1.0625000000000000        1.0000000000000000        0.0000000000000000     
   1.0937500000000000        1.0000000000000000        0.0000000000000000     
   1.1250000000000000        1.0000000000000000        0.0000000000000000     
   1.1250000000000000       0.87500000000000000        0.0000000000000000     
   1.1562500000000000       0.87500000000000000        0.0000000000000000     
   1.1875000000000000       0.87500000000000000        0.0000000000000000     
   1.2187500000000000       0.87500000000000000        0.0000000000000000     
   1.2500000000000000       0.87500000000000000        0.0000000000000000     
   1.1250000000000000       0.90625000000000000        0.0000000000000000     
   1.1562500000000000       0.90625000000000000        0.0000000000000000     
   1.1875000000000000       0.90625000000000000        0.0000000000000000     
   1.2187500000000000       0.90625000000000000        0.0000000000000000     
   1.2500000000000000       0.90625000000000000        0.0000000000000000     
   1.1250000000000000       0.93750000000000000        0.0000000000000000     
   1.1562500000000000       0.93750000000000000        0.0000000000000000     
   1.1875000000000000       0.93750000000000000        0.0000000000000000     
   1.2187500000000000       0.93750000000000000        0.0000000000000000     
   1.2500000000000000       0.93750000000000000        0.0000000000000000     
   1.1250000000000000       0.96875000000000000        0.0000000000000000     
   1.1562500000000000       0.96875000000000000        0.0000000000000000     
   1.1875000000000000       0.96875000000000000        0.0000000000000000     
   1.2187500000000000       0.96875000000000000        0.0000000000000000     
   1.2500000000000000       0.96875000000000000        0.0000000000000000     
   1.1250000000000000        1.0000000000000000        0.0000000000000000     
   1.1562500000000000        1.0000000000000000        0.0000000000000000     
   1.1875000000000000        1.0000000000000000        0.0000000000000000     
   1.2187500000000000        1.0000000000000000        0.0000000000000000     
   1.2500000000000000        1.0000000000000000        0.0000000000000000     
   1.2500000000000000       0.87500000000000000        0.0000000000000000     
   1.2812500000000000       0.87500000000000000        0.0000000000000000     
   1.3125000000000000       0.87500000000000000        0.0000000000000000     
   1.3437500000000000       0.87500000000000000        0.0000000000000000     
   1.3750000000000000       0.87500000000000000        0.0000000000000000     
   1.2500000000000000       0.90625000000000000        0.0000000000000000     
   1.2812500000000000       0.90625000000000000        0.0000000000000000     
   1.3125000000000000       0.90625000000000000        0.0000000000000000     
   1.3437500000000000       0.90625000000000000        0.0000000000000000     
   1.3750000000000000       0.90625000000000000        0.0000000000000000     
   1.2500000000000000       0.93750000000000000        0.0000000000000000     
   1.2812500000000000       0.93750000000000000        0.0000000000000000     
   1.3125000000000000       0.93750000000000000        0.0000000000000000     
   1.3437500000000000       0.93750000000000000        0.0000000000000000     
   1.3750000000000000       0.93750000000000000        0.0000000000000000     
   1.2500000000000000       0.96875000000000000        0.0000000000000000     
   1.2812500000000000       0.96875000000000000        0.0000000000000000     
   1.3125000000000000       0.96875000000000000        0.0000000000000000     
   1.3437500000000000       0.96875000000000000        0.0000000000000000     
   1.3750000000000000       0.96875000000000000        0.0000000000000000     
   1.2500000000000000        1.0000000000000000        0.0000000000000000     
   1.2812500000000000        1.0000000000000000        0.0000000000000000     
   1.3125000000000000        1.0000000000000000        0.0000000000000000     
   1.3437500000000000        1.0000000000000000        0.0000000000000000     
   1.3750000000000000        1.0000000000000000        0.0000000000000000     
   1.3750000000000000       0.87500000000000000        0.0000000000000000     
   1.4062500000000000       0.87500000000000000        0.0000000000000000     
   1.4375000000000000       0.87500000000000000        0.0000000000000000     
   1.4687500000000000       0.87500000000000000        0.0000000000000000     
   1.5000000000000000       0.87500000000000000        0.0000000000000000     
   1.3750000000000000       0.90625000000000000        0.0000000000000000     
   1.4062500000000000       0.90625000000000000        0.0000000000000000     
   1.4375000000000000       0.90625000000000000        0.0000000000000000     
   1.4687500000000000       0.90625000000000000        0.0000000000000000     
   1.5000000000000000       0.90625000000000000        0.0000000000000000     
   1.3750000000000000       0.93750000000000000        0.0000000000000000     
   1.4062500000000000       0.93750000000000000        0.0000000000000000     
   1.4375000000000000       0.93750000000000000        0.0000000000000000     
   1.4687500000000000       0.93750000000000000        0.0000000000000000     
   1.5000000000000000       0.93750000000000000        0.0000000000000000     
   1.3750000000000000       0.96875000000000000        0.0000000000000000     
   1.4062500000000000       0.96875000000000000        0.0000000000000000     
   1.4375000000000000       0.96875000000000000        0.0000000000000000     
   1.4687500000000000       0.96875000000000000        0.0000000000000000     
   1.5000000000000000       0.96875000000000000        0.0000000000000000     
   1.3750000000000000        1.0000000000000000        0.0000000000000000     
   1.4062500000000000        1.0000000000000000        0.0000000000000000     
   1.4375000000000000        1.0000000000000000        0.0000000000000000     
   1.4687500000000000        1.0000000000000000        0.0000000000000000     
   1.5000000000000000        1.0000000000000000        0.0000000000000000     
 </DataArray>
 </Points>
 <Cells>
 <DataArray  type="Int32"  Name="connectivity"  format="ascii">
           0           1           6           5
           1           2           7           6
           2           3           8           7
           3           4           9           8
           5           6          11          10
           6           7          12          11
           7           8          13          12
           8           9          14          13
          10          11          16          15
          11          12          17          16
          12          13          18          17
          13          14          19          18
          15          16          21          20
          16          17          22          21
          17          18          23          22
          18          19          24          23
          25          26          31          30
          26          27          32          31
          27          28          33          32
          28          29          34          33
          30          31          36          35
          31          32          37          36
          32          33          38          37
          33          34          39          38
          35          36          41          40
          36          37          42          41
          37          38          43          42
          38          39          44          43
          40          41          46          45
          41          42          47          46
          42          43          48          47
          43          44          49          48
          50          51          56          55
          51          52          57          56
          52          53          58          57
          53          54          59          58
          55          56          61          60
          56          57          62          61
          57          58          63          62
          58          59          64          63
          60          61          66          65
          61          62          67          66
          62          63          68          67
          63          64          69          68
          65          66          71          70
          66          67          72          71
          67          68          73          72
          68          69          74          73
          75          76          81          80
          76          77          82          81
          77          78          83          82
          78          79          84          83
          80          81          86          85
          81          82          87          86
          82          83          88          87
          83          84          89          88
          85          86          91          90
          86          87          92          91
          87          88          93          92
          88          89          94          93
          90          91          96          95
          91          92          97          96
          92          93          98          97
          93          94          99          98
         100         101         106         105
         101         102         107         106
         102         103         108         107
         103         104         109         108
         105         106         111         110
         106         107         112         111
         107         108         113         112
         108         109         114         113
         110         111         116         115
         111         112         117         116
         112         113         118         117
         113         114         119         118
         115         116         121         120
         116         117         122         121
         117         118         123         122
         118         119         124         123
         125         126         131         130
         126         127         132         131
         127         128         133         132
         128         129         134         133
         130         131         136         135
         131         132         137         136
         132         133         138         137
         133         134         139         138
         135         136         141         140
         136         137         142         141
         137         138         143         142
         138         139         144         143
         140         141         146         145
         141         142         147         146
         142         143         148         147
         143         144         149         148
         150         151         156         155
         151         152         157         156
         152         153         158         157
         153         154         159         158
         155         156         161         160
         156         157         162         161
         157         158         163         162
         158         159         164         163
         160         161         166         165
         161         162         167         166
         162         163         168         167
         163         164         169         168
         165         166         171         170
         166         167         172         171
         167         168         173         172
         168         169         174         173
         175         176         181         180
         176         177         182         181
         177         178         183         182
         178         179         184         183
         180         181         186         185
         181         182         187         186
         182         183         188         187
         183         184         189         188
         185         186         191         190
         186         187         192         191
         187         188         193         192
         188         189         194         193
         190         191         196         195
         191         192         197         196
         192         193         198         197
         193         194         199         198
         200         201         206         205
         201         202         207         206
         202         203         208         207
         203         204         209         208
         205         206         211         210
         206         207         212         211
         207         208         213         212
         208         209         214         213
         210         211         216         215
         211         212         217         216
         212         213         218         217
         213         214         219         218
         215         216         221         220
         216         217         222         221
         217         218         223         222
         218         219         224         223
         225         226         231         230
         226         227         232         231
         227         228         233         232
         228         229         234         233
         230         231         236         235
         231         232         237         236
         232         233         238         237
         233         234         239         238
         235         236         241         240
         236         237         242         241
         237         238         243         242
         238         239         244         243
         240         241         246         245
         241         242         247         246
         242         243         248         247
         243         244         249         248
         250         251         256         255
         251         252         257         256
         252         253         258         257
         253         254         259         258
         255         256         261         260
         256         257         262         261
         257         258         263         262
         258         259         264         263
         260         261         266         265
         261         262         267         266
         262         263         268         267
         263         264         269         268
         265         266         271         270
         266         267         272         271
         267         268         273         272
         268         269         274         273
         275         276         281         280
         276         277         282         281
         277         278         283         282
         278         279         284         283
         280         281         286         285
         281         282         287         286
         282         283         288         287
         283         284         289         288
         285         286         291         290
         286         287         292         291
         287         288         293         292
         288         289         294         293
         290         291         296         295
         291         292         297         296
         292         293         298         297
         293         294         299         298
         300         301         306         305
         301         302         307         306
         302         303         308         307
         303         304         309         308
         305         306         311         310
         306         307         312         311
         307         308         313         312
         308         309         314         313
         310         311         316         315
         311         312         317         316
         312         313         318         317
         313         314         319         318
         315         316         321         320
         316         317         322         321
         317         318         323         322
         318         319         324         323
         325         326         331         330
         326         327         332         331
         327         328         333         332
         328         329         334         333
         330         331         336         335
         331         332         337         336
         332         333         338         337
         333         334         339         338
         335         336         341         340
         336         337         342         341
         337         338         343         342
         338         339         344         343
         340         341         346         345
         341         342         347         346
         342         343         348         347
         343         344         349         348
         350         351         356         355
         351         352         357         356
         352         353         358         357
         353         354         359         358
         355         356         361         360
         356         357         362         361
         357         358         363         362
         358         359         364         363
         360         361         366         365
         361         362         367         366
         362         363         368         367
         363         364         369         368
         365         366         371         370
         366         367         372         371
         367         368         373         372
         368         369         374         373
         375         376         381         380
         376         377         382         381
         377         378         383         382
         378         379         384         383
         380         381         386         385
         381         382         387         386
         382         383         388         387
         383         384         389         388
         385         386         391         390
         386         387         392         391
         387         388         393         392
         388         389         394         393
         390         391         396         395
         391         392         397         396
         392         393         398         397
         393         394         399         398
         400         401         406         405
         401         402         407         406
         402         403         408         407
         403         404         409         408
         405         406         411         410
         406         407         412         411
         407         408         413         412
         408         409         414         413
         410         411         416         415
         411         412         417         416
         412         413         418         417
         413         414         419         418
         415         416         421         420
         416         417         422         421
         417         418         423         422
         418         419         424         423
         425         426         431         430
         426         427         432         431
         427         428         433         432
         428         429         434         433
         430         431         436         435
         431         432         437         436
         432         433         438         437
         433         434         439         438
         435         436         441         440
         436         437         442         441
         437         438         443         442
         438         439         444         443
         440         441         446         445
         441         442         447         446
         442         443         448         447
         443         444         449         448
         450         451         456         455
         451         452         457         456
         452         453         458         457
         453         454         459         458
         455         456         461         460
         456         457         462         461
         457         458         463         462
         458         459         464         463
         460         461         466         465
         461         462         467         466
         462         463         468         467
         463         464         469         468
         465         466         471         470
         466         467         472         471
         467         468         473         472
         468         469         474         473
         475         476         481         480
         476         477         482         481
         477         478         483         482
         478         479         484         483
         480         481         486         485
         481         482         487         486
         482         483         488         487
         483         484         489         488
         485         486         491         490
         486         487         492         491
         487         488         493         492
         488         489         494         493
         490         491         496         495
         491         492         497         496
         492         493         498         497
         493         494         499         498
         500         501         506         505
         501         502         507         506
         502         503         508         507
         503         504         509         508
         505         506         511         510
         506         507         512         511
         507         508         513         512
         508         509         514         513
         510         511         516         515
         511         512         517         516
         512         513         518         517
         513         514         519         518
         515         516         521         520
         516         517         522         521
         517         518         523         522
         518         519         524         523
         525         526         531         530
         526         527         532         531
         527         528         533         532
         528         529         534         533
         530         531         536         535
         531         532         537         536
         532         533         538         537
         533         534         539         538
         535         536         541         540
         536         537         542         541
         537         538         543         542
         538         539         544         543
         540         541         546         545
         541         542         547         546
         542         543         548         547
         543         544         549         548
         550         551         556         555
         551         552         557         556
         552         553         558         557
         553         554         559         558
         555         556         561         560
         556         557         562         561
         557         558         563         562
         558         559         564         563
         560         561         566         565
         561         562         567         566
         562         563         568         567
         563         564         569         568
         565         566         571         570
         566         567         572         571
         567         568         573         572
         568         569         574         573
         575         576         581         580
         576         577         582         581
         577         578         583         582
         578         579         584         583
         580         581         586         585
         581         582         587         586
         582         583         588         587
         583         584         589         588
         585         586         591         590
         586         587         592         591
         587         588         593         592
         588         589         594         593
         590         591         596         595
         591         592         597         596
         592         593         598         597
         593         594         599         598
         600         601         606         605
         601         602         607         606
         602         603         608         607
         603         604         609         608
         605         606         611         610
         606         607         612         611
         607         608         613         612
         608         609         614         613
         610         611         616         615
         611         612         617         616
         612         613         618         617
         613         614         619         618
         615         616         621         620
         616         617         622         621
         617         618         623         622
         618         619         624         623
         625         626         631         630
         626         627         632         631
         627         628         633         632
         628         629         634         633
         630         631         636         635
         631         632         637         636
         632         633         638         637
         633         634         639         638
         635         636         641         640
         636         637         642         641
         637         638         643         642
         638         639         644         643
         640         641         646         645
         641         642         647         646
         642         643         648         647
         643         644         649         648
         650         651         656         655
         651         652         657         656
         652         653         658         657
         653         654         659         658
         655         656         661         660
         656         657         662         661
         657         658         663         662
         658         659         664         663
         660         661         666         665
         661         662         667         666
         662         663         668         667
         663         664         669         668
         665         666         671         670
         666         667         672         671
         667         668         673         672
         668         669         674         673
         675         676         681         680
         676         677         682         681
         677         678         683         682
         678         679         684         683
         680         681         686         685
         681         682         687         686
         682         683         688         687
         683         684         689         688
         685         686         691         690
         686         687         692         691
         687         688         693         692
         688         689         694         693
         690         691         696         695
         691         692         697         696
         692         693         698         697
         693         694         699         698
         700         701         706         705
         701         702         707         706
         702         703         708         707
         703         704         709         708
         705         706         711         710
         706         707         712         711
         707         708         713         712
         708         709         714         713
         710         711         716         715
         711         712         717         716
         712         713         718         717
         713         714         719         718
         715         716         721         720
         716         717         722         721
         717         718         723         722
         718         719         724         723
         725         726         731         730
         726         727         732         731
         727         728         733         732
         728         729         734         733
         730         731         736         735
         731         732         737         736
         732         733         738         737
         733         734         739         738
         735         736         741         740
         736         737         742         741
         737         738         743         742
         738         739         744         743
         740         741         746         745
         741         742         747         746
         742         743         748         747
         743         744         749         748
         750         751         756         755
         751         752         757         756
         752         753         758         757
         753         754         759         758
         755         756         761         760
         756         757         762         761
         757         758         763         762
         758         759         764         763
         760         761         766         765
         761         762         767         766
         762         763         768         767
         763         764         769         768
         765         766         771         770
         766         767         772         771
         767         768         773         772
         768         769         774         773
         775         776         781         780
         776         777         782         781
         777         778         783         782
         778         779         784         783
         780         781         786         785
         781         782         787         786
         782         783         788         787
         783         784         789         788
         785         786         791         790
         786         787         792         791
         787         788         793         792
         788         789         794         793
         790         791         796         795
         791         792         797         796
         792         793         798         797
         793         794         799         798
         800         801         806         805
         801         802         807         806
         802         803         808         807
         803         804         809         808
         805         806         811         810
         806         807         812         811
         807         808         813         812
         808         809         814         813
         810         811         816         815
         811         812         817         816
         812         813         818         817
         813         814         819         818
         815         816         821         820
         816         817         822         821
         817         818         823         822
         818         819         824         823
         825         826         831         830
         826         827         832         831
         827         828         833         832
         828         829         834         833
         830         831         836         835
         831         832         837         836
         832         833         838         837
         833         834         839         838
         835         836         841         840
         836         837         842         841
         837         838         843         842
         838         839         844         843
         840         841         846         845
         841         842         847         846
         842         843         848         847
         843         844         849         848
         850         851         856         855
         851         852         857         856
         852         853         858         857
         853         854         859         858
         855         856         861         860
         856         857         862         861
         857         858         863         862
         858         859         864         863
         860         861         866         865
         861         862         867         866
         862         863         868         867
         863         864         869         868
         865         866         871         870
         866         867         872         871
         867         868         873         872
         868         869         874         873
         875         876         881         880
         876         877         882         881
         877         878         883         882
         878         879         884         883
         880         881         886         885
         881         882         887         886
         882         883         888         887
         883         884         889         888
         885         886         891         890
         886         887         892         891
         887         888         893         892
         888         889         894         893
         890         891         896         895
         891         892         897         896
         892         893         898         897
         893         894         899         898
         900         901         906         905
         901         902         907         906
         902         903         908         907
         903         904         909         908
         905         906         911         910
         906         907         912         911
         907         908         913         912
         908         909         914         913
         910         911         916         915
         911         912         917         916
         912         913         918         917
         913         914         919         918
         915         916         921         920
         916         917         922         921
         917         918         923         922
         918         919         924         923
         925         926         931         930
         926         927         932         931
         927         928         933         932
         928         929         934         933
         930         931         936         935
         931         932         937         936
         932         933         938         937
         933         934         939         938
         935         936         941         940
         936         937         942         941
         937         938         943         942
         938         939         944         943
         940         941         946         945
         941         942         947         946
         942         943         948         947
         943         944         949         948
         950         951         956         955
         951         952         957         956
         952         953         958         957
         953         954         959         958
         955         956         961         960
         956         957         962         961
         957         958         963         962
         958         959         964         963
         960         961         966         965
         961         962         967         966
         962         963         968         967
         963         964         969         968
         965         966         971         970
         966         967         972         971
         967         968         973         972
         968         969         974         973
         975         976         981         980
         976         977         982         981
         977         978         983         982
         978         979         984         983
         980         981         986         985
         981         982         987         986
         982         983         988         987
         983         984         989         988
         985         986         991         990
         986         987         992         991
         987         988         993         992
         988         989         994         993
         990         991         996         995
         991         992         997         996
         992         993         998         997
         993         994         999         998
        1000        1001        1006        1005
        1001        1002        1007        1006
        1002        1003        1008        1007
        1003        1004        1009        1008
        1005        1006        1011        1010
        1006        1007        1012        1011
        1007        1008        1013        1012
        1008        1009        1014        1013
        1010        1011        1016        1015
        1011        1012        1017        1016
        1012        1013        1018        1017
        1013        1014        1019        1018
        1015        1016        1021        1020
        1016        1017        1022        1021
        1017        1018        1023        1022
        1018        1019        1024        1023
        1025        1026        1031        1030
        1026        1027        1032        1031
        1027        1028        1033        1032
        1028        1029        1034        1033
        1030        1031        1036        1035
        1031        1032        1037        1036
        1032        1033        1038        1037
        1033        1034        1039        1038
        1035        1036        1041        1040
        1036        1037        1042        1041
        1037        1038        1043        1042
        1038        1039        1044        1043
        1040        1041        1046        1045
        1041        1042        1047        1046
        1042        1043        1048        1047
        1043        1044        1049        1048
        1050        1051        1056        1055
        1051        1052        1057        1056
        1052        1053        1058        1057
        1053        1054        1059        1058
        1055        1056        1061        1060
        1056        1057        1062        1061
        1057        1058        1063        1062
        1058        1059        1064        1063
        1060        1061        1066        1065
        1061        1062        1067        1066
        1062        1063        1068        1067
        1063        1064        1069        1068
        1065        1066        1071        1070
        1066        1067        1072        1071
        1067        1068        1073        1072
        1068        1069        1074        1073
        1075        1076        1081        1080
        1076        1077        1082        1081
        1077        1078        1083        1082
        1078        1079        1084        1083
        1080        1081        1086        1085
        1081        1082        1087        1086
        1082        1083        1088        1087
        1083        1084        1089        1088
        1085        1086        1091        1090
        1086        1087        1092        1091
        1087        1088        1093        1092
        1088        1089        1094        1093
        1090        1091        1096        1095
        1091        1092        1097        1096
        1092        1093        1098        1097
        1093        1094        1099        1098
        1100        1101        1106        1105
        1101        1102        1107        1106
        1102        1103        1108        1107
        1103        1104        1109        1108
        1105        1106        1111        1110
        1106        1107        1112        1111
        1107        1108        1113        1112
        1108        1109        1114        1113
        1110        1111        1116        1115
        1111        1112        1117        1116
        1112        1113        1118        1117
        1113        1114        1119        1118
        1115        1116        1121        1120
        1116        1117        1122        1121
        1117        1118        1123        1122
        1118        1119        1124        1123
        1125        1126        1131        1130
        1126        1127        1132        1131
        1127        1128        1133        1132
        1128        1129        1134        1133
        1130        1131        1136        1135
        1131        1132        1137        1136
        1132        1133        1138        1137
        1133        1134        1139        1138
        1135        1136        1141        1140
        1136        1137        1142        1141
        1137        1138        1143        1142
        1138        1139        1144        1143
        1140        1141        1146        1145
        1141        1142        1147        1146
        1142        1143        1148        1147
        1143        1144        1149        1148
        1150        1151        1156        1155
        1151        1152        1157        1156
        1152        1153        1158        1157
        1153        1154        1159        1158
        1155        1156        1161        1160
        1156        1157        1162        1161
        1157        1158        1163        1162
        1158        1159        1164        1163
        1160        1161        1166        1165
        1161        1162        1167        1166
        1162        1163        1168        1167
        1163        1164        1169        1168
        1165        1166        1171        1170
        1166        1167        1172        1171
        1167        1168        1173        1172
        1168        1169        1174        1173
        1175        1176        1181        1180
        1176        1177        1182        1181
        1177        1178        1183        1182
        1178        1179        1184        1183
        1180        1181        1186        1185
        1181        1182        1187        1186
        1182        1183        1188        1187
        1183        1184        1189        1188
        1185        1186        1191        1190
        1186        1187        1192        1191
        1187        1188        1193        1192
        1188        1189        1194        1193
        1190        1191        1196        1195
        1191        1192        1197        1196
        1192        1193        1198        1197
        1193        1194        1199        1198
        1200        1201        1206        1205
        1201        1202        1207        1206
        1202        1203        1208        1207
        1203        1204        1209        1208
        1205        1206        1211        1210
        1206        1207        1212        1211
        1207        1208        1213        1212
        1208        1209        1214        1213
        1210        1211        1216        1215
        1211        1212        1217        1216
        1212        1213        1218        1217
        1213        1214        1219        1218
        1215        1216        1221        1220
        1216        1217        1222        1221
        1217        1218        1223        1222
        1218        1219        1224        1223
        1225        1226        1231        1230
        1226        1227        1232        1231
        1227        1228        1233        1232
        1228        1229        1234        1233
        1230        1231        1236        1235
        1231        1232        1237        1236
        1232        1233        1238        1237
        1233        1234        1239        1238
        1235        1236        1241        1240
        1236        1237        1242        1241
        1237        1238        1243        1242
        1238        1239        1244        1243
        1240        1241        1246        1245
        1241        1242        1247        1246
        1242        1243        1248        1247
        1243        1244        1249        1248
        1250        1251        1256        1255
        1251        1252        1257        1256
        1252        1253        1258        1257
        1253        1254        1259        1258
        1255        1256        1261        1260
        1256        1257        1262        1261
        1257        1258        1263        1262
        1258        1259        1264        1263
        1260        1261        1266        1265
        1261        1262        1267        1266
        1262        1263        1268        1267
        1263        1264        1269        1268
        1265        1266        1271        1270
        1266        1267        1272        1271
        1267        1268        1273        1272
        1268        1269        1274        1273
        1275        1276        1281        1280
        1276        1277        1282        1281
        1277        1278        1283        1282
        1278        1279        1284        1283
        1280        1281        1286        1285
        1281        1282        1287        1286
        1282        1283        1288        1287
        1283        1284        1289        1288
        1285        1286        1291        1290
        1286        1287        1292        1291
        1287        1288        1293        1292
        1288        1289        1294        1293
        1290        1291        1296        1295
        1291        1292        1297        1296
        1292        1293        1298        1297
        1293        1294        1299        1298
        1300        1301        1306        1305
        1301        1302        1307        1306
        1302        1303        1308        1307
        1303        1304        1309        1308
        1305        1306        1311        1310
        1306        1307        1312        1311
        1307        1308        1313        1312
        1308        1309        1314        1313
        1310        1311        1316        1315
        1311        1312        1317        1316
        1312        1313        1318        1317
        1313        1314        1319        1318
        1315        1316        1321        1320
        1316        1317        1322        1321
        1317        1318        1323        1322
        1318        1319        1324        1323
        1325        1326        1331        1330
        1326        1327        1332        1331
        1327        1328        1333        1332
        1328        1329        1334        1333
        1330        1331        1336        1335
        1331        1332        1337        1336
        1332        1333        1338        1337
        1333        1334        1339        1338
        1335        1336        1341        1340
        1336        1337        1342        1341
        1337        1338        1343        1342
        1338        1339        1344        1343
        1340        1341        1346        1345
        1341        1342        1347        1346
        1342        1343        1348        1347
        1343        1344        1349        1348
        1350        1351        1356        1355
        1351        1352        1357        1356
        1352        1353        1358        1357
        1353        1354        1359        1358
        1355        1356        1361        1360
        1356        1357        1362        1361
        1357        1358        1363        1362
        1358        1359        1364        1363
        1360        1361        1366        1365
        1361        1362        1367        1366
        1362        1363        1368        1367
        1363        1364        1369        1368
        1365        1366        1371        1370
        1366        1367        1372        1371
        1367        1368        1373        1372
        1368        1369        1374        1373
        1375        1376        1381        1380
        1376        1377        1382        1381
        1377        1378        1383        1382
        1378        1379        1384        1383
        1380        1381        1386        1385
        1381        1382        1387        1386
        1382        1383        1388        1387
        1383        1384        1389        1388
        1385        1386        1391        1390
        1386        1387        1392        1391
        1387        1388        1393        1392
        1388        1389        1394        1393
        1390        1391        1396        1395
        1391        1392        1397        1396
        1392        1393        1398        1397
        1393        1394        1399        1398
        1400        1401        1406        1405
        1401        1402        1407        1406
        1402        1403        1408        1407
        1403        1404        1409        1408
        1405        1406        1411        1410
        1406        1407        1412        1411
        1407        1408        1413        1412
        1408        1409        1414        1413
        1410        1411        1416        1415
        1411        1412        1417        1416
        1412        1413        1418        1417
        1413        1414        1419        1418
        1415        1416        1421        1420
        1416        1417        1422        1421
        1417        1418        1423        1422
        1418        1419        1424        1423
        1425        1426        1431        1430
        1426        1427        1432        1431
        1427        1428        1433        1432
        1428        1429        1434        1433
        1430        1431        1436        1435
        1431        1432        1437        1436
        1432        1433        1438        1437
        1433        1434        1439        1438
        1435        1436        1441        1440
        1436        1437        1442        1441
        1437        1438        1443        1442
        1438        1439        1444        1443
        1440        1441        1446        1445
        1441        1442        1447        1446
        1442        1443        1448        1447
        1443        1444        1449        1448
        1450        1451        1456        1455
        1451        1452        1457        1456
        1452        1453        1458        1457
        1453        1454        1459        1458
        1455        1456        1461        1460
        1456        1457        1462        1461
        1457        1458        1463        1462
        1458        1459        1464        1463
        1460        1461        1466        1465
        1461        1462        1467        1466
        1462        1463        1468        1467
        1463        1464        1469        1468
        1465        1466        1471        1470
        1466        1467        1472        1471
        1467        1468        1473        1472
        1468        1469        1474        1473
        1475        1476        1481        1480
        1476        1477        1482        1481
        1477        1478        1483        1482
        1478        1479        1484        1483
        1480        1481        1486        1485
        1481        1482        1487        1486
        1482        1483        1488        1487
        1483        1484        1489        1488
        1485        1486        1491        1490
        1486        1487        1492        1491
        1487        1488        1493        1492
        1488        1489        1494        1493
        1490        1491        1496        1495
        1491        1492        1497        1496
        1492        1493        1498        1497
        1493        1494        1499        1498
        1500        1501        1506        1505
        1501        1502        1507        1506
        1502        1503        1508        1507
        1503        1504        1509        1508
        1505        1506        1511        1510
        1506        1507        1512        1511
        1507        1508        1513        1512
        1508        1509        1514        1513
        1510        1511        1516        1515
        1511        1512        1517        1516
        1512        1513        1518        1517
        1513        1514        1519        1518
        1515        1516        1521        1520
        1516        1517        1522        1521
        1517        1518        1523        1522
        1518        1519        1524        1523
        1525        1526        1531        1530
        1526        1527        1532        1531
        1527        1528        1533        1532
        1528        1529        1534        1533
        1530        1531        1536        1535
        1531        1532        1537        1536
        1532        1533        1538        1537
        1533        1534        1539        1538
        1535        1536        1541        1540
        1536        1537        1542        1541
        1537        1538        1543        1542
        1538        1539        1544        1543
        1540        1541        1546        1545
        1541        1542        1547        1546
        1542        1543        1548        1547
        1543        1544        1549        1548
        1550        1551        1556        1555
        1551        1552        1557        1556
        1552        1553        1558        1557
        1553        1554        1559        1558
        1555        1556        1561        1560
        1556        1557        1562        1561
        1557        1558        1563        1562
        1558        1559        1564        1563
        1560        1561        1566        1565
        1561        1562        1567        1566
        1562        1563        1568        1567
        1563        1564        1569        1568
        1565        1566        1571        1570
        1566        1567        1572        1571
        1567        1568        1573        1572
        1568        1569        1574        1573
        1575        1576        1581        1580
        1576        1577        1582        1581
        1577        1578        1583        1582
        1578        1579        1584        1583
        1580        1581        1586        1585
        1581        1582        1587        1586
        1582        1583        1588        1587
        1583        1584        1589        1588
        1585        1586        1591        1590
        1586        1587        1592        1591
        1587        1588        1593        1592
        1588        1589        1594        1593
        1590        1591        1596        1595
        1591        1592        1597        1596
        1592        1593        1598        1597
        1593        1594        1599        1598
 </DataArray>
 <DataArray  type="Int32"  Name="offsets"  format="ascii"> 
           4
           8
          12
          16
          20
          24
          28
          32
          36
          40
          44
          48
          52
          56
          60
          64
          68
          72
          76
          80
          84
          88
          92
          96
         100
         104
         108
         112
         116
         120
         124
         128
         132
         136
         140
         144
         148
         152
         156
         160
         164
         168
         172
         176
         180
         184
         188
         192
         196
         200
         204
         208
         212
         216
         220
         224
         228
         232
         236
         240
         244
         248
         252
         256
         260
         264
         268
         272
         276
         280
         284
         288
         292
         296
         300
         304
         308
         312
         316
         320
         324
         328
         332
         336
         340
         344
         348
         352
         356
         360
         364
         368
         372
         376
         380
         384
         388
         392
         396
         400
         404
         408
         412
         416
         420
         424
         428
         432
         436
         440
         444
         448
         452
         456
         460
         464
         468
         472
         476
         480
         484
         488
         492
         496
         500
         504
         508
         512
         516
         520
         524
         528
         532
         536
         540
         544
         548
         552
         556
         560
         564
         568
         572
         576
         580
         584
         588
         592
         596
         600
         604
         608
         612
         616
         620
         624
         628
         632
         636
         640
         644
         648
         652
         656
         660
         664
         668
         672
         676
         680
         684
         688
         692
         696
         700
         704
         708
         712
         716
         720
         724
         728
         732
         736
         740
         744
         748
         752
         756
         760
         764
         768
         772
         776
         780
         784
         788
         792
         796
         800
         804
         808
         812
         816
         820
         824
         828
         832
         836
         840
         844
         848
         852
         856
         860
         864
         868
         872
         876
         880
         884
         888
         892
         896
         900
         904
         908
         912
         916
         920
         924
         928
         932
         936
         940
         944
         948
         952
         956
         960
         964
         968
         972
         976
         980
         984
         988
         992
         996
        1000
        1004
        1008
        1012
        1016
        1020
        1024
        1028
        1032
        1036
        1040
        1044
        1048
        1052
        1056
        1060
        1064
        1068
        1072
        1076
        1080
        1084
        1088
        1092
        1096
        1100
        1104
        1108
        1112
        1116
        1120
        1124
        1128
        1132
        1136
        1140
        1144
        1148
        1152
        1156
        1160
        1164
        1168
        1172
        1176
        1180
        1184
        1188
        1192
        1196
        1200
        1204
        1208
        1212
        1216
        1220
        1224
        1228
        1232
        1236
        1240
        1244
        1248
        1252
        1256
        1260
        1264
        1268
        1272
        1276
        1280
        1284
        1288
        1292
        1296
        1300
        1304
        1308
        1312
        1316
        1320
        1324
        1328
        1332
        1336
        1340
        1344
        1348
        1352
        1356
        1360
        1364
        1368
        1372
        1376
        1380
        1384
        1388
        1392
        1396
        1400
        1404
        1408
        1412
        1416
        1420
        1424
        1428
        1432
        1436
        1440
        1444
        1448
        1452
        1456
        1460
        1464
        1468
        1472
        1476
        1480
        1484
        1488
        1492
        1496
        1500
        1504
        1508
        1512
        1516
        1520
        1524
        1528
        1532
        1536
        1540
        1544
        1548
        1552
        1556
        1560
        1564
        1568
        1572
        1576
        1580
        1584
        1588
        1592
        1596
        1600
        1604
        1608
        1612
        1616
        1620
        1624
        1628
        1632
        1636
        1640
        1644
        1648
        1652
        1656
        1660
        1664
        1668
        1672
        1676
        1680
        1684
        1688
        1692
        1696
        1700
        1704
        1708
        1712
        1716
        1720
        1724
        1728
        1732
        1736
        1740
        1744
        1748
        1752
        1756
        1760
        1764
        1768
        1772
        1776
        1780
        1784
        1788
        1792
        1796
        1800
        1804
        1808
        1812
        1816
        1820
        1824
        1828
        1832
        1836
        1840
        1844
        1848
        1852
        1856
        1860
        1864
        1868
        1872
        1876
        1880
        1884
        1888
        1892
        1896
        1900
        1904
        1908
        1912
        1916
        1920
        1924
        1928
        1932
        1936
        1940
        1944
        1948
        1952
        1956
        1960
        1964
        1968
        1972
        1976
        1980
        1984
        1988
        1992
        1996
        2000
        2004
        2008
        2012
        2016
        2020
        2024
        2028
        2032
        2036
        2040
        2044
        2048
        2052
        2056
        2060
        2064
        2068
        2072
        2076
        2080
        2084
        2088
        2092
        2096
        2100
        2104
        2108
        2112
        2116
        2120
        2124
        2128
        2132
        2136
        2140
        2144
        2148
        2152
        2156
        2160
        2164
        2168
        2172
        2176
        2180
        2184
        2188
        2192
        2196
        2200
        2204
        2208
        2212
        2216
        2220
        2224
        2228
        2232
        2236
        2240
        2244
        2248
        2252
        2256
        2260
        2264
        2268
        2272
        2276
        2280
        2284
        2288
        2292
        2296
        2300
        2304
        2308
        2312
        2316
        2320
        2324
        2328
        2332
        2336
        2340
        2344
        2348
        2352
        2356
        2360
        2364
        2368
        2372
        2376
        2380
        2384
        2388
        2392
        2396
        2400
        2404
        2408
        2412
        2416
        2420
        2424
        2428
        2432
        2436
        2440
        2444
        2448
        2452
        2456
        2460
        2464
        2468
        2472
        2476
        2480
        2484
        2488
        2492
        2496
        2500
        2504
        2508
        2512
        2516
        2520
        2524
        2528
        2532
        2536
        2540
        2544
        2548
        2552
        2556
        2560
        2564
        2568
        2572
        2576
        2580
        2584
        2588
        2592
        2596
        2600
        2604
        2608
        2612
        2616
        2620
        2624
        2628
        2632
        2636
        2640
        2644
        2648
        2652
        2656
        2660
        2664
        2668
        2672
        2676
        2680
        2684
        2688
        2692
        2696
        2700
        2704
        2708
        2712
        2716
        2720
        2724
        2728
        2732
        2736
        2740
        2744
        2748
        2752
        2756
        2760
        2764
        2768
        2772
        2776
        2780
        2784
        2788
        2792
        2796
        2800
        2804
        2808
        2812
        2816
        2820
        2824
        2828
        2832
        2836
        2840
        2844
        2848
        2852
        2856
        2860
        2864
        2868
        2872
        2876
        2880
        2884
        2888
        2892
        2896
        2900
        2904
        2908
        2912
        2916
        2920
        2924
        2928
        2932
        2936
        2940
        2944
        2948
        2952
        2956
        2960
        2964
        2968
        2972
        2976
        2980
        2984
        2988
        2992
        2996
        3000
        3004
        3008
        3012
        3016
        3020
        3024
        3028
        3032
        3036
        3040
        3044
        3048
        3052
        3056
        3060
        3064
        3068
        3072
        3076
        3080
        3084
        3088
        3092
        3096
        3100
        3104
        3108
        3112
        3116
        3120
        3124
        3128
        3132
        3136
        3140
        3144
        3148
        3152
        3156
        3160
        3164
        3168
        3172
        3176
        3180
        3184
        3188
        3192
        3196
        3200
        3204
        3208
        3212
        3216
        3220
        3224
        3228
        3232
        3236
        3240
        3244
        3248
        3252
        3256
        3260
        3264
        3268
        3272
        3276
        3280
        3284
        3288
        3292
        3296
        3300
        3304
        3308
        3312
        3316
        3320
        3324
        3328
        3332
        3336
        3340
        3344
        3348
        3352
        3356
        3360
        3364
        3368
        3372
        3376
        3380
        3384
        3388
        3392
        3396
        3400
        3404
        3408
        3412
        3416
        3420
        3424
        3428
        3432
        3436
        3440
        3444
        3448
        3452
        3456
        3460
        3464
        3468
        3472
        3476
        3480
        3484
        3488
        3492
        3496
        3500
        3504
        3508
        3512
        3516
        3520
        3524
        3528
        3532
        3536
        3540
        3544
        3548
        3552
        3556
        3560
        3564
        3568
        3572
        3576
        3580
        3584
        3588
        3592
        3596
        3600
        3604
        3608
        3612
        3616
        3620
        3624
        3628
        3632
        3636
        3640
        3644
        3648
        3652
        3656
        3660
        3664
        3668
        3672
        3676
        3680
        3684
        3688
        3692
        3696
        3700
        3704
        3708
        3712
        3716
        3720
        3724
        3728
        3732
        3736
        3740
        3744
        3748
        3752
        3756
        3760
        3764
        3768
        3772
        3776
        3780
        3784
        3788
        3792
        3796
        3800
        3804
        3808
        3812
        3816
        3820
        3824
        3828
        3832
        3836
        3840
        3844
        3848
        3852
        3856
        3860
        3864
        3868
        3872
        3876
        3880
        3884
        3888
        3892
        3896
        3900
        3904
        3908
        3912
        3916
        3920
        3924
        3928
        3932
        3936
        3940
        3944
        3948
        3952
        3956
        3960
        3964
        3968
        3972
        3976
        3980
        3984
        3988
        3992
        3996
        4000
        4004
        4008
        4012
        4016
        4020
        4024
        4028
        4032
        4036
        4040
        4044
        4048
        4052
        4056
        4060
        4064
        4068
        4072
        4076
        4080
        4084
        4088
        4092
        4096
 </DataArray>
 <DataArray  type="UInt8"  Name="types"  format="ascii">
 9
 9
 9
 9
 9
 9
 9
 9
 9
 9
 9
 9
 9
 9
 9
 9
 9
 9
 9
 9
 9
 9
 9
 9
 9
 9
 9
 9
 9
 9
 9
 9
 9
 9
 9
 9
 9
 9
 9
 9
 9
 9
 9
 9
 9
 9
 9
 9
 9
 9
 9
 9
 9
 9
 9
 9
 9
 9
 9
 9
 9
 9
 9
 9
 9
 9
 9
 9
 9
 9
 9
 9
 9
 9
 9
 9
 9
 9
 9
 9
 9
 9
 9
 9
 9
 9
 9
 9
 9
 9
 9
 9
 9
 9
 9
 9
 9
 9
 9
 9
 9
 9
 9
 9
 9
 9
 9
 9
 9
 9
 9
 9
 9
 9
 9
 9
 9
 9
 9
 9
 9
 9
 9
 9
 9
 9
 9
 9
 9
 9
 9
 9
 9
 9
 9
 9
 9
 9
 9
 9
 9
 9
 9
 9
 9
 9
 9
 9
 9
 9
 9
 9
 9
 9
 9
 9
 9
 9
 9
 9
 9
 9
 9
 9
 9
 9
 9
 9
 9
 9
 9
 9
 9
 9
 9
 9
 9
 9
 9
 9
 9
 9
 9
 9
 9
 9
 9
 9
 9
 9
 9
 9
 9
 9
 9
 9
 9
 9
 9
 9
 9
 9
 9
 9
 9
 9
 9
 9
 9
 9
 9
 9
 9
 9
 9
 9
 9
 9
 9
 9
 9
 9
 9
 9
 9
 9
 9
 9
 9
 9
 9
 9
 9
 9
 9
 9
 9
 9
 9
 9
 9
 9
 9
 9
 9
 9
 9
 9
 9
 9
 9
 9
 9
 9
 9
 9
 9
 9
 9
 9
 9
 9
 9
 9
 9
 9
 9
 9
 9
 9
 9
 9
 9
 9
 9
 9
 9
 9
 9
 9
 9
 9
 9
 9
 9
 9
 9
 9
 9
 9
 9
 9
 9
 9
 9
 9
 9
 9
 9
 9
 9
 9
 9
 9
 9
 9
 9
 9
 9
 9
 9
 9
 9
 9
 9
 9
 9
 9
 9
 9
 9
 9
 9
 9
 9
 9
 9
 9
 9
 9
 9
 9
 9
 9
 9
 9
 9
 9
 9
 9
 9
 9
 9
 9
 9
 9
 9
 9
 9
 9
 9
 9
 9
 9
 9
 9
 9
 9
 9
 9
 9
 9
 9
 9
 9
 9
 9
 9
 9
 9
 9
 9
 9
 9
 9
 9
 9
 9
 9
 9
 9
 9
 9
 9
 9
 9
 9
 9
 9
 9
 9
 9
 9
 9
 9
 9
 9
 9
 9
 9
 9
 9
 9
 9
 9
 9
 9
 9
 9
 9
 9
 9
 9
 9
 9
 9
 9
 9
 9
 9
 9
 9
 9
 9
 9
 9
 9
 9
 9
 9
 9
 9
 9
 9
 9
 9
 9
 9
 9
 9
 9
 9
 9
 9
 9
 9
 9
 9
 9
 9
 9
 9
 9
 9
 9
 9
 9
 9
 9
 9
 9
 9
 9
 9
 9
 9
 9
 9
 9
 9
 9
 9
 9
 9
 9
 9
 9
 9
 9
 9
 9
 9
 9
 9
 9
 9
 9
 9
 9
 9
 9
 9
 9
 9
 9
 9
 9
 9
 9
 9
 9
 9
 9
 9
 9
 9
 9
 9
 9
 9
 9
 9
 9
 9
 9
 9
 9
 9
 9
 9
 9
 9
 9
 9
 9
 9
 9
 9
 9
 9
 9
 9
 9
 9
 9
 9
 9
 9
 9
 9
 9
 9
 9
 9
 9
 9
 9
 9
 9
 9
 9
 9
 9
 9
 9
 9
 9
 9
 9
 9
 9
 9
 9
 9
 9
 9
 9
 9
 9
 9
 9
 9
 9
 9
 9
 9
 9
 9
 9
 9
 9
 9
 9
 9
 9
 9
 9
 9
 9
 9
 9
 9
 9
 9
 9
 9
 9
 9
 9
 9
 9
 9
 9
 9
 9
 9
 9
 9
 9
 9
 9
 9
 9
 9
 9
 9
 9
 9
 9
 9
 9
 9
 9
 9
 9
 9
 9
 9
 9
 9
 9
 9
 9
 9
 9
 9
 9
 9
 9
 9
 9
 9
 9
 9
 9
 9
 9
 9
 9
 9
 9
 9
 9
 9
 9
 9
 9
 9
 9
 9
 9
 9
 9
 9
 9
 9
 9
 9
 9
 9
 9
 9
 9
 9
 9
 9
 9
 9
 9
 9
 9
 9
 9
 9
 9
 9
 9
 9
 9
 9
 9
 9
 9
 9
 9
 9
 9
 9
 9
 9
 9
 9
 9
 9
 9
 9
 9
 9
 9
 9
 9
 9
 9
 9
 9
 9
 9
 9
 9
 9
 9
 9
 9
 9
 9
 9
 9
 9
 9
 9
 9
 9
 9
 9
 9
 9
 9
 9
 9
 9
 9
 9
 9
 9
 9
 9
 9
 9
 9
 9
 9
 9
 9
 9
 9
 9
 9
 9
 9
 9
 9
 9
 9
 9
 9
 9
 9
 9
 9
 9
 9
 9
 9
 9
 9
 9
 9
 9
 9
 9
 9
 9
 9
 9
 9
 9
 9
 9
 9
 9
 9
 9
 9
 9
 9
 9
 9
 9
 9
 9
 9
 9
 9
 9
 9
 9
 9
 9
 9
 9
 9
 9
 9
 9
 9
 9
 9
 9
 9
 9
 9
 9
 9
 9
 9
 9
 9
 9
 9
 9
 9
 9
 9
 9
 9
 9
 9
 9
 9
 9
 9
 9
 9
 9
 9
 9
 9
 9
 9
 9
 9
 9
 9
 9
 9
 9
 9
 9
 9
 9
 9
 9
 9
 9
 9
 9
 9
 9
 9
 9
 9
 9
 9
 9
 9
 9
 9
 9
 9
 9
 9
 9
 9
 9
 9
 9
 9
 9
 9
 9
 9
 9
 9
 9
 9
 9
 9
 9
 9
 9
 9
 9
 9
 9
 9
 9
 9
 9
 9
 9
 9
 9
 9
 9
 9
 9
 9
 9
 9
 9
 9
 9
 9
 9
 9
 9
 9
 9
 9
 9
 9
 9
 9
 9
 9
 9
 9
 9
 9
 9
 9
 9
 9
 9
 9
 9
 9
 9
 9
 9
 9
 9
 9
 9
 9
 9
 9
 9
 9
 9
 9
 9
 9
 9
 9
 9
 9
 9
 9
 9
 9
 9
 9
 9
 9
 9
 9
 9
 9
 9
 9
 9
 9
 9
 9
 9
 9
 9
 9
 9
 9
 9
 9
 9
 9
 9
 9
 9
 9
 9
 9
 9
 9
 9
 9
 9
 9
 9
 9
 9
 9
 9
 9
 9
 9
 9
 9
 9
 9
 9
 9
 9
 9
 9
 </DataArray>
 </Cells> 
 <PointData>
 <DataArray  type="Float64" Name="disp" NumberOfComponents="3" format="ascii">
   6.5230494574639558E-002   6.2789355055453286E-002   0.0000000000000000     
   6.8360942962668841E-002   6.8173948278719115E-002   0.0000000000000000     
   7.1364332187730167E-002   7.3739306156607148E-002   0.0000000000000000     
   7.4240662249823550E-002   7.9485428689117399E-002   0.0000000000000000     
   7.6989933148948975E-002   8.5412315876249867E-002   0.0000000000000000     
   6.0114101558628744E-002   6.1889936027636740E-002   0.0000000000000000     
   6.3044004552958721E-002   6.7297691558872885E-002   0.0000000000000000     
   6.5855067836004560E-002   7.2888291466722543E-002   0.0000000000000000     
   6.8547291407766206E-002   7.8661735751185693E-002   0.0000000000000000     
   7.1120675268243685E-002   8.4618024412262335E-002   0.0000000000000000     
   5.5161789744948085E-002   6.1045829940133370E-002   0.0000000000000000     
   5.7895559452015258E-002   6.6476437503011701E-002   0.0000000000000000     
   6.0518296626286508E-002   7.2091474240904466E-002   0.0000000000000000     
   6.3030001267761829E-002   7.7890940153811650E-002   0.0000000000000000     
   6.5430673376441220E-002   8.3874835241733253E-002   0.0000000000000000     
   5.0373559133597590E-002   6.0257036792943142E-002   0.0000000000000000     
   5.2915607659838444E-002   6.5710186111135563E-002   0.0000000000000000     
   5.5354018558576065E-002   7.1348854479152957E-002   0.0000000000000000     
   5.7688791829810425E-002   7.7173041896995309E-002   0.0000000000000000     
   5.9919927473541565E-002   8.3182748364662593E-002   0.0000000000000000     
   4.5749409724577243E-002   5.9523556586066076E-002   0.0000000000000000     
   4.8104149176428267E-002   6.4998937383244484E-002   0.0000000000000000     
   5.0362233632873198E-002   7.0660432181468003E-002   0.0000000000000000     
   5.2523663093912008E-002   7.6508040980736644E-002   0.0000000000000000     
   5.4588437559544720E-002   8.2541763781050381E-002   0.0000000000000000     
   7.6989933148948975E-002   8.5412315876249867E-002   0.0000000000000000     
   7.9635941107780911E-002   9.1508321612922286E-002   0.0000000000000000     
   8.2202482348993799E-002   9.7761799794052417E-002   0.0000000000000000     
   8.4689556872587668E-002  0.10417275041964026        0.0000000000000000     
   8.7097164678562503E-002  0.11074117348968582        0.0000000000000000     
   7.1120675268243685E-002   8.4618024412262335E-002   0.0000000000000000     
   7.3597719889102242E-002   9.0743980146391331E-002   0.0000000000000000     
   7.6000925742007092E-002   9.7026425650011447E-002   0.0000000000000000     
   7.8330292826958248E-002  0.10346536092312274        0.0000000000000000     
   8.0585821143955710E-002  0.11006078596572519        0.0000000000000000     
   6.5430673376441220E-002   8.3874835241733253E-002   0.0000000000000000     
   6.7741456455210014E-002   9.0028772745706878E-002   0.0000000000000000     
   6.9983494006953501E-002   9.6338365906770210E-002   0.0000000000000000     
   7.2156786031671763E-002  0.10280361472492321        0.0000000000000000     
   7.4261332529364732E-002  0.10942451920016591        0.0000000000000000     
   5.9919927473541565E-002   8.3182748364662593E-002   0.0000000000000000     
   6.2067150806104199E-002   8.9362699410868995E-002   0.0000000000000000     
   6.4150187143833068E-002   9.5697620564328692E-002   0.0000000000000000     
   6.6169036486728200E-002  0.10218751182504170        0.0000000000000000     
   6.8123698834789567E-002  0.10883237319300794        0.0000000000000000     
   5.4588437559544720E-002   8.2541763781050381E-002   0.0000000000000000     
   5.6574802941784803E-002   8.8745760141877655E-002   0.0000000000000000     
   5.8501005152645745E-002   9.5104189622686922E-002   0.0000000000000000     
   6.0367044192127552E-002  0.10161705222347814        0.0000000000000000     
   6.2172920060230202E-002  0.10828434794425135        0.0000000000000000     
   8.7097164678562503E-002  0.11074117348968582        0.0000000000000000     
   8.9412956938541094E-002  0.11745502498251877        0.0000000000000000     
   9.1624584824146205E-002  0.12430226087646878        0.0000000000000000     
   9.3732048335377863E-002  0.13128288117153580        0.0000000000000000     
   9.5735347472236026E-002  0.13839688586771995        0.0000000000000000     
   8.0585821143955710E-002  0.11006078596572519        0.0000000000000000     
   8.2755712398812686E-002  0.11680140862822966        0.0000000000000000     
   8.4828168297342355E-002  0.12367593676104705        0.0000000000000000     
   8.6803188839544729E-002  0.13068437036417732        0.0000000000000000     
   8.8680774025419823E-002  0.13782670943762049        0.0000000000000000     
   7.4261332529364732E-002  0.10942451920016591        0.0000000000000000     
   7.6286004186096684E-002  0.11619043777189365        0.0000000000000000     
   7.8219671687931855E-002  0.12309072887950191        0.0000000000000000     
   8.0062335034870244E-002  0.13012539252299066        0.0000000000000000     
   8.1813994226911851E-002  0.13729442870235986        0.0000000000000000     
   6.8123698834789567E-002  0.10883237319300794        0.0000000000000000     
   7.0003832300393087E-002  0.11562211241351075        0.0000000000000000     
   7.1799094995914678E-002  0.12254663723183337        0.0000000000000000     
   7.3509486921354353E-002  0.12960594764797584        0.0000000000000000     
   7.5135008076712070E-002  0.13680004366193807        0.0000000000000000     
   6.2172920060230202E-002  0.10828434794425135        0.0000000000000000     
   6.3909196741701896E-002  0.11509643255308097        0.0000000000000000     
   6.5566438221290851E-002  0.12204366181804145        0.0000000000000000     
   6.7144644498997055E-002  0.12912603573913281        0.0000000000000000     
   6.8643815574820508E-002  0.13634355431635506        0.0000000000000000     
   9.5735347472236026E-002  0.13839688586771995        0.0000000000000000     
   9.7641584480135907E-002  0.14563253447256844        0.0000000000000000     
   9.9457861604492645E-002  0.15297808649362860        0.0000000000000000     
  0.10118417884530624       0.16043354193090048        0.0000000000000000     
  0.10282053620257670       0.16799890078438406        0.0000000000000000     
   8.8680774025419823E-002  0.13782670943762049        0.0000000000000000     
   9.0467257764911421E-002  0.14509048305472905        0.0000000000000000     
   9.2168973967963322E-002  0.15246322028885534        0.0000000000000000     
   9.3785922634575525E-002  0.15994492113999939        0.0000000000000000     
   9.5318103764748030E-002  0.16753558560816129        0.0000000000000000     
   8.1813994226911851E-002  0.13729442870235986        0.0000000000000000     
   8.3480211728536535E-002  0.14458486207260948        0.0000000000000000     
   8.5066550004224167E-002  0.15198371728873927        0.0000000000000000     
   8.6573009053974720E-002  0.15949099435074932        0.0000000000000000     
   8.7999588877788235E-002  0.16710669325863955        0.0000000000000000     
   7.5135008076712070E-002  0.13680004366193807        0.0000000000000000     
   7.6680446371011221E-002  0.14411567152620972        0.0000000000000000     
   7.8150589713275140E-002  0.15153957749328045        0.0000000000000000     
   7.9545438103503827E-002  0.15907176156315014        0.0000000000000000     
   8.0864991541697281E-002  0.16671222373581887        0.0000000000000000     
   6.8643815574820508E-002  0.13634355431635506        0.0000000000000000     
   7.0067961692335493E-002  0.14368291141552983        0.0000000000000000     
   7.1421093095116253E-002  0.15113080090247882        0.0000000000000000     
   7.2703209783162817E-002  0.15868722277720193        0.0000000000000000     
   7.3914311756475171E-002  0.16635217703969929        0.0000000000000000     
  0.10282053620257670       0.16799890078438406        0.0000000000000000     
  0.10436864503918222       0.17566406379525351        0.0000000000000000     
  0.10583021671800100       0.18341893170468307        0.0000000000000000     
  0.10720525123903303       0.19126350451267268        0.0000000000000000     
  0.10849374860227834       0.19919778221922241        0.0000000000000000     
   9.5318103764748030E-002  0.16753558560816129        0.0000000000000000     
   9.6765869598219117E-002  0.17522592925747016        0.0000000000000000     
   9.8129572374727039E-002  0.18300666765205523        0.0000000000000000     
   9.9409212094271809E-002  0.19087780079191655        0.0000000000000000     
  0.10060478875685343       0.19883932867705412        0.0000000000000000     
   8.7999588877788235E-002  0.16710669325863955        0.0000000000000000     
   8.9345594119084368E-002  0.17482193218583919        0.0000000000000000     
   9.0610329421282790E-002  0.18262782930577728        0.0000000000000000     
   9.1793794784383528E-002  0.19052438461845392        0.0000000000000000     
   9.2895990208386570E-002  0.19851159812386907        0.0000000000000000     
   8.0864991541697281E-002  0.16671222373581887        0.0000000000000000     
   8.2107818601777946E-002  0.17445207258036063        0.0000000000000000     
   8.3272487857668248E-002  0.18228241666584924        0.0000000000000000     
   8.4358999309368160E-002  0.19020325599228480        0.0000000000000000     
   8.5367352956877751E-002  0.19821459055966725        0.0000000000000000     
   7.3914311756475171E-002  0.16635217703969929        0.0000000000000000     
   7.5052543046299852E-002  0.17411635044103446        0.0000000000000000     
   7.6116047683883373E-002  0.18197042973227109        0.0000000000000000     
   7.7104825669225760E-002  0.18991441491340916        0.0000000000000000     
   7.8018877002326972E-002  0.19794830598444871        0.0000000000000000     
  0.10849374860227834       0.19919778221922241        0.0000000000000000     
  0.10970135876321400       0.20721766768534558        0.0000000000000000     
  0.11083373167731714       0.21531906377205554        0.0000000000000000     
  0.11189086734458774       0.22350197047935225        0.0000000000000000     
  0.11287276576502581       0.23176638780723577        0.0000000000000000     
  0.10060478875685343       0.19883932867705412        0.0000000000000000     
  0.10172175658326706       0.20688472677171196        0.0000000000000000     
  0.10276556979430786       0.21500747054013422        0.0000000000000000     
  0.10373622838997580       0.22320755998232086        0.0000000000000000     
  0.10463373237027090       0.23148499509827189        0.0000000000000000     
   9.2895990208386570E-002  0.19851159812386907        0.0000000000000000     
   9.3921485685468514E-002  0.20658159367144094        0.0000000000000000     
   9.4874851207805894E-002  0.21472649511058783        0.0000000000000000     
   9.5756086775398749E-002  0.22294630244130972        0.0000000000000000     
   9.6565192388247040E-002  0.23124101566360666        0.0000000000000000     
   8.5367352956877751E-002  0.19821459055966725        0.0000000000000000     
   8.6300546069818324E-002  0.20630826838453251        0.0000000000000000     
   8.7161575917811276E-002  0.21447613748341635        0.0000000000000000     
   8.7950442500856540E-002  0.22271819785631888        0.0000000000000000     
   8.8667145818954213E-002  0.23103444950324009        0.0000000000000000     
   7.8018877002326972E-002  0.19794830598444871        0.0000000000000000     
   7.8858937736316553E-002  0.20606475091098664        0.0000000000000000     
   7.9625743924323977E-002  0.21425639765861987        0.0000000000000000     
   8.0319295566349258E-002  0.22252324622734831        0.0000000000000000     
   8.0939592662392423E-002  0.23086529661717209        0.0000000000000000     
  0.11287276576502581       0.23176638780723577        0.0000000000000000     
  0.11380752378619713       0.24012904672634372        0.0000000000000000     
  0.11472323825566745       0.24860667820731377        0.0000000000000000     
  0.11561990917343680       0.25719928225014588        0.0000000000000000     
  0.11649753653950515       0.26590685885484011        0.0000000000000000     
  0.10463373237027090       0.23148499509827189        0.0000000000000000     
  0.10546309629015246       0.23986339350075747        0.0000000000000000     
  0.10622933470457975       0.24836637280254786        0.0000000000000000     
  0.10693244761355271       0.25699393300364293        0.0000000000000000     
  0.10757243501707144       0.26574607410404283        0.0000000000000000     
   9.6565192388247040E-002  0.23124101566360666        0.0000000000000000     
   9.7293037193091320E-002  0.23963720645412812        0.0000000000000000     
   9.7930490336672088E-002  0.24816144648952376        0.0000000000000000     
   9.8477551818989359E-002  0.25681373576979344        0.0000000000000000     
   9.8934221640043105E-002  0.26559407429493731        0.0000000000000000     
   8.8667145818954213E-002  0.23103444950324009        0.0000000000000000     
   8.9297346495013696E-002  0.23945048558645562        0.0000000000000000     
   8.9826705151944519E-002  0.24799189926824142        0.0000000000000000     
   9.0255221789746654E-002  0.25665869054859741        0.0000000000000000     
   9.0582896408420127E-002  0.26545085942752356        0.0000000000000000     
   8.0939592662392423E-002  0.23086529661717209        0.0000000000000000     
   8.1476024195919594E-002  0.23930323089774000        0.0000000000000000     
   8.1917979150397016E-002  0.24785773113870085        0.0000000000000000     
   8.2265457525824648E-002  0.25652879734005468        0.0000000000000000     
   8.2518459322202531E-002  0.26531642950180157        0.0000000000000000     
  0.11649753653950515       0.26590685885484011        0.0000000000000000     
  0.11729648116536709       0.27489391875753316        0.0000000000000000     
  0.11795710386251722       0.28432497269436169        0.0000000000000000     
  0.11847940463095553       0.29420002066532563        0.0000000000000000     
  0.11886338347068201       0.30451906267042511        0.0000000000000000     
  0.10757243501707144       0.26574607410404283        0.0000000000000000     
  0.10813031664013473       0.27475487870148241        0.0000000000000000     
  0.10858711220774142       0.28415242939369662        0.0000000000000000     
  0.10894282171989153       0.29393872618068551        0.0000000000000000     
  0.10919744517658508       0.30411376906244902        0.0000000000000000     
   9.8934221640043105E-002  0.26559407429493731        0.0000000000000000     
   9.9311510351879267E-002  0.27460071433157984        0.0000000000000000     
   9.9620428506543734E-002  0.28393190814634572        0.0000000000000000     
   9.9860976104036506E-002  0.29358765573923501        0.0000000000000000     
  0.10003315314435759       0.30356795711024764        0.0000000000000000     
   9.0582896408420127E-002  0.26545085942752356        0.0000000000000000     
   9.0840062300600682E-002  0.27443142564782558        0.0000000000000000     
   9.1057052758924117E-002  0.28366340895230913        0.0000000000000000     
   9.1233867783390418E-002  0.29314680934097426        0.0000000000000000     
   9.1370507373999543E-002  0.30288162681382097        0.0000000000000000     
   8.2518459322202531E-002  0.26531642950180157        0.0000000000000000     
   8.2715972486299041E-002  0.27424701265021956        0.0000000000000000     
   8.2896984964882611E-002  0.28334693181158671        0.0000000000000000     
   8.3061496757953268E-002  0.29261618698590319        0.0000000000000000     
   8.3209507865510957E-002  0.30205477817316895        0.0000000000000000     
   4.5749409724577243E-002   5.9523556586066076E-002   0.0000000000000000     
   4.8104149176428267E-002   6.4998937383244484E-002   0.0000000000000000     
   5.0362233632873198E-002   7.0660432181468003E-002   0.0000000000000000     
   5.2523663093912008E-002   7.6508040980736644E-002   0.0000000000000000     
   5.4588437559544720E-002   8.2541763781050381E-002   0.0000000000000000     
   4.1292219255539109E-002   5.8847674854126703E-002   0.0000000000000000     
   4.3459384498408346E-002   6.4343899570036528E-002   0.0000000000000000     
   4.5536988572578818E-002   7.0026656312887806E-002   0.0000000000000000     
   4.7525031478050546E-002   7.5895945082680535E-002   0.0000000000000000     
   4.9423513214823502E-002   8.1951765879414690E-002   0.0000000000000000     
   3.7004865464135242E-002   5.8231677131749530E-002   0.0000000000000000     
   3.8979514122402276E-002   6.3746280922209825E-002   0.0000000000000000     
   4.0872330101093868E-002   6.9447975838450623E-002   0.0000000000000000     
   4.2683313400210011E-002   7.5336761880471892E-002   0.0000000000000000     
   4.4412464019750714E-002   8.1412639048273658E-002   0.0000000000000000     
   3.2887348350365629E-002   5.7675563418934560E-002   0.0000000000000000     
   3.4664538048410062E-002   6.3206081439764375E-002   0.0000000000000000     
   3.6368258218418333E-002   6.8924390758156415E-002   0.0000000000000000     
   3.7998508860390426E-002   7.4830491374110714E-002   0.0000000000000000     
   3.9555289974326356E-002   8.0924383287627244E-002   0.0000000000000000     
   2.8939667914230284E-002   5.7179333715681797E-002   0.0000000000000000     
   3.0514456276431699E-002   6.2723301122700165E-002   0.0000000000000000     
   3.2024772924552199E-002   6.8455901072005221E-002   0.0000000000000000     
   3.3470617858591775E-002   7.4377133563597000E-002   0.0000000000000000     
   3.4851991078550429E-002   8.0486998597475476E-002   0.0000000000000000     
   5.4588437559544720E-002   8.2541763781050381E-002   0.0000000000000000     
   5.6574802941784803E-002   8.8745760141877655E-002   0.0000000000000000     
   5.8501005152645745E-002   9.5104189622686922E-002   0.0000000000000000     
   6.0367044192127552E-002  0.10161705222347814        0.0000000000000000     
   6.2172920060230202E-002  0.10828434794425135        0.0000000000000000     
   4.9423513214823502E-002   8.1951765879414690E-002   0.0000000000000000     
   5.1249127257238847E-002   8.8177879181807584E-002   0.0000000000000000     
   5.3018567079637743E-002   9.4558045468576477E-002   0.0000000000000000     
   5.4731832682020171E-002  0.10109226473972138        0.0000000000000000     
   5.6388924064386128E-002  0.10778053699524229        0.0000000000000000     
   4.4412464019750714E-002   8.1412639048273658E-002   0.0000000000000000     
   4.6074838147453327E-002   8.7658980773733491E-002   0.0000000000000000     
   4.7685491971055226E-002   9.4059160488728977E-002   0.0000000000000000     
   4.9244425490556389E-002  0.10061317819326014        0.0000000000000000     
   5.0751638705956836E-002  0.10732103388732699        0.0000000000000000     
   3.9555289974326356E-002   8.0924383287627244E-002   0.0000000000000000     
   4.1051935612428238E-002   8.7189064917655379E-002   0.0000000000000000     
   4.2501779826898185E-002   9.3607534683144422E-002   0.0000000000000000     
   4.3904822617736226E-002  0.10017979258409444        0.0000000000000000     
   4.5261063984942333E-002  0.10690583862050541        0.0000000000000000     
   3.4851991078550429E-002   8.0486998597475476E-002   0.0000000000000000     
   3.6180419652163585E-002   8.6768131613573232E-002   0.0000000000000000     
   3.7467430647166663E-002   9.3203168051822841E-002   0.0000000000000000     
   3.8713024063559670E-002   9.9792107912224287E-002   0.0000000000000000     
   3.9917199901342598E-002  0.10653495119477760        0.0000000000000000     
   6.2172920060230202E-002  0.10828434794425135        0.0000000000000000     
   6.3909196741701896E-002  0.11509643255308097        0.0000000000000000     
   6.5566438221290851E-002  0.12204366181804145        0.0000000000000000     
   6.7144644498997055E-002  0.12912603573913281        0.0000000000000000     
   6.8643815574820508E-002  0.13634355431635506        0.0000000000000000     
   5.6388924064386128E-002  0.10778053699524229        0.0000000000000000     
   5.7981298802925761E-002  0.11461357271351835        0.0000000000000000     
   5.9500414473829193E-002  0.12158208237292872        0.0000000000000000     
   6.0946271077096416E-002  0.12868606597347346        0.0000000000000000     
   6.2318868612727445E-002  0.13592552351515244        0.0000000000000000     
   5.0751638705956836E-002  0.10732103388732699        0.0000000000000000     
   5.2199339776967293E-002  0.11417370741773702        0.0000000000000000     
   5.3579736863298505E-002  0.12116217863129784        0.0000000000000000     
   5.4892829964950457E-002  0.12828644752800941        0.0000000000000000     
   5.6138619081923156E-002  0.13554651410787177        0.0000000000000000     
   4.5261063984942333E-002  0.10690583862050541        0.0000000000000000     
   4.6563319663826513E-002  0.11377683666573697        0.0000000000000000     
   4.7804405389698802E-002  0.12078395059314875        0.0000000000000000     
   4.8984321162559172E-002  0.12792718040274079        0.0000000000000000     
   5.0103066982407657E-002  0.13520652609451300        0.0000000000000000     
   3.9917199901342598E-002  0.10653495119477760        0.0000000000000000     
   4.1073238463503407E-002  0.11342296045751818        0.0000000000000000     
   4.2174420053030071E-002  0.12044739825848148        0.0000000000000000     
   4.3220744669922574E-002  0.12760826459766750        0.0000000000000000     
   4.4212212314180918E-002  0.13490555947507621        0.0000000000000000     
   6.8643815574820508E-002  0.13634355431635506        0.0000000000000000     
   7.0067961692335493E-002  0.14368291141552983        0.0000000000000000     
   7.1421093095116253E-002  0.15113080090247882        0.0000000000000000     
   7.2703209783162817E-002  0.15868722277720193        0.0000000000000000     
   7.3914311756475171E-002  0.16635217703969929        0.0000000000000000     
   6.2318868612727445E-002  0.13592552351515244        0.0000000000000000     
   6.3621483111169552E-002  0.14328720001403211        0.0000000000000000     
   6.4857390602870060E-002  0.15075784048617880        0.0000000000000000     
   6.6026591087828934E-002  0.15833744493159249        0.0000000000000000     
   6.7129084566046188E-002  0.16602601335027323        0.0000000000000000     
   5.6138619081923156E-002  0.13554651410787177        0.0000000000000000     
   5.7319736046173679E-002  0.14292915559517888        0.0000000000000000     
   5.8438812689659086E-002  0.15042114921422481        0.0000000000000000     
   5.9495849012379400E-002  0.15802249496500950        0.0000000000000000     
   6.0490845014334590E-002  0.16573319284753305        0.0000000000000000     
   5.0103066982407657E-002  0.13520652609451300        0.0000000000000000     
   5.1162720497347824E-002  0.14260877815897019        0.0000000000000000     
   5.2165359355483346E-002  0.15012072708661683        0.0000000000000000     
   5.3110983556814199E-002  0.15774237287745307        0.0000000000000000     
   5.3999593101340386E-002  0.16547371553147883        0.0000000000000000     
   4.4212212314180918E-002  0.13490555947507621        0.0000000000000000     
   4.5150436464692037E-002  0.14232606770540590        0.0000000000000000     
   4.6037030600342838E-002  0.14985657410335490        0.0000000000000000     
   4.6871994721133348E-002  0.15749707866892310        0.0000000000000000     
   4.7655328827063546E-002  0.16524758140211054        0.0000000000000000     
   7.3914311756475171E-002  0.16635217703969929        0.0000000000000000     
   7.5052543046299852E-002  0.17411635044103446        0.0000000000000000     
   7.6116047683883373E-002  0.18197042973227109        0.0000000000000000     
   7.7104825669225760E-002  0.18991441491340916        0.0000000000000000     
   7.8018877002326972E-002  0.19794830598444871        0.0000000000000000     
   6.7129084566046188E-002  0.16602601335027323        0.0000000000000000     
   6.8162788498122739E-002  0.17381368046635756        0.0000000000000000     
   6.9125620344659466E-002  0.18169058100398236        0.0000000000000000     
   7.0017580105656355E-002  0.18965671496314757        0.0000000000000000     
   7.0838667781113432E-002  0.19771208234385312        0.0000000000000000     
   6.0490845014334590E-002  0.16573319284753305        0.0000000000000000     
   6.1421576002719185E-002  0.17354297735482693        0.0000000000000000     
   6.2285817284727679E-002  0.18144158297992272        0.0000000000000000     
   6.3083568860360054E-002  0.18942900972282045        0.0000000000000000     
   6.3814830729616315E-002  0.19750525758352011        0.0000000000000000     
   5.3999593101340386E-002  0.16547371553147883        0.0000000000000000     
   5.4828905560089222E-002  0.17330424110644244        0.0000000000000000     
   5.5596638504088039E-002  0.18122343566009211        0.0000000000000000     
   5.6302791933336829E-002  0.18923129919242784        0.0000000000000000     
   5.6947365847835621E-002  0.19732783170344970        0.0000000000000000     
   4.7655328827063546E-002  0.16524758140211054        0.0000000000000000     
   4.8384777170232818E-002  0.17309747172120407        0.0000000000000000     
   4.9058084002740546E-002  0.18103613904449045        0.0000000000000000     
   4.9675249324586716E-002  0.18906358337196971        0.0000000000000000     
   5.0236273135771350E-002  0.19717980470364185        0.0000000000000000     
   7.8018877002326972E-002  0.19794830598444871        0.0000000000000000     
   7.8858937736316553E-002  0.20606475091098664        0.0000000000000000     
   7.9625743924323977E-002  0.21425639765861987        0.0000000000000000     
   8.0319295566349258E-002  0.22252324622734831        0.0000000000000000     
   8.0939592662392423E-002  0.23086529661717209        0.0000000000000000     
   7.0838667781113432E-002  0.19771208234385312        0.0000000000000000     
   7.1587478885894479E-002  0.20585025712886323        0.0000000000000000     
   7.2262608934863290E-002  0.21406481330094218        0.0000000000000000     
   7.2864057928019851E-002  0.22235575086008988        0.0000000000000000     
   7.3391825865364191E-002  0.23072306980630639        0.0000000000000000     
   6.3814830729616315E-002  0.19750525758352011        0.0000000000000000     
   6.4476987719483445E-002  0.20566400291622219        0.0000000000000000     
   6.5067424656948453E-002  0.21389892207512734        0.0000000000000000     
   6.5586141542011339E-002  0.22221001506023538        0.0000000000000000     
   6.6033138374672076E-002  0.23059728187154649        0.0000000000000000     
   5.6947365847835621E-002  0.19732783170344970        0.0000000000000000     
   5.7527464237083471E-002  0.20550598827306357        0.0000000000000000     
   5.8040191090579493E-002  0.21375872398117524        0.0000000000000000     
   5.8485546408323701E-002  0.22208603882778488        0.0000000000000000     
   5.8863530190316087E-002  0.23048793281289240        0.0000000000000000     
   5.0236273135771350E-002  0.19717980470364185        0.0000000000000000     
   5.0738908438694538E-002  0.20537621319938718        0.0000000000000000     
   5.1180908235756405E-002  0.21364421901908598        0.0000000000000000     
   5.1562272526956963E-002  0.22198382216273829        0.0000000000000000     
   5.1883001312296194E-002  0.23039502263034414        0.0000000000000000     
   8.0939592662392423E-002  0.23086529661717209        0.0000000000000000     
   8.1476024195919594E-002  0.23930323089774000        0.0000000000000000     
   8.1917979150397016E-002  0.24785773113870085        0.0000000000000000     
   8.2265457525824648E-002  0.25652879734005468        0.0000000000000000     
   8.2518459322202531E-002  0.26531642950180157        0.0000000000000000     
   7.3391825865364191E-002  0.23072306980630639        0.0000000000000000     
   7.3842618464015436E-002  0.23918047980848206        0.0000000000000000     
   7.4213141441092756E-002  0.24774169053550732        0.0000000000000000     
   7.4503394796596165E-002  0.25640670198738219        0.0000000000000000     
   7.4713378530525648E-002  0.26517551416410667        0.0000000000000000     
   6.6033138374672076E-002  0.23059728187154649        0.0000000000000000     
   6.6410677467507617E-002  0.23906726973918263        0.0000000000000000     
   6.6721021133094929E-002  0.24762652589326598        0.0000000000000000     
   6.6964169371434012E-002  0.25627505033379649        0.0000000000000000     
   6.7140122182524839E-002  0.26501284306077427        0.0000000000000000     
   5.8863530190316087E-002  0.23048793281289240        0.0000000000000000     
   5.9180201206396173E-002  0.23896360068984171        0.0000000000000000     
   5.9441618226403550E-002  0.24751223721197685        0.0000000000000000     
   5.9647781250338185E-002  0.25613384237929765        0.0000000000000000     
   5.9798690278200096E-002  0.26482841619180425        0.0000000000000000     
   5.1883001312296194E-002  0.23039502263034414        0.0000000000000000     
   5.2151189680681082E-002  0.23886947266045935        0.0000000000000000     
   5.2374932721018584E-002  0.24739882449163988        0.0000000000000000     
   5.2554230433308702E-002  0.25598307812388560        0.0000000000000000     
   5.2689082817551428E-002  0.26462223355719666        0.0000000000000000     
   8.2518459322202531E-002  0.26531642950180157        0.0000000000000000     
   8.2715972486299041E-002  0.27424701265021956        0.0000000000000000     
   8.2896984964882611E-002  0.28334693181158671        0.0000000000000000     
   8.3061496757953268E-002  0.29261618698590319        0.0000000000000000     
   8.3209507865510957E-002  0.30205477817316895        0.0000000000000000     
   7.4713378530525648E-002  0.26517551416410667        0.0000000000000000     
   7.4884061580254027E-002  0.27404178462261580        0.0000000000000000     
   7.5056412883154164E-002  0.28299917091984478        0.0000000000000000     
   7.5230432439226003E-002  0.29204767305579327        0.0000000000000000     
   7.5406120248469599E-002  0.30118729103046160        0.0000000000000000     
   6.7140122182524839E-002  0.26501284306077427        0.0000000000000000     
   6.7289150253745406E-002  0.27381005084886872        0.0000000000000000     
   6.7451524272473640E-002  0.28263682047274935        0.0000000000000000     
   6.7627244238709597E-002  0.29149315193241609        0.0000000000000000     
   6.7816310152453249E-002  0.30037904522786901        0.0000000000000000     
   5.9798690278200096E-002  0.26482841619180425        0.0000000000000000     
   5.9931238506773121E-002  0.27355181132897805        0.0000000000000000     
   6.0082319132841094E-002  0.28225988047030048        0.0000000000000000     
   6.0251932156404016E-002  0.29095262361577146        0.0000000000000000     
   6.0440077577461893E-002  0.29963004076539113        0.0000000000000000     
   5.2689082817551428E-002  0.26462223355719666        0.0000000000000000     
   5.2810326339337216E-002  0.27326706606294393        0.0000000000000000     
   5.2948797464256500E-002  0.28186835091249823        0.0000000000000000     
   5.3104496192309281E-002  0.29042608810585957        0.0000000000000000     
   5.3277422523495557E-002  0.29894027764302800        0.0000000000000000     
   2.8939667914230284E-002   5.7179333715681797E-002   0.0000000000000000     
   3.0514456276431699E-002   6.2723301122700165E-002   0.0000000000000000     
   3.2024772924552199E-002   6.8455901072005221E-002   0.0000000000000000     
   3.3470617858591775E-002   7.4377133563597000E-002   0.0000000000000000     
   3.4851991078550429E-002   8.0486998597475476E-002   0.0000000000000000     
   2.5109868492379152E-002   5.6742700096091267E-002   0.0000000000000000     
   2.6481701535716756E-002   6.2297988275912423E-002   0.0000000000000000     
   2.7798072094755075E-002   6.8042799532956888E-002   0.0000000000000000     
   2.9058980169494122E-002   7.3977133867224668E-002   0.0000000000000000     
   3.0264425759933888E-002   8.0100991278715755E-002   0.0000000000000000     
   2.1345994421462195E-002   5.6365374634262985E-002   0.0000000000000000     
   2.2518706555514783E-002   6.1930191204296409E-002   0.0000000000000000     
   2.3644353604286562E-002   6.7685378893971290E-002   0.0000000000000000     
   2.4722935567777535E-002   7.3630937703287658E-002   0.0000000000000000     
   2.5754452445987706E-002   7.9766867632245483E-002   0.0000000000000000     
   1.7648045701479407E-002   5.6047357330196994E-002   0.0000000000000000     
   1.8625471335825778E-002   6.1619909907852079E-002   0.0000000000000000     
   1.9563617453146654E-002   6.7383639155048414E-002   0.0000000000000000     
   2.0462484053442011E-002   7.3338545071785943E-002   0.0000000000000000     
   2.1322071136711869E-002   7.9484627658064716E-002   0.0000000000000000     
   1.4016022332430791E-002   5.5788648183893237E-002   0.0000000000000000     
   1.4801995876649755E-002   6.1367144386579475E-002   0.0000000000000000     
   1.5555863641335342E-002   6.7137580316188258E-002   0.0000000000000000     
   1.6277625626487553E-002   7.3099955972719552E-002   0.0000000000000000     
   1.6967281832106388E-002   7.9254271356173370E-002   0.0000000000000000     
   3.4851991078550429E-002   8.0486998597475476E-002   0.0000000000000000     
   3.6180419652163585E-002   8.6768131613573232E-002   0.0000000000000000     
   3.7467430647166663E-002   9.3203168051822841E-002   0.0000000000000000     
   3.8713024063559670E-002   9.9792107912224287E-002   0.0000000000000000     
   3.9917199901342598E-002  0.10653495119477760        0.0000000000000000     
   3.0264425759933888E-002   8.0100991278715755E-002   0.0000000000000000     
   3.1424186146460212E-002   8.6396658830991693E-002   0.0000000000000000     
   3.2548038609458922E-002   9.2846423587614010E-002   0.0000000000000000     
   3.3635983148930022E-002   9.9450285548582706E-002   0.0000000000000000     
   3.4688019764873512E-002  0.10620824471389780        0.0000000000000000     
   2.5754452445987706E-002   7.9766867632245483E-002   0.0000000000000000     
   2.6747130975118983E-002   8.6075124539415362E-002   0.0000000000000000     
   2.7709197891373279E-002   9.2537664283367779E-002   0.0000000000000000     
   2.8640653194750610E-002   9.9154486864102762E-002   0.0000000000000000     
   2.9541496885250963E-002  0.10592559228162027        0.0000000000000000     
   2.1322071136711869E-002   7.9484627658064716E-002   0.0000000000000000     
   2.2149254138139885E-002   8.5803528738844240E-002   0.0000000000000000     
   2.2950908492909743E-002   9.2276890139084147E-002   0.0000000000000000     
   2.3727034201021416E-002   9.8904711858784425E-002   0.0000000000000000     
   2.4477631262474923E-002  0.10568699389794509        0.0000000000000000     
   1.6967281832106388E-002   7.9254271356173370E-002   0.0000000000000000     
   1.7630555635522936E-002   8.5581871429278353E-002   0.0000000000000000     
   1.8273170414068288E-002   9.2064101154763128E-002   0.0000000000000000     
   1.8895126167742450E-002   9.8700960532627738E-002   0.0000000000000000     
   1.9496422896545414E-002  0.10549244956287215        0.0000000000000000     
   3.9917199901342598E-002  0.10653495119477760        0.0000000000000000     
   4.1073238463503407E-002  0.11342296045751818        0.0000000000000000     
   4.2174420053030071E-002  0.12044739825848148        0.0000000000000000     
   4.3220744669922574E-002  0.12760826459766750        0.0000000000000000     
   4.4212212314180918E-002  0.13490555947507621        0.0000000000000000     
   3.4688019764873512E-002  0.10620824471389780        0.0000000000000000     
   3.5697894057241282E-002  0.11311162271938885        0.0000000000000000     
   3.6659351625985208E-002  0.12015174120088548        0.0000000000000000     
   3.7572392471105290E-002  0.12732860015838765        0.0000000000000000     
   3.8437016592601528E-002  0.13464219959189538        0.0000000000000000     
   2.9541496885250963E-002  0.10592559228162027        0.0000000000000000     
   3.0406084326283431E-002  0.11284236737765717        0.0000000000000000     
   3.1228770881257095E-002  0.11989619899395018        0.0000000000000000     
   3.2009556550171965E-002  0.12708708713049935        0.0000000000000000     
   3.2748441333028046E-002  0.13441503178730463        0.0000000000000000     
   2.4477631262474923E-002  0.10568699389794509        0.0000000000000000     
   2.5197809270629843E-002  0.11261519443232312        0.0000000000000000     
   2.5882677818845738E-002  0.11968077163767560        0.0000000000000000     
   2.6532236907122610E-002  0.12688372551400254        0.0000000000000000     
   2.7146486535460469E-002  0.13422405606130389        0.0000000000000000     
   1.9496422896545414E-002  0.10549244956287215        0.0000000000000000     
   2.0073068890280526E-002  0.11243010388338671        0.0000000000000000     
   2.0621072438751130E-002  0.11950545913206172        0.0000000000000000     
   2.1140433541957219E-002  0.12671851530889722        0.0000000000000000     
   2.1631152199898800E-002  0.13406927241389321        0.0000000000000000     
   4.4212212314180918E-002  0.13490555947507621        0.0000000000000000     
   4.5150436464692037E-002  0.14232606770540590        0.0000000000000000     
   4.6037030600342838E-002  0.14985657410335490        0.0000000000000000     
   4.6871994721133348E-002  0.15749707866892310        0.0000000000000000     
   4.7655328827063546E-002  0.16524758140211054        0.0000000000000000     
   3.8437016592601528E-002  0.13464219959189538        0.0000000000000000     
   3.9254469988272422E-002  0.14207930309839664        0.0000000000000000     
   4.0025998655916467E-002  0.14962667427487925        0.0000000000000000     
   4.0751602595533669E-002  0.15728431312134328        0.0000000000000000     
   4.1431281807124021E-002  0.16505221963778868        0.0000000000000000     
   3.2748441333028046E-002  0.13441503178730463        0.0000000000000000     
   3.3446407108155163E-002  0.14186676320185271        0.0000000000000000     
   3.4104435753883153E-002  0.14942901161163025        0.0000000000000000     
   3.4722527270212009E-002  0.15710177701663725        0.0000000000000000     
   3.5300681657141737E-002  0.16488505941687367        0.0000000000000000     
   2.7146486535460469E-002  0.13422405606130389        0.0000000000000000     
   2.7726247824340241E-002  0.14168844801577418        0.0000000000000000     
   2.8272341894242877E-002  0.14926358611360790        0.0000000000000000     
   2.8784768745168356E-002  0.15694947035480503        0.0000000000000000     
   2.9263528377116706E-002  0.16474610073936555        0.0000000000000000     
   2.1631152199898800E-002  0.13406927241389321        0.0000000000000000     
   2.2093992136827674E-002  0.14154435754016104        0.0000000000000000     
   2.2529717076995654E-002  0.14913039778081216        0.0000000000000000     
   2.2938327020402730E-002  0.15682739313584657        0.0000000000000000     
   2.3319821967048911E-002  0.16463534360526430        0.0000000000000000     
   4.7655328827063546E-002  0.16524758140211054        0.0000000000000000     
   4.8384777170232818E-002  0.17309747172120407        0.0000000000000000     
   4.9058084002740546E-002  0.18103613904449045        0.0000000000000000     
   4.9675249324586716E-002  0.18906358337196971        0.0000000000000000     
   5.0236273135771350E-002  0.19717980470364185        0.0000000000000000     
   4.1431281807124021E-002  0.16505221963778868        0.0000000000000000     
   4.2062872052845805E-002  0.17291972018709584        0.0000000000000000     
   4.2644209094857284E-002  0.18087614113214501        0.0000000000000000     
   4.3175292933158457E-002  0.18892148247293633        0.0000000000000000     
   4.3656123567749353E-002  0.19705574420946956        0.0000000000000000     
   3.5300681657141737E-002  0.16488505941687367        0.0000000000000000     
   3.5836871427623970E-002  0.17276803749210157        0.0000000000000000     
   3.6329069094610346E-002  0.18073988992208290        0.0000000000000000     
   3.6777274658100836E-002  0.18880061670681769        0.0000000000000000     
   3.7181488118095470E-002  0.19695021784630587        0.0000000000000000     
   2.9263528377116706E-002  0.16474610073936555        0.0000000000000000     
   2.9706775294567341E-002  0.17264242363622131        0.0000000000000000     
   3.0112664001999728E-002  0.18062738541430406        0.0000000000000000     
   3.0481194499413850E-002  0.18870098607361388        0.0000000000000000     
   3.0812366786809715E-002  0.19686322561415065        0.0000000000000000     
   2.3319821967048911E-002  0.16463534360526430        0.0000000000000000     
   2.3672583653675906E-002  0.17254287861945505        0.0000000000000000     
   2.3994993817025433E-002  0.18053862760880854        0.0000000000000000     
   2.4287052457097488E-002  0.18862259057332487        0.0000000000000000     
   2.4548759573892083E-002  0.19679476751300401        0.0000000000000000     
   5.0236273135771350E-002  0.19717980470364185        0.0000000000000000     
   5.0738908438694538E-002  0.20537621319938718        0.0000000000000000     
   5.1180908235756405E-002  0.21364421901908598        0.0000000000000000     
   5.1562272526956963E-002  0.22198382216273829        0.0000000000000000     
   5.1883001312296194E-002  0.23039502263034414        0.0000000000000000     
   4.3656123567749353E-002  0.19705574420946956        0.0000000000000000     
   4.4085467812709639E-002  0.20526844122659704        0.0000000000000000     
   4.4462092482119062E-002  0.21354908840917072        0.0000000000000000     
   4.4785997575977600E-002  0.22189768575719068        0.0000000000000000     
   4.5057183094285275E-002  0.23031423327065687        0.0000000000000000     
   3.7181488118095470E-002  0.19695021784630587        0.0000000000000000     
   3.7541289847521780E-002  0.20517643588609702        0.0000000000000000     
   3.7856260219307332E-002  0.21346701337174070        0.0000000000000000     
   3.8126399233452117E-002  0.22182195030323695        0.0000000000000000     
   3.8351706889956129E-002  0.23024124668058571        0.0000000000000000     
   3.0812366786809715E-002  0.19686322561415065        0.0000000000000000     
   3.1106374543130956E-002  0.20510019717788716        0.0000000000000000     
   3.1363411447321216E-002  0.21339799390679595        0.0000000000000000     
   3.1583477499380487E-002  0.22175661580087713        0.0000000000000000     
   3.1766572699308770E-002  0.23017606286013062        0.0000000000000000     
   2.4548759573892083E-002  0.19679476751300401        0.0000000000000000     
   2.4780721899537169E-002  0.20503972510196736        0.0000000000000000     
   2.4983546166160719E-002  0.21334203001433644        0.0000000000000000     
   2.5157232373762731E-002  0.22170168225011122        0.0000000000000000     
   2.5301780522343210E-002  0.23011868180929171        0.0000000000000000     
   5.1883001312296194E-002  0.23039502263034414        0.0000000000000000     
   5.2151189680681082E-002  0.23886947266045935        0.0000000000000000     
   5.2374932721018584E-002  0.24739882449163988        0.0000000000000000     
   5.2554230433308702E-002  0.25598307812388560        0.0000000000000000     
   5.2689082817551428E-002  0.26462223355719666        0.0000000000000000     
   4.5057183094285275E-002  0.23031423327065687        0.0000000000000000     
   4.5284497791872921E-002  0.23878346103681747        0.0000000000000000     
   4.5476790423571424E-002  0.24729009914292083        0.0000000000000000     
   4.5634060989380776E-002  0.25583414758896683        0.0000000000000000     
   4.5756309489300991E-002  0.26441560637495548        0.0000000000000000     
   3.8351706889956129E-002  0.23024124668058571        0.0000000000000000     
   3.8540980441482277E-002  0.23870414120469807        0.0000000000000000     
   3.8703017140693456E-002  0.24718987257648542        0.0000000000000000     
   3.8837816987589674E-002  0.25569844079594756        0.0000000000000000     
   3.8945379982170923E-002  0.26422984586308457        0.0000000000000000     
   3.1766572699308770E-002  0.23017606286013062        0.0000000000000000     
   3.1920637629509148E-002  0.23863151316410122        0.0000000000000000     
   3.2053612872384681E-002  0.24709814479233363        0.0000000000000000     
   3.2165498427935375E-002  0.25557595774482789        0.0000000000000000     
   3.2256294296161239E-002  0.26406495202158392        0.0000000000000000     
   2.5301780522343210E-002  0.23011868180929171        0.0000000000000000     
   2.5423469355953531E-002  0.23856557691502681        0.0000000000000000     
   2.5528577618645094E-002  0.24701491579046547        0.0000000000000000     
   2.5617105310417887E-002  0.25546669843560771        0.0000000000000000     
   2.5689052431271925E-002  0.26392092485045349        0.0000000000000000     
   5.2689082817551428E-002  0.26462223355719666        0.0000000000000000     
   5.2810326339337216E-002  0.27326706606294393        0.0000000000000000     
   5.2948797464256500E-002  0.28186835091249823        0.0000000000000000     
   5.3104496192309281E-002  0.29042608810585957        0.0000000000000000     
   5.3277422523495557E-002  0.29894027764302800        0.0000000000000000     
   4.5756309489300991E-002  0.26441560637495548        0.0000000000000000     
   4.5867659980916041E-002  0.27298452847057636        0.0000000000000000     
   4.5992236521809948E-002  0.28149096684551900        0.0000000000000000     
   4.6130039111982699E-002  0.28993492149978328        0.0000000000000000     
   4.6281067751434292E-002  0.29831639243336938        0.0000000000000000     
   3.8945379982170923E-002  0.26422984586308457        0.0000000000000000     
   3.9044485660987942E-002  0.27273291197168542        0.0000000000000000     
   3.9153913560591502E-002  0.28115646331553917        0.0000000000000000     
   3.9273663680981563E-002  0.28950049989464571        0.0000000000000000     
   3.9403736022158159E-002  0.29776502170900498        0.0000000000000000     
   3.2256294296161239E-002  0.26406495202158392        0.0000000000000000     
   3.2340803379552932E-002  0.27251221656627100        0.0000000000000000     
   3.2433828580601155E-002  0.28086484032255865        0.0000000000000000     
   3.2535369899305895E-002  0.28912282329044664        0.0000000000000000     
   3.2645427335667165E-002  0.29728616546993508        0.0000000000000000     
   2.5689052431271925E-002  0.26392092485045349        0.0000000000000000     
   2.5756613136610994E-002  0.27232244225433327        0.0000000000000000     
   2.5831981581838918E-002  0.28061609786657760        0.0000000000000000     
   2.5915157766955684E-002  0.28880189168718623        0.0000000000000000     
   2.6006141691961301E-002  0.29687982371615940        0.0000000000000000     
   1.4016022332430791E-002   5.5788648183893237E-002   0.0000000000000000     
   1.4801995876649755E-002   6.1367144386579475E-002   0.0000000000000000     
   1.5555863641335342E-002   6.7137580316188258E-002   0.0000000000000000     
   1.6277625626487553E-002   7.3099955972719552E-002   0.0000000000000000     
   1.6967281832106388E-002   7.9254271356173370E-002   0.0000000000000000     
   1.0440725416467449E-002   5.5588224999899197E-002   0.0000000000000000     
   1.1035424450169348E-002   6.1171137707103779E-002   0.0000000000000000     
   1.1605175182141591E-002   6.6946639225962917E-002   0.0000000000000000     
   1.2149977612384170E-002   7.2914729556476585E-002   0.0000000000000000     
   1.2669831740897090E-002   7.9075408698644767E-002   0.0000000000000000     
   6.9129560557404813E-003   5.5445065582762292E-002   0.0000000000000000     
   7.3129013285672066E-003   6.1031132936050184E-002   0.0000000000000000     
   7.6956350888543355E-003   6.6810252732944470E-002   0.0000000000000000     
   8.0611573366018690E-003   7.2782424973445170E-002   0.0000000000000000     
   8.4094680718098044E-003   7.8947649657552202E-002   0.0000000000000000     
   3.4327142502498910E-003   5.5359169932482528E-002   0.0000000000000000     
   3.6344265118433278E-003   6.0947130073418676E-002   0.0000000000000000     
   3.8272433614735812E-003   6.6728420837132943E-002   0.0000000000000000     
   4.0111647991406506E-003   7.2703042223625267E-002   0.0000000000000000     
   4.1861908248445349E-003   7.8870994232895716E-002   0.0000000000000000     
  -4.3242319447411859E-015   5.5330538049059907E-002   0.0000000000000000     
  -2.2861487009029346E-015   6.0919129119209284E-002   0.0000000000000000     
  -6.7307270867900115E-016   6.6701143538528310E-002   0.0000000000000000     
   5.1532129258236026E-016   7.2676581307016971E-002   0.0000000000000000     
   1.2782743613604097E-015   7.8845442424675255E-002   0.0000000000000000     
   1.6967281832106388E-002   7.9254271356173370E-002   0.0000000000000000     
   1.7630555635522936E-002   8.5581871429278353E-002   0.0000000000000000     
   1.8273170414068288E-002   9.2064101154763128E-002   0.0000000000000000     
   1.8895126167742450E-002   9.8700960532627738E-002   0.0000000000000000     
   1.9496422896545414E-002  0.10549244956287215        0.0000000000000000     
   1.2669831740897090E-002   7.9075408698644767E-002   0.0000000000000000     
   1.3169313906725950E-002   8.5409769373222755E-002   0.0000000000000000     
   1.3653000448916347E-002   9.1898904300965728E-002   0.0000000000000000     
   1.4120891367468276E-002   9.8542813481873770E-002   0.0000000000000000     
   1.4572986662381746E-002  0.10534149691594684        0.0000000000000000     
   8.4094680718098044E-003   7.8947649657552202E-002   0.0000000000000000     
   8.7438073912067503E-003   8.5286839333182554E-002   0.0000000000000000     
   9.0674153915213038E-003   9.1780906548253036E-002   0.0000000000000000     
   9.3802920727534666E-003   9.8429851302763646E-002   0.0000000000000000     
   9.6824374349032405E-003  0.10523367359671443        0.0000000000000000     
   4.1861908248445349E-003   7.8870994232895716E-002   0.0000000000000000     
   4.3540360889653398E-003   8.5213081309157765E-002   0.0000000000000000     
   4.5164152418831691E-003   9.1710107896625009E-002   0.0000000000000000     
   4.6733282835980218E-003   9.8362073995297394E-002   0.0000000000000000     
   4.8247752141099016E-003  0.10516897960517498        0.0000000000000000     
   1.2782743613604097E-015   7.8845442424675255E-002   0.0000000000000000     
   1.7180267625205303E-015   8.5188495301148415E-002   0.0000000000000000     
   1.9398003169024403E-015   9.1686508346081649E-002   0.0000000000000000     
   1.9427683203496193E-015   9.8339481559474973E-002   0.0000000000000000     
   1.7251824968589347E-015  0.10514741494132840        0.0000000000000000     
   1.9496422896545414E-002  0.10549244956287215        0.0000000000000000     
   2.0073068890280526E-002  0.11243010388338671        0.0000000000000000     
   2.0621072438751130E-002  0.11950545913206172        0.0000000000000000     
   2.1140433541957219E-002  0.12671851530889722        0.0000000000000000     
   2.1631152199898800E-002  0.13406927241389321        0.0000000000000000     
   1.4572986662381746E-002  0.10534149691594684        0.0000000000000000     
   1.5006272302615196E-002  0.11228656070149136        0.0000000000000000     
   1.5417734257127077E-002  0.11936961093681371        0.0000000000000000     
   1.5807372525917386E-002  0.12659064762191391        0.0000000000000000     
   1.6175187108986126E-002  0.13394967075679201        0.0000000000000000     
   9.6824374349032405E-003  0.10523367359671443        0.0000000000000000     
   9.9718286250135690E-003  0.11218402985728045        0.0000000000000000     
   1.0246442790127394E-002  0.11927257651163665        0.0000000000000000     
   1.0506279930244715E-002  0.12649931355978308        0.0000000000000000     
   1.0751340045365536E-002  0.13386424100171979        0.0000000000000000     
   4.8247752141099016E-003  0.10516897960517498        0.0000000000000000     
   4.9697378574756392E-003  0.11212251135075393        0.0000000000000000     
   5.1071980377520743E-003  0.11921435585653052        0.0000000000000000     
   5.2371557549392043E-003  0.12644451312250474        0.0000000000000000     
   5.3596110090370318E-003  0.13381298314867657        0.0000000000000000     
   1.7251824968589347E-015  0.10514741494132840        0.0000000000000000     
   1.4107638668381384E-015  0.11210200518191187        0.0000000000000000     
   1.1214987272190058E-015  0.11919494897149535        0.0000000000000000     
   8.5402605126683184E-016  0.12642624631007884        0.0000000000000000     
   6.1105634441283030E-016  0.13379589719766236        0.0000000000000000     
   2.1631152199898800E-002  0.13406927241389321        0.0000000000000000     
   2.2093992136827674E-002  0.14154435754016104        0.0000000000000000     
   2.2529717076995654E-002  0.14913039778081216        0.0000000000000000     
   2.2938327020402730E-002  0.15682739313584657        0.0000000000000000     
   2.3319821967048911E-002  0.16463534360526430        0.0000000000000000     
   1.6175187108986126E-002  0.13394967075679201        0.0000000000000000     
   1.6521889711254928E-002  0.14143325168482815        0.0000000000000000     
   1.6848192037645416E-002  0.14902796174940255        0.0000000000000000     
   1.7154094088157604E-002  0.15673380095051523        0.0000000000000000     
   1.7439595862791479E-002  0.16455076928816617        0.0000000000000000     
   1.0751340045365536E-002  0.13386424100171979        0.0000000000000000     
   1.0982190213259463E-002  0.14135389035959040        0.0000000000000000     
   1.1199397511696105E-002  0.14895479315553856        0.0000000000000000     
   1.1402961940675461E-002  0.15666694938956427        0.0000000000000000     
   1.1592883500197531E-002  0.16449035906166751        0.0000000000000000     
   5.3596110090370318E-003  0.13381298314867657        0.0000000000000000     
   5.4748936428412904E-003  0.14130627356444783        0.0000000000000000     
   5.5833334991477147E-003  0.14891089199922017        0.0000000000000000     
   5.6849305779563099E-003  0.15662683845299369        0.0000000000000000     
   5.7796848792670717E-003  0.16445411292576831        0.0000000000000000     
   6.1105634441283030E-016  0.13379589719766236        0.0000000000000000     
   4.0700949555105836E-016  0.14129040129940038        0.0000000000000000     
   2.5045070184415152E-016  0.14889625828044745        0.0000000000000000     
   1.4718044491490723E-016  0.15661346814080351        0.0000000000000000     
   9.4108748571741785E-017  0.16444203088046860        0.0000000000000000     
   2.3319821967048911E-002  0.16463534360526430        0.0000000000000000     
   2.3672583653675906E-002  0.17254287861945505        0.0000000000000000     
   2.3994993817025433E-002  0.18053862760880854        0.0000000000000000     
   2.4287052457097488E-002  0.18862259057332487        0.0000000000000000     
   2.4548759573892083E-002  0.19679476751300401        0.0000000000000000     
   1.7439595862791479E-002  0.16455076928816617        0.0000000000000000     
   1.7703367629214529E-002  0.17246718184689688        0.0000000000000000     
   1.7944079655094244E-002  0.18047135371124892        0.0000000000000000     
   1.8161731940430612E-002  0.18856328488122232        0.0000000000000000     
   1.8356324485223650E-002  0.19674297535681692        0.0000000000000000     
   1.1592883500197531E-002  0.16449035906166751        0.0000000000000000     
   1.1768198345448101E-002  0.17241311272364110        0.0000000000000000     
   1.1927942631612950E-002  0.18042330092727774        0.0000000000000000     
   1.2072116358692082E-002  0.18852092367257758        0.0000000000000000     
   1.2200719526685494E-002  0.19670598095954042        0.0000000000000000     
   5.7796848792670717E-003  0.16445411292576831        0.0000000000000000     
   5.8670758023766142E-003  0.17238067124968762        0.0000000000000000     
   5.9465827465815541E-003  0.18039446925689509        0.0000000000000000     
   6.0182057118818907E-003  0.18849550694739070        0.0000000000000000     
   6.0819446982776229E-003  0.19668378432117456        0.0000000000000000     
   9.4108748571741785E-017  0.16444203088046860        0.0000000000000000     
   6.9605779473569385E-017  0.17236985742503647        0.0000000000000000     
   5.1933284062055662E-017  0.18038485870010085        0.0000000000000000     
   3.9437854024160224E-017  0.18848703470566183        0.0000000000000000     
   3.2526065174565133E-017  0.19667638544171931        0.0000000000000000     
   2.4548759573892083E-002  0.19679476751300401        0.0000000000000000     
   2.4780721899537169E-002  0.20503972510196736        0.0000000000000000     
   2.4983546166160719E-002  0.21334203001433644        0.0000000000000000     
   2.5157232373762731E-002  0.22170168225011122        0.0000000000000000     
   2.5301780522343210E-002  0.23011868180929171        0.0000000000000000     
   1.8356324485223650E-002  0.19674297535681692        0.0000000000000000     
   1.8528660795919645E-002  0.20499370993716448        0.0000000000000000     
   1.8679544378964911E-002  0.21329877342139664        0.0000000000000000     
   1.8808975234359447E-002  0.22165816580951342        0.0000000000000000     
   1.8916953362103250E-002  0.23007188710151469        0.0000000000000000     
   1.2200719526685494E-002  0.19670598095954042        0.0000000000000000     
   1.2314520111457611E-002  0.20496084196230535        0.0000000000000000     
   1.2414286088872855E-002  0.21326787585501114        0.0000000000000000     
   1.2500017458931225E-002  0.22162708263765785        0.0000000000000000     
   1.2571714221632724E-002  0.23003846231024544        0.0000000000000000     
   6.0819446982776229E-003  0.19668378432117456        0.0000000000000000     
   6.1382998461510727E-003  0.20494112117738986        0.0000000000000000     
   6.1877712958845537E-003  0.21324933731517981        0.0000000000000000     
   6.2303590474780722E-003  0.22160843273454450        0.0000000000000000     
   6.2660631009316264E-003  0.23001840743548388        0.0000000000000000     
   3.2526065174565133E-017  0.19667638544171931        0.0000000000000000     
   2.6020852139652106E-017  0.20493454758241805        0.0000000000000000     
   1.1492543028346347E-017  0.21324315780190273        0.0000000000000000     
  -1.0787811616230769E-017  0.22160221610017342        0.0000000000000000     
  -4.1199682554449168E-017  0.23001172247723009        0.0000000000000000     
   2.5301780522343210E-002  0.23011868180929171        0.0000000000000000     
   2.5423469355953531E-002  0.23856557691502681        0.0000000000000000     
   2.5528577618645094E-002  0.24701491579046547        0.0000000000000000     
   2.5617105310417887E-002  0.25546669843560771        0.0000000000000000     
   2.5689052431271925E-002  0.26392092485045349        0.0000000000000000     
   1.8916953362103250E-002  0.23007188710151469        0.0000000000000000     
   1.9007816767946290E-002  0.23851081035587784        0.0000000000000000     
   1.9085903457638526E-002  0.24694580863107998        0.0000000000000000     
   1.9151213431179957E-002  0.25537688192712121        0.0000000000000000     
   1.9203746688570583E-002  0.26380403024400145        0.0000000000000000     
   1.2571714221632724E-002  0.23003846231024544        0.0000000000000000     
   1.2632021012618276E-002  0.23847169138505711        0.0000000000000000     
   1.2683582467528810E-002  0.24689644637437602        0.0000000000000000     
   1.2726398586364327E-002  0.25531272727820220        0.0000000000000000     
   1.2760469369124824E-002  0.26372053409653562        0.0000000000000000     
   6.2660631009316264E-003  0.23001840743548388        0.0000000000000000     
   6.2960820899694925E-003  0.23844822000256469        0.0000000000000000     
   6.3216146483159492E-003  0.24686682902035370        0.0000000000000000     
   6.3426607759709984E-003  0.25527423448885089        0.0000000000000000     
   6.3592204729346355E-003  0.26367043640805610        0.0000000000000000     
  -4.1199682554449168E-017  0.23001172247723009        0.0000000000000000     
  -6.2666885569662156E-017  0.23844039620840063        0.0000000000000000     
  -5.8438497096968689E-017  0.24685695656901291        0.0000000000000000     
  -2.9137933385547932E-017  0.25526140355906707        0.0000000000000000     
   2.3418766925686896E-017  0.26365373717856300        0.0000000000000000     
   2.5689052431271925E-002  0.26392092485045349        0.0000000000000000     
   2.5756613136610994E-002  0.27232244225433327        0.0000000000000000     
   2.5831981581838918E-002  0.28061609786657760        0.0000000000000000     
   2.5915157766955684E-002  0.28880189168718623        0.0000000000000000     
   2.6006141691961301E-002  0.29687982371615940        0.0000000000000000     
   1.9203746688570583E-002  0.26380403024400145        0.0000000000000000     
   1.9253491647801269E-002  0.27216991770978383        0.0000000000000000     
   1.9310436726862855E-002  0.28041720845253132        0.0000000000000000     
   1.9374581925755353E-002  0.28854590247224404        0.0000000000000000     
   1.9445927244478758E-002  0.29655599976892200        0.0000000000000000     
   1.2760469369124824E-002  0.26372053409653562        0.0000000000000000     
   1.2793015628762869E-002  0.27206097160653409        0.0000000000000000     
   1.2831258178231034E-002  0.28027514458535546        0.0000000000000000     
   1.2875197017529314E-002  0.28836305303299964        0.0000000000000000     
   1.2924832146657714E-002  0.29632469694946667        0.0000000000000000     
   6.3592204729346355E-003  0.26367043640805610        0.0000000000000000     
   6.3751850794958086E-003  0.27199560394458427        0.0000000000000000     
   6.3944459359434550E-003  0.28018990626504992        0.0000000000000000     
   6.4170030422775765E-003  0.28825334336945296        0.0000000000000000     
   6.4428563984981722E-003  0.29618591525779348        0.0000000000000000     
   2.3418766925686896E-017  0.26365373717856300        0.0000000000000000     
   7.9797279894933126E-017  0.27197381472393428        0.0000000000000000     
   1.1644331332494318E-016  0.28016149349161462        0.0000000000000000     
   1.3362791775883842E-016  0.28821677348160402        0.0000000000000000     
   1.2923689896027213E-016  0.29613965469390241        0.0000000000000000     
  -4.3242319447411859E-015   5.5330538049059907E-002   0.0000000000000000     
  -2.2861487009029346E-015   6.0919129119209284E-002   0.0000000000000000     
  -6.7307270867900115E-016   6.6701143538528310E-002   0.0000000000000000     
   5.1532129258236026E-016   7.2676581307016971E-002   0.0000000000000000     
   1.2782743613604097E-015   7.8845442424675255E-002   0.0000000000000000     
  -3.4327142502584202E-003   5.5359169932491195E-002   0.0000000000000000     
  -3.6344265118479122E-003   6.0947130073420591E-002   0.0000000000000000     
  -3.8272433614750492E-003   6.6728420837130431E-002   0.0000000000000000     
  -4.0111647991398318E-003   7.2703042223620701E-002   0.0000000000000000     
  -4.1861908248422598E-003   7.8870994232891428E-002   0.0000000000000000     
  -6.9129560557486518E-003   5.5445065582773137E-002   0.0000000000000000     
  -7.3129013285718253E-003   6.1031132936051231E-002   0.0000000000000000     
  -7.6956350888561700E-003   6.6810252732939210E-002   0.0000000000000000     
  -8.0611573366016851E-003   7.2782424973437079E-002   0.0000000000000000     
  -8.4094680718083716E-003   7.8947649657544847E-002   0.0000000000000000     
  -1.0440725416475021E-002   5.5588224999905747E-002   0.0000000000000000     
  -1.1035424450174030E-002   6.1171137707101170E-002   0.0000000000000000     
  -1.1605175182144038E-002   6.6946639225954591E-002   0.0000000000000000     
  -1.2149977612385048E-002   7.2914729556466051E-002   0.0000000000000000     
  -1.2669831740897060E-002   7.9075408698635483E-002   0.0000000000000000     
  -1.4016022332437528E-002   5.5788648183889011E-002   0.0000000000000000     
  -1.4801995876654522E-002   6.1367144386570441E-002   0.0000000000000000     
  -1.5555863641338652E-002   6.7137580316176657E-002   0.0000000000000000     
  -1.6277625626489916E-002   7.3099955972707631E-002   0.0000000000000000     
  -1.6967281832108324E-002   7.9254271356163392E-002   0.0000000000000000     
   1.2782743613604097E-015   7.8845442424675255E-002   0.0000000000000000     
   1.7180267625205303E-015   8.5188495301148415E-002   0.0000000000000000     
   1.9398003169024403E-015   9.1686508346081649E-002   0.0000000000000000     
   1.9427683203496193E-015   9.8339481559474973E-002   0.0000000000000000     
   1.7251824968589347E-015  0.10514741494132840        0.0000000000000000     
  -4.1861908248422598E-003   7.8870994232891428E-002   0.0000000000000000     
  -4.3540360889622268E-003   8.5213081309154837E-002   0.0000000000000000     
  -4.5164152418796285E-003   9.1710107896623191E-002   0.0000000000000000     
  -4.6733282835944648E-003   9.8362073995296492E-002   0.0000000000000000     
  -4.8247752141067322E-003  0.10516897960517473        0.0000000000000000     
  -8.4094680718083716E-003   7.8947649657544847E-002   0.0000000000000000     
  -8.7438073912046096E-003   8.5286839333177461E-002   0.0000000000000000     
  -9.0674153915187797E-003   9.1780906548249844E-002   0.0000000000000000     
  -9.3802920727508836E-003   9.8429851302761995E-002   0.0000000000000000     
  -9.6824374349009212E-003  0.10523367359671394        0.0000000000000000     
  -1.2669831740897060E-002   7.9075408698635483E-002   0.0000000000000000     
  -1.3169313906725429E-002   8.5409769373216260E-002   0.0000000000000000     
  -1.3653000448915518E-002   9.1898904300961579E-002   0.0000000000000000     
  -1.4120891367467317E-002   9.8542813481871494E-002   0.0000000000000000     
  -1.4572986662380839E-002  0.10534149691594598        0.0000000000000000     
  -1.6967281832108324E-002   7.9254271356163392E-002   0.0000000000000000     
  -1.7630555635524688E-002   8.5581871429271247E-002   0.0000000000000000     
  -1.8273170414069832E-002   9.2064101154758424E-002   0.0000000000000000     
  -1.8895126167743772E-002   9.8700960532624976E-002   0.0000000000000000     
  -1.9496422896546489E-002  0.10549244956287088        0.0000000000000000     
   1.7251824968589347E-015  0.10514741494132840        0.0000000000000000     
   1.4107638668381384E-015  0.11210200518191187        0.0000000000000000     
   1.1214987272190058E-015  0.11919494897149535        0.0000000000000000     
   8.5402605126683184E-016  0.12642624631007884        0.0000000000000000     
   6.1105634441283030E-016  0.13379589719766236        0.0000000000000000     
  -4.8247752141067322E-003  0.10516897960517473        0.0000000000000000     
  -4.9697378574730458E-003  0.11212251135075417        0.0000000000000000     
  -5.1071980377500135E-003  0.11921435585653102        0.0000000000000000     
  -5.2371557549376396E-003  0.12644451312250532        0.0000000000000000     
  -5.3596110090359207E-003  0.13381298314867701        0.0000000000000000     
  -9.6824374349009212E-003  0.10523367359671394        0.0000000000000000     
  -9.9718286250116642E-003  0.11218402985728071        0.0000000000000000     
  -1.0246442790125885E-002  0.11927257651163739        0.0000000000000000     
  -1.0506279930243582E-002  0.12649931355978400        0.0000000000000000     
  -1.0751340045364760E-002  0.13386424100172051        0.0000000000000000     
  -1.4572986662380839E-002  0.10534149691594598        0.0000000000000000     
  -1.5006272302614442E-002  0.11228656070149148        0.0000000000000000     
  -1.5417734257126487E-002  0.11936961093681446        0.0000000000000000     
  -1.5807372525916973E-002  0.12659064762191488        0.0000000000000000     
  -1.6175187108985908E-002  0.13394967075679279        0.0000000000000000     
  -1.9496422896546489E-002  0.10549244956287088        0.0000000000000000     
  -2.0073068890281379E-002  0.11243010388338651        0.0000000000000000     
  -2.0621072438751820E-002  0.11950545913206223        0.0000000000000000     
  -2.1140433541957816E-002  0.12671851530889802        0.0000000000000000     
  -2.1631152199899365E-002  0.13406927241389388        0.0000000000000000     
   6.1105634441283030E-016  0.13379589719766236        0.0000000000000000     
   4.0700949555105836E-016  0.14129040129940038        0.0000000000000000     
   2.5045070184415152E-016  0.14889625828044745        0.0000000000000000     
   1.4718044491490723E-016  0.15661346814080351        0.0000000000000000     
   9.4108748571741785E-017  0.16444203088046860        0.0000000000000000     
  -5.3596110090359207E-003  0.13381298314867701        0.0000000000000000     
  -5.4748936428405644E-003  0.14130627356444803        0.0000000000000000     
  -5.5833334991472775E-003  0.14891089199922028        0.0000000000000000     
  -5.6849305779560653E-003  0.15662683845299372        0.0000000000000000     
  -5.7796848792669199E-003  0.16445411292576834        0.0000000000000000     
  -1.0751340045364760E-002  0.13386424100172051        0.0000000000000000     
  -1.0982190213258991E-002  0.14135389035959081        0.0000000000000000     
  -1.1199397511695861E-002  0.14895479315553872        0.0000000000000000     
  -1.1402961940675362E-002  0.15666694938956433        0.0000000000000000     
  -1.1592883500197496E-002  0.16449035906166751        0.0000000000000000     
  -1.6175187108985908E-002  0.13394967075679279        0.0000000000000000     
  -1.6521889711254886E-002  0.14143325168482862        0.0000000000000000     
  -1.6848192037645496E-002  0.14902796174940275        0.0000000000000000     
  -1.7154094088157747E-002  0.15673380095051528        0.0000000000000000     
  -1.7439595862791632E-002  0.16455076928816620        0.0000000000000000     
  -2.1631152199899365E-002  0.13406927241389388        0.0000000000000000     
  -2.2093992136828236E-002  0.14154435754016145        0.0000000000000000     
  -2.2529717076996185E-002  0.14913039778081241        0.0000000000000000     
  -2.2938327020403219E-002  0.15682739313584668        0.0000000000000000     
  -2.3319821967049330E-002  0.16463534360526436        0.0000000000000000     
   9.4108748571741785E-017  0.16444203088046860        0.0000000000000000     
   6.9605779473569385E-017  0.17236985742503647        0.0000000000000000     
   5.1933284062055662E-017  0.18038485870010085        0.0000000000000000     
   3.9437854024160224E-017  0.18848703470566183        0.0000000000000000     
   3.2526065174565133E-017  0.19667638544171931        0.0000000000000000     
  -5.7796848792669199E-003  0.16445411292576834        0.0000000000000000     
  -5.8670758023765049E-003  0.17238067124968767        0.0000000000000000     
  -5.9465827465814761E-003  0.18039446925689512        0.0000000000000000     
  -6.0182057118818334E-003  0.18849550694739078        0.0000000000000000     
  -6.0819446982775752E-003  0.19668378432117467        0.0000000000000000     
  -1.1592883500197496E-002  0.16449035906166751        0.0000000000000000     
  -1.1768198345448086E-002  0.17241311272364110        0.0000000000000000     
  -1.1927942631612948E-002  0.18042330092727785        0.0000000000000000     
  -1.2072116358692086E-002  0.18852092367257761        0.0000000000000000     
  -1.2200719526685496E-002  0.19670598095954051        0.0000000000000000     
  -1.7439595862791632E-002  0.16455076928816620        0.0000000000000000     
  -1.7703367629214671E-002  0.17246718184689697        0.0000000000000000     
  -1.7944079655094366E-002  0.18047135371124898        0.0000000000000000     
  -1.8161731940430723E-002  0.18856328488122240        0.0000000000000000     
  -1.8356324485223733E-002  0.19674297535681706        0.0000000000000000     
  -2.3319821967049330E-002  0.16463534360526436        0.0000000000000000     
  -2.3672583653676256E-002  0.17254287861945508        0.0000000000000000     
  -2.3994993817025728E-002  0.18053862760880859        0.0000000000000000     
  -2.4287052457097738E-002  0.18862259057332498        0.0000000000000000     
  -2.4548759573892291E-002  0.19679476751300415        0.0000000000000000     
   3.2526065174565133E-017  0.19667638544171931        0.0000000000000000     
   2.6020852139652106E-017  0.20493454758241805        0.0000000000000000     
   1.1492543028346347E-017  0.21324315780190273        0.0000000000000000     
  -1.0787811616230769E-017  0.22160221610017342        0.0000000000000000     
  -4.1199682554449168E-017  0.23001172247723009        0.0000000000000000     
  -6.0819446982775752E-003  0.19668378432117467        0.0000000000000000     
  -6.1382998461510328E-003  0.20494112117738994        0.0000000000000000     
  -6.1877712958845416E-003  0.21324933731517989        0.0000000000000000     
  -6.2303590474780974E-003  0.22160843273454461        0.0000000000000000     
  -6.2660631009317045E-003  0.23001840743548402        0.0000000000000000     
  -1.2200719526685496E-002  0.19670598095954051        0.0000000000000000     
  -1.2314520111457616E-002  0.20496084196230546        0.0000000000000000     
  -1.2414286088872871E-002  0.21326787585501128        0.0000000000000000     
  -1.2500017458931260E-002  0.22162708263765798        0.0000000000000000     
  -1.2571714221632788E-002  0.23003846231024558        0.0000000000000000     
  -1.8356324485223733E-002  0.19674297535681706        0.0000000000000000     
  -1.8528660795919714E-002  0.20499370993716470        0.0000000000000000     
  -1.8679544378964970E-002  0.21329877342139689        0.0000000000000000     
  -1.8808975234359496E-002  0.22165816580951364        0.0000000000000000     
  -1.8916953362103292E-002  0.23007188710151491        0.0000000000000000     
  -2.4548759573892291E-002  0.19679476751300415        0.0000000000000000     
  -2.4780721899537343E-002  0.20503972510196758        0.0000000000000000     
  -2.4983546166160844E-002  0.21334203001433666        0.0000000000000000     
  -2.5157232373762807E-002  0.22170168225011144        0.0000000000000000     
  -2.5301780522343220E-002  0.23011868180929190        0.0000000000000000     
  -4.1199682554449168E-017  0.23001172247723009        0.0000000000000000     
  -6.2666885569662156E-017  0.23844039620840063        0.0000000000000000     
  -5.8438497096968689E-017  0.24685695656901291        0.0000000000000000     
  -2.9137933385547932E-017  0.25526140355906707        0.0000000000000000     
   2.3418766925686896E-017  0.26365373717856300        0.0000000000000000     
  -6.2660631009317045E-003  0.23001840743548402        0.0000000000000000     
  -6.2960820899696070E-003  0.23844822000256483        0.0000000000000000     
  -6.3216146483160525E-003  0.24686682902035376        0.0000000000000000     
  -6.3426607759710409E-003  0.25527423448885089        0.0000000000000000     
  -6.3592204729345783E-003  0.26367043640805610        0.0000000000000000     
  -1.2571714221632788E-002  0.23003846231024558        0.0000000000000000     
  -1.2632021012618358E-002  0.23847169138505725        0.0000000000000000     
  -1.2683582467528872E-002  0.24689644637437613        0.0000000000000000     
  -1.2726398586364330E-002  0.25531272727820226        0.0000000000000000     
  -1.2760469369124734E-002  0.26372053409653556        0.0000000000000000     
  -1.8916953362103292E-002  0.23007188710151491        0.0000000000000000     
  -1.9007816767946314E-002  0.23851081035587798        0.0000000000000000     
  -1.9085903457638512E-002  0.24694580863108004        0.0000000000000000     
  -1.9151213431179891E-002  0.25537688192712121        0.0000000000000000     
  -1.9203746688570441E-002  0.26380403024400134        0.0000000000000000     
  -2.5301780522343220E-002  0.23011868180929190        0.0000000000000000     
  -2.5423469355953479E-002  0.23856557691502694        0.0000000000000000     
  -2.5528577618644983E-002  0.24701491579046556        0.0000000000000000     
  -2.5617105310417724E-002  0.25546669843560776        0.0000000000000000     
  -2.5689052431271706E-002  0.26392092485045343        0.0000000000000000     
   2.3418766925686896E-017  0.26365373717856300        0.0000000000000000     
   7.9797279894933126E-017  0.27197381472393428        0.0000000000000000     
   1.1644331332494318E-016  0.28016149349161462        0.0000000000000000     
   1.3362791775883842E-016  0.28821677348160402        0.0000000000000000     
   1.2923689896027213E-016  0.29613965469390241        0.0000000000000000     
  -6.3592204729345783E-003  0.26367043640805610        0.0000000000000000     
  -6.3751850794956421E-003  0.27199560394458411        0.0000000000000000     
  -6.3944459359432191E-003  0.28018990626504969        0.0000000000000000     
  -6.4170030422773076E-003  0.28825334336945280        0.0000000000000000     
  -6.4428563984979129E-003  0.29618591525779342        0.0000000000000000     
  -1.2760469369124734E-002  0.26372053409653556        0.0000000000000000     
  -1.2793015628762687E-002  0.27206097160653392        0.0000000000000000     
  -1.2831258178230791E-002  0.28027514458535518        0.0000000000000000     
  -1.2875197017529044E-002  0.28836305303299947        0.0000000000000000     
  -1.2924832146657451E-002  0.29632469694946656        0.0000000000000000     
  -1.9203746688570441E-002  0.26380403024400134        0.0000000000000000     
  -1.9253491647801050E-002  0.27216991770978355        0.0000000000000000     
  -1.9310436726862598E-002  0.28041720845253099        0.0000000000000000     
  -1.9374581925755075E-002  0.28854590247224371        0.0000000000000000     
  -1.9445927244478488E-002  0.29655599976892172        0.0000000000000000     
  -2.5689052431271706E-002  0.26392092485045343        0.0000000000000000     
  -2.5756613136610738E-002  0.27232244225433316        0.0000000000000000     
  -2.5831981581838637E-002  0.28061609786657732        0.0000000000000000     
  -2.5915157766955400E-002  0.28880189168718590        0.0000000000000000     
  -2.6006141691961023E-002  0.29687982371615895        0.0000000000000000     
  -1.4016022332437528E-002   5.5788648183889011E-002   0.0000000000000000     
  -1.4801995876654522E-002   6.1367144386570441E-002   0.0000000000000000     
  -1.5555863641338652E-002   6.7137580316176657E-002   0.0000000000000000     
  -1.6277625626489916E-002   7.3099955972707631E-002   0.0000000000000000     
  -1.6967281832108324E-002   7.9254271356163392E-002   0.0000000000000000     
  -1.7648045701484490E-002   5.6047357330181090E-002   0.0000000000000000     
  -1.8625471335830146E-002   6.1619909907836744E-002   0.0000000000000000     
  -1.9563617453150547E-002   6.7383639155034258E-002   0.0000000000000000     
  -2.0462484053445713E-002   7.3338545071773661E-002   0.0000000000000000     
  -2.1322071136715630E-002   7.9484627658054918E-002   0.0000000000000000     
  -2.1345994421464225E-002   5.6365374634240129E-002   0.0000000000000000     
  -2.2518706555517728E-002   6.1930191204277771E-002   0.0000000000000000     
  -2.3644353604290270E-002   6.7685378893956358E-002   0.0000000000000000     
  -2.4722935567781840E-002   7.3630937703275931E-002   0.0000000000000000     
  -2.5754452445992445E-002   7.9766867632236407E-002   0.0000000000000000     
  -2.5109868492376734E-002   5.6742700096066113E-002   0.0000000000000000     
  -2.6481701535717293E-002   6.2297988275893536E-002   0.0000000000000000     
  -2.7798072094757816E-002   6.8042799532942969E-002   0.0000000000000000     
  -2.9058980169498313E-002   7.3977133867214412E-002   0.0000000000000000     
  -3.0264425759938780E-002   8.0100991278707900E-002   0.0000000000000000     
  -2.8939667914222020E-002   5.7179333715659066E-002   0.0000000000000000     
  -3.0514456276428820E-002   6.2723301122684025E-002   0.0000000000000000     
  -3.2024772924553184E-002   6.8455901071994063E-002   0.0000000000000000     
  -3.3470617858595120E-002   7.4377133563589187E-002   0.0000000000000000     
  -3.4851991078554627E-002   8.0486998597469356E-002   0.0000000000000000     
  -1.6967281832108324E-002   7.9254271356163392E-002   0.0000000000000000     
  -1.7630555635524688E-002   8.5581871429271247E-002   0.0000000000000000     
  -1.8273170414069832E-002   9.2064101154758424E-002   0.0000000000000000     
  -1.8895126167743772E-002   9.8700960532624976E-002   0.0000000000000000     
  -1.9496422896546489E-002  0.10549244956287088        0.0000000000000000     
  -2.1322071136715630E-002   7.9484627658054918E-002   0.0000000000000000     
  -2.2149254138143733E-002   8.5803528738837107E-002   0.0000000000000000     
  -2.2950908492913473E-002   9.2276890139079235E-002   0.0000000000000000     
  -2.3727034201024830E-002   9.8904711858781344E-002   0.0000000000000000     
  -2.4477631262477817E-002  0.10568699389794339        0.0000000000000000     
  -2.5754452445992445E-002   7.9766867632236407E-002   0.0000000000000000     
  -2.6747130975123937E-002   8.6075124539408507E-002   0.0000000000000000     
  -2.7709197891378153E-002   9.2537664283362867E-002   0.0000000000000000     
  -2.8640653194755096E-002   9.9154486864099445E-002   0.0000000000000000     
  -2.9541496885254773E-002  0.10592559228161831        0.0000000000000000     
  -3.0264425759938780E-002   8.0100991278707900E-002   0.0000000000000000     
  -3.1424186146465277E-002   8.6396658830985462E-002   0.0000000000000000     
  -3.2548038609463877E-002   9.2846423587609292E-002   0.0000000000000000     
  -3.3635983148934567E-002   9.9450285548579306E-002   0.0000000000000000     
  -3.4688019764877370E-002  0.10620824471389556        0.0000000000000000     
  -3.4851991078554627E-002   8.0486998597469356E-002   0.0000000000000000     
  -3.6180419652167770E-002   8.6768131613568000E-002   0.0000000000000000     
  -3.7467430647170646E-002   9.3203168051818525E-002   0.0000000000000000     
  -3.8713024063563251E-002   9.9792107912220915E-002   0.0000000000000000     
  -3.9917199901345582E-002  0.10653495119477521        0.0000000000000000     
  -1.9496422896546489E-002  0.10549244956287088        0.0000000000000000     
  -2.0073068890281379E-002  0.11243010388338651        0.0000000000000000     
  -2.0621072438751820E-002  0.11950545913206223        0.0000000000000000     
  -2.1140433541957816E-002  0.12671851530889802        0.0000000000000000     
  -2.1631152199899365E-002  0.13406927241389388        0.0000000000000000     
  -2.4477631262477817E-002  0.10568699389794339        0.0000000000000000     
  -2.5197809270632164E-002  0.11261519443232251        0.0000000000000000     
  -2.5882677818847601E-002  0.11968077163767572        0.0000000000000000     
  -2.6532236907124130E-002  0.12688372551400301        0.0000000000000000     
  -2.7146486535461745E-002  0.13422405606130439        0.0000000000000000     
  -2.9541496885254773E-002  0.10592559228161831        0.0000000000000000     
  -3.0406084326286494E-002  0.11284236737765621        0.0000000000000000     
  -3.1228770881259544E-002  0.11989619899394995        0.0000000000000000     
  -3.2009556550173929E-002  0.12708708713049952        0.0000000000000000     
  -3.2748441333029656E-002  0.13441503178730496        0.0000000000000000     
  -3.4688019764877370E-002  0.10620824471389556        0.0000000000000000     
  -3.5697894057244356E-002  0.11311162271938757        0.0000000000000000     
  -3.6659351625987636E-002  0.12015174120088493        0.0000000000000000     
  -3.7572392471107226E-002  0.12732860015838757        0.0000000000000000     
  -3.8437016592603110E-002  0.13464219959189555        0.0000000000000000     
  -3.9917199901345582E-002  0.10653495119477521        0.0000000000000000     
  -4.1073238463505760E-002  0.11342296045751668        0.0000000000000000     
  -4.2174420053031909E-002  0.12044739825848065        0.0000000000000000     
  -4.3220744669924011E-002  0.12760826459766714        0.0000000000000000     
  -4.4212212314182084E-002  0.13490555947507618        0.0000000000000000     
  -2.1631152199899365E-002  0.13406927241389388        0.0000000000000000     
  -2.2093992136828236E-002  0.14154435754016145        0.0000000000000000     
  -2.2529717076996185E-002  0.14913039778081241        0.0000000000000000     
  -2.2938327020403219E-002  0.15682739313584668        0.0000000000000000     
  -2.3319821967049330E-002  0.16463534360526436        0.0000000000000000     
  -2.7146486535461745E-002  0.13422405606130439        0.0000000000000000     
  -2.7726247824341344E-002  0.14168844801577457        0.0000000000000000     
  -2.8272341894243814E-002  0.14926358611360815        0.0000000000000000     
  -2.8784768745169154E-002  0.15694947035480517        0.0000000000000000     
  -2.9263528377117366E-002  0.16474610073936563        0.0000000000000000     
  -3.2748441333029656E-002  0.13441503178730496        0.0000000000000000     
  -3.3446407108156509E-002  0.14186676320185301        0.0000000000000000     
  -3.4104435753884277E-002  0.14942901161163052        0.0000000000000000     
  -3.4722527270212938E-002  0.15710177701663741        0.0000000000000000     
  -3.5300681657142521E-002  0.16488505941687381        0.0000000000000000     
  -3.8437016592603110E-002  0.13464219959189555        0.0000000000000000     
  -3.9254469988273741E-002  0.14207930309839684        0.0000000000000000     
  -4.0025998655917550E-002  0.14962667427487950        0.0000000000000000     
  -4.0751602595534564E-002  0.15728431312134347        0.0000000000000000     
  -4.1431281807124784E-002  0.16505221963778885        0.0000000000000000     
  -4.4212212314182084E-002  0.13490555947507618        0.0000000000000000     
  -4.5150436464693008E-002  0.14232606770540604        0.0000000000000000     
  -4.6037030600343663E-002  0.14985657410335507        0.0000000000000000     
  -4.6871994721134048E-002  0.15749707866892332        0.0000000000000000     
  -4.7655328827064157E-002  0.16524758140211071        0.0000000000000000     
  -2.3319821967049330E-002  0.16463534360526436        0.0000000000000000     
  -2.3672583653676256E-002  0.17254287861945508        0.0000000000000000     
  -2.3994993817025728E-002  0.18053862760880859        0.0000000000000000     
  -2.4287052457097738E-002  0.18862259057332498        0.0000000000000000     
  -2.4548759573892291E-002  0.19679476751300415        0.0000000000000000     
  -2.9263528377117366E-002  0.16474610073936563        0.0000000000000000     
  -2.9706775294567896E-002  0.17264242363622137        0.0000000000000000     
  -3.0112664002000182E-002  0.18062738541430412        0.0000000000000000     
  -3.0481194499414225E-002  0.18870098607361394        0.0000000000000000     
  -3.0812366786810024E-002  0.19686322561415082        0.0000000000000000     
  -3.5300681657142521E-002  0.16488505941687381        0.0000000000000000     
  -3.5836871427624623E-002  0.17276803749210162        0.0000000000000000     
  -3.6329069094610880E-002  0.18073988992208292        0.0000000000000000     
  -3.6777274658101280E-002  0.18880061670681772        0.0000000000000000     
  -3.7181488118095816E-002  0.19695021784630601        0.0000000000000000     
  -4.1431281807124784E-002  0.16505221963778885        0.0000000000000000     
  -4.2062872052846437E-002  0.17291972018709589        0.0000000000000000     
  -4.2644209094857811E-002  0.18087614113214504        0.0000000000000000     
  -4.3175292933158887E-002  0.18892148247293636        0.0000000000000000     
  -4.3656123567749658E-002  0.19705574420946975        0.0000000000000000     
  -4.7655328827064157E-002  0.16524758140211071        0.0000000000000000     
  -4.8384777170233359E-002  0.17309747172120413        0.0000000000000000     
  -4.9058084002740983E-002  0.18103613904449051        0.0000000000000000     
  -4.9675249324587056E-002  0.18906358337196974        0.0000000000000000     
  -5.0236273135771559E-002  0.19717980470364196        0.0000000000000000     
  -2.4548759573892291E-002  0.19679476751300415        0.0000000000000000     
  -2.4780721899537343E-002  0.20503972510196758        0.0000000000000000     
  -2.4983546166160844E-002  0.21334203001433666        0.0000000000000000     
  -2.5157232373762807E-002  0.22170168225011144        0.0000000000000000     
  -2.5301780522343220E-002  0.23011868180929190        0.0000000000000000     
  -3.0812366786810024E-002  0.19686322561415082        0.0000000000000000     
  -3.1106374543131206E-002  0.20510019717788733        0.0000000000000000     
  -3.1363411447321389E-002  0.21339799390679620        0.0000000000000000     
  -3.1583477499380563E-002  0.22175661580087733        0.0000000000000000     
  -3.1766572699308743E-002  0.23017606286013076        0.0000000000000000     
  -3.7181488118095816E-002  0.19695021784630601        0.0000000000000000     
  -3.7541289847522044E-002  0.20517643588609724        0.0000000000000000     
  -3.7856260219307492E-002  0.21346701337174095        0.0000000000000000     
  -3.8126399233452152E-002  0.22182195030323718        0.0000000000000000     
  -3.8351706889956039E-002  0.23024124668058582        0.0000000000000000     
  -4.3656123567749658E-002  0.19705574420946975        0.0000000000000000     
  -4.4085467812709854E-002  0.20526844122659721        0.0000000000000000     
  -4.4462092482119152E-002  0.21354908840917095        0.0000000000000000     
  -4.4785997575977579E-002  0.22189768575719088        0.0000000000000000     
  -4.5057183094285108E-002  0.23031423327065695        0.0000000000000000     
  -5.0236273135771559E-002  0.19717980470364196        0.0000000000000000     
  -5.0738908438694628E-002  0.20537621319938731        0.0000000000000000     
  -5.1180908235756384E-002  0.21364421901908620        0.0000000000000000     
  -5.1562272526956832E-002  0.22198382216273849        0.0000000000000000     
  -5.1883001312295965E-002  0.23039502263034420        0.0000000000000000     
  -2.5301780522343220E-002  0.23011868180929190        0.0000000000000000     
  -2.5423469355953479E-002  0.23856557691502694        0.0000000000000000     
  -2.5528577618644983E-002  0.24701491579046556        0.0000000000000000     
  -2.5617105310417724E-002  0.25546669843560776        0.0000000000000000     
  -2.5689052431271706E-002  0.26392092485045343        0.0000000000000000     
  -3.1766572699308743E-002  0.23017606286013076        0.0000000000000000     
  -3.1920637629509009E-002  0.23863151316410133        0.0000000000000000     
  -3.2053612872384472E-002  0.24709814479233366        0.0000000000000000     
  -3.2165498427935112E-002  0.25557595774482789        0.0000000000000000     
  -3.2256294296160934E-002  0.26406495202158387        0.0000000000000000     
  -3.8351706889956039E-002  0.23024124668058582        0.0000000000000000     
  -3.8540980441482062E-002  0.23870414120469816        0.0000000000000000     
  -3.8703017140693158E-002  0.24718987257648542        0.0000000000000000     
  -3.8837816987589313E-002  0.25569844079594756        0.0000000000000000     
  -3.8945379982170535E-002  0.26422984586308457        0.0000000000000000     
  -4.5057183094285108E-002  0.23031423327065695        0.0000000000000000     
  -4.5284497791872658E-002  0.23878346103681750        0.0000000000000000     
  -4.5476790423571049E-002  0.24729009914292077        0.0000000000000000     
  -4.5634060989380359E-002  0.25583414758896683        0.0000000000000000     
  -4.5756309489300519E-002  0.26441560637495559        0.0000000000000000     
  -5.1883001312295965E-002  0.23039502263034420        0.0000000000000000     
  -5.2151189680680755E-002  0.23886947266045935        0.0000000000000000     
  -5.2374932721018168E-002  0.24739882449163980        0.0000000000000000     
  -5.2554230433308209E-002  0.25598307812388565        0.0000000000000000     
  -5.2689082817550859E-002  0.26462223355719677        0.0000000000000000     
  -2.5689052431271706E-002  0.26392092485045343        0.0000000000000000     
  -2.5756613136610738E-002  0.27232244225433316        0.0000000000000000     
  -2.5831981581838637E-002  0.28061609786657732        0.0000000000000000     
  -2.5915157766955400E-002  0.28880189168718590        0.0000000000000000     
  -2.6006141691961023E-002  0.29687982371615895        0.0000000000000000     
  -3.2256294296160934E-002  0.26406495202158387        0.0000000000000000     
  -3.2340803379552620E-002  0.27251221656627100        0.0000000000000000     
  -3.2433828580600836E-002  0.28086484032255843        0.0000000000000000     
  -3.2535369899305576E-002  0.28912282329044625        0.0000000000000000     
  -3.2645427335666853E-002  0.29728616546993447        0.0000000000000000     
  -3.8945379982170535E-002  0.26422984586308457        0.0000000000000000     
  -3.9044485660987553E-002  0.27273291197168542        0.0000000000000000     
  -3.9153913560591107E-002  0.28115646331553901        0.0000000000000000     
  -3.9273663680981175E-002  0.28950049989464538        0.0000000000000000     
  -3.9403736022157777E-002  0.29776502170900437        0.0000000000000000     
  -4.5756309489300519E-002  0.26441560637495559        0.0000000000000000     
  -4.5867659980915541E-002  0.27298452847057636        0.0000000000000000     
  -4.5992236521809442E-002  0.28149096684551894        0.0000000000000000     
  -4.6130039111982192E-002  0.28993492149978306        0.0000000000000000     
  -4.6281067751433799E-002  0.29831639243336883        0.0000000000000000     
  -5.2689082817550859E-002  0.26462223355719677        0.0000000000000000     
  -5.2810326339336584E-002  0.27326706606294404        0.0000000000000000     
  -5.2948797464255855E-002  0.28186835091249834        0.0000000000000000     
  -5.3104496192308621E-002  0.29042608810585951        0.0000000000000000     
  -5.3277422523494919E-002  0.29894027764302766        0.0000000000000000     
  -2.8939667914222020E-002   5.7179333715659066E-002   0.0000000000000000     
  -3.0514456276428820E-002   6.2723301122684025E-002   0.0000000000000000     
  -3.2024772924553184E-002   6.8455901071994063E-002   0.0000000000000000     
  -3.3470617858595120E-002   7.4377133563589187E-002   0.0000000000000000     
  -3.4851991078554627E-002   8.0486998597469356E-002   0.0000000000000000     
  -3.2887348350352077E-002   5.7675563418916428E-002   0.0000000000000000     
  -3.4664538048403686E-002   6.3206081439752343E-002   0.0000000000000000     
  -3.6368258218417063E-002   6.8924390758148740E-002   0.0000000000000000     
  -3.7998508860392195E-002   7.4830491374105648E-002   0.0000000000000000     
  -3.9555289974329083E-002   8.0924383287623053E-002   0.0000000000000000     
  -3.7004865464118894E-002   5.8231677131735646E-002   0.0000000000000000     
  -3.8979514122393262E-002   6.3746280922201498E-002   0.0000000000000000     
  -4.0872330101090107E-002   6.9447975838446044E-002   0.0000000000000000     
  -4.2683313400209436E-002   7.5336761880469283E-002   0.0000000000000000     
  -4.4412464019751262E-002   8.1412639048271229E-002   0.0000000000000000     
  -4.1292219255522476E-002   5.8847674854116752E-002   0.0000000000000000     
  -4.3459384498397535E-002   6.4343899570031560E-002   0.0000000000000000     
  -4.5536988572572344E-002   7.0026656312886015E-002   0.0000000000000000     
  -4.7525031478046889E-002   7.5895945082680133E-002   0.0000000000000000     
  -4.9423513214821142E-002   8.1951765879413885E-002   0.0000000000000000     
  -4.5749409724562817E-002   5.9523556586059706E-002   0.0000000000000000     
  -4.8104149176416533E-002   6.4998937383242472E-002   0.0000000000000000     
  -5.0362233632863754E-002   7.0660432181468613E-002   0.0000000000000000     
  -5.2523663093904500E-002   7.6508040980738143E-002   0.0000000000000000     
  -5.4588437559538766E-002   8.2541763781051034E-002   0.0000000000000000     
  -3.4851991078554627E-002   8.0486998597469356E-002   0.0000000000000000     
  -3.6180419652167770E-002   8.6768131613568000E-002   0.0000000000000000     
  -3.7467430647170646E-002   9.3203168051818525E-002   0.0000000000000000     
  -3.8713024063563251E-002   9.9792107912220915E-002   0.0000000000000000     
  -3.9917199901345582E-002  0.10653495119477521        0.0000000000000000     
  -3.9555289974329083E-002   8.0924383287623053E-002   0.0000000000000000     
  -4.1051935612430840E-002   8.7189064917651285E-002   0.0000000000000000     
  -4.2501779826900579E-002   9.3607534683140689E-002   0.0000000000000000     
  -4.3904822617738308E-002  0.10017979258409122        0.0000000000000000     
  -4.5261063984943999E-002  0.10690583862050293        0.0000000000000000     
  -4.4412464019751262E-002   8.1412639048271229E-002   0.0000000000000000     
  -4.6074838147453917E-002   8.7658980773730522E-002   0.0000000000000000     
  -4.7685491971055795E-002   9.4059160488725826E-002   0.0000000000000000     
  -4.9244425490556881E-002  0.10061317819325720        0.0000000000000000     
  -5.0751638705957183E-002  0.10732103388732456        0.0000000000000000     
  -4.9423513214821142E-002   8.1951765879413885E-002   0.0000000000000000     
  -5.1249127257237008E-002   8.8177879181805710E-002   0.0000000000000000     
  -5.3018567079636279E-002   9.4558045468574020E-002   0.0000000000000000     
  -5.4731832682019012E-002  0.10109226473971877        0.0000000000000000     
  -5.6388924064385136E-002  0.10778053699524003        0.0000000000000000     
  -5.4588437559538766E-002   8.2541763781051034E-002   0.0000000000000000     
  -5.6574802941780092E-002   8.8745760141876878E-002   0.0000000000000000     
  -5.8501005152642060E-002   9.5104189622685201E-002   0.0000000000000000     
  -6.0367044192124651E-002  0.10161705222347601        0.0000000000000000     
  -6.2172920060227871E-002  0.10828434794424935        0.0000000000000000     
  -3.9917199901345582E-002  0.10653495119477521        0.0000000000000000     
  -4.1073238463505760E-002  0.11342296045751668        0.0000000000000000     
  -4.2174420053031909E-002  0.12044739825848065        0.0000000000000000     
  -4.3220744669924011E-002  0.12760826459766714        0.0000000000000000     
  -4.4212212314182084E-002  0.13490555947507618        0.0000000000000000     
  -4.5261063984943999E-002  0.10690583862050293        0.0000000000000000     
  -4.6563319663827790E-002  0.11377683666573529        0.0000000000000000     
  -4.7804405389699746E-002  0.12078395059314771        0.0000000000000000     
  -4.8984321162559907E-002  0.12792718040274023        0.0000000000000000     
  -5.0103066982408247E-002  0.13520652609451286        0.0000000000000000     
  -5.0751638705957183E-002  0.10732103388732456        0.0000000000000000     
  -5.2199339776967502E-002  0.11417370741773529        0.0000000000000000     
  -5.3579736863298602E-002  0.12116217863129669        0.0000000000000000     
  -5.4892829964950526E-002  0.12828644752800880        0.0000000000000000     
  -5.6138619081923233E-002  0.13554651410787155        0.0000000000000000     
  -5.6388924064385136E-002  0.10778053699524003        0.0000000000000000     
  -5.7981298802924894E-002  0.11461357271351663        0.0000000000000000     
  -5.9500414473828478E-002  0.12158208237292759        0.0000000000000000     
  -6.0946271077095854E-002  0.12868606597347276        0.0000000000000000     
  -6.2318868612727042E-002  0.13592552351515230        0.0000000000000000     
  -6.2172920060227871E-002  0.10828434794424935        0.0000000000000000     
  -6.3909196741700008E-002  0.11509643255307939        0.0000000000000000     
  -6.5566438221289353E-002  0.12204366181804036        0.0000000000000000     
  -6.7144644498995917E-002  0.12912603573913223        0.0000000000000000     
  -6.8643815574819689E-002  0.13634355431635506        0.0000000000000000     
  -4.4212212314182084E-002  0.13490555947507618        0.0000000000000000     
  -4.5150436464693008E-002  0.14232606770540604        0.0000000000000000     
  -4.6037030600343663E-002  0.14985657410335507        0.0000000000000000     
  -4.6871994721134048E-002  0.15749707866892332        0.0000000000000000     
  -4.7655328827064157E-002  0.16524758140211071        0.0000000000000000     
  -5.0103066982408247E-002  0.13520652609451286        0.0000000000000000     
  -5.1162720497348359E-002  0.14260877815897025        0.0000000000000000     
  -5.2165359355483817E-002  0.15012072708661706        0.0000000000000000     
  -5.3110983556814637E-002  0.15774237287745330        0.0000000000000000     
  -5.3999593101340795E-002  0.16547371553147897        0.0000000000000000     
  -5.6138619081923233E-002  0.13554651410787155        0.0000000000000000     
  -5.7319736046173797E-002  0.14292915559517902        0.0000000000000000     
  -5.8438812689659253E-002  0.15042114921422511        0.0000000000000000     
  -5.9495849012379601E-002  0.15802249496500984        0.0000000000000000     
  -6.0490845014334833E-002  0.16573319284753324        0.0000000000000000     
  -6.2318868612727042E-002  0.13592552351515230        0.0000000000000000     
  -6.3621483111169316E-002  0.14328720001403236        0.0000000000000000     
  -6.4857390602869963E-002  0.15075784048617924        0.0000000000000000     
  -6.6026591087828948E-002  0.15833744493159296        0.0000000000000000     
  -6.7129084566046285E-002  0.16602601335027348        0.0000000000000000     
  -6.8643815574819689E-002  0.13634355431635506        0.0000000000000000     
  -7.0067961692334937E-002  0.14368291141553033        0.0000000000000000     
  -7.1421093095115934E-002  0.15113080090247955        0.0000000000000000     
  -7.2703209783162651E-002  0.15868722277720262        0.0000000000000000     
  -7.3914311756475143E-002  0.16635217703969971        0.0000000000000000     
  -4.7655328827064157E-002  0.16524758140211071        0.0000000000000000     
  -4.8384777170233359E-002  0.17309747172120413        0.0000000000000000     
  -4.9058084002740983E-002  0.18103613904449051        0.0000000000000000     
  -4.9675249324587056E-002  0.18906358337196974        0.0000000000000000     
  -5.0236273135771559E-002  0.19717980470364196        0.0000000000000000     
  -5.3999593101340795E-002  0.16547371553147897        0.0000000000000000     
  -5.4828905560089618E-002  0.17330424110644249        0.0000000000000000     
  -5.5596638504088365E-002  0.18122343566009211        0.0000000000000000     
  -5.6302791933337058E-002  0.18923129919242787        0.0000000000000000     
  -5.6947365847835704E-002  0.19732783170344975        0.0000000000000000     
  -6.0490845014334833E-002  0.16573319284753324        0.0000000000000000     
  -6.1421576002719441E-002  0.17354297735482699        0.0000000000000000     
  -6.2285817284727880E-002  0.18144158297992269        0.0000000000000000     
  -6.3083568860360165E-002  0.18942900972282040        0.0000000000000000     
  -6.3814830729616259E-002  0.19750525758352011        0.0000000000000000     
  -6.7129084566046285E-002  0.16602601335027348        0.0000000000000000     
  -6.8162788498122878E-002  0.17381368046635770        0.0000000000000000     
  -6.9125620344659550E-002  0.18169058100398230        0.0000000000000000     
  -7.0017580105656355E-002  0.18965671496314743        0.0000000000000000     
  -7.0838667781113279E-002  0.19771208234385307        0.0000000000000000     
  -7.3914311756475143E-002  0.16635217703969971        0.0000000000000000     
  -7.5052543046299866E-002  0.17411635044103455        0.0000000000000000     
  -7.6116047683883387E-002  0.18197042973227098        0.0000000000000000     
  -7.7104825669225677E-002  0.18991441491340894        0.0000000000000000     
  -7.8018877002326723E-002  0.19794830598444851        0.0000000000000000     
  -5.0236273135771559E-002  0.19717980470364196        0.0000000000000000     
  -5.0738908438694628E-002  0.20537621319938731        0.0000000000000000     
  -5.1180908235756384E-002  0.21364421901908620        0.0000000000000000     
  -5.1562272526956832E-002  0.22198382216273849        0.0000000000000000     
  -5.1883001312295965E-002  0.23039502263034420        0.0000000000000000     
  -5.6947365847835704E-002  0.19732783170344975        0.0000000000000000     
  -5.7527464237083423E-002  0.20550598827306366        0.0000000000000000     
  -5.8040191090579327E-002  0.21375872398117543        0.0000000000000000     
  -5.8485546408323444E-002  0.22208603882778502        0.0000000000000000     
  -5.8863530190315760E-002  0.23048793281289248        0.0000000000000000     
  -6.3814830729616259E-002  0.19750525758352011        0.0000000000000000     
  -6.4476987719483264E-002  0.20566400291622230        0.0000000000000000     
  -6.5067424656948147E-002  0.21389892207512745        0.0000000000000000     
  -6.5586141542010951E-002  0.22221001506023552        0.0000000000000000     
  -6.6033138374671660E-002  0.23059728187154654        0.0000000000000000     
  -7.0838667781113279E-002  0.19771208234385307        0.0000000000000000     
  -7.1587478885894174E-002  0.20585025712886329        0.0000000000000000     
  -7.2262608934862832E-002  0.21406481330094224        0.0000000000000000     
  -7.2864057928019352E-002  0.22235575086008999        0.0000000000000000     
  -7.3391825865363650E-002  0.23072306980630652        0.0000000000000000     
  -7.8018877002326723E-002  0.19794830598444851        0.0000000000000000     
  -7.8858937736316109E-002  0.20606475091098655        0.0000000000000000     
  -7.9625743924323422E-002  0.21425639765861984        0.0000000000000000     
  -8.0319295566348647E-002  0.22252324622734840        0.0000000000000000     
  -8.0939592662391757E-002  0.23086529661717231        0.0000000000000000     
  -5.1883001312295965E-002  0.23039502263034420        0.0000000000000000     
  -5.2151189680680755E-002  0.23886947266045935        0.0000000000000000     
  -5.2374932721018168E-002  0.24739882449163980        0.0000000000000000     
  -5.2554230433308209E-002  0.25598307812388565        0.0000000000000000     
  -5.2689082817550859E-002  0.26462223355719677        0.0000000000000000     
  -5.8863530190315760E-002  0.23048793281289248        0.0000000000000000     
  -5.9180201206395791E-002  0.23896360068984177        0.0000000000000000     
  -5.9441618226403085E-002  0.24751223721197682        0.0000000000000000     
  -5.9647781250337643E-002  0.25613384237929770        0.0000000000000000     
  -5.9798690278199437E-002  0.26482841619180442        0.0000000000000000     
  -6.6033138374671660E-002  0.23059728187154654        0.0000000000000000     
  -6.6410677467507159E-002  0.23906726973918271        0.0000000000000000     
  -6.6721021133094430E-002  0.24762652589326603        0.0000000000000000     
  -6.6964169371433388E-002  0.25627505033379666        0.0000000000000000     
  -6.7140122182524090E-002  0.26501284306077449        0.0000000000000000     
  -7.3391825865363650E-002  0.23072306980630652        0.0000000000000000     
  -7.3842618464014881E-002  0.23918047980848217        0.0000000000000000     
  -7.4213141441092159E-002  0.24774169053550751        0.0000000000000000     
  -7.4503394796595485E-002  0.25640670198738247        0.0000000000000000     
  -7.4713378530524843E-002  0.26517551416410695        0.0000000000000000     
  -8.0939592662391757E-002  0.23086529661717231        0.0000000000000000     
  -8.1476024195918942E-002  0.23930323089774033        0.0000000000000000     
  -8.1917979150396308E-002  0.24785773113870124        0.0000000000000000     
  -8.2265457525823871E-002  0.25652879734005513        0.0000000000000000     
  -8.2518459322201643E-002  0.26531642950180195        0.0000000000000000     
  -5.2689082817550859E-002  0.26462223355719677        0.0000000000000000     
  -5.2810326339336584E-002  0.27326706606294404        0.0000000000000000     
  -5.2948797464255855E-002  0.28186835091249834        0.0000000000000000     
  -5.3104496192308621E-002  0.29042608810585951        0.0000000000000000     
  -5.3277422523494919E-002  0.29894027764302766        0.0000000000000000     
  -5.9798690278199437E-002  0.26482841619180442        0.0000000000000000     
  -5.9931238506772365E-002  0.27355181132897827        0.0000000000000000     
  -6.0082319132840289E-002  0.28225988047030071        0.0000000000000000     
  -6.0251932156403190E-002  0.29095262361577162        0.0000000000000000     
  -6.0440077577461088E-002  0.29963004076539107        0.0000000000000000     
  -6.7140122182524090E-002  0.26501284306077449        0.0000000000000000     
  -6.7289150253744545E-002  0.27381005084886895        0.0000000000000000     
  -6.7451524272472696E-002  0.28263682047274957        0.0000000000000000     
  -6.7627244238708611E-002  0.29149315193241637        0.0000000000000000     
  -6.7816310152452264E-002  0.30037904522786923        0.0000000000000000     
  -7.4713378530524843E-002  0.26517551416410695        0.0000000000000000     
  -7.4884061580253097E-002  0.27404178462261614        0.0000000000000000     
  -7.5056412883153123E-002  0.28299917091984511        0.0000000000000000     
  -7.5230432439224906E-002  0.29204767305579371        0.0000000000000000     
  -7.5406120248468475E-002  0.30118729103046199        0.0000000000000000     
  -8.2518459322201643E-002  0.26531642950180195        0.0000000000000000     
  -8.2715972486298028E-002  0.27424701265021989        0.0000000000000000     
  -8.2896984964881501E-002  0.28334693181158710        0.0000000000000000     
  -8.3061496757952075E-002  0.29261618698590369        0.0000000000000000     
  -8.3209507865509680E-002  0.30205477817316950        0.0000000000000000     
  -4.5749409724562817E-002   5.9523556586059706E-002   0.0000000000000000     
  -4.8104149176416533E-002   6.4998937383242472E-002   0.0000000000000000     
  -5.0362233632863754E-002   7.0660432181468613E-002   0.0000000000000000     
  -5.2523663093904500E-002   7.6508040980738143E-002   0.0000000000000000     
  -5.4588437559538766E-002   8.2541763781051034E-002   0.0000000000000000     
  -5.0373559133585946E-002   6.0257036792938923E-002   0.0000000000000000     
  -5.2915607659826155E-002   6.5710186111135493E-002   0.0000000000000000     
  -5.5354018558563922E-002   7.1348854479155288E-002   0.0000000000000000     
  -5.7688791829799253E-002   7.7173041896998293E-002   0.0000000000000000     
  -5.9919927473532128E-002   8.3182748364664508E-002   0.0000000000000000     
  -5.5161789744937850E-002   6.1045829940128769E-002   0.0000000000000000     
  -5.7895559452002331E-002   6.6476437503011868E-002   0.0000000000000000     
  -6.0518296626272408E-002   7.2091474240907477E-002   0.0000000000000000     
  -6.3030001267748062E-002   7.7890940153815549E-002   0.0000000000000000     
  -6.5430673376429285E-002   8.3874835241736154E-002   0.0000000000000000     
  -6.0114101558618557E-002   6.1889936027629246E-002   0.0000000000000000     
  -6.3044004552945079E-002   6.7297691558871595E-002   0.0000000000000000     
  -6.5855067835989212E-002   7.2888291466725152E-002   0.0000000000000000     
  -6.8547291407750927E-002   7.8661735751189926E-002   0.0000000000000000     
  -7.1120675268230252E-002   8.4618024412265971E-002   0.0000000000000000     
  -6.5230494574628040E-002   6.2789355055440366E-002   0.0000000000000000     
  -6.8360942962654395E-002   6.8173948278714647E-002   0.0000000000000000     
  -7.1364332187714347E-002   7.3739306156608342E-002   0.0000000000000000     
  -7.4240662249807882E-002   7.9485428689121437E-002   0.0000000000000000     
  -7.6989933148935000E-002   8.5412315876253961E-002   0.0000000000000000     
  -5.4588437559538766E-002   8.2541763781051034E-002   0.0000000000000000     
  -5.6574802941780092E-002   8.8745760141876878E-002   0.0000000000000000     
  -5.8501005152642060E-002   9.5104189622685201E-002   0.0000000000000000     
  -6.0367044192124651E-002  0.10161705222347601        0.0000000000000000     
  -6.2172920060227871E-002  0.10828434794424935        0.0000000000000000     
  -5.9919927473532128E-002   8.3182748364664508E-002   0.0000000000000000     
  -6.2067150806096739E-002   8.9362699410869231E-002   0.0000000000000000     
  -6.4150187143827267E-002   9.5697620564327776E-002   0.0000000000000000     
  -6.6169036486723704E-002  0.10218751182504016        0.0000000000000000     
  -6.8123698834786056E-002  0.10883237319300637        0.0000000000000000     
  -6.5430673376429285E-002   8.3874835241736154E-002   0.0000000000000000     
  -6.7741456455200508E-002   9.0028772745708072E-002   0.0000000000000000     
  -6.9983494006946062E-002   9.6338365906770168E-002   0.0000000000000000     
  -7.2156786031666045E-002  0.10280361472492243        0.0000000000000000     
  -7.4261332529360374E-002  0.10942451920016485        0.0000000000000000     
  -7.1120675268230252E-002   8.4618024412265971E-002   0.0000000000000000     
  -7.3597719889091362E-002   9.0743980146393358E-002   0.0000000000000000     
  -7.6000925741998501E-002   9.7026425650012349E-002   0.0000000000000000     
  -7.8330292826951656E-002  0.10346536092312282        0.0000000000000000     
  -8.0585821143950825E-002  0.11006078596572486        0.0000000000000000     
  -7.6989933148935000E-002   8.5412315876253961E-002   0.0000000000000000     
  -7.9635941107769337E-002   9.1508321612925159E-002   0.0000000000000000     
  -8.2202482348984515E-002   9.7761799794054277E-002   0.0000000000000000     
  -8.4689556872580549E-002  0.10417275041964134        0.0000000000000000     
  -8.7097164678557423E-002  0.11074117348968635        0.0000000000000000     
  -6.2172920060227871E-002  0.10828434794424935        0.0000000000000000     
  -6.3909196741700008E-002  0.11509643255307939        0.0000000000000000     
  -6.5566438221289353E-002  0.12204366181804036        0.0000000000000000     
  -6.7144644498995917E-002  0.12912603573913223        0.0000000000000000     
  -6.8643815574819689E-002  0.13634355431635506        0.0000000000000000     
  -6.8123698834786056E-002  0.10883237319300637        0.0000000000000000     
  -7.0003832300390326E-002  0.11562211241350942        0.0000000000000000     
  -7.1799094995912568E-002  0.12254663723183246        0.0000000000000000     
  -7.3509486921352785E-002  0.12960594764797539        0.0000000000000000     
  -7.5135008076710960E-002  0.13680004366193826        0.0000000000000000     
  -7.4261332529360374E-002  0.10942451920016485        0.0000000000000000     
  -7.6286004186093395E-002  0.11619043777189270        0.0000000000000000     
  -7.8219671687929482E-002  0.12309072887950123        0.0000000000000000     
  -8.0062335034868565E-002  0.13012539252299044        0.0000000000000000     
  -8.1813994226910700E-002  0.13729442870236033        0.0000000000000000     
  -8.0585821143950825E-002  0.11006078596572486        0.0000000000000000     
  -8.2755712398809203E-002  0.11680140862822921        0.0000000000000000     
  -8.4828168297340009E-002  0.12367593676104673        0.0000000000000000     
  -8.6803188839543244E-002  0.13068437036417740        0.0000000000000000     
  -8.8680774025418893E-002  0.13782670943762118        0.0000000000000000     
  -8.7097164678557423E-002  0.11074117348968635        0.0000000000000000     
  -8.9412956938537777E-002  0.11745502498251896        0.0000000000000000     
  -9.1624584824144248E-002  0.12430226087646892        0.0000000000000000     
  -9.3732048335376836E-002  0.13128288117153622        0.0000000000000000     
  -9.5735347472235527E-002  0.13839688586772086        0.0000000000000000     
  -6.8643815574819689E-002  0.13634355431635506        0.0000000000000000     
  -7.0067961692334937E-002  0.14368291141553033        0.0000000000000000     
  -7.1421093095115934E-002  0.15113080090247955        0.0000000000000000     
  -7.2703209783162651E-002  0.15868722277720262        0.0000000000000000     
  -7.3914311756475143E-002  0.16635217703969971        0.0000000000000000     
  -7.5135008076710960E-002  0.13680004366193826        0.0000000000000000     
  -7.6680446371010472E-002  0.14411567152621049        0.0000000000000000     
  -7.8150589713274668E-002  0.15153957749328142        0.0000000000000000     
  -7.9545438103503563E-002  0.15907176156315106        0.0000000000000000     
  -8.0864991541697115E-002  0.16671222373581945        0.0000000000000000     
  -8.1813994226910700E-002  0.13729442870236033        0.0000000000000000     
  -8.3480211728535758E-002  0.14458486207261045        0.0000000000000000     
  -8.5066550004223668E-002  0.15198371728874049        0.0000000000000000     
  -8.6573009053974415E-002  0.15949099435075040        0.0000000000000000     
  -8.7999588877787971E-002  0.16710669325864022        0.0000000000000000     
  -8.8680774025418893E-002  0.13782670943762118        0.0000000000000000     
  -9.0467257764910824E-002  0.14509048305473024        0.0000000000000000     
  -9.2168973967962947E-002  0.15246322028885673        0.0000000000000000     
  -9.3785922634575219E-002  0.15994492114000064        0.0000000000000000     
  -9.5318103764747725E-002  0.16753558560816198        0.0000000000000000     
  -9.5735347472235527E-002  0.13839688586772086        0.0000000000000000     
  -9.7641584480135657E-002  0.14563253447256985        0.0000000000000000     
  -9.9457861604492478E-002  0.15297808649363021        0.0000000000000000     
 -0.10118417884530603       0.16043354193090179        0.0000000000000000     
 -0.10282053620257629       0.16799890078438479        0.0000000000000000     
  -7.3914311756475143E-002  0.16635217703969971        0.0000000000000000     
  -7.5052543046299866E-002  0.17411635044103455        0.0000000000000000     
  -7.6116047683883387E-002  0.18197042973227098        0.0000000000000000     
  -7.7104825669225677E-002  0.18991441491340894        0.0000000000000000     
  -7.8018877002326723E-002  0.19794830598444851        0.0000000000000000     
  -8.0864991541697115E-002  0.16671222373581945        0.0000000000000000     
  -8.2107818601777849E-002  0.17445207258036072        0.0000000000000000     
  -8.3272487857668123E-002  0.18228241666584902        0.0000000000000000     
  -8.4358999309367980E-002  0.19020325599228449        0.0000000000000000     
  -8.5367352956877390E-002  0.19821459055966695        0.0000000000000000     
  -8.7999588877787971E-002  0.16710669325864022        0.0000000000000000     
  -8.9345594119084104E-002  0.17482193218583927        0.0000000000000000     
  -9.0610329421282498E-002  0.18262782930577706        0.0000000000000000     
  -9.1793794784383181E-002  0.19052438461845353        0.0000000000000000     
  -9.2895990208386098E-002  0.19851159812386865        0.0000000000000000     
  -9.5318103764747725E-002  0.16753558560816198        0.0000000000000000     
  -9.6765869598218701E-002  0.17522592925747024        0.0000000000000000     
  -9.8129572374726540E-002  0.18300666765205495        0.0000000000000000     
  -9.9409212094271282E-002  0.19087780079191607        0.0000000000000000     
 -0.10060478875685284       0.19883932867705367        0.0000000000000000     
 -0.10282053620257629       0.16799890078438479        0.0000000000000000     
 -0.10436864503918160       0.17566406379525362        0.0000000000000000     
 -0.10583021671800025       0.18341893170468274        0.0000000000000000     
 -0.10720525123903225       0.19126350451267221        0.0000000000000000     
 -0.10849374860227762       0.19919778221922202        0.0000000000000000     
  -7.8018877002326723E-002  0.19794830598444851        0.0000000000000000     
  -7.8858937736316109E-002  0.20606475091098655        0.0000000000000000     
  -7.9625743924323422E-002  0.21425639765861984        0.0000000000000000     
  -8.0319295566348647E-002  0.22252324622734840        0.0000000000000000     
  -8.0939592662391757E-002  0.23086529661717231        0.0000000000000000     
  -8.5367352956877390E-002  0.19821459055966695        0.0000000000000000     
  -8.6300546069817796E-002  0.20630826838453228        0.0000000000000000     
  -8.7161575917810624E-002  0.21447613748341629        0.0000000000000000     
  -8.7950442500855833E-002  0.22271819785631899        0.0000000000000000     
  -8.8667145818953463E-002  0.23103444950324034        0.0000000000000000     
  -9.2895990208386098E-002  0.19851159812386865        0.0000000000000000     
  -9.3921485685467918E-002  0.20658159367144066        0.0000000000000000     
  -9.4874851207805214E-002  0.21472649511058772        0.0000000000000000     
  -9.5756086775397986E-002  0.22294630244130983        0.0000000000000000     
  -9.6565192388246263E-002  0.23124101566360697        0.0000000000000000     
 -0.10060478875685284       0.19883932867705367        0.0000000000000000     
 -0.10172175658326643       0.20688472677171169        0.0000000000000000     
 -0.10276556979430718       0.21500747054013411        0.0000000000000000     
 -0.10373622838997508       0.22320755998232095        0.0000000000000000     
 -0.10463373237027014       0.23148499509827217        0.0000000000000000     
 -0.10849374860227762       0.19919778221922202        0.0000000000000000     
 -0.10970135876321338       0.20721766768534533        0.0000000000000000     
 -0.11083373167731654       0.21531906377205545        0.0000000000000000     
 -0.11189086734458711       0.22350197047935236        0.0000000000000000     
 -0.11287276576502511       0.23176638780723602        0.0000000000000000     
  -8.0939592662391757E-002  0.23086529661717231        0.0000000000000000     
  -8.1476024195918942E-002  0.23930323089774033        0.0000000000000000     
  -8.1917979150396308E-002  0.24785773113870124        0.0000000000000000     
  -8.2265457525823871E-002  0.25652879734005513        0.0000000000000000     
  -8.2518459322201643E-002  0.26531642950180195        0.0000000000000000     
  -8.8667145818953463E-002  0.23103444950324034        0.0000000000000000     
  -8.9297346495012947E-002  0.23945048558645612        0.0000000000000000     
  -8.9826705151943728E-002  0.24799189926824194        0.0000000000000000     
  -9.0255221789745807E-002  0.25665869054859797        0.0000000000000000     
  -9.0582896408419183E-002  0.26545085942752400        0.0000000000000000     
  -9.6565192388246263E-002  0.23124101566360697        0.0000000000000000     
  -9.7293037193090529E-002  0.23963720645412864        0.0000000000000000     
  -9.7930490336671241E-002  0.24816144648952435        0.0000000000000000     
  -9.8477551818988471E-002  0.25681373576979410        0.0000000000000000     
  -9.8934221640042147E-002  0.26559407429493781        0.0000000000000000     
 -0.10463373237027014       0.23148499509827217        0.0000000000000000     
 -0.10546309629015162       0.23986339350075797        0.0000000000000000     
 -0.10622933470457886       0.24836637280254847        0.0000000000000000     
 -0.10693244761355181       0.25699393300364365        0.0000000000000000     
 -0.10757243501707051       0.26574607410404344        0.0000000000000000     
 -0.11287276576502511       0.23176638780723602        0.0000000000000000     
 -0.11380752378619632       0.24012904672634414        0.0000000000000000     
 -0.11472323825566659       0.24860667820731425        0.0000000000000000     
 -0.11561990917343590       0.25719928225014654        0.0000000000000000     
 -0.11649753653950426       0.26590685885484078        0.0000000000000000     
  -8.2518459322201643E-002  0.26531642950180195        0.0000000000000000     
  -8.2715972486298028E-002  0.27424701265021989        0.0000000000000000     
  -8.2896984964881501E-002  0.28334693181158710        0.0000000000000000     
  -8.3061496757952075E-002  0.29261618698590369        0.0000000000000000     
  -8.3209507865509680E-002  0.30205477817316950        0.0000000000000000     
  -9.0582896408419183E-002  0.26545085942752400        0.0000000000000000     
  -9.0840062300599669E-002  0.27443142564782602        0.0000000000000000     
  -9.1057052758923007E-002  0.28366340895230963        0.0000000000000000     
  -9.1233867783389197E-002  0.29314680934097487        0.0000000000000000     
  -9.1370507373998239E-002  0.30288162681382175        0.0000000000000000     
  -9.8934221640042147E-002  0.26559407429493781        0.0000000000000000     
  -9.9311510351878268E-002  0.27460071433158034        0.0000000000000000     
  -9.9620428506542694E-002  0.28393190814634633        0.0000000000000000     
  -9.9860976104035479E-002  0.29358765573923584        0.0000000000000000     
 -0.10003315314435657       0.30356795711024881        0.0000000000000000     
 -0.10757243501707051       0.26574607410404344        0.0000000000000000     
 -0.10813031664013381       0.27475487870148296        0.0000000000000000     
 -0.10858711220774060       0.28415242939369745        0.0000000000000000     
 -0.10894282171989085       0.29393872618068662        0.0000000000000000     
 -0.10919744517658458       0.30411376906245063        0.0000000000000000     
 -0.11649753653950426       0.26590685885484078        0.0000000000000000     
 -0.11729648116536630       0.27489391875753388        0.0000000000000000     
 -0.11795710386251668       0.28432497269436269        0.0000000000000000     
 -0.11847940463095534       0.29420002066532719        0.0000000000000000     
 -0.11886338347068234       0.30451906267042728        0.0000000000000000     
 </DataArray>
 <DataArray  type="Float64" Name="stress" NumberOfComponents="3" format="ascii">
   6152134301.7944431        65655334.429934978        70727836.636675671     
   5898812605.1734896        34428322.021661043        54491436.172428191     
   5646963939.1690311        8111411.6683719158        44477008.593026325     
   5396588303.7810659       -13295396.629938602        40684553.898479022     
   5147685699.0095987       -29792102.873258591        43114072.088767089     
   5755345756.8508062        52819616.348122597        208232069.96947175     
   5519169805.3593798        26140596.928706169        196789635.11343127     
   5284153614.1679144        3327445.1758053303        191264725.24398962     
   5050297183.2763939       -15619838.910599470        191657340.36113906     
   4817600512.6848230       -30701255.330495834        197967480.46487960     
   5368301197.2102337        42907093.857208967        345689917.18564951     
   5148401139.7104816        20515112.085325003        338675965.90184081     
   4929347572.1941366        944763.59144926071        337275091.70638597     
   4711140494.6611938       -15803951.624405384        341487294.59926265     
   4493779907.1116571       -29731033.562252760        351312574.58047974     
   4991000622.8727198        35917766.957226992        483101378.28519523     
   4786506608.2267818        17551867.491490841        480150428.53766316     
   4582545813.2476950        963366.91528630257        482508107.98020887     
   4379118237.9354677       -13847734.771389008        490174416.61285597     
   4176223882.2901039       -26881437.568531036        503149354.43558252     
   4623444033.8382797        31851635.648163557        620466453.26812077     
   4433486210.9082756        17250863.147219658        621213023.02088296     
   4243748337.3285904        3383255.1473336220        626963774.06547737     
   4054230413.0992112       -9751188.3515186310        637718706.40190983     
   3864932438.2201538       -22152467.349321604        653477820.03018153     
   5147685699.0095987       -29792102.873258591        43114072.088767089     
   4999599930.0630703       -14824339.933215857        33630903.012482613     
   4850845142.6555748       -2086638.5297265053        28501189.222686671     
   4701421336.7871151        8421001.3372132778        27724930.719382457     
   4551328512.4576883        16698579.667595148        31302127.502568051     
   4817600512.6848230       -30701255.330495834        197967480.46487960     
   4680143275.8844357       -16323929.761459112        189753816.06580168     
   4542111055.8291149       -3863215.0421881676        185498745.11673111     
   4403503852.5188580        6680888.8272802830        185202267.61766019     
   4264321665.9536662        15308381.846967936        188864383.56859922     
   4493779907.1116571       -29731033.562252760        351312574.58047974     
   4365823025.7817421       -16282598.366898298        344478122.59898460     
   4237385196.4029198       -4437323.3345646858        341207402.23100311     
   4108466418.9751873        5804791.5347363949        341500413.47653913     
   3979066693.4985499        14443746.241015434        345357156.33559144     
   4176223882.2901039       -26881437.568531036        503149354.43558252     
   4056639179.7549810       -14700345.749568462        497803822.61203039     
   3936667564.3769789       -3808963.4068741798        495627160.56550753     
   3816309036.1560998        5792709.4595673084        496619368.29601097     
   3695563595.0923400        14104672.849733353        500780445.80355114     
   3864932438.2201538       -22152467.349321604        653477820.03018153     
   3752591737.8041506       -11577171.909461498        649730916.10493743     
   3639958159.7512989       -1978135.2590980530        648758020.12023485     
   3527031704.0616007        6644642.6017723083        650559132.07608044     
   3413812370.7350478        14291161.673126698        655134251.97246802     
   4551328512.4576883        16698579.667595148        31302127.502568051     
   4348965292.6146536        8806509.5143435001        21807500.423524171     
   4146948983.6526551        2070808.9645352364        17391957.421301574     
   3945279585.5717125       -3508521.9817557335        18055498.495874647     
   3743957098.3717837       -7931483.3246531487        23798123.647258759     
   4264321665.9536662        15308381.846967936        188864383.56859922     
   4075222143.5067501        8562920.8519175053        180257738.90859702     
   3886435349.4245272        2859887.7391660213        176510252.20921698     
   3697961283.7070036       -1800717.4912481308        177621923.47046071     
   3509799946.3541546       -5418894.8394248486        183592752.69233489     
   3979066693.4985499        14443746.241015434        345357156.33559144     
   3802602508.1158071        8656386.3045992851        337598614.49221891     
   3626416868.5814037        3797512.5293047428        334479304.49328542     
   3450509774.8953457       -132875.08483862877        335999226.33879352     
   3274881227.0576205       -3134776.5378575325        342158380.02874124     
   3695563595.0923400        14104672.849733353        500780445.80355114     
   3531106386.4418192        9086905.8723580837        493830127.17439926     
   3366893541.1232829        4883683.3349378109        491299114.27350110     
   3202925059.1367431        1495005.2375073433        493187407.10086554     
   3039200940.4821968       -1079128.4199557304        499495005.65648538     
   3413812370.7350478        14291161.673126698        655134251.97246802     
   3260733778.4847908        9854479.5552043915        648952276.95513284     
   3107865367.0501719        6118400.1560796499        646969681.54986656     
   2955207136.4312038        3082923.4757804871        649186465.75667334     
   2802759086.6278634        748049.51425659657        655602629.57555497     
   3743957098.3717837       -7931483.3246531487        23798123.647258759     
   3572417565.7181754       -3986670.8272614479        16713790.748356361     
   3400157201.8382816       -2444629.0841329098        13576066.147667872     
   3227176006.7320805       -3305358.0953708887        14384949.845218269     
   3053473980.3996010       -6568857.8608727455        19140441.840973604     
   3509799946.3541546       -5418894.8394248486        183592752.69233489     
   3348288234.7841506       -1279033.5253608227        175435606.01923892     
   3186307630.6257238        1297852.4939541817        171000548.30838779     
   3023858133.8788776        2311763.2185348272        170287579.55978665     
   2860939744.5436029        1762698.6483651400        173296699.77342522     
   3274881227.0576205       -3134776.5378575325        342158380.02874124     
   3122755852.7541361        1007688.4477092028        333222347.99230838     
   2970413524.5001049        4426973.5981366634        327783885.58214903     
   2817854242.2955127        7123078.9133453369        325842992.79824549     
   2665078006.1403790        9096004.3934283257        327399669.64060366     
   3039200940.4821968       -1079128.4199557304        499495005.65648538     
   2895820419.6281457        2873495.0920166969        490074016.66755992     
   2752474883.4614139        6942734.2283840179        483926077.96892011     
   2609164331.9820046        11128588.989156246        481051189.56057638     
   2465888765.1899118        15431059.374328732        481449351.44251370     
   2802759086.6278634        748049.51425659657        655602629.57555497     
   2667481935.4061675        4318386.4075109959        645990612.04499388     
   2532491707.5096607        8845134.3847299814        639427125.46873534     
   2397788402.9383335        14328293.445892692        635912169.84679353     
   2263372021.6922102        20767863.591045380        635445745.17915118     
   3053473980.3996010       -6568857.8608727455        19140441.840973604     
   2886918912.9584603       -7914606.1628737450        11808028.262566976     
   2720935444.0817399       -7355025.9168076515        6184852.0768847950     
   2555523573.7694197       -4890117.1227363348        2270913.2839334649     
   2390683302.0215006       -519879.78067171574        66211.883709144109     
   2860939744.5436029        1762698.6483651400        173296699.77342522     
   2699424134.1412220        1380895.2045989037        165426876.47856250     
   2538210225.6326685        2004764.7402632236        159501872.39195392     
   2377298019.0179424        3634307.2553459406        155521687.51362053     
   2216687514.2970448        6269522.7498778105        153486321.84352973     
   2665078006.1403790        9096004.3934283257        327399669.64060366     
   2509274943.6782789        9880073.0783367157        318677557.18026549     
   2353503686.4394317        10770159.174083114        312135845.74373478     
   2197764234.4238300        11766262.680650473        307774535.33099300     
   2042056587.6314836        12868383.598062515        305593625.94206119     
   2465888765.1899118        15431059.374328732        481449351.44251370     
   2316471341.5696325        17582927.458368778        471560070.36770219     
   2166815826.5020308        18941157.384660959        464086772.13222235     
   2016922219.9870934        19505749.153174639        459029456.73608178     
   1866790522.0248320        19276702.763950109        456388124.17928553     
   2263372021.6922102        20767863.591045380        635445745.17915118     
   2121013327.8152869        24489458.344687462        624074416.04085660     
   1978146645.8204508        26517759.371953726        615354651.55743456     
   1834771975.7077188        26852766.672899723        609286451.72888947     
   1690889317.4770749        25494480.247472584        605869816.55521309     
   2390683302.0215006       -519879.78067171574        66211.883709144109     
   2248379269.8196139        6651725.9412242174       -6370740.6310701352     
   2102892977.4155326        3215797.6558063030       -10879114.530173769     
   1954224424.8092411       -10827664.636970878       -13458909.813606884     
   1802373612.0007486       -35478660.937103629       -14110126.481374603     
   2216687514.2970448        6269522.7498778105        153486321.84352973     
   2078198329.6172466        12828445.536704659        143360782.27740103     
   1937618857.0743854        12419742.113322020        134382550.55913204     
   1794949096.6684525        5043412.4797006845        126551626.68874508     
   1650189048.3994539       -9300543.3641177416        119868010.66622677     
   2042056587.6314836        12868383.598062515        305593625.94206119     
   1905150048.2800624        18144962.791726589        293053467.05355692     
   1767245193.4047120        20093823.572293282        280879345.24513346     
   1628342023.0054247        18714965.939740121        269071260.51677322     
   1488440537.0822124        14008389.894097447        257629212.86848804     
   1866790522.0248320        19276702.763950109        456388124.17928553     
   1729234425.8080604        22601277.706296444        442707313.69741726     
   1591771986.4065027        26238042.032697082        428611269.52781063     
   1454403203.8201478        30186995.743098259        414099991.67048264     
   1317128078.0489945        34448138.837513089        399173480.12541974     
   1690889317.4770749        25494480.247472584        605869816.55521309     
   1550451462.2012563        26197390.280449212        592322322.20896101     
   1411199236.0797668        30852397.494534612        577578323.40717959     
   1273132639.1126235        39459501.889770031        561637820.14985669     
   1136251671.2998271        52018703.466157079        544500812.43702352     
   1802373612.0007486       -35478660.937103629       -14110126.481374603     
   1771506674.2184021       -16489722.658587456       -8467565.9057991803     
   1748664703.4981153        29249105.826783061       -41586742.727390997     
   1733847699.8398807        101737824.51901150       -113467656.94614236     
   1727055663.2437344        200976433.41817766       -224110308.56205070     
   1650189048.3994539       -9300543.3641177416        119868010.66622677     
   1527613453.3388844       -13882625.325281799        135467487.20128381     
   1409176412.9019027       -4669525.2078409195        124723046.35942152     
   1294877927.0884957        18338756.988187373        87634688.140613616     
   1184717995.8986921        55142221.262905121        24202412.544897906     
   1488440537.0822124        14008389.894097447        257629212.86848804     
   1309635770.5155025       -3500866.5751353502        278651457.51815438     
   1131083146.1339006       -20169649.094026744        285747604.81111407     
   952782663.93740082       -35997957.662562430        278917654.74737990     
   774734323.92602348       -50985792.280701846        258161607.32693395     
   1317128078.0489945        34448138.837513089        399173480.12541974     
   1117573625.7482452        14655553.591855228        421084345.04478633     
   914384903.19412959       -17251265.831710756        441486932.62769359     
   707561910.38663816       -61272319.433179647        460381242.87412924     
   497104647.32577735       -117407607.21255875        477767275.78409427     
   1136251671.2998271        52018703.466157079        544500812.43702352     
   951427019.03711486        40586635.175663829        562766149.78121221     
   759081684.08256912        4085624.5790417194        591941029.80916381     
   559215666.43617105       -57484328.323754698        632025452.52087879     
   351828966.09792393       -144123223.53269789        683019417.91635799     
   1727055663.2437344        200976433.41817766       -224110308.56205070     
   1456542154.0611458        184525079.89852732       -96580965.385900229     
   1153889268.6014750        60942472.121936500        60114699.567798562     
   819097006.86464167       -169771389.91182965        245976686.29904953     
   452165368.85074872       -507616506.20252788        461004994.80780524     
   1184717995.8986921        55142221.262905121        24202412.544897906     
   977634316.88859475        11814046.151385009        155588114.27666131     
   732749765.64611852       -157517036.40142038        312802014.73093450     
   450064342.17122328       -452851026.39562213        495844113.90773535     
   129578046.46391726       -874187923.83119369        704714411.80702555     
   774734323.92602348       -50985792.280701846        258161607.32693395     
   621542980.64553356       -124052037.31687036        386798588.99979651     
   424889269.17732537       -341992842.97876662        537925646.34014380     
   184773189.52140531       -704808209.26636076        711542779.34797800     
  -98805258.322209775       -1212498136.1796217        907649988.02328980     
   497104647.32577735       -117407607.21255875        477767275.78409427     
   388268145.33193469       -223073170.50633368        597050458.78352559     
   230307779.19508284       -492484947.61012852        735485594.39541829     
   23223548.915209055       -925642938.52399981        893072682.61977804     
  -232984545.50766888       -1522547143.2478890        1069811723.4565916     
   351828966.09792393       -144123223.53269789        683019417.91635799     
   277809810.94781661       -285249353.41691285        786343723.62785721     
   149005295.69937533       -608993350.29557991        905481858.89677870     
  -34584579.647357762       -1115355214.1685560        1040433823.7231303     
  -272959815.09240890       -1804334945.0359142        1191199618.1069400     
   4623444033.8382797        31851635.648163557        620466453.26812077     
   4433486210.9082756        17250863.147219658        621213023.02088296     
   4243748337.3285904        3383255.1473336220        626963774.06547737     
   4054230413.0992112       -9751188.3515186310        637718706.40190983     
   3864932438.2201538       -22152467.349321604        653477820.03018153     
   4258104071.8863492        37226945.422017813        761122391.79183054     
   4081553278.6594987        21915781.004581451        758527903.28680933     
   3905311729.3049469        7635429.4947962761        761406269.85772777     
   3729379423.8226910       -5614109.1073400974        769757491.50457275     
   3553756362.2127256       -17832834.801843643        783581568.22735751     
   3881666706.5162649        39273034.170424223        899906049.21844792     
   3719862010.9471445        23653198.222868204        894074679.39796007     
   3558455853.7722950        9361823.5895578861        894184838.43749857     
   3397448234.9917212       -3601089.7295057774        900236526.33707631     
   3236839154.6054163       -15235541.734326363        912229743.09668565     
   3494131937.7280478        37989901.893389702        1036817425.5479740     
   3348412407.7712135        22463114.802078009        1027853351.3543240     
   3203180710.7306347        8562437.4316142797        1025299479.8047988     
   3058436846.6063066       -3712130.2180037498        1029155810.8994130     
   2914180815.3982353       -14360588.146775723        1039422344.6381598     
   3095499765.5216804        33377548.590913773        1171856520.7803993     
   2967204469.1317048        18345530.742222548        1159863919.1559007     
   2839486300.1799603        5237271.0209702253        1154750193.9596272     
   2712345258.6664519       -5947230.5728279352        1156515345.1915865     
   2585781344.5911765       -15207974.039181828        1165159372.8517783     
   3864932438.2201538       -22152467.349321604        653477820.03018153     
   3752591737.8041506       -11577171.909461498        649730916.10493743     
   3639958159.7512989       -1978135.2590980530        648758020.12023485     
   3527031704.0616007        6644642.6017723083        650559132.07608044     
   3413812370.7350478        14291161.673126698        655134251.97246802     
   3553756362.2127256       -17832834.801843643        783581568.22735751     
   3448636540.8748846       -8717231.1559479237        777716231.93734193     
   3343328370.5606308       -229457.43143033981        774968262.02705491     
   3237831851.2699618        7630486.3717012405        775337658.49648976     
   3132146983.0028853        14862600.253469229        778824421.34564829     
   3236839154.6054163       -15235541.734326363        912229743.09668565     
   3139921236.4576826       -7285322.6488192081        904367924.54574347     
   3042919497.9939690        385495.38343238831        899966830.81370461     
   2945833939.2142816        7776912.3624343872        899026461.90057433     
   2848664560.1186209        14888928.288187742        901546817.80634713     
   2914180815.3982353       -14360588.146775723        1039422344.6381598     
   2826445824.5525470       -7281446.3880718946        1029685993.9301351     
   2738731542.0513163       -133276.81450057030        1023753726.4801936     
   2651037967.8945489        7083920.5739477873        1021625542.2883402     
   2563365102.0822449        14370145.777267575        1023301441.3545702     
   2585781344.5911765       -15207974.039181828        1165159372.8517783     
   2508210305.1594772       -8705602.3736996651        1153670440.0905156     
   2430764502.7326722       -1785774.0252299309        1146328949.0265174     
   2353443937.3107686        5551511.0062412024        1143134899.6597822     
   2276248608.8937674        13306252.720723748        1144088291.9903142     
   3413812370.7350478        14291161.673126698        655134251.97246802     
   3260733778.4847908        9854479.5552043915        648952276.95513284     
   3107865367.0501719        6118400.1560796499        646969681.54986656     
   2955207136.4312038        3082923.4757804871        649186465.75667334     
   2802759086.6278634        748049.51425659657        655602629.57555497     
   3132146983.0028853        14862600.253469229        778824421.34564829     
   2990424125.3695412        11311107.680676579        772315721.70529628     
   2848907940.0238099        8448522.7332624197        770138548.41700613     
   2707598426.9656963        6274845.4112437963        772292901.48078179     
   2566495586.1951947        4790075.7145913839        778778780.89660895     
   2848664560.1186209        14888928.288187742        901546817.80634713     
   2718674999.2164345        12335893.894791603        894707300.26028895     
   2588888602.0738420        10460072.033364058        892331455.80627871     
   2459305368.6908336        9261462.7038906813        894419284.44431686     
   2329925299.0674162        8740065.9063751698        900970786.17440295     
   2563365102.0822449        14370145.777267575        1023301441.3545702     
   2445486400.0254765        12928838.197554588        1016127012.6201017     
   2327807353.2002645        12153048.056372643        1013548403.7176732     
   2210327961.6066198        12042775.353744030        1015565614.6472818     
   2093048225.2445345        12598020.089643717        1022178645.4089214     
   2276248608.8937674        13306252.720723748        1144088291.9903142     
   2170858327.7966599        13089940.588955164        1136574858.7847493     
   2065664193.4030895        13527450.802319169        1133789392.1512043     
   1960666205.7130494        14618783.360782743        1135731892.0896802     
   1855864364.7265432        16363938.264359355        1142402358.6001792     
   2802759086.6278634        748049.51425659657        655602629.57555497     
   2667481935.4061675        4318386.4075109959        645990612.04499388     
   2532491707.5096607        8845134.3847299814        639427125.46873534     
   2397788402.9383335        14328293.445892692        635912169.84679353     
   2263372021.6922102        20767863.591045380        635445745.17915118     
   2566495586.1951947        4790075.7145913839        778778780.89660895     
   2439449927.7756433        8229390.7957787514        769510643.02691007     
   2312663704.8086300        12533490.718757868        763556127.54580092     
   2186136917.2941513        17702375.483525038        760915234.45328557     
   2059869565.2322023        23736045.090052843        761587963.74935544     
   2329925299.0674162        8740065.9063751698        900970786.17440295     
   2211868537.5479703        12275580.404910564        892014458.78079915     
   2094043723.6084044        16584253.503040314        886636845.21006680     
   1976450857.2487199        21666085.200769424        884837945.46220875     
   1859089938.4689054        27521075.498073816        886617759.53722930     
   2093048225.2445345        12598020.089643717        1022178645.4089214     
   1984737764.7231498        16456955.234903574        1013502059.3066487     
   1876631763.9089818        20997422.737561941        1008669278.4615331     
   1768730222.8020399        26219422.597635627        1007680302.8735726     
   1661033141.4023156        32122954.815103471        1010535132.5427748     
   1855864364.7265432        16363938.264359355        1142402358.6001792     
   1758057609.3011680        20773515.285735130        1133973444.6044717     
   1660427825.7103593        25772998.422320485        1129653427.3001983     
   1562975013.9541197        31362387.674141586        1129442306.6873705     
   1465699174.0324328        37541683.041145205        1133340082.7659819     
   2263372021.6922102        20767863.591045380        635445745.17915118     
   2121013327.8152869        24489458.344687462        624074416.04085660     
   1978146645.8204508        26517759.371953726        615354651.55743456     
   1834771975.7077188        26852766.672899723        609286451.72888947     
   1690889317.4770749        25494480.247472584        605869816.55521309     
   2059869565.2322023        23736045.090052843        761587963.74935544     
   1924772416.0889633        26993562.067440867        750867917.58591533     
   1789331954.4570756        29106704.082683563        743189205.28033900     
   1653548180.3365505        30075471.135781825        738551826.83262479     
   1517421093.7273808        29899863.226747513        736955782.24276996     
   1859089938.4689054        27521075.498073816        886617759.53722930     
   1732367960.3536029        30648602.587498426        876741117.91611588     
   1605467345.3789117        33180673.478969395        870295579.35585690     
   1478388093.5448477        35117288.172516644        867281143.85644376     
   1351130204.8513958        36458446.668125153        867697811.41788602     
   1661033141.4023156        32122954.815103471        1010535132.5427748     
   1543799960.6091995        35454579.904835522        1001694017.0314577     
   1426552818.5859578        38739667.560825229        996673773.78398728     
   1309291715.3326030        41978217.783095717        995474402.80035150     
   1192016650.8491201        45170230.571613908        998095904.08055770     
   1465699174.0324328        37541683.041145205        1133340082.7659819     
   1359068416.8557549        41411494.019456804        1125726614.9319413     
   1252588374.0782135        45783686.328235626        1122323788.5647304     
   1146259045.6998191        50658259.967499375        1123131603.6643362     
   1040080431.7205596        56035214.937223852        1128150060.2307754     
   1690889317.4770749        25494480.247472584        605869816.55521309     
   1550451462.2012563        26197390.280449212        592322322.20896101     
   1411199236.0797668        30852397.494534612        577578323.40717959     
   1273132639.1126235        39459501.889770031        561637820.14985669     
   1136251671.2998271        52018703.466157079        544500812.43702352     
   1517421093.7273808        29899863.226747513        736955782.24276996     
   1375349544.0744002        27886788.248476803        727672962.55604351     
   1233585618.0159495        26899125.251961231        718956725.11425328     
   1092129315.5520253        26936874.237200677        710807069.91739249     
   950980636.68262041        28000035.204183638        703223996.96544671     
   1351130204.8513958        36458446.668125153        867697811.41788602     
   1212462351.3939991        33240603.850455940        861655326.57091010     
   1073224115.9713120        28121487.815142632        857942510.66931438     
   933415498.58332467        21101098.562180638        856559363.71310556     
   793036499.23005831        12179436.091596752        857505885.70227718     
   1192016650.8491201        45170230.571613908        998095904.08055770     
   1061789884.1600420        42258837.086373985        994269414.25353670     
   930114729.94584429        34519485.184074640        994535680.07235932     
   796991188.20653987        21952174.864745289        998894701.53701603     
   662419258.94212759        4556906.1283994019        1007346478.6475192     
   1040080431.7205596        56035214.937223852        1128150060.2307754     
   923332142.37252080        54941487.956196219        1125515225.6039338     
   804257459.93955815        46093117.358761042        1128736233.3233840     
   682856384.42165887        29490103.144867808        1137813083.3891292     
   559128915.81884837        5132445.3146041334        1152745775.8011699     
   1136251671.2998271        52018703.466157079        544500812.43702352     
   951427019.03711486        40586635.175663829        562766149.78121221     
   759081684.08256912        4085624.5790417194        591941029.80916381     
   559215666.43617105       -57484328.323754698        632025452.52087879     
   351828966.09792393       -144123223.53269789        683019417.91635799     
   950980636.68262041        28000035.204183638        703223996.96544671     
   791764987.95044875        11006784.170054257        721208861.82978034     
   623910075.37609887       -34784013.004674107        749266767.35929930     
   447415898.95956808       -109372356.32000744        787397713.55399549     
   262282458.70084983       -212758245.77594590        835601700.41386831     
   793036499.23005831        12179436.091596752        857505885.70227718     
   657039848.26103115       -11091999.416404039        873905266.74470925     
   511285352.29949510       -66889584.899436712        899541186.43373156     
   355773011.34543759       -155213320.35753840        934413644.76935267     
   190502825.39886916       -276063205.79067934        978522641.75156736     
   662419258.94212759        4556906.1283994019        1007346478.6475192     
   547251599.96885586       -25709715.583697915        1020855364.5259818     
   421207514.85275286       -92231091.105250835        1042764287.0324650     
   284287003.59379160       -195007220.43633401        1073073246.1669509     
   136490066.19198191       -334038103.57687795        1111782241.9294405     
   559128915.81884837        5132445.3146041334        1152745775.8011699     
   462400243.07395732       -32846364.331768841        1162059155.1736166     
   353676563.03588921       -110808531.62207638        1178936069.1554873     
   232957875.70462802       -228754056.55635536        1203376517.7467816     
   100244181.08019078       -386682939.13455445        1235380500.9475009     
   351828966.09792393       -144123223.53269789        683019417.91635799     
   277809810.94781661       -285249353.41691285        786343723.62785721     
   149005295.69937533       -608993350.29557991        905481858.89677870     
  -34584579.647357762       -1115355214.1685560        1040433823.7231303     
  -272959815.09240890       -1804334945.0359142        1191199618.1069400     
   262282458.70084983       -212758245.77594590        835601700.41386831     
   223591186.52124497       -352405973.34040576        884985054.71422422     
   140663691.23947406       -639507777.91208041        945388704.28374588     
   13499972.855531156       -1074063659.4909990        1016812649.1224259     
  -157899968.63055736       -1656073618.0770779        1099256889.2302473     
   190502825.39886916       -276063205.79067934        978522641.75156736     
   173443623.93755439       -418341274.71101433        986272371.13628662     
   122697336.37021300       -672909630.65141690        1000248861.5018936     
   38263962.696853697       -1039768273.6118855        1020452112.8483746     
  -79856497.082520604       -1518917203.5924127        1046882125.1757426     
   136490066.19198191       -334038103.57687795        1111782241.9294405     
   127367123.19672602       -483055257.52876759        1090205672.8940382     
   95106231.091598481       -709198908.51355207        1070062330.5512439     
   39707389.876590014       -1012469056.5312815        1051352214.9010507     
  -38829400.448277473       -1392865701.5818789        1034075325.9434646     
   100244181.08019078       -386682939.13455445        1235380500.9475009     
   85361684.298769921       -546547921.79366589        1196784959.9874821     
   57890375.403637439       -748375611.49848282        1154829111.4317830     
   17830254.394767523       -992166008.24909949        1109512955.2804132     
  -34818678.727834046       -1277919112.0454719        1060836491.5333593     
   3095499765.5216804        33377548.590913773        1171856520.7803993     
   2967204469.1317048        18345530.742222548        1159863919.1559007     
   2839486300.1799603        5237271.0209702253        1154750193.9596272     
   2712345258.6664519       -5947230.5728279352        1156515345.1915865     
   2585781344.5911765       -15207974.039181828        1165159372.8517783     
   2695322211.7438331        27195945.361100316        1228570999.2557216     
   2584900881.0775871        14084742.655668736        1220067587.4272161     
   2475029781.4862642        2807643.5333001614        1217991238.5402875     
   2365708912.9698572       -6635352.0060116053        1222341952.5949385     
   2256938275.5283656       -14244243.962263107        1233119729.5911736     
   2303880288.6516347        23635031.336981535        1283977561.6709857     
   2210042028.0329852        12057375.071972132        1278931960.5479314     
   2116727102.1259356        2224167.8456352949        1279861608.8798120     
   2023935510.9304862       -5864590.3420299292        1286766506.6666236     
   1931667254.4466429       -12208899.491021395        1299646653.9083645     
   1921173996.2450948        22694806.518560410        1338076208.0261865     
   1842627909.9978938        12263427.991129994        1336457038.5180528     
   1764578262.0989773        3486843.9579808712        1340361304.9782050     
   1687025052.5483456       -3634945.5808831453        1349789007.4066393     
   1609968281.3460002       -9101940.6254590154        1364740145.8033543     
   1547203334.5242054        24375270.905834317        1390866938.3213215     
   1482658526.9723127        14702901.413139224        1392642821.3375785     
   1418583261.4053903        6595671.8703428507        1399490326.8354666     
   1354977537.8234358        53582.277443289757        1411409454.8149848     
   1291841356.2264514       -4923367.3655585051        1428400205.2761364     
   2585781344.5911765       -15207974.039181828        1165159372.8517783     
   2508210305.1594772       -8705602.3736996651        1153670440.0905156     
   2430764502.7326722       -1785774.0252299309        1146328949.0265174     
   2353443937.3107686        5551511.0062412024        1143134899.6597822     
   2276248608.8937674        13306252.720723748        1144088291.9903142     
   2256938275.5283656       -14244243.962263107        1233119729.5911736     
   2189760767.2379870       -8358561.0201539993        1222945340.9921174     
   2122703337.4241390       -2072616.4896054268        1216760847.4329739     
   2055765986.0868213        4613589.6293772459        1214566248.9137464     
   1988948713.2260358        11700057.336799026        1216361545.4344294     
   1931667254.4466429       -12208899.491021395        1299646653.9083645     
   1874433143.9908712       -7074945.2642849684        1290780791.1884181     
   1817313953.4832602       -1557924.5436784029        1285747276.8510311     
   1760309682.9238098        4342162.6707972288        1284546110.8962076     
   1703420332.3125215        10625316.379144073        1287177293.3239455     
   1609968281.3460002       -9101940.6254590154        1364740145.8033543     
   1562227435.4181185       -4854755.1061141491        1357176790.6794152     
   1514596350.9100292       -241698.18745517731        1353288237.2806880     
   1467075027.8217287        4737230.1304931045        1353074485.6071720     
   1419663466.1532204        10082029.847755849        1356535535.6588657     
   1291841356.2264514       -4923367.3655585051        1428400205.2761364     
   1253143641.5197372       -1697990.5456269383        1422133339.4651132     
   1214550529.7044485        1876062.5790541172        1419383728.7219443     
   1176062020.7805784        5798792.0084651709        1420151373.0466380     
   1137678114.7481332        10070197.742624998        1424436272.4391921     
   2276248608.8937674        13306252.720723748        1144088291.9903142     
   2170858327.7966599        13089940.588955164        1136574858.7847493     
   2065664193.4030895        13527450.802319169        1133789392.1512043     
   1960666205.7130494        14618783.360782743        1135731892.0896802     
   1855864364.7265432        16363938.264359355        1142402358.6001792     
   1988948713.2260358        11700057.336799026        1216361545.4344294     
   1895898658.9749990        11400241.025929213        1209726406.0680690     
   1803047350.6861899        11762911.255818844        1207875052.5141563     
   1710394788.3596027        12788068.026448965        1210807484.7726793     
   1617940971.9952488        14475711.337850869        1218523702.8436410     
   1703420332.3125215        10625316.379144073        1287177293.3239455     
   1622869988.4516027        10289840.952375174        1281423480.2652729     
   1542520989.8116024        10625516.262004972        1280509272.2594585     
   1462373336.3925219        11632342.308031559        1284434669.3065000     
   1382427028.1943595        13310319.090453982        1293199671.4064004     
   1419663466.1532204        10082029.847755849        1356535535.6588657     
   1351772316.2264659        9758740.3682960868        1351666081.3763547     
   1284085110.7793298        10115265.820895851        1351692051.3871167     
   1216601849.8118005        11151606.205518603        1356613445.6911528     
   1149322533.3238823        12867761.522179008        1366430264.2884650     
   1137678114.7481332        10070197.742624998        1424436272.4391921     
   1082605642.2995973        9806939.2737074494        1420454209.4013147     
   1027739713.5893656        10232159.932466626        1421423389.8971264     
   973080328.61743999        11345859.718915820        1427343813.9266331     
   918627487.38381577        13148038.633033872        1438215481.4898307     
   1855864364.7265432        16363938.264359355        1142402358.6001792     
   1758057609.3011680        20773515.285735130        1133973444.6044717     
   1660427825.7103593        25772998.422320485        1129653427.3001983     
   1562975013.9541197        31362387.674141586        1129442306.6873705     
   1465699174.0324328        37541683.041145205        1133340082.7659819     
   1617940971.9952488        14475711.337850869        1218523702.8436410     
   1530926465.6692536        18345616.289692640        1211241351.3034973     
   1444076159.7297831        22762855.863282621        1208276372.8567171     
   1357390054.1768417        27727430.058634281        1209628767.5032966     
   1270868149.0104225        33239338.875725985        1215298535.2432268     
   1382427028.1943595        13310319.090453982        1293199671.4064004     
   1306800417.8303673        16819246.031558633        1287048982.2991190     
   1231325236.4048567        20832936.100939691        1285424142.6871116     
   1156001483.9178355        25351389.298618495        1288325152.5703833     
   1080829160.3692992        30374605.624576211        1295752011.9489214     
   1149322533.3238823        12867761.522179008        1366430264.2884650     
   1085679465.7845120        16194404.511337340        1361396337.5913293     
   1022175055.7355844        19983239.135302901        1361096736.7913818     
   958809303.17709863        24234265.394081771        1365531461.8886287     
   895582208.10906243        28947483.287680954        1374700512.8830659     
   918627487.38381577        13148038.633033872        1438215481.4898307     
   867563609.53168273        16471091.729013771        1434283417.1801279     
   816625617.72195303        20213764.966335118        1435294155.1695321     
   765813511.95463264        24376058.345022231        1441247695.4580441     
   715127292.22971952        28957971.865066975        1452144038.0456645     
   1465699174.0324328        37541683.041145205        1133340082.7659819     
   1359068416.8557549        41411494.019456804        1125726614.9319413     
   1252588374.0782135        45783686.328235626        1122323788.5647304     
   1146259045.6998191        50658259.967499375        1123131603.6643362     
   1040080431.7205596        56035214.937223852        1128150060.2307754     
   1270868149.0104225        33239338.875725985        1215298535.2432268     
   1175311140.9257245        36336482.339316547        1209605816.0298414     
   1079784942.6887579        39536325.295339823        1208399031.7699351     
   984289554.29954326        42838867.743869960        1211678182.4635196     
   888824975.75806344        46244109.684854597        1219443268.1105759     
   1080829160.3692992        30374605.624576211        1295752011.9489214     
   997132454.19559777        32935047.419135749        1291840152.7128918     
   913346653.31823528        35198506.868151397        1292689521.9169955     
   829471757.73721337        37164983.971637785        1298300119.5612381     
   745507767.45253062        38834478.729590952        1308671945.6456194     
   895582208.10906243        28947483.287680954        1374700512.8830659     
   824532356.66538322        31207189.258934349        1372429624.9810867     
   753273505.96663308        32770231.046625346        1375195259.0058963     
   681805656.01282346        33636608.650784254        1382997414.9575057     
   610128806.80395472        33806322.071406037        1395836092.8359022     
   715127292.22971952        28957971.865066975        1452144038.0456645     
   657510848.33507025        31152907.858700156        1451374232.8344347     
   599565500.63395405        32251497.830771208        1455916243.0366504     
   541291249.12637830        32253741.781312793        1465770068.6523199     
   482688093.81234097        31159639.710316479        1480935709.6814387     
   1040080431.7205596        56035214.937223852        1128150060.2307754     
   923332142.37252080        54941487.956196219        1125515225.6039338     
   804257459.93955815        46093117.358761042        1128736233.3233840     
   682856384.42165887        29490103.144867808        1137813083.3891292     
   559128915.81884837        5132445.3146041334        1152745775.8011699     
   888824975.75806344        46244109.684854597        1219443268.1105759     
   787026694.03007019        44321787.450484753        1216883301.6104851     
   682937743.18879867        34763901.505189568        1220158712.9149094     
   576558123.23424506        17570451.848954707        1229269502.0238514     
   467887834.16641939       -7258561.5181902647        1244215668.9372985     
   745507767.45253062        38834478.729590952        1308671945.6456194     
   658601023.22519994        36066020.206053942        1306228525.2392151     
   569439333.85624170        25781077.877092183        1309600018.0955362     
   478022699.34565383        7979651.7426950037        1318786424.2145896     
   384351119.69343299       -17338258.197138548        1333787743.5963666     
   610128806.80395472        33806322.071406037        1395836092.8359022     
   538055129.95791090        30174186.222897559        1393550896.4901025     
   463762231.94188011        19144646.474443406        1397060148.8652492     
   387250112.75587583        717702.82606932521        1406363849.9613419     
   308518772.39988762       -25106644.722251222        1421461999.7783806     
   482688093.81234097        31159639.710316479        1480935709.6814387     
   425389014.22819561        26646285.501009971        1478850415.3631635     
   365906437.44572037        14854607.297265217        1482539105.2240531     
   304240363.46491003       -4215394.9009285420        1492001779.2641075     
   240390792.28577104       -30563721.093548551        1507238437.4833176     
   559128915.81884837        5132445.3146041334        1152745775.8011699     
   462400243.07395732       -32846364.331768841        1162059155.1736166     
   353676563.03588921       -110808531.62207638        1178936069.1554873     
   232957875.70462802       -228754056.55635536        1203376517.7467816     
   100244181.08019078       -386682939.13455445        1235380500.9475009     
   467887834.16641939       -7258561.5181902647        1244215668.9372985     
   390337996.54447258       -41616798.567460969        1242703987.5932825     
   302640129.71765041       -109801799.63298294        1247546204.9812396     
   204794233.68594182       -211813564.71479574        1258742321.1011643     
   96800308.449352458       -347652093.81287229        1276292335.9530597     
   384351119.69343299       -17338258.197138548        1333787743.5963666     
   322524014.68742096       -49112753.401389867        1323605809.3055754     
   252395858.56482857       -108557418.99424359        1318568137.8692951     
   173966651.32565674       -195672254.97569558        1318674729.2875354     
   87236392.969901606       -310457261.34575713        1323925583.5602839     
   308518772.39988762       -25106644.722251222        1421461999.7783806     
   258958297.50278750       -55334228.833613262        1404764620.3104901     
   202943749.57741663       -107075389.70588169        1392001867.8196659     
   140475128.62376532       -180330127.33908740        1383173742.3059025     
   71552434.641830027       -275098441.73323655        1378280243.7691927     
   240390792.28577104       -30563721.093548551        1507238437.4833176     
   199640844.99057862       -60281224.864102647        1486180420.6080246     
   154283802.75540918       -105355711.76791343        1467847394.8323376     
   104319665.58026941       -165787181.80495602        1452239360.1562560     
   49748433.465138629       -241575634.97530195        1439356316.5797789     
   100244181.08019078       -386682939.13455445        1235380500.9475009     
   85361684.298769921       -546547921.79366589        1196784959.9874821     
   57890375.403637439       -748375611.49848282        1154829111.4317830     
   17830254.394767523       -992166008.24909949        1109512955.2804132     
  -34818678.727834046       -1277919112.0454719        1060836491.5333593     
   96800308.449352458       -347652093.81287229        1276292335.9530597     
   79839091.127624840       -488836200.26991510        1221976538.6637075     
   51494876.812923551       -667963630.03687036        1165111061.7385530     
   11767665.505231500       -885034383.11379910        1105695905.1776059     
  -39342542.795437574       -1140048459.5006425        1043731068.9808269     
   87236392.969901606       -310457261.34575713        1323925583.5602839     
   70512534.993210405       -432265667.63513517        1255296314.2491426     
   43611495.144286454       -587998013.49862242        1184927993.2620749     
   6533273.4231188297       -777654298.93625176        1112820620.5990651     
  -40722130.170282125       -1001234523.9479991        1038974196.2601160     
   71552434.641830027       -275098441.73323655        1378280243.7691927     
   57382015.895519853       -376836323.88934308        1296744286.7437997     
   34240230.397720784       -508478761.88374585        1214279906.0023425     
   2127078.1484172642       -670025755.71650434        1130887101.5448070     
  -38957440.852366120       -861477305.38751411        1046565873.3712281     
   49748433.465138629       -241575634.97530195        1439356316.5797789     
   40447533.834558845       -322548169.03252554        1346320456.1476631     
   23381082.573222369       -429405875.19226581        1253166799.9593496     
  -1450920.3188640773       -562148753.45450175        1159895348.0148418     
  -34048474.841691077       -720776803.81921458        1066506100.3141437     
   1547203334.5242054        24375270.905834317        1390866938.3213215     
   1482658526.9723127        14702901.413139224        1392642821.3375785     
   1418583261.4053903        6595671.8703428507        1399490326.8354666     
   1354977537.8234358        53582.277443289757        1411409454.8149848     
   1291841356.2264514       -4923367.3655585051        1428400205.2761364     
   1172330467.2993503        21859843.104093969        1428985966.5468376     
   1122088436.5876234        14055538.468160450        1428671881.1007392     
   1072198562.3648577        7425088.7954316139        1433857217.3138883     
   1022660844.6310529        1968494.0859046578        1444541975.1862774     
   973475283.38620305       -2314245.6604335904        1460726154.7179060     
   789505622.47178447        16958822.021538794        1466241635.7237604     
   754788651.96482587        11389267.251754194        1463700632.0699697     
   720306452.45081592        6602282.4584685266        1467086849.2530303     
   686059023.92975724        2597867.6416853666        1476400287.2729445     
   652046366.40164852       -623977.19859716296        1491640946.1297114     
   398728800.04150802        9672207.6581720561        1502633945.8520942     
   380759173.10391521        6704087.7639098465        1497729074.2452641     
   362906931.66326344        4127252.8594485223        1499179222.6528914     
   345172075.71955365        1941702.9447938353        1506984391.0749855     
   327554605.27278537        147438.01994661987        1521144579.5115399     
   8.5193756811057543E-003   1.3989999634946213E-002   1538162896.9318376     
   4.8959920366993060E-003   4.6362639002653638E-003   1530757207.6266177     
   2.2051042310803556E-003  -1.6133157081328390E-003   1530134337.5134754     
   4.4415021111515198E-004  -4.7603404734569881E-003   1536294286.5924046     
  -3.8490273239717471E-004  -4.8017222066619380E-003   1549237054.8634052     
   1291841356.2264514       -4923367.3655585051        1428400205.2761364     
   1253143641.5197372       -1697990.5456269383        1422133339.4651132     
   1214550529.7044485        1876062.5790541172        1419383728.7219443     
   1176062020.7805784        5798792.0084651709        1420151373.0466380     
   1137678114.7481332        10070197.742624998        1424436272.4391921     
   973475283.38620305       -2314245.6604335904        1460726154.7179060     
   943816171.45373213       -85960.815838754177        1453568255.2633071     
   914235511.68980873        2403831.2572478652        1450075970.2538013     
   884733304.09442639        5155130.5588068962        1450249299.6893957     
   855309548.66759825        8167937.0888758302        1454088243.5700855     
   652046366.40164852       -623977.19859716296        1491640946.1297114     
   631849741.17838168        734380.85114505887        1483561503.8548455     
   611705417.40078580        2267077.0531229079        1479296035.4023151     
   591613395.06885946        3974111.4073306918        1478844540.7721190     
   571573674.18260479        5855483.9137807488        1482207019.9642549     
   327554605.27278537        147438.01994661987        1521144579.5115399     
   317244350.69368660        763034.45532587171        1512113085.2397275     
   306960246.83738244        1465799.9666890949        1507043924.1674814     
   296702293.70387024        2255734.5540245324        1505937096.2948062     
   286470491.29315668        3132838.2173567116        1508792601.6217048     
  -3.8490273239717471E-004  -4.8017222066619380E-003   1549237054.8634052     
  -3.5429534763862147E-004  -3.2987349116012240E-003   1539222999.4179499     
  -4.0478151965814860E-004  -2.0657125277722503E-003   1533319636.5493007     
  -5.3859160721058384E-004  -1.1106100014005667E-003   1531526966.2574620     
  -7.5022405870068610E-004  -4.1491535482110758E-004   1533844988.5424287     
   1137678114.7481332        10070197.742624998        1424436272.4391921     
   1082605642.2995973        9806939.2737074494        1420454209.4013147     
   1027739713.5893656        10232159.932466626        1421423389.8971264     
   973080328.61743999        11345859.718915820        1427343813.9266331     
   918627487.38381577        13148038.633033872        1438215481.4898307     
   855309548.66759825        8167937.0888758302        1454088243.5700855     
   813283924.65594018        7754112.3347373307        1449922617.4522738     
   771413208.44799197        7856646.9262970388        1450876531.1257291     
   729697400.04375196        8475540.8635517061        1456949984.5904481     
   688136499.44322252        9610794.1465051770        1468142977.8464296     
   571573674.18260479        5855483.9137807488        1482207019.9642549     
   543075745.05803263        5435346.8094871342        1477797588.8428178     
   514681087.80257487        5359449.2689106762        1478675993.7702169     
   486389702.41623092        5627791.2920442522        1484842234.7464561     
   458201588.89900309        6240372.8788986504        1496296311.7715290     
   286470491.29315668        3132838.2173567116        1508792601.6217048     
   271981103.50587654        2850642.6979681700        1504079123.5729461     
   257543351.65311587        2740566.9603102952        1504821777.8305986     
   243157235.73487443        2802611.0043862164        1511020564.3946624     
   228822755.75115722        3036774.8302058131        1522675483.2651336     
  -7.5022405870068610E-004  -4.1491535482110758E-004   1533844988.5424287     
  -5.3016199489105682E-004   1.6735697077247897E-004   1528767221.6426556     
  -3.8453672480663902E-004   5.0081276122497010E-004   1529313883.3068676     
  -3.1769458858504478E-004   5.7165810546804929E-004   1535484973.5350604     
  -3.1970763033299144E-004   4.1368007920304943E-004   1547280492.3272371     
   918627487.38381577        13148038.633033872        1438215481.4898307     
   867563609.53168273        16471091.729013771        1434283417.1801279     
   816625617.72195303        20213764.966335118        1435294155.1695321     
   765813511.95463264        24376058.345022231        1441247695.4580441     
   715127292.22971952        28957971.865066975        1452144038.0456645     
   688136499.44322252        9610794.1465051770        1468142977.8464296     
   649703498.36107624        12062556.160520405        1464549810.1079376     
   611364911.81073701        14829033.280559629        1465930966.2969346     
   573120739.79221165        17910225.506644487        1472286446.4134178     
   534970982.30549836        21306132.838767856        1483616250.4573908     
   458201588.89900309        6240372.8788986504        1496296311.7715290     
   432489526.38221037        7847862.3495508134        1493005323.8418911     
   406840406.88663322        9665161.8909178674        1494720181.4681182     
   381254230.41227138        11692271.503004283        1501440884.6502166     
   355730996.95912725        13929191.185813725        1513167433.3881829     
   228822755.75115722        3036774.8302058131        1522675483.2651336     
   215921693.59508935        3827010.2961072102        1519649958.3819828     
   203052102.94964033        4722150.7974060103        1521661800.6830823     
   190213983.81481421        5722196.3341123611        1528711010.1684287     
   177407336.19060606        6827146.9062162638        1540797586.8380232     
  -3.1970763033299144E-004   4.1368007920304943E-004   1547280492.3272371     
  -2.9257731768452780E-004   1.7868033060467920E-004   1544483713.7282183     
  -2.3804218669469873E-004   3.4336087087136525E-005   1546755823.9418271     
  -1.5973943779445333E-004  -3.1476652786075867E-005   1554096822.9680598     
  -5.5907659454338235E-005  -1.0110959688550533E-005   1566506710.8069243     
   715127292.22971952        28957971.865066975        1452144038.0456645     
   657510848.33507025        31152907.858700156        1451374232.8344347     
   599565500.63395405        32251497.830771208        1455916243.0366504     
   541291249.12637830        32253741.781312793        1465770068.6523199     
   482688093.81234097        31159639.710316479        1480935709.6814387     
   534970982.30549836        21306132.838767856        1483616250.4573908     
   491133914.96290493        22764914.507501632        1482904288.5618289     
   447050169.76546496        23401436.660078660        1487649913.4447632     
   402719746.71318692        23215699.296532333        1497853125.1061831     
   358142645.80605429        22207702.416798562        1513513923.5461009     
   355730996.95912725        13929191.185813725        1513167433.3881829     
   326089795.78299910        14776765.413989261        1512609245.0851736     
   296284142.70364416        15076166.631405726        1517654414.9257014     
   266314037.72105688        14827394.838050038        1528302942.9097626     
   236179480.83523721        14030450.033918209        1544554829.0373585     
   177407336.19060606        6827146.9062162638        1540797586.8380232     
   162378490.79535204        7188460.5781603605        1540489102.4044566     
   147267419.44848579        7275687.7447352931        1545929747.4794674     
   132074122.14999321        7088828.4058877677        1557119522.0630546     
   116798598.89988938        6627882.5616669916        1574058426.1552155     
  -5.5907659454338235E-005  -1.0110959688550533E-005   1566506710.8069243     
  -4.0901348242371836E-005   1.0522718227903263E-006   1566543860.5196817     
  -1.8529134270873149E-005   3.6074623142181431E-005   1572475911.1060624     
   1.8986643759042849E-006   6.4268645350639642E-005   1584302862.5660527     
   1.9947413684199239E-005   8.5920281878271054E-005   1602024714.8996661     
   482688093.81234097        31159639.710316479        1480935709.6814387     
   425389014.22819561        26646285.501009971        1478850415.3631635     
   365906437.44572037        14854607.297265217        1482539105.2240531     
   304240363.46491003       -4215394.9009285420        1492001779.2641075     
   240390792.28577104       -30563721.093548551        1507238437.4833176     
   358142645.80605429        22207702.416798562        1513513923.5461009     
   316014015.13070858        19076390.463656843        1510004779.0154579     
   272247761.55660921        10486335.514665395        1512072293.5609965     
   226843885.08377048       -3562462.4301231951        1519716467.1827152     
   179802385.71217030       -23070003.370780483        1532937299.8806264     
   236179480.83523721        14030450.033918209        1544554829.0373585     
   208657513.06017894        12112044.534375951        1540258687.6438553     
   180043796.68595219        6554477.0376068279        1541341880.2235620     
   150338331.71255976       -2642252.4563795701        1547804406.7764699     
   119541118.14000502       -15478143.947578467        1559646267.3025837     
   116798598.89988938        6627882.5616669916        1574058426.1552155     
   103319508.01660566        5753247.7131694779        1569612141.2483678     
   89294542.833743662        3059031.8660736568        1570347865.2117450     
   74723703.351299107       -1454764.9796307273        1576265598.0453546     
   59606989.569267966       -7788142.8239529766        1587365339.7491896     
   1.9947413684199239E-005   8.5920281878271054E-005   1602024714.8996661     
   6.7711404249116687E-006   9.1959407122111189E-005   1598065139.8289876     
  -8.3724236335056492E-006   9.0747006978461459E-005   1599090248.5255594     
  -2.1319942148708357E-005   9.6854758645527046E-005   1605100040.9893796     
  -3.4496215407995934E-005   1.0289388388936718E-004   1616094517.2204480     
   240390792.28577104       -30563721.093548551        1507238437.4833176     
   199640844.99057862       -60281224.864102647        1486180420.6080246     
   154283802.75540918       -105355711.76791343        1467847394.8323376     
   104319665.58026941       -165787181.80495602        1452239360.1562560     
   49748433.465138629       -241575634.97530195        1439356316.5797789     
   179802385.71217030       -23070003.370780483        1532937299.8806264     
   148519845.14570147       -45574155.227203436        1507374714.9157012     
   113781983.37424043       -79596044.433600456        1484705139.7392299     
   75588800.397791803       -125135670.98995684        1464928574.3512244     
   33940296.216363654       -182193034.89624351        1448045018.7516716     
   119541118.14000502       -15478143.947578467        1559646267.3025837     
   98206037.698977530       -30624927.870884903        1530922850.2721803     
   74567409.787953019       -53450203.360848889        1505260461.7190912     
   48625234.406941809       -83953970.417435884        1482659101.6433158     
   20379511.555933125       -122136229.04068178        1463118770.0448527     
   59606989.569267966       -7788142.8239529766        1587365339.7491896     
   48699422.650418788       -15433542.795103490        1556824826.6774685     
   36640081.996561974       -26918188.549608834        1529513360.7719119     
   23428967.607707925       -42242080.087440163        1505430942.0325298     
   9066079.4838463105       -61405217.408630252        1484577570.4593148     
  -3.4496215407995934E-005   1.0289388388936718E-004   1616094517.2204480     
   2.0313421274735010E-005   1.2599811304193741E-004   1585080644.1315620     
   5.4077621501659413E-005   7.6175329780256266E-005   1557463836.8977041     
   8.7178432970737738E-005   2.4488195354283585E-005   1533244095.5188692     
   1.1190682080631042E-004  -5.3025349678869087E-005   1512421419.9950521     
   49748433.465138629       -241575634.97530195        1439356316.5797789     
   40447533.834558845       -322548169.03252554        1346320456.1476631     
   23381082.573222369       -429405875.19226581        1253166799.9593496     
  -1450920.3188640773       -562148753.45450175        1159895348.0148418     
  -34048474.841691077       -720776803.81921458        1066506100.3141437     
   33940296.216363654       -182193034.89624351        1448045018.7516716     
   29800978.235622570       -242071528.41652474        1347537489.4825096     
   19837496.531827152       -321363901.01365370        1246250347.8839567     
   4049851.1049671471       -420070152.68766195        1144183593.9560316     
  -17561958.044940829       -538190283.43849945        1041337227.6987243     
   20379511.555933125       -122136229.04068178        1463118770.0448527     
   19510870.730225153       -161487953.37245896        1357404524.4976046     
   14759454.089143232       -213782263.75547987        1250248850.0477912     
   6125261.6327144206       -279019160.18966019        1141651746.6954095     
  -6391706.6390862912       -357198642.67507952        1031613214.4404855     
   9066079.4838463105       -61405217.408630252        1484577570.4593148     
   9577211.3183575235       -80797443.900362581        1375921561.1929538     
   8146955.2452081144       -106660963.41762891        1265162306.4508498     
   4775311.2643860206       -138995775.96047476        1152299806.2330120     
  -537720.62411212176       -177801881.52890381        1037334060.5394267     
   1.1190682080631042E-004  -5.3025349678869087E-005   1512421419.9950521     
   3.8613800801523296E-005  -1.6827198974881839E-004   1403088599.5685651     
  -1.1071729613706918E-005  -2.0482699785357797E-004   1290990717.0931559     
  -2.2875474408485363E-005  -1.1719105539467054E-004   1176127772.5688081     
  -2.9280607242861271E-005  -8.7841821728583813E-006   1058499765.9955447     
   8.5193756811057543E-003   1.3989999634946213E-002   1538162896.9318376     
   4.8959920366993060E-003   4.6362639002653638E-003   1530757207.6266177     
   2.2051042310803556E-003  -1.6133157081328390E-003   1530134337.5134754     
   4.4415021111515198E-004  -4.7603404734569881E-003   1536294286.5924046     
  -3.8490273239717471E-004  -4.8017222066619380E-003   1549237054.8634052     
  -398728800.02887189       -9672207.6439578682        1502633945.8464103     
  -380759173.09613883       -6704087.7605818957        1497729074.2411172     
  -362906931.65923339       -4127252.8633017093        1499179222.6503198     
  -345172075.71816194       -1941702.9521331340        1506984391.0740151     
  -327554605.27292007       -147438.02706138790        1521144579.5122027     
  -789505622.46415353       -16958822.021276206        1466241635.7155700     
  -754788651.95957291       -11389267.254518151        1463700632.0639780     
  -720306452.44758546       -6602282.4630674720        1467086849.2493031     
  -686059023.92819238       -2597867.6469298899        1476400287.2715409     
  -652046366.40139139        623977.19389647245        1491640946.1306953     
  -1172330467.2973213       -21859843.117958724        1428985966.5393081     
  -1122088436.5854087       -14055538.477174103        1428671881.0951960     
  -1072198562.3628484       -7425088.8009015322        1433857217.3104236     
  -1022660844.6296487       -1968494.0891611576        1444541975.1849835     
  -973475283.38579988        2314245.6580756307        1460726154.7188783     
  -1547203334.5283780       -24375270.934007883        1390866938.3176334     
  -1482658526.9736457       -14702901.428555369        1392642821.3347795     
  -1418583261.4050245       -6595671.8768104315        1399490326.8336828     
  -1354977537.8225245       -53582.278804242611        1411409454.8143413     
  -1291841356.2261441        4923367.3654741645        1428400205.2767551     
  -3.8490273239717471E-004  -4.8017222066619380E-003   1549237054.8634052     
  -3.5429534763862147E-004  -3.2987349116012240E-003   1539222999.4179499     
  -4.0478151965814860E-004  -2.0657125277722503E-003   1533319636.5493007     
  -5.3859160721058384E-004  -1.1106100014005667E-003   1531526966.2574620     
  -7.5022405870068610E-004  -4.1491535482110758E-004   1533844988.5424287     
  -327554605.27292007       -147438.02706138790        1521144579.5122027     
  -317244350.69396651       -763034.46030634642        1512113085.2401600     
  -306960246.83792186       -1465799.9699157923        1507043924.1677287     
  -296702293.70479447       -2255734.5559160858        1505937096.2949119     
  -286470491.29457378       -3132838.2182706296        1508792601.6217082     
  -652046366.40139139        623977.19389647245        1491640946.1306953     
  -631849741.17835629       -734380.85454806685        1483561503.8554289     
  -611705417.40106404       -2267077.0554670990        1479296035.4025795     
  -591613395.06951118       -3974111.4088532925        1478844540.7721479     
  -571573674.18370140       -5855483.9147158861        1482207019.9641392     
  -973475283.38579988        2314245.6580756307        1460726154.7188783     
  -943816171.45352650        85960.813976466656        1453568255.2637522     
  -914235511.68982100       -2403831.2586876750        1450075970.2538517     
  -884733304.09469163       -5155130.5599361658        1450249299.6891761     
  -855309548.66813505       -8167937.0897604227        1454088243.5697207     
  -1291841356.2261441        4923367.3654741645        1428400205.2767551     
  -1253143641.5194721        1697990.5452718139        1422133339.4651361     
  -1214550529.7042046       -1876062.5796137452        1419383728.7215464     
  -1176062020.7803335       -5798792.0091527104        1420151373.0459852     
  -1137678114.7478693       -10070197.743381858        1424436272.4384530     
  -7.5022405870068610E-004  -4.1491535482110758E-004   1533844988.5424287     
  -5.3016199489105682E-004   1.6735697077247897E-004   1528767221.6426556     
  -3.8453672480663902E-004   5.0081276122497010E-004   1529313883.3068676     
  -3.1769458858504478E-004   5.7165810546804929E-004   1535484973.5350604     
  -3.1970763033299144E-004   4.1368007920304943E-004   1547280492.3272371     
  -286470491.29457378       -3132838.2182706296        1508792601.6217082     
  -271981103.50695622       -2850642.6980164200        1504079123.5728781     
  -257543351.65396041       -2740566.9598348588        1504821777.8304522     
  -243157235.73559040       -2802611.0037389398        1511020564.3944235     
  -228822755.75184932       -3036774.8297389895        1522675483.2647901     
  -571573674.18370140       -5855483.9147158861        1482207019.9641392     
  -543075745.05891919       -5435346.8098480403        1477797588.8426120     
  -514681087.80331200       -5359449.2688965797        1478675993.7699008     
  -486389702.41688097       -5627791.2918649018        1484842234.7460055     
  -458201588.89962572       -6240372.8787540197        1496296311.7709279     
  -855309548.66813505       -8167937.0897604227        1454088243.5697207     
  -813283924.65642512       -7754112.3353491127        1449922617.4518516     
  -771413208.44844270       -7856646.9266970456        1450876531.1252186     
  -729697400.04418397       -8475540.8637928963        1456949984.5898190     
  -688136499.44365811       -9610794.1466616690        1468142977.8456523     
  -1137678114.7478693       -10070197.743381858        1424436272.4384530     
  -1082605642.2994714       -9806939.2745090127        1420454209.4006038     
  -1027739713.5893502       -10232159.933228850        1421423389.8964033     
  -973080328.61750031       -11345859.719518602        1427343813.9258540     
  -918627487.38393450       -13148038.633422554        1438215481.4889572     
  -3.1970763033299144E-004   4.1368007920304943E-004   1547280492.3272371     
  -2.9257731768452780E-004   1.7868033060467920E-004   1544483713.7282183     
  -2.3804218669469873E-004   3.4336087087136525E-005   1546755823.9418271     
  -1.5973943779445333E-004  -3.1476652786075867E-005   1554096822.9680598     
  -5.5907659454338235E-005  -1.0110959688550533E-005   1566506710.8069243     
  -228822755.75184932       -3036774.8297389895        1522675483.2647901     
  -215921693.59567660       -3827010.2959095091        1519649958.3817291     
  -203052102.95009410       -4722150.7973806038        1521661800.6829076     
  -190213983.81510532       -5722196.3341634795        1528711010.1683233     
  -177407336.19070071       -6827146.9062296823        1540797586.8379784     
  -458201588.89962572       -6240372.8787540197        1496296311.7709279     
  -432489526.38270253       -7847862.3494869918        1493005323.8414402     
  -406840406.88698244       -9665161.8908981383        1494720181.4678004     
  -381254230.41247243       -11692271.503008515        1501440884.6500168     
  -355730996.95916265       -13929191.185784385        1513167433.3880849     
  -688136499.44365811       -9610794.1466616690        1468142977.8456523     
  -649703498.36137176       -12062556.160562396        1464549810.1073472     
  -611364911.81090498       -14829033.280526161        1465930966.2965088     
  -573120739.79226553       -17910225.506581396        1472286446.4131358     
  -534970982.30544245       -21306132.838692784        1483616250.4572279     
  -918627487.38393450       -13148038.633422554        1438215481.4889572     
  -867563609.53168023       -16471091.729116261        1434283417.1794567     
  -816625617.72186112       -20213764.966259271        1435294155.1690326     
  -765813511.95448899       -24376058.344893783        1441247695.4576905     
  -715127292.22953844       -28957971.864932716        1452144038.0454237     
  -5.5907659454338235E-005  -1.0110959688550533E-005   1566506710.8069243     
  -4.0901348242371836E-005   1.0522718227903263E-006   1566543860.5196817     
  -1.8529134270873149E-005   3.6074623142181431E-005   1572475911.1060624     
   1.8986643759042849E-006   6.4268645350639642E-005   1584302862.5660527     
   1.9947413684199239E-005   8.5920281878271054E-005   1602024714.8996661     
  -177407336.19070071       -6827146.9062296823        1540797586.8379784     
  -162378490.79541647       -7188460.5781438947        1540489102.4044242     
  -147267419.44851726       -7275687.7446776927        1545929747.4794431     
  -132074122.14999704       -7088828.4058080390        1557119522.0630326     
  -116798598.89986552       -6627882.5615649074        1574058426.1551979     
  -355730996.95916265       -13929191.185784385        1513167433.3880849     
  -326089795.78302485       -14776765.413971990        1512609245.0850980     
  -296284142.70365524       -15076166.631384075        1517654414.9256444     
  -266314037.72104695       -14827394.837999180        1528302942.9097197     
  -236179480.83520511       -14030450.033838637        1544554829.0373266     
  -534970982.30544245       -21306132.838692784        1483616250.4572279     
  -491133914.96286201       -22764914.507465422        1482904288.5617061     
  -447050169.76543355       -23401436.660082147        1487649913.4446716     
  -402719746.71314692       -23215699.296503589        1497853125.1061187     
  -358142645.80600864       -22207702.416751578        1513513923.5460565     
  -715127292.22953844       -28957971.864932716        1452144038.0454237     
  -657510848.33492565       -31152907.858623475        1451374232.8342528     
  -599565500.63384807       -32251497.830762744        1455916243.0365171     
  -541291249.12629449       -32253741.781316817        1465770068.6522245     
  -482688093.81227267       -31159639.710309312        1480935709.6813798     
   1.9947413684199239E-005   8.5920281878271054E-005   1602024714.8996661     
   6.7711404249116687E-006   9.1959407122111189E-005   1598065139.8289876     
  -8.3724236335056492E-006   9.0747006978461459E-005   1599090248.5255594     
  -2.1319942148708357E-005   9.6854758645527046E-005   1605100040.9893796     
  -3.4496215407995934E-005   1.0289388388936718E-004   1616094517.2204480     
  -116798598.89986552       -6627882.5615649074        1574058426.1551979     
  -103319508.01660335       -5753247.7130480520        1569612141.2483571     
  -89294542.833765283       -3059031.8659427501        1570347865.2117393     
  -74723703.351339892        1454764.9797852300        1576265598.0453563     
  -59606989.569341101        7788142.8240925744        1587365339.7491941     
  -236179480.83520511       -14030450.033838637        1544554829.0373266     
  -208657513.06015733       -12112044.534269542        1540258687.6438272     
  -180043796.68595070       -6554477.0375048071        1541341880.2235422     
  -150338331.71258372        2642252.4564627185        1547804406.7764671     
  -119541118.14005047        15478143.947651438        1559646267.3025970     
  -358142645.80600864       -22207702.416751578        1513513923.5460565     
  -316014015.13066125       -19076390.463586852        1510004779.0154176     
  -272247761.55656523       -10486335.514592230        1512072293.5609632     
  -226843885.08373415        3562462.4301848859        1519716467.1827025     
  -179802385.71215367        23070003.370793797        1532937299.8806307     
  -482688093.81227267       -31159639.710309312        1480935709.6813798     
  -425389014.22810400       -26646285.500972494        1478850415.3631070     
  -365906437.44560814       -14854607.297208220        1482539105.2240045     
  -304240363.46479648        4215394.9009418041        1492001779.2640753     
  -240390792.28565443        30563721.093523562        1507238437.4833176     
  -3.4496215407995934E-005   1.0289388388936718E-004   1616094517.2204480     
   2.0313421274735010E-005   1.2599811304193741E-004   1585080644.1315620     
   5.4077621501659413E-005   7.6175329780256266E-005   1557463836.8977041     
   8.7178432970737738E-005   2.4488195354283585E-005   1533244095.5188692     
   1.1190682080631042E-004  -5.3025349678869087E-005   1512421419.9950521     
  -59606989.569341101        7788142.8240925744        1587365339.7491941     
  -48699422.650401048        15433542.795245372        1556824826.6774724     
  -36640081.996462017        26918188.549725004        1529513360.7719040     
  -23428967.607534714        42242080.087498687        1505430942.0325046     
  -9066079.4836119749        61405217.408593975        1484577570.4592659     
  -119541118.14005047        15478143.947651438        1559646267.3025970     
  -98206037.698951811        30624927.870959237        1530922850.2721879     
  -74567409.787867978        53450203.360886887        1505260461.7190807     
  -48625234.406782605        83953970.417485088        1482659101.6432800     
  -20379511.555706240        122136229.04071987        1463118770.0447855     
  -179802385.71215367        23070003.370793797        1532937299.8806307     
  -148519845.14565152        45574155.227201767        1507374714.9157133     
  -113781983.37414724        79596044.433616757        1484705139.7392411     
  -75588800.397655278        125135670.98999071        1464928574.3512058     
  -33940296.216173023        182193034.89633235        1448045018.7516196     
  -240390792.28565443        30563721.093523562        1507238437.4833176     
  -199640844.99048612        60281224.864023820        1486180420.6080554     
  -154283802.75532031        105355711.76784682        1467847394.8323748     
  -104319665.58015454        165787181.80500379        1452239360.1562841     
  -49748433.465000212        241575634.97545666        1439356316.5797763     
   1.1190682080631042E-004  -5.3025349678869087E-005   1512421419.9950521     
   3.8613800801523296E-005  -1.6827198974881839E-004   1403088599.5685651     
  -1.1071729613706918E-005  -2.0482699785357797E-004   1290990717.0931559     
  -2.2875474408485363E-005  -1.1719105539467054E-004   1176127772.5688081     
  -2.9280607242861271E-005  -8.7841821728583813E-006   1058499765.9955447     
  -9066079.4836119749        61405217.408593975        1484577570.4592659     
  -9577211.3182466626        80797443.900161028        1375921561.1929426     
  -8146955.2451847345        106660963.41738698        1265162306.4508655     
  -4775311.2644201294        138995775.96028572        1152299806.2330668     
   537720.62401805818        177801881.52876234        1037334060.5395068     
  -20379511.555706240        122136229.04071987        1463118770.0447855     
  -19510870.730084844        161487953.37242776        1357404524.4975700     
  -14759454.089096606        213782263.75535816        1250248850.0478039     
  -6125261.6327480525        279019160.18948960        1141651746.6954801     
   6391706.6389629394        357198642.67482936        1031613214.4406008     
  -33940296.216173023        182193034.89633235        1448045018.7516196     
  -29800978.235474125        242071528.41664088        1347537489.4824681     
  -19837496.531754121        321363901.01369190        1246250347.8839433     
  -4049851.1049948335        420070152.68754113        1144183593.9560533     
   17561958.044791847        538190283.43814158        1041337227.6987685     
  -49748433.465000212        241575634.97545666        1439356316.5797763     
  -40447533.834428713        322548169.03275102        1346320456.1476324     
  -23381082.573143631        429405875.19242769        1253166799.9592946     
   1450920.3188336194        562148753.45440722        1159895348.0147848     
   34048474.841513902        720776803.81873512        1066506100.3140823     
  -1547203334.5283780       -24375270.934007883        1390866938.3176334     
  -1482658526.9736457       -14702901.428555369        1392642821.3347795     
  -1418583261.4050245       -6595671.8768104315        1399490326.8336828     
  -1354977537.8225245       -53582.278804242611        1411409454.8143413     
  -1291841356.2261441        4923367.3654741645        1428400205.2767551     
  -1921173996.2491944       -22694806.537692547        1338076208.0280831     
  -1842627909.9996777       -12263428.000873208        1336457038.5193698     
  -1764578262.0993285       -3486843.9612721205        1340361304.9791844     
  -1687025052.5481453        3634945.5811033249        1349789007.4075320     
  -1609968281.3461320        9101940.6262454987        1364740145.8044095     
  -2303880288.6566763       -23635031.347378492        1283977561.6770799     
  -2210042028.0358758       -12057375.076243162        1278931960.5522802     
  -2116727102.1272943       -2224167.8458268642        1279861608.8827846     
  -2023935510.9309309        5864590.3438597918        1286766506.6685948     
  -1931667254.4467843        12208899.492822647        1299646653.9097083     
  -2695322211.7508116       -27195945.363061428        1228570999.2646253     
  -2584900881.0822330       -14084742.654656529        1220067587.4335124     
  -2475029781.4889259       -2807643.5304843187        1217991238.5444818     
  -2365708912.9708843        6635352.0094649792        1222341952.5975285     
  -2256938275.5281096        14244243.965191841        1233119729.5926590     
  -3095499765.5316105       -33377548.584740043        1171856520.7907140     
  -2967204469.1387582       -18345530.736130118        1159863919.1630695     
  -2839486300.1842208       -5237271.0152372122        1154750193.9642758     
  -2712345258.6680002        5947230.5779273510        1156515345.1943362     
  -2585781344.5900993        15207974.043368459        1165159372.8532526     
  -1291841356.2261441        4923367.3654741645        1428400205.2767551     
  -1253143641.5194721        1697990.5452718139        1422133339.4651361     
  -1214550529.7042046       -1876062.5796137452        1419383728.7215464     
  -1176062020.7803335       -5798792.0091527104        1420151373.0459852     
  -1137678114.7478693       -10070197.743381858        1424436272.4384530     
  -1609968281.3461320        9101940.6262454987        1364740145.8044095     
  -1562227435.4180162        4854755.1063734293        1357176790.6800294     
  -1514596350.9096458        241698.18735218048        1353288237.2809608     
  -1467075027.8210189       -4737230.1308122277        1353074485.6072042     
  -1419663466.1521330       -10082029.848116457        1356535535.6587594     
  -1931667254.4467843        12208899.492822647        1299646653.9097083     
  -1874433143.9907026        7074945.2652355433        1290780791.1895025     
  -1817313953.4827075        1557924.5440357924        1285747276.8518937     
  -1760309682.9227991       -4342162.6707867384        1284546110.8968773     
  -1703420332.3109715       -10625316.379220366        1287177293.3244584     
  -2256938275.5281096        14244243.965191841        1233119729.5926590     
  -2189760767.2375407        8358561.0218490362        1222945340.9935598     
  -2122703337.4233963        2072616.4904175997        1216760847.4343407     
  -2055765986.0856752       -4613589.6290818453        1214566248.9150021     
  -1988948713.2243855       -11700057.336696863        1216361545.4355385     
  -2585781344.5900993        15207974.043368459        1165159372.8532526     
  -2508210305.1585174        8705602.3762241602        1153670440.0921993     
  -2430764502.7317004        1785774.0265365839        1146328949.0283091     
  -2353443937.3096561       -5551511.0057353973        1143134899.6615782     
  -2276248608.8923764       -13306252.720546365        1144088291.9920104     
  -1137678114.7478693       -10070197.743381858        1424436272.4384530     
  -1082605642.2994714       -9806939.2745090127        1420454209.4006038     
  -1027739713.5893502       -10232159.933228850        1421423389.8964033     
  -973080328.61750031       -11345859.719518602        1427343813.9258540     
  -918627487.38393450       -13148038.633422554        1438215481.4889572     
  -1419663466.1521330       -10082029.848116457        1356535535.6587594     
  -1351772316.2256293       -9758740.3687924147        1351666081.3761897     
  -1284085110.7787027       -10115265.821392655        1351692051.3868687     
  -1216601849.8113656       -11151606.205953240        1356613445.6907971     
  -1149322533.3236070       -12867761.522451162        1366430264.2879748     
  -1703420332.3109715       -10625316.379220366        1287177293.3244584     
  -1622869988.4503636       -10289840.952630460        1281423480.2656405     
  -1542520989.8106492       -10625516.262350619        1280509272.2596729     
  -1462373336.3918171       -11632342.308350205        1284434669.3065507     
  -1382427028.1938806       -13310319.090660036        1293199671.4062738     
  -1988948713.2243855       -11700057.336696863        1216361545.4355385     
  -1895898658.9736812       -11400241.026049376        1209726406.0689559     
  -1803047350.6851783       -11762911.256078720        1207875052.5148160     
  -1710394788.3588619       -12788068.026725173        1210807484.7731230     
  -1617940971.9947486       -14475711.338047206        1218523702.8438752     
  -2276248608.8923764       -13306252.720546365        1144088291.9920104     
  -2170858327.7955823       -13089940.589049935        1136574858.7861328     
  -2065664193.4022942       -13527450.802574396        1133789392.1522996     
  -1960666205.7125044       -14618783.361089110        1135731892.0905073     
  -1855864364.7262149       -16363938.264610529        1142402358.6007593     
  -918627487.38393450       -13148038.633422554        1438215481.4889572     
  -867563609.53168023       -16471091.729116261        1434283417.1794567     
  -816625617.72186112       -20213764.966259271        1435294155.1690326     
  -765813511.95448899       -24376058.344893783        1441247695.4576905     
  -715127292.22953844       -28957971.864932716        1452144038.0454237     
  -1149322533.3236070       -12867761.522451162        1366430264.2879748     
  -1085679465.7841964       -16194404.511372507        1361396337.5909474     
  -1022175055.7352552       -19983239.135187507        1361096736.7910931     
  -958809303.17678785       -24234265.393920302        1365531461.8884096     
  -895582208.10878992       -28947483.287550867        1374700512.8828990     
  -1382427028.1938806       -13310319.090660036        1293199671.4062738     
  -1306800417.8298986       -16819246.031571269        1287048982.2990172     
  -1231325236.4044225       -20832936.100833535        1285424142.6870232     
  -1156001483.9174576       -25351389.298467815        1288325152.5702934     
  -1080829160.3689978       -30374605.624445915        1295752011.9488325     
  -1617940971.9947486       -14475711.338047206        1218523702.8438752     
  -1530926465.6687875       -18345616.289732575        1211241351.3036730     
  -1444076159.7293704       -22762855.863220870        1208276372.8568311     
  -1357390054.1764979       -27727430.058528244        1209628767.5033443     
  -1270868149.0101671       -33239338.875637770        1215298535.2432232     
  -1855864364.7262149       -16363938.264610529        1142402358.6007593     
  -1758057609.3008680       -20773515.285848260        1133973444.6049073     
  -1660427825.7100952       -25772998.422335446        1129653427.3005090     
  -1562975013.9539039       -31362387.674093783        1129442306.6875610     
  -1465699174.0322883       -37541683.041101813        1133340082.7660663     
  -715127292.22953844       -28957971.864932716        1452144038.0454237     
  -657510848.33492565       -31152907.858623475        1451374232.8342528     
  -599565500.63384807       -32251497.830762744        1455916243.0365171     
  -541291249.12629449       -32253741.781316817        1465770068.6522245     
  -482688093.81227267       -31159639.710309312        1480935709.6813798     
  -895582208.10878992       -28947483.287550867        1374700512.8828990     
  -824532356.66515815       -31207189.258857697        1372429624.9809647     
  -753273505.96645224       -32770231.046588123        1375195259.0058208     
  -681805656.01268733       -33636608.650782615        1382997414.9574673     
  -610128806.80384314       -33806322.071387559        1395836092.8359089     
  -1080829160.3689978       -30374605.624445915        1295752011.9488325     
  -997132454.19533527       -32935047.419040322        1291840152.7128310     
  -913346653.31801355       -35198506.868101567        1292689521.9169712     
  -829471757.73702455       -37164983.971605301        1298300119.5612526     
  -745507767.45237052       -38834478.729556233        1308671945.6456790     
  -1270868149.0101671       -33239338.875637770        1215298535.2432232     
  -1175311140.9254837       -36336482.339248538        1209605816.0298498     
  -1079784942.6885326       -39536325.295301855        1208399031.7699676     
  -984289554.29932308       -42838867.743826270        1211678182.4635799     
  -888824975.75785124       -46244109.684809238        1219443268.1106911     
  -1465699174.0322883       -37541683.041101813        1133340082.7660663     
  -1359068416.8555746       -41411494.019402742        1125726614.9320207     
  -1252588374.0780072       -45783686.328187108        1122323788.5648162     
  -1146259045.6995795       -50658259.967440784        1123131603.6644559     
  -1040080431.7202915       -56035214.937156737        1128150060.2309394     
  -482688093.81227267       -31159639.710309312        1480935709.6813798     
  -425389014.22810400       -26646285.500972494        1478850415.3631070     
  -365906437.44560814       -14854607.297208220        1482539105.2240045     
  -304240363.46479648        4215394.9009418041        1492001779.2640753     
  -240390792.28565443        30563721.093523562        1507238437.4833176     
  -610128806.80384314       -33806322.071387559        1395836092.8359089     
  -538055129.95776391       -30174186.222863436        1393550896.4901011     
  -463762231.94170254       -19144646.474401787        1397060148.8652377     
  -387250112.75566638       -717702.82601687312        1406363849.9613206     
  -308518772.39965546        25106644.722277552        1421461999.7783635     
  -745507767.45237052       -38834478.729556233        1308671945.6456790     
  -658601023.22501183       -36066020.206020802        1306228525.2392581     
  -569439333.85601556       -25781077.877027690        1309600018.0955606     
  -478022699.34540290       -7979651.7426488698        1318786424.2145920     
  -384351119.69316071        17338258.197166950        1333787743.5963435     
  -888824975.75785124       -46244109.684809238        1219443268.1106911     
  -787026694.02985048       -44321787.450460434        1216883301.6105833     
  -682937743.18855882       -34763901.505139261        1220158712.9149783     
  -576558123.23400259       -17570451.848939806        1229269502.0238750     
  -467887834.16615933        7258561.5182216763        1244215668.9372768     
  -1040080431.7202915       -56035214.937156737        1128150060.2309394     
  -923332142.37228417       -54941487.956178486        1125515225.6040721     
  -804257459.93933308       -46093117.358726799        1128736233.3234878     
  -682856384.42146885       -29490103.144892424        1137813083.3891847     
  -559128915.81866217       -5132445.3145882189        1152745775.8011570     
  -240390792.28565443        30563721.093523562        1507238437.4833176     
  -199640844.99048612        60281224.864023820        1486180420.6080554     
  -154283802.75532031        105355711.76784682        1467847394.8323748     
  -104319665.58015454        165787181.80500379        1452239360.1562841     
  -49748433.465000212        241575634.97545666        1439356316.5797763     
  -308518772.39965546        25106644.722277552        1421461999.7783635     
  -258958297.50261992        55334228.833580270        1404764620.3105056     
  -202943749.57730007        107075389.70583963        1392001867.8196998     
  -140475128.62367448        180330127.33911538        1383173742.3059483     
  -71552434.641758293        275098441.73335636        1378280243.7692382     
  -384351119.69316071        17338258.197166950        1333787743.5963435     
  -322524014.68721884        49112753.401383862        1323605809.3055825     
  -252395858.56468707        108557418.99423608        1318568137.8693335     
  -173966651.32556027        195672254.97573698        1318674729.2876000     
  -87236392.969849169        310457261.34585279        1323925583.5603824     
  -467887834.16615933        7258561.5182216763        1244215668.9372768     
  -390337996.54426950        41616798.567461938        1242703987.5932844     
  -302640129.71749502        109801799.63298666        1247546204.9812737     
  -204794233.68582460        211813564.71482852        1258742321.1012366     
  -96800308.449270621        347652093.81295174        1276292335.9531846     
  -559128915.81866217       -5132445.3145882189        1152745775.8011570     
  -462400243.07378334        32846364.331791073        1162059155.1736140     
  -353676563.03571028        110808531.62214005        1178936069.1555169     
  -232957875.70445991        228754056.55642158        1203376517.7468636     
  -100244181.08002129        386682939.13465858        1235380500.9476497     
  -49748433.465000212        241575634.97545666        1439356316.5797763     
  -40447533.834428713        322548169.03275102        1346320456.1476324     
  -23381082.573143631        429405875.19242769        1253166799.9592946     
   1450920.3188336194        562148753.45440722        1159895348.0147848     
   34048474.841513902        720776803.81873512        1066506100.3140823     
  -71552434.641758293        275098441.73335636        1378280243.7692382     
  -57382015.895440519        376836323.88954508        1296744286.7437930     
  -34240230.397669494        508478761.88390982        1214279906.0022807     
  -2127078.1484244764        670025755.71652102        1130887101.5446930     
   38957440.852276087        861477305.38731384        1046565873.3710654     
  -87236392.969849169        310457261.34585279        1323925583.5603824     
  -70512534.993156523        432265667.63528454        1255296314.2491708     
  -43611495.144231886        587998013.49882030        1184927993.2620192     
  -6533273.4230915010        777654298.93640518        1112820620.5989444     
   40722130.170271099        1001234523.9480624        1038974196.2599162     
  -96800308.449270621        347652093.81295174        1276292335.9531846     
  -79839091.127548665        488836200.27006280        1221976538.6637716     
  -51494876.812855989        667963630.03707922        1165111061.7385426     
  -11767665.505171716        885034383.11406219        1105695905.1774962     
   39342542.795493960        1140048459.5009859        1043731068.9806591     
  -100244181.08002129        386682939.13465858        1235380500.9476497     
  -85361684.298636913        546547921.79381239        1196784959.9875846     
  -57890375.403524518        748375611.49873996        1154829111.4318392     
  -17830254.394658864        992166008.24950767        1109512955.2803953     
   34818678.727945328        1277919112.0460649        1060836491.5332671     
  -3095499765.5316105       -33377548.584740043        1171856520.7907140     
  -2967204469.1387582       -18345530.736130118        1159863919.1630695     
  -2839486300.1842208       -5237271.0152372122        1154750193.9642758     
  -2712345258.6680002        5947230.5779273510        1156515345.1943362     
  -2585781344.5900993        15207974.043368459        1165159372.8532526     
  -3494131937.7425780       -37989901.889246225        1036817425.5561012     
  -3348412407.7817059       -22463114.797734022        1027853351.3604454     
  -3203180710.7371325       -8562437.4272341728        1025299479.8091271     
  -3058436846.6088691        3712130.2222495079        1029155810.9021504     
  -2914180815.3969021        14360588.150729537        1039422344.6395093     
  -3881666706.5313311       -39273034.167090178        899906049.22434676     
  -3719862010.9581904       -23653198.219403982        894074679.40303195     
  -3558455853.7793417       -9361823.5860202312        894184838.44153810     
  -3397448234.9947824        3601089.7330651283        900236526.33987153     
  -3236839154.6045127        15235541.737851381        912229743.09802973     
  -4258104071.8978615       -37226945.418267250        761122391.79545581     
  -4081553278.6682153       -21915781.001135349        758527903.29082751     
  -3905311729.3108416       -7635429.4915952682        761406269.86150980     
  -3729379423.8257475        5614109.1103637218        769757491.50750375     
  -3553756362.2129259        17832834.804736137        783581568.22880304     
  -4623444033.8421803       -31851635.642778873        620466453.26942360     
  -4433486210.9117794       -17250863.142935038        621213023.02383578     
  -4243748337.3316407       -3383255.1439583302        626963774.06904185     
  -4054230413.1017618        9751188.3541424274        637718706.40504360     
  -3864932438.2221470        22152467.351371765        653477820.03184175     
  -2585781344.5900993        15207974.043368459        1165159372.8532526     
  -2508210305.1585174        8705602.3762241602        1153670440.0921993     
  -2430764502.7317004        1785774.0265365839        1146328949.0283091     
  -2353443937.3096561       -5551511.0057353973        1143134899.6615782     
  -2276248608.8923764       -13306252.720546365        1144088291.9920104     
  -2914180815.3969021        14360588.150729537        1039422344.6395093     
  -2826445824.5514698        7281446.3905743361        1029685993.9316241     
  -2738731542.0503883        133276.81590867043        1023753726.4817725     
  -2651037967.8936682       -7083920.5732934475        1021625542.2899595     
  -2563365102.0812998       -14370145.777009010        1023301441.3561785     
  -3236839154.6045127        15235541.737851381        912229743.09802973     
  -3139921236.4570107        7285322.6511515379        904367924.54711986     
  -3042919497.9934521       -385495.38202857971        899966830.81512225     
  -2945833939.2138472       -7776912.3617080450        899026461.90203547     
  -2848664560.1181817       -14888928.287860990        901546817.80785847     
  -3553756362.2129259        17832834.804736137        783581568.22880304     
  -3448636540.8751473        8717231.1579465866        777716231.93869019     
  -3343328370.5608974        229457.43272137642        774968262.02835703     
  -3237831851.2701888       -7630486.3709682226        775337658.49781513     
  -3132146983.0030136       -14862600.253100514        778824421.34705389     
  -3864932438.2221470        22152467.351371765        653477820.03184175     
  -3752591737.8058739        11577171.910966158        649730916.10633063     
  -3639958159.7527251        1978135.2601506710        648758020.12147880     
  -3527031704.0627003       -6644642.6010823250        650559132.07728624     
  -3413812370.7357979       -14291161.672719002        655134251.97375548     
  -2276248608.8923764       -13306252.720546365        1144088291.9920104     
  -2170858327.7955823       -13089940.589049935        1136574858.7861328     
  -2065664193.4022942       -13527450.802574396        1133789392.1522996     
  -1960666205.7125044       -14618783.361089110        1135731892.0905073     
  -1855864364.7262149       -16363938.264610529        1142402358.6007593     
  -2563365102.0812998       -14370145.777009010        1023301441.3561785     
  -2445486400.0247908       -12928838.197573662        1016127012.6214278     
  -2327807353.1998043       -12153048.056551218        1013548403.7187383     
  -2210327961.6063437       -12042775.353949189        1015565614.6481059     
  -2093048225.2444079       -12598020.089756370        1022178645.4095391     
  -2848664560.1181817       -14888928.287860990        901546817.80785847     
  -2718674999.2161884       -12335893.894751072        894707300.26154125     
  -2588888602.0737453       -10460072.033471107        892331455.80730116     
  -2459305368.6908484       -9261462.7040157318        894419284.44513905     
  -2329925299.0675044       -8740065.9063882828        900970786.17505431     
  -3132146983.0030136       -14862600.253100514        778824421.34705389     
  -2990424125.3697772       -11311107.680592418        772315721.70647132     
  -2848907940.0241098       -8448522.7333128452        770138548.41798961     
  -2707598426.9660177       -6274845.4112883806        772292901.48159802     
  -2566495586.1954880       -4790075.7144687176        778778780.89730740     
  -3413812370.7357979       -14291161.672719002        655134251.97375548     
  -3260733778.4855509       -9854479.5550775528        648952276.95622039     
  -3107865367.0508976       -6118400.1560783386        646969681.55080104     
  -2955207136.4318409       -3082923.4757421017        649186465.75749266     
  -2802759086.6283751       -748049.51404023170        655602629.57629669     
  -1855864364.7262149       -16363938.264610529        1142402358.6007593     
  -1758057609.3008680       -20773515.285848260        1133973444.6049073     
  -1660427825.7100952       -25772998.422335446        1129653427.3005090     
  -1562975013.9539039       -31362387.674093783        1129442306.6875610     
  -1465699174.0322883       -37541683.041101813        1133340082.7660663     
  -2093048225.2444079       -12598020.089756370        1022178645.4095391     
  -1984737764.7230082       -16456955.234858751        1013502059.3071018     
  -1876631763.9088578       -20997422.737451434        1008669278.4618376     
  -1768730222.8019495       -26219422.597506523        1007680302.8737456     
  -1661033141.4022734       -32122954.815027356        1010535132.5428207     
  -2329925299.0675044       -8740065.9063882828        900970786.17505431     
  -2211868537.5480027       -12275580.404747128        892014458.78126073     
  -2094043723.6084087       -16584253.502796650        886636845.21035695     
  -1976450857.2487261       -21666085.200535059        884837945.46234381     
  -1859089938.4689379       -27521075.497946978        886617759.53721774     
  -2566495586.1954880       -4790075.7144687176        778778780.89730740     
  -2439449927.7758317       -8229390.7954750061        769510643.02738249     
  -2312663704.8087502       -12533490.718382835        763556127.54606450     
  -2186136917.2942371       -17702375.483185768        760915234.45335746     
  -2059869565.2322872       -23736045.089880109        761587963.74926209     
  -2802759086.6283751       -748049.51404023170        655602629.57629669     
  -2667481935.4065151       -4318386.4070657492        645990612.04546785     
  -2532491707.5098829       -8845134.3842114210        639427125.46896267     
  -2397788402.9384856       -14328293.445462346        635912169.84678745     
  -2263372021.6923161       -20767863.590803981        635445745.17894101     
  -1465699174.0322883       -37541683.041101813        1133340082.7660663     
  -1359068416.8555746       -41411494.019402742        1125726614.9320207     
  -1252588374.0780072       -45783686.328187108        1122323788.5648162     
  -1146259045.6995795       -50658259.967440784        1123131603.6644559     
  -1040080431.7202915       -56035214.937156737        1128150060.2309394     
  -1661033141.4022734       -32122954.815027356        1010535132.5428207     
  -1543799960.6090994       -35454579.904796302        1001694017.0315160     
  -1426552818.5857983       -38739667.560817003        996673773.78405929     
  -1309291715.3323739       -41978217.783098519        995474402.80045760     
  -1192016650.8488176       -45170230.571598053        998095904.08070743     
  -1859089938.4689379       -27521075.497946978        886617759.53721774     
  -1732367960.3535647       -30648602.587473631        876741117.91613185     
  -1605467345.3787885       -33180673.479007363        870295579.35590327     
  -1478388093.5446293       -35117288.172581494        867281143.85653663     
  -1351130204.8510690       -36458446.668166876        867697811.41803336     
  -2059869565.2322872       -23736045.089880109        761587963.74926209     
  -1924772416.0889688       -26993562.067431808        750867917.58586609     
  -1789331954.4569857       -29106704.082766056        743189205.28034663     
  -1653548180.3363454       -30075471.135909200        738551826.83269322     
  -1517421093.7270427       -29899863.226847589        736955782.24291146     
  -2263372021.6923161       -20767863.590803981        635445745.17894101     
  -2121013327.8153145       -24489458.344662309        624074416.04072332     
  -1978146645.8203766       -26517759.372064710        615354651.55738711     
  -1834771975.7075214       -26852766.673073649        609286451.72892976     
  -1690889317.4767327       -25494480.247636378        605869816.55535150     
  -1040080431.7202915       -56035214.937156737        1128150060.2309394     
  -923332142.37228417       -54941487.956178486        1125515225.6040721     
  -804257459.93933308       -46093117.358726799        1128736233.3234878     
  -682856384.42146885       -29490103.144892424        1137813083.3891847     
  -559128915.81866217       -5132445.3145882189        1152745775.8011570     
  -1192016650.8488176       -45170230.571598053        998095904.08070743     
  -1061789884.1597885       -42258837.086355388        994269414.25367081     
  -930114729.94565153       -34519485.184080482        994535680.07246053     
  -796991188.20639360       -21952174.864745647        998894701.53707778     
  -662419258.94202292       -4556906.1283546686        1007346478.6475250     
  -1351130204.8510690       -36458446.668166876        867697811.41803336     
  -1212462351.3937540       -33240603.850517273        861655326.57103944     
  -1073224115.9711398       -28121487.815191805        857942510.66942680     
  -933415498.58322525       -21101098.562191010        856559363.71318257     
  -793036499.23000383       -12179436.091513813        857505885.70232141     
  -1517421093.7270427       -29899863.226847589        736955782.24291146     
  -1375349544.0741594       -27886788.248591065        727672962.55618596     
  -1233585618.0157909       -26899125.252038598        718956725.11438370     
  -1092129315.5519364       -26936874.237210214        710807069.91750193     
  -950980636.68258333       -28000035.204042554        703223996.96553719     
  -1690889317.4767327       -25494480.247636378        605869816.55535150     
  -1550451462.2010112       -26197390.280598879        592322322.20910704     
  -1411199236.0796154       -30852397.494654059        577578323.40733457     
  -1273132639.1125395       -39459501.889769435        561637820.15003026     
  -1136251671.2997882       -52018703.465972245        544500812.43719780     
  -559128915.81866217       -5132445.3145882189        1152745775.8011570     
  -462400243.07378334        32846364.331791073        1162059155.1736140     
  -353676563.03571028        110808531.62214005        1178936069.1555169     
  -232957875.70445991        228754056.55642158        1203376517.7468636     
  -100244181.08002129        386682939.13465858        1235380500.9476497     
  -662419258.94202292       -4556906.1283546686        1007346478.6475250     
  -547251599.96870840        25709715.583787143        1020855364.5260081     
  -421207514.85255384        92231091.105385482        1042764287.0325098     
  -284287003.59355378        195007220.43647653        1073073246.1670369     
  -136490066.19170839        334038103.57704663        1111782241.9295897     
  -793036499.23000383       -12179436.091513813        857505885.70232141     
  -657039848.26088321        11091999.416596621        873905266.74476051     
  -511285352.29926479        66889584.899704814        899541186.43380296     
  -355773011.34514797        155213320.35780162        934413644.76944697     
  -190502825.39852723        276063205.79091841        978522641.75169480     
  -950980636.68258333       -28000035.204042554        703223996.96553719     
  -791764987.95030141       -11006784.169774443        721208861.82987463     
  -623910075.37585258        34784013.005044013        749266767.35938990     
  -447415898.95924979        109372356.32038426        787397713.55408442     
  -262282458.70048237        212758245.77625102        835601700.41396260     
  -1136251671.2997882       -52018703.465972245        544500812.43719780     
  -951427019.03696084       -40586635.175294518        562766149.78135312     
  -759081684.08231783       -4085624.5785816610        591941029.80927014     
  -559215666.43586063        57484328.324187130        632025452.52094805     
  -351828966.09758425        144123223.53301960        683019417.91638625     
  -100244181.08002129        386682939.13465858        1235380500.9476497     
  -85361684.298636913        546547921.79381239        1196784959.9875846     
  -57890375.403524518        748375611.49873996        1154829111.4318392     
  -17830254.394658864        992166008.24950767        1109512955.2803953     
   34818678.727945328        1277919112.0460649        1060836491.5332671     
  -136490066.19170839        334038103.57704663        1111782241.9295897     
  -127367123.19653168        483055257.52891582        1090205672.8941557     
  -95106231.091458231        709198908.51377988        1070062330.5513178     
  -39707389.876488566        1012469056.5316131        1051352214.9010710     
   38829400.448358893        1392865701.5824029        1034075325.9434314     
  -190502825.39852723        276063205.79091841        978522641.75169480     
  -173443623.93730262        418341274.71119976        986272371.13640130     
  -122697336.37003869        672909630.65161157        1000248861.5019825     
  -38263962.696725786        1039768273.6121861        1020452112.8484561     
   79856497.082623422        1518917203.5928831        1046882125.1758119     
  -262282458.70048237        212758245.77625102        835601700.41396260     
  -223591186.52097186        352405973.34060591        884985054.71430862     
  -140663691.23927334        639507777.91225421        945388704.28382969     
  -13499972.855372608        1074063659.4912348        1016812649.1225346     
   157899968.63071764        1656073618.0775189        1099256889.2303836     
  -351828966.09758425        144123223.53301960        683019417.91638625     
  -277809810.94754207        285249353.41709512        786343723.62789822     
  -149005295.69914457        608993350.29571080        905481858.89686453     
   34584579.647597432        1115355214.1687832        1040433823.7232910     
   272959815.09266800        1804334945.0363116        1191199618.1071656     
  -4623444033.8421803       -31851635.642778873        620466453.26942360     
  -4433486210.9117794       -17250863.142935038        621213023.02383578     
  -4243748337.3316407       -3383255.1439583302        626963774.06904185     
  -4054230413.1017618        9751188.3541424274        637718706.40504360     
  -3864932438.2221470        22152467.351371765        653477820.03184175     
  -4991000622.8699551       -35917766.954689026        483101378.28735471     
  -4786506608.2255735       -17551867.489050865        480150428.54051602     
  -4582545813.2481108       -963366.91313362122        482508107.98306638     
  -4379118237.9375620        13847734.773062468        490174416.61501509     
  -4176223882.2939329        26881437.569532156        503149354.43635029     
  -5368301197.2040071       -42907093.858488798        345689917.18932992     
  -5148401139.7067909       -20515112.085391521        338675965.90514296     
  -4929347572.1931524       -944763.59087347984        337275091.70894706     
  -4711140494.6630878        15803951.625057459        341487294.60073584     
  -4493779907.1165953        29731033.562428236        351312574.58051145     
  -5755345756.8443003       -52819616.354156017        208232069.97535485     
  -5519169805.3554239       -26140596.931968451        196789635.11772871     
  -5284153614.1667738       -3327445.1772074699        191264725.24667728     
  -5050297183.2783518        15619838.910129786        191657340.36221251     
  -4817600512.6901588        30701255.330047846        197967480.46433461     
  -6152134301.7908745       -65655334.441707134        70727836.645430207     
  -5898812605.1714849       -34428322.028766870        54491436.178260706     
  -5646963939.1689663       -8111411.6720843315        44477008.596267961     
  -5396588303.7833385        13295396.628293991        40684553.899450846     
  -5147685699.0145960        29792102.872412443        43114072.087814003     
  -3864932438.2221470        22152467.351371765        653477820.03184175     
  -3752591737.8058739        11577171.910966158        649730916.10633063     
  -3639958159.7527251        1978135.2601506710        648758020.12147880     
  -3527031704.0627003       -6644642.6010823250        650559132.07728624     
  -3413812370.7357979       -14291161.672719002        655134251.97375548     
  -4176223882.2939329        26881437.569532156        503149354.43635029     
  -4056639179.7581854        14700345.750494242        497803822.61275351     
  -3936667564.3795719        3808963.4076914787        495627160.56624115     
  -3816309036.1580925       -5792709.4588904381        496619368.29680532     
  -3695563595.0937395       -14104672.849228859        500780445.80444849     
  -4493779907.1165953        29731033.562428236        351312574.58051145     
  -4365823025.7858963        16282598.367414951        344478122.59916294     
  -4237385196.4063401        4437323.3352515697        341207402.23130959     
  -4108466418.9779148       -5804791.5340180397        341500413.47695029     
  -3979066693.5006380       -14443746.240436077        345357156.33609426     
  -4817600512.6901588        30701255.330047846        197967480.46433461     
  -4680143275.8890162        16323929.761696339        189753816.06554803     
  -4542111055.8330212        3863215.0428535938        185498745.11667711     
  -4403503852.5221758       -6680888.8264920712        185202267.61772466     
  -4264321665.9564815       -15308381.846324921        188864383.56869450     
  -5147685699.0145960        29792102.872412443        43114072.087814003     
  -4999599930.0675297        14824339.933373451        33630903.011909999     
  -4850845142.6596279        2086638.5304510593        28501189.222357448     
  -4701421336.7908707       -8421001.3362894058        27724930.719131697     
  -4551328512.4612722       -16698579.666884899        31302127.502247795     
  -3413812370.7357979       -14291161.672719002        655134251.97375548     
  -3260733778.4855509       -9854479.5550775528        648952276.95622039     
  -3107865367.0508976       -6118400.1560783386        646969681.55080104     
  -2955207136.4318409       -3082923.4757421017        649186465.75749266     
  -2802759086.6283751       -748049.51404023170        655602629.57629669     
  -3695563595.0937395       -14104672.849228859        500780445.80444849     
  -3531106386.4431105       -9086905.8721473217        493830127.17514950     
  -3366893541.1244245       -4883683.3348805904        491299114.27415794     
  -3202925059.1376910       -1495005.2374435663        493187407.10148329     
  -3039200940.4828987        1079128.4201664925        499495005.65711516     
  -3979066693.5006380       -14443746.240436077        345357156.33609426     
  -3802602508.1176219       -8656386.3042902946        337598614.49261349     
  -3626416868.5829086       -3797512.5291535854        334479304.49364555     
  -3450509774.8964958        132875.08496499062        335999226.33918214     
  -3274881227.0583973        3134776.5380675793        342158380.02923059     
  -4264321665.9564815       -15308381.846324921        188864383.56869450     
  -4075222143.5090809       -8562920.8515136242        180257738.90861464     
  -3886435349.4263458       -2859887.7389173508        176510252.20924893     
  -3697961283.7082691        1800717.4914846420        177621923.47059169     
  -3509799946.3548503        5418894.8396890163        183592752.69263929     
  -4551328512.4612722       -16698579.666884899        31302127.502247795     
  -4348965292.6175079       -8806509.5138540268        21807500.423155233     
  -4146948983.6547461       -2070808.9641785622        17391957.420980677     
  -3945279585.5730047        3508521.9820935726        18055498.495708276     
  -3743957098.3722777        7931483.3250045776        23798123.647338182     
  -2802759086.6283751       -748049.51404023170        655602629.57629669     
  -2667481935.4065151       -4318386.4070657492        645990612.04546785     
  -2532491707.5098829       -8845134.3842114210        639427125.46896267     
  -2397788402.9384856       -14328293.445462346        635912169.84678745     
  -2263372021.6923161       -20767863.590803981        635445745.17894101     
  -3039200940.4828987        1079128.4201664925        499495005.65711516     
  -2895820419.6286521       -2873495.0916589499        490074016.66792852     
  -2752474883.4617572       -6942734.2279895544        483926077.96904862     
  -2609164331.9822145       -11128588.988823414        481051189.56047070     
  -2465888765.1900172       -15431059.374150515        481449351.44220269     
  -3274881227.0583973        3134776.5380675793        342158380.02923059     
  -3122755852.7546883       -1007688.4474319220        333222347.99255306     
  -2970413524.5004354       -4426973.5977962017        327783885.58215350     
  -2817854242.2956724       -7123078.9131067991        325842992.79803908     
  -2665078006.1403599       -9096004.3932727575        327399669.64020461     
  -3509799946.3548503        5418894.8396890163        183592752.69263929     
  -3348288234.7846093        1279033.5256314278        175435606.01933482     
  -3186307630.6259422       -1297852.4936977625        171000548.30828083     
  -3023858133.8788605       -2311763.2183009386        170287579.55949238     
  -2860939744.5433674       -1762698.6481930017        173296699.77296552     
  -3743957098.3722777        7931483.3250045776        23798123.647338182     
  -3572417565.7184105        3986670.8275439739        16713790.748269252     
  -3400157201.8382382        2444629.0844206810        13576066.147428319     
  -3227176006.7317944        3305358.0955420732        14384949.844825635     
  -3053473980.3990283        6568857.8610709906        19140441.840466321     
  -2263372021.6923161       -20767863.590803981        635445745.17894101     
  -2121013327.8153145       -24489458.344662309        624074416.04072332     
  -1978146645.8203766       -26517759.372064710        615354651.55738711     
  -1834771975.7075214       -26852766.673073649        609286451.72892976     
  -1690889317.4767327       -25494480.247636378        605869816.55535150     
  -2465888765.1900172       -15431059.374150515        481449351.44220269     
  -2316471341.5696611       -17582927.458368897        471560070.36752284     
  -2166815826.5019507       -18941157.384739518        464086772.13216984     
  -2016922219.9868960       -19505749.153302670        459029456.73614174     
  -1866790522.0244849       -19276702.764009118        456388124.17943287     
  -2665078006.1403599       -9096004.3932727575        327399669.64020461     
  -2509274943.6782341       -9880073.0783151388        318677557.18005604     
  -2353503686.4393387       -10770159.174144149        312135845.74368227     
  -2197764234.4236751       -11766262.680736303        307774535.33107257     
  -2042056587.6312447       -12868383.598100781        305593625.94223022     
  -2860939744.5433674       -1762698.6481930017        173296699.77296552     
  -2699424134.1410632       -1380895.2045788765        165426876.47833192     
  -2538210225.6325574       -2004764.7403020859        159501872.39191556     
  -2377298019.0178623       -3634307.2553906441        155521687.51371783     
  -2216687514.2969947       -6269522.7499010563        153486321.84372765     
  -3053473980.3990283        6568857.8610709906        19140441.840466321     
  -2886918912.9581084        7914606.1629593372        11808028.262344079     
  -2720935444.0816054        7355025.9167780876        6184852.0768886376     
  -2555523573.7694726        4890117.1227096319        2270913.2840804625     
  -2390683302.0217319        519879.78065574169        66211.883932042721     
  -1690889317.4767327       -25494480.247636378        605869816.55535150     
  -1550451462.2010112       -26197390.280598879        592322322.20910704     
  -1411199236.0796154       -30852397.494654059        577578323.40733457     
  -1273132639.1125395       -39459501.889769435        561637820.15003026     
  -1136251671.2997882       -52018703.465972245        544500812.43719780     
  -1866790522.0244849       -19276702.764009118        456388124.17943287     
  -1729234425.8078134       -22601277.706382275        442707313.69756269     
  -1591771986.4063325       -26238042.032735944        428611269.52796370     
  -1454403203.8200433       -30186995.743059397        414099991.67065138     
  -1317128078.0489724       -34448138.837426484        399173480.12561673     
  -2042056587.6312447       -12868383.598100781        305593625.94223022     
  -1905150048.2798615       -18144962.791736245        293053467.05370295     
  -1767245193.4045551       -20093823.572271228        280879345.24526346     
  -1628342023.0053172       -18714965.939700842        269071260.51692408     
  -1488440537.0821569       -14008389.894067466        257629212.86866993     
  -2216687514.2969947       -6269522.7499010563        153486321.84372765     
  -2078198329.6171575       -12828445.536646247        143360782.27753204     
  -1937618857.0742784       -12419742.113269091        134382550.55923483     
  -1794949096.6683373       -5043412.4796825647        126551626.68885301     
  -1650189048.3993444        9300543.3640873432        119868010.66636065     
  -2390683302.0217319        519879.78065574169        66211.883932042721     
  -2248379269.8197160       -6651725.9411883354       -6370740.6309522800     
  -2102892977.4154942       -3215797.6556781530       -10879114.530123809     
  -1954224424.8091164        10827664.637030602       -13458909.813580943     
  -1802373612.0005436        35478660.937031865       -14110126.481315676     
  -1136251671.2997882       -52018703.465972245        544500812.43719780     
  -951427019.03696084       -40586635.175294518        562766149.78135312     
  -759081684.08231783       -4085624.5785816610        591941029.80927014     
  -559215666.43586063        57484328.324187130        632025452.52094805     
  -351828966.09758425        144123223.53301960        683019417.91638625     
  -1317128078.0489724       -34448138.837426484        399173480.12561673     
  -1117573625.7481318       -14655553.591631413        421084345.04493684     
  -914384903.19394708        17251265.832006156        441486932.62778407     
  -707561910.38640785        61272319.433490366        460381242.87415302     
  -497104647.32551086        117407607.21280855        477767275.78404844     
  -1488440537.0821569       -14008389.894067466        257629212.86866993     
  -1309635770.5154209        3500866.5752047896        278651457.51828378     
  -1131083146.1338007        20169649.094087541        285747604.81118554     
  -952782663.93726158        35997957.662708521        278917654.74737942     
  -774734323.92585611        50985792.280881912        258161607.32686284     
  -1650189048.3993444        9300543.3640873432        119868010.66636065     
  -1527613453.3388150        13882625.325198531        135467487.20139351     
  -1409176412.9018459        4669525.2077742219        124723046.35948101     
  -1294877927.0884438       -18338756.988215148        87634688.140621185     
  -1184717995.8986187       -55142221.262774885        24202412.544814799     
  -1802373612.0005436        35478660.937031865       -14110126.481315676     
  -1771506674.2183106        16489722.658381701       -8467565.9057274442     
  -1748664703.4981236       -29249105.827088714       -41586742.727333985     
  -1733847699.8399212       -101737824.51917928       -113467656.94611017     
  -1727055663.2437871       -200976433.41815341       -224110308.56208146     
  -351828966.09758425        144123223.53301960        683019417.91638625     
  -277809810.94754207        285249353.41709512        786343723.62789822     
  -149005295.69914457        608993350.29571080        905481858.89686453     
   34584579.647597432        1115355214.1687832        1040433823.7232910     
   272959815.09266800        1804334945.0363116        1191199618.1071656     
  -497104647.32551086        117407607.21280855        477767275.78404844     
  -388268145.33168972        223073170.50653711        597050458.78352082     
  -230307779.19482267        492484947.61041564        735485594.39545536     
  -23223548.914925516        925642938.52440858        893072682.61985135     
   232984545.50801224        1522547143.2485118        1069811723.4567006     
  -774734323.92585611        50985792.280881912        258161607.32686284     
  -621542980.64538777        124052037.31710395        386798588.99977154     
  -424889269.17718470        341992842.97911608        537925646.34014797     
  -184773189.52124345        704808209.26691914        711542779.34799504     
   98805258.322414339        1212498136.1804423        907649988.02329230     
  -1184717995.8986187       -55142221.262774885        24202412.544814799     
  -977634316.88862789       -11814046.151186824        155588114.27664080     
  -732749765.64620399        157517036.40184563        312802014.73093408     
  -450064342.17137313        452851026.39626777        495844113.90770143     
  -129578046.46410143        874187923.83209109        704714411.80693197     
  -1727055663.2437871       -200976433.41815341       -224110308.56208146     
  -1456542154.0614049       -184525079.89832532       -96580965.385856673     
  -1153889268.6019278       -60942472.121502817        60114699.567829303     
  -819097006.86528945        169771389.91249049        245976686.29899764     
  -452165368.85157728        507616506.20345175        461004994.80762076     
 </DataArray>
 <DataArray  type="Float64" Name="VM" NumberOfComponents="1" format="ascii">
   6120796838.3077888     
   5882431231.2378912     
   5643438427.8529854     
   5403707761.2323904     
   5163186271.7436295     
   5740460027.1089249     
   5516685849.2576618     
   5292868253.0298758     
   5069006614.2759600     
   4845172548.0404768     
   5380396371.6329575     
   5171550963.5305071     
   4963373326.1175632     
   4755984638.2126837     
   4549594276.8923845     
   5043041991.8285942     
   4849595318.2704897     
   4657655484.0783844     
   4467473787.9000568     
   4279405244.5248508     
   4731270533.8858099     
   4553826190.2070780     
   4378847386.6486359     
   4206717049.9138908     
   4037934008.5339737     
   5163186271.7436295     
   5007367382.5221529     
   4852139926.4472227     
   4697461957.1899633     
   4543325744.2839289     
   4845172548.0404768     
   4699832488.0502768     
   4555388487.6033745     
   4411844414.0208454     
   4269239161.6116033     
   4549594276.8923845     
   4414494114.7512417     
   4280598452.8748097     
   4147957186.0827937     
   4016655628.7307734     
   4279405244.5248508     
   4154467170.5085621     
   4031041985.6643062     
   3909224198.7861729     
   3789143396.1202188     
   4037934008.5339737     
   3923260630.0407395     
   3810401626.2524862     
   3699492192.2603273     
   3590701109.7689958     
   4543325744.2839289     
   4344732922.5136375     
   4146023403.5380902     
   3947158904.9952564     
   3748155792.9517207     
   4269239161.6116033     
   4082902349.4545832     
   3897016903.0701461     
   3711634212.1816096     
   3526877253.4905529     
   4016655628.7307734     
   3843027770.5216479     
   3670527425.0087252     
   3499308881.9628363     
   3329615588.9328876     
   3789143396.1202188     
   3628816974.7708282     
   3470400205.2790804     
   3314158148.8089314     
   3160460249.9133196     
   3590701109.7689958     
   3444381834.7941213     
   3300842122.4162993     
   3160455227.9915781     
   3023707472.3588834     
   3748155792.9517207     
   3574529796.0279536     
   3401461454.3349552     
   3228926084.0881047     
   3056943474.2846818     
   3526877253.4905529     
   3362685127.6329150     
   3199397788.1259475     
   3037058855.7549639     
   2875766261.8599696     
   3329615588.9328876     
   3175148778.5539918     
   3022011414.4923172     
   2870331416.1972656     
   2720303951.0133333     
   3160460249.9133196     
   3016285904.7816138     
   2873953693.2374988     
   2733689225.2516804     
   2595799429.4533539     
   3023707472.3588834     
   2890652334.5082603     
   2760035036.3504395     
   2632183726.9989243     
   2507519231.5381727     
   3056943474.2846818     
   2890956686.9468207     
   2724641461.7636118     
   2557975162.1280017     
   2390943287.0526567     
   2875766261.8599696     
   2713901821.2525668     
   2552204771.5874600     
   2390707057.3030224     
   2229466174.4764895     
   2720303951.0133333     
   2564455633.3361716     
   2409571403.3178921     
   2255797441.6051388     
   2103341419.6312072     
   2595799429.4533539     
   2448004286.7586622     
   2302289553.9079604     
   2158966943.5397630     
   2018455656.6967785     
   2507519231.5381727     
   2369759783.8325815     
   2235463121.7617121     
   2105120070.4330103     
   1979364294.9224982     
   2390943287.0526567     
   2245087914.2488770     
   2101371410.0343671     
   1959799340.3151824     
   1820536311.6094756     
   2229466174.4764895     
   2086640782.1756005     
   1945413161.3747163     
   1805785416.2713995     
   1667831847.1330466     
   2103341419.6312072     
   1962905518.1169240     
   1823383734.1570642     
   1684806118.8294001     
   1547229538.8884912     
   2018455656.6967785     
   1881395467.8589675     
   1744644483.0884986     
   1608332142.3065319     
   1472636696.2225630     
   1979364294.9224982     
   1848379143.4644539     
   1717465118.5911484     
   1586977539.9646707     
   1457432973.2524290     
   1820536311.6094756     
   1779869253.7702050     
   1735720383.0097933     
   1696704236.3557200     
   1681276775.0818684     
   1667831847.1330466     
   1552435890.9753172     
   1427952263.4901364     
   1294734806.8740315     
   1158890280.7543991     
   1547229538.8884912     
   1397384296.4288976     
   1243995389.5944686     
   1084792174.5859451     
   917744797.58204234     
   1472636696.2225630     
   1328436302.9440122     
   1198709218.0519295     
   1087936018.3033080     
   1002021034.3258722     
   1457432973.2524290     
   1348466775.3450632     
   1274481432.1779828     
   1243600122.4132912     
   1262857246.6536353     
   1681276775.0818684     
   1383755629.7770038     
   1129466642.1948073     
   1010106459.4503007     
   1152923006.3764982     
   1158890280.7543991     
   1008455054.1389036     
   985235864.43994975     
   1161476740.7868032     
   1544065337.4568248     
   917744797.58204234     
   963144694.80861461     
   1144941521.5631099     
   1476483926.3496637     
   1957446939.2621562     
   1002021034.3258722     
   1164703288.0806646     
   1425420425.7133973     
   1808752980.9925547     
   2334779008.5165668     
   1262857246.6536353     
   1446651274.0450408     
   1715666314.7197175     
   2110484986.9933362     
   2663548443.7317114     
   4731270533.8858099     
   4553826190.2070780     
   4378847386.6486359     
   4206717049.9138908     
   4037934008.5339737     
   4439847048.0925274     
   4277405847.0495362     
   4118363484.9053855     
   3963182980.2853389     
   3812463254.1566577     
   4164844133.3075638     
   4018464236.2212148     
   3876606976.0690827     
   3739810075.8321261     
   3608762134.7377105     
   3911857694.6432972     
   3782406906.6393828     
   3658788052.9456434     
   3541594004.0823584     
   3431574250.0201683     
   3687771112.9006476     
   3575759627.2967677     
   3471049228.9727674     
   3374250486.4634929     
   3286123861.4061279     
   4037934008.5339737     
   3923260630.0407395     
   3810401626.2524862     
   3699492192.2603273     
   3590701109.7689958     
   3812463254.1566577     
   3706448455.7771235     
   3602823784.0663753     
   3501764204.4623761     
   3403485890.8668976     
   3608762134.7377105     
   3512218360.9828472     
   3418772744.4441981     
   3328638508.9110332     
   3242076169.3703203     
   3431574250.0201683     
   3345174041.9027481     
   3262702953.6952081     
   3184404024.7295737     
   3110570484.1878309     
   3286123861.4061279     
   3210279840.9209051     
   3139294543.5198073     
   3073424183.5254784     
   3012973698.2282281     
   3590701109.7689958     
   3444381834.7941213     
   3300842122.4162993     
   3160455227.9915781     
   3023707472.3588834     
   3403485890.8668976     
   3270833854.4529772     
   3141913257.2438054     
   3017192044.0800457     
   2897260430.0149050     
   3242076169.3703203     
   3123989772.5080776     
   3010671009.4021907     
   2902662480.4429150     
   2800626654.8640184     
   3110570484.1878309     
   3007739334.9349957     
   2910736318.4590926     
   2820141272.3763151     
   2736638242.2799883     
   3012973698.2282281     
   2925711545.6304903     
   2845284438.9175339     
   2772259713.0638471     
   2707282865.8364687     
   3023707472.3588834     
   2890652334.5082603     
   2760035036.3504395     
   2632183726.9989243     
   2507519231.5381727     
   2897260430.0149050     
   2776211154.6872883     
   2658691149.9057517     
   2545149143.1260161     
   2436140707.8225408     
   2800626654.8640184     
   2693033704.0618558     
   2590162289.8462195     
   2492552913.5583439     
   2400850226.2613187     
   2736638242.2799883     
   2643549008.0956001     
   2556369374.4333100     
   2475677231.0622349     
   2402134353.2002892     
   2707282865.8364687     
   2629137573.2630343     
   2557975997.8431683     
   2494348740.1922655     
   2438859951.3936286     
   2507519231.5381727     
   2369759783.8325815     
   2235463121.7617121     
   2105120070.4330103     
   1979364294.9224982     
   2436140707.8225408     
   2311910234.2932925     
   2192593230.0121994     
   2078887029.3602879     
   1971649453.9580576     
   2400850226.2613187     
   2292371783.3899627     
   2190342222.7454329     
   2095585203.6647789     
   2009059585.0044188     
   2402134353.2002892     
   2310846874.5943656     
   2227412255.9945498     
   2152661862.3767061     
   2087507288.5847719     
   2438859951.3936286     
   2365223468.2189035     
   2300555960.3555360     
   2245591763.4052067     
   2201089229.0894823     
   1979364294.9224982     
   1848379143.4644539     
   1717465118.5911484     
   1586977539.9646707     
   1457432973.2524290     
   1971649453.9580576     
   1855406634.9850378     
   1743551256.3811021     
   1637007501.2020159     
   1536910098.7810845     
   2009059585.0044188     
   1912646495.3069589     
   1824997593.7298758     
   1747310930.4341958     
   1680876414.9859560     
   2087507288.5847719     
   2012468277.0274968     
   1949743978.2932322     
   1900408649.8453870     
   1865487132.5637515     
   2201089229.0894823     
   2145969510.4209108     
   2105711366.0470676     
   2081076846.4700243     
   2072739795.2463152     
   1457432973.2524290     
   1348466775.3450632     
   1274481432.1779828     
   1243600122.4132912     
   1262857246.6536353     
   1536910098.7810845     
   1476050414.5358944     
   1447887382.3261640     
   1456387210.8828788     
   1504842689.5534496     
   1680876414.9859560     
   1652344856.8624594     
   1651547647.2982333     
   1680854812.1108425     
   1742874844.0520828     
   1865487132.5637515     
   1854899461.4200027     
   1867308985.7713618     
   1904926116.6064878     
   1970782366.4948750     
   2072739795.2463152     
   2069112243.3701451     
   2084760606.8821535     
   2122317831.9260044     
   2185596086.2413015     
   1262857246.6536353     
   1446651274.0450408     
   1715666314.7197175     
   2110484986.9933362     
   2663548443.7317114     
   1504842689.5534496     
   1613249360.6553662     
   1788851979.1258662     
   2066402360.2388368     
   2476108919.6157446     
   1742874844.0520828     
   1787694132.0428228     
   1884653703.3317466     
   2060663823.1249900     
   2340956572.9195948     
   1970782366.4948750     
   1968942699.0202420     
   2003636118.6868589     
   2093537009.4989629     
   2257306754.5329781     
   2185596086.2413015     
   2156278790.0627122     
   2146539523.5992372     
   2166900752.6951680     
   2228433604.0419493     
   3687771112.9006476     
   3575759627.2967677     
   3471049228.9727674     
   3374250486.4634929     
   3286123861.4061279     
   3423501089.4695525     
   3333346371.8825226     
   3251052025.4570136     
   3177212543.6305647     
   3112535053.6108718     
   3193707227.1810727     
   3124865552.2185092     
   3064305439.9148583     
   3012560875.1546750     
   2970238247.2679653     
   3003192921.1116633     
   2954857580.1709847     
   2915013048.9845290     
   2884092591.8843389     
   2862565552.9037423     
   2856615362.9978075     
   2827552861.4389372     
   2806917346.0278640     
   2795017258.5367265     
   2792171194.2638230     
   3286123861.4061279     
   3210279840.9209051     
   3139294543.5198073     
   3073424183.5254784     
   3012973698.2282281     
   3112535053.6108718     
   3049624772.5634217     
   2991954910.0759864     
   2939765999.7231374     
   2893335322.5707164     
   2970238247.2679653     
   2919787035.1688814     
   2874874232.1108704     
   2835708309.4411292     
   2802522167.4899640     
   2862565552.9037423     
   2823818139.2780681     
   2790794761.2261901     
   2763659421.3805151     
   2742589815.0347528     
   2792171194.2638230     
   2764034985.5172668     
   2741679858.0612650     
   2725220271.9711385     
   2714776664.9943514     
   3012973698.2282281     
   2925711545.6304903     
   2845284438.9175339     
   2772259713.0638471     
   2707282865.8364687     
   2893335322.5707164     
   2821925215.4408164     
   2758041960.5908403     
   2702203826.0224819     
   2654980552.0535769     
   2802522167.4899640     
   2746498172.8560596     
   2698556245.9898472     
   2659130970.5048008     
   2628683563.7613192     
   2742589815.0347528     
   2700961980.3856306     
   2667808507.6416073     
   2643459376.9601450     
   2628252966.9177723     
   2714776664.9943514     
   2685997875.6550012     
   2665927789.5147791     
   2654789014.4105873     
   2652802762.2487478     
   2707282865.8364687     
   2629137573.2630343     
   2557975997.8431683     
   2494348740.1922655     
   2438859951.3936286     
   2654980552.0535769     
   2591776118.5602555     
   2536296154.7971468     
   2489024888.8432245     
   2450473317.1450257     
   2628683563.7613192     
   2579828690.0196791     
   2539269463.6200495     
   2507393263.2013531     
   2484593399.4291153     
   2628252966.9177723     
   2592601047.7407255     
   2565651532.5643744     
   2547684254.4918556     
   2538973236.8875232     
   2652802762.2487478     
   2628717359.4829001     
   2613615666.6777191     
   2607677466.9144354     
   2611073322.2015662     
   2438859951.3936286     
   2365223468.2189035     
   2300555960.3555360     
   2245591763.4052067     
   2201089229.0894823     
   2450473317.1450257     
   2393618314.5892601     
   2346378608.5539608     
   2309326156.8753672     
   2283017978.0200768     
   2484593399.4291153     
   2443168063.0649109     
   2411727846.5418758     
   2390674994.5766826     
   2380379240.0565186     
   2538973236.8875232     
   2511132291.4418950     
   2493450604.5196018     
   2486182272.7472816     
   2489547953.2530293     
   2611073322.2015662     
   2594661661.1187110     
   2588485731.7423124     
   2592686547.6823387     
   2607379922.5637250     
   2201089229.0894823     
   2145969510.4209108     
   2105711366.0470676     
   2081076846.4700243     
   2072739795.2463152     
   2283017978.0200768     
   2242522668.1849513     
   2215904502.3619103     
   2203612517.9625077     
   2206033951.9580007     
   2380379240.0565186     
   2351595591.9845700     
   2335680132.4869390     
   2332884013.2642407     
   2343429028.6377721     
   2489547953.2530293     
   2469844272.8285131     
   2462091497.0666294     
   2466427187.2205606     
   2482986648.8128748     
   2607379922.5637250     
   2594479996.8190780     
   2592766742.1968341     
   2602320193.5146308     
   2623236976.2324567     
   2072739795.2463152     
   2069112243.3701451     
   2084760606.8821535     
   2122317831.9260044     
   2185596086.2413015     
   2206033951.9580007     
   2191638640.2839112     
   2192257401.6049290     
   2209859849.3596139     
   2247365455.0161767     
   2343429028.6377721     
   2319066808.0671000     
   2306242317.7589779     
   2306361116.3650985     
   2321511129.2966352     
   2482986648.8128748     
   2450416587.0004148     
   2426394276.6351676     
   2411865029.1080217     
   2408205173.5499635     
   2623236976.2324567     
   2584902631.7299728     
   2552427456.5982461     
   2526392749.1983809     
   2507606731.8628035     
   2185596086.2413015     
   2156278790.0627122     
   2146539523.5992372     
   2166900752.6951680     
   2228433604.0419493     
   2247365455.0161767     
   2182668855.3786283     
   2134402772.8596325     
   2112233280.2050426     
   2127094157.1646988     
   2321511129.2966352     
   2224772411.4446292     
   2141366420.4301548     
   2079658318.4193344     
   2049819163.4138982     
   2408205173.5499635     
   2282883959.8819189     
   2168077615.0744548     
   2070526779.4090533     
   1998999815.0677884     
   2507606731.8628035     
   2357213591.1377878     
   2215007255.1705780     
   2085969642.1978493     
   1976978233.2421927     
   2856615362.9978075     
   2827552861.4389372     
   2806917346.0278640     
   2795017258.5367265     
   2792171194.2638230     
   2734083446.9673624     
   2714188367.0894923     
   2703616703.3213816     
   2702578496.6418900     
   2711286602.5704145     
   2657030531.8554544     
   2643576697.5508161     
   2640295585.4740496     
   2647295765.0160813     
   2664685694.7607203     
   2632289487.4066057     
   2621458942.8981810     
   2621609370.5005655     
   2632771006.9928074     
   2654973868.5160298     
   2664176287.8032732     
   2651349257.6615629     
   2650270414.9790840     
   2660939759.7558265     
   2683357291.9917903     
   2792171194.2638230     
   2764034985.5172668     
   2741679858.0612650     
   2725220271.9711385     
   2714776664.9943514     
   2711286602.5704145     
   2688764051.0507030     
   2672413822.7195401     
   2662308729.8060188     
   2658524569.1773167     
   2664685694.7607203     
   2646060245.6391377     
   2633961304.7787542     
   2628424355.4949050     
   2629486045.0950680     
   2654973868.5160298     
   2638154741.3974648     
   2628178260.2210956     
   2625053841.6957941     
   2628791173.8057380     
   2683357291.9917903     
   2666012439.1704497     
   2655787514.7464337     
   2652682518.7197499     
   2656697451.0903888     
   2714776664.9943514     
   2685997875.6550012     
   2665927789.5147791     
   2654789014.4105873     
   2652802762.2487478     
   2658524569.1773167     
   2638562366.7537231     
   2627585863.4058332     
   2625729483.9883571     
   2633124015.5352726     
   2629486045.0950680     
   2616040164.7558861     
   2611822165.1397667     
   2616894858.6406999     
   2631318347.7903328     
   2628791173.8057380     
   2619154168.0063920     
   2618987595.0426583     
   2628307679.6381149     
   2647129780.4179916     
   2656697451.0903888     
   2647902500.8309903     
   2648849346.6079559     
   2659537988.4212775     
   2679968426.2709613     
   2652802762.2487478     
   2628717359.4829001     
   2613615666.6777191     
   2607677466.9144354     
   2611073322.2015662     
   2633124015.5352726     
   2617086451.5656848     
   2609939041.2119536     
   2611782069.3433452     
   2622708766.9536066     
   2631318347.7903328     
   2621241948.4213557     
   2619970537.2957888     
   2627547898.6584015     
   2644014100.5480671     
   2647129780.4179916     
   2640798833.1675935     
   2643228616.5870724     
   2654429829.4057879     
   2674412159.2866607     
   2679968426.2709613     
   2675124263.6399393     
   2679059673.9703059     
   2691774657.2620544     
   2713269213.5151992     
   2611073322.2015662     
   2594661661.1187110     
   2588485731.7423124     
   2592686547.6823387     
   2607379922.5637250     
   2622708766.9536066     
   2612961065.3966222     
   2613282736.3701153     
   2623750120.6702528     
   2644424134.2482309     
   2644014100.5480671     
   2639260225.9430828     
   2644497972.0814133     
   2659760126.5634265     
   2685072206.8500752     
   2674412159.2866607     
   2672933074.4968719     
   2681485690.6442900     
   2700077997.4679818     
   2728716090.2127681     
   2713269213.5151992     
   2713333558.7051811     
   2723608171.7138615     
   2744093052.5412154     
   2774788201.1872668     
   2607379922.5637250     
   2594479996.8190780     
   2592766742.1968341     
   2602320193.5146308     
   2623236976.2324567     
   2644424134.2482309     
   2633352171.2137361     
   2632577024.2100701     
   2642138032.7370324     
   2662085547.2173858     
   2685072206.8500752     
   2675508898.2987437     
   2675534154.5486770     
   2685163174.2254314     
   2704416640.2078466     
   2728716090.2127681     
   2720507382.7754407     
   2721339187.1519995     
   2731214777.4121132     
   2750138913.1520991     
   2774788201.1872668     
   2767930015.9884686     
   2769705556.3342118     
   2780114822.2244930     
   2799157813.6593118     
   2623236976.2324567     
   2584902631.7299728     
   2552427456.5982461     
   2526392749.1983809     
   2507606731.8628035     
   2662085547.2173858     
   2616761243.9818311     
   2577088768.6959310     
   2543399033.1854968     
   2516154418.9972687     
   2704416640.2078466     
   2654197465.3979945     
   2609565105.3199215     
   2570667033.8879395     
   2537709846.5741420     
   2750138913.1520991     
   2697122921.8393540     
   2649771071.5189209     
   2608120005.2655129     
   2572221061.1136446     
   2799157813.6593118     
   2745440209.7298679     
   2697606496.4579906     
   2655656673.8436699     
   2619590741.8868980     
   2507606731.8628035     
   2357213591.1377878     
   2215007255.1705780     
   2085969642.1978493     
   1976978233.2421927     
   2516154418.9972687     
   2348248825.8713112     
   2183910054.7453475     
   2026239089.0710447     
   1879801902.7955678     
   2537709846.5741420     
   2357382220.4138894     
   2176796400.3153515     
   1997424443.6618254     
   1821544972.7996051     
   2572221061.1136446     
   2384716794.8791428     
   2194132831.2306938     
   2000847547.3561406     
   1805465050.8790331     
   2619590741.8868980     
   2430220741.9734182     
   2236061514.1051245     
   2037113058.2819889     
   1833375374.5040507     
   2664176287.8032732     
   2651349257.6615629     
   2650270414.9790840     
   2660939759.7558265     
   2683357291.9917903     
   2632289487.3960052     
   2621458942.8901868     
   2621609370.4953384     
   2632771006.9904833     
   2654973868.5167470     
   2657030531.8396897     
   2643576697.5389924     
   2640295585.4663434     
   2647295765.0126543     
   2664685694.7617331     
   2734083446.9518328     
   2714188367.0780125     
   2703616703.3140059     
   2702578496.6386704     
   2711286602.5714154     
   2856615362.9872732     
   2827552861.4315348     
   2806917346.0233922     
   2795017258.5349798     
   2792171194.2646103     
   2683357291.9917903     
   2666012439.1704497     
   2655787514.7464337     
   2652682518.7197499     
   2656697451.0903888     
   2654973868.5167470     
   2638154741.3979440     
   2628178260.2213969     
   2625053841.6959748     
   2628791173.8058481     
   2664685694.7617331     
   2646060245.6397071     
   2633961304.7789941     
   2628424355.4949307     
   2629486045.0950098     
   2711286602.5714154     
   2688764051.0510259     
   2672413822.7193809     
   2662308729.8055620     
   2658524569.1767502     
   2792171194.2646103     
   2764034985.5171013     
   2741679858.0604157     
   2725220271.9698658     
   2714776664.9929218     
   2656697451.0903888     
   2647902500.8309903     
   2648849346.6079559     
   2659537988.4212775     
   2679968426.2709613     
   2628791173.8058481     
   2619154168.0063839     
   2618987595.0425110     
   2628307679.6377983     
   2647129780.4174781     
   2629486045.0950098     
   2616040164.7556839     
   2611822165.1393757     
   2616894858.6400690     
   2631318347.7894273     
   2658524569.1767502     
   2638562366.7530832     
   2627585863.4050617     
   2625729483.9873962     
   2633124015.5340657     
   2714776664.9929218     
   2685997875.6536636     
   2665927789.5134726     
   2654789014.4092445     
   2652802762.2473021     
   2679968426.2709613     
   2675124263.6399393     
   2679059673.9703059     
   2691774657.2620544     
   2713269213.5151992     
   2647129780.4174781     
   2640798833.1672111     
   2643228616.5868058     
   2654429829.4056244     
   2674412159.2865891     
   2631318347.7894273     
   2621241948.4206710     
   2619970537.2953000     
   2627547898.6580873     
   2644014100.5479054     
   2633124015.5340657     
   2617086451.5647616     
   2609939041.2112784     
   2611782069.3428864     
   2622708766.9533262     
   2652802762.2473021     
   2628717359.4817843     
   2613615666.6768794     
   2607677466.9138250     
   2611073322.2011328     
   2713269213.5151992     
   2713333558.7051811     
   2723608171.7138615     
   2744093052.5412154     
   2774788201.1872668     
   2674412159.2865891     
   2672933074.4968204     
   2681485690.6442509     
   2700077997.4679456     
   2728716090.2127385     
   2644014100.5479054     
   2639260225.9429574     
   2644497972.0813174     
   2659760126.5633540     
   2685072206.8500199     
   2622708766.9533262     
   2612961065.3964081     
   2613282736.3699536     
   2623750120.6701388     
   2644424134.2481518     
   2611073322.2011328     
   2594661661.1183791     
   2588485731.7420650     
   2592686547.6821599     
   2607379922.5636129     
   2774788201.1872668     
   2767930015.9884686     
   2769705556.3342118     
   2780114822.2244930     
   2799157813.6593118     
   2728716090.2127385     
   2720507382.7754240     
   2721339187.1519923     
   2731214777.4121199     
   2750138913.1521106     
   2685072206.8500199     
   2675508898.2986975     
   2675534154.5486460     
   2685163174.2254300     
   2704416640.2078738     
   2644424134.2481518     
   2633352171.2136645     
   2632577024.2100115     
   2642138032.7370105     
   2662085547.2173920     
   2607379922.5636129     
   2594479996.8189697     
   2592766742.1967387     
   2602320193.5145631     
   2623236976.2324438     
   2799157813.6593118     
   2745440209.7298679     
   2697606496.4579906     
   2655656673.8436699     
   2619590741.8868980     
   2750138913.1521106     
   2697122921.8393621     
   2649771071.5189075     
   2608120005.2654672     
   2572221061.1135554     
   2704416640.2078738     
   2654197465.3980083     
   2609565105.3199015     
   2570667033.8878736     
   2537709846.5740209     
   2662085547.2173920     
   2616761243.9818487     
   2577088768.6959457     
   2543399033.1854596     
   2516154418.9971762     
   2623236976.2324438     
   2584902631.7300129     
   2552427456.5982985     
   2526392749.1984248     
   2507606731.8628058     
   2619590741.8868980     
   2430220741.9734182     
   2236061514.1051245     
   2037113058.2819889     
   1833375374.5040507     
   2572221061.1135554     
   2384716794.8791137     
   2194132831.2307081     
   2000847547.3562233     
   1805465050.8791616     
   2537709846.5740209     
   2357382220.4138212     
   2176796400.3153586     
   1997424443.6619248     
   1821544972.7997639     
   2516154418.9971762     
   2348248825.8712430     
   2183910054.7453241     
   2026239089.0710592     
   1879801902.7955604     
   2507606731.8628058     
   2357213591.1377568     
   2215007255.1705084     
   2085969642.1977329     
   1976978233.2419519     
   2856615362.9872732     
   2827552861.4315348     
   2806917346.0233922     
   2795017258.5349798     
   2792171194.2646103     
   3003192921.1108308     
   2954857580.1708827     
   2915013048.9851003     
   2884092591.8855400     
   2862565552.9055500     
   3193707227.1883674     
   3124865552.2243938     
   3064305439.9194555     
   3012560875.1581182     
   2970238247.2704144     
   3423501089.4838486     
   3333346371.8934174     
   3251052025.4648223     
   3177212543.6356125     
   3112535053.6135263     
   3687771112.9213061     
   3575759627.3120747     
   3471049228.9832253     
   3374250486.4696245     
   3286123861.4085126     
   2792171194.2646103     
   2764034985.5171013     
   2741679858.0604157     
   2725220271.9698658     
   2714776664.9929218     
   2862565552.9055500     
   2823818139.2789693     
   2790794761.2263508     
   2763659421.3801022     
   2742589815.0339417     
   2970238247.2704144     
   2919787035.1705189     
   2874874232.1117916     
   2835708309.4414158     
   2802522167.4897089     
   3112535053.6135263     
   3049624772.5654497     
   2991954910.0774155     
   2939765999.7239962     
   2893335322.5710187     
   3286123861.4085126     
   3210279840.9229622     
   3139294543.5215235     
   3073424183.5268245     
   3012973698.2291789     
   2714776664.9929218     
   2685997875.6536636     
   2665927789.5134726     
   2654789014.4092445     
   2652802762.2473021     
   2742589815.0339417     
   2700961980.3848433     
   2667808507.6408119     
   2643459376.9593000     
   2628252966.9168301     
   2802522167.4897089     
   2746498172.8557696     
   2698556245.9895120     
   2659130970.5044026     
   2628683563.7608285     
   2893335322.5710187     
   2821925215.4410343     
   2758041960.5909643     
   2702203826.0225248     
   2654980552.0535369     
   3012973698.2291789     
   2925711545.6312714     
   2845284438.9181762     
   2772259713.0643725     
   2707282865.8368945     
   2652802762.2473021     
   2628717359.4817843     
   2613615666.6768794     
   2607677466.9138250     
   2611073322.2011328     
   2628252966.9168301     
   2592601047.7399855     
   2565651532.5638070     
   2547684254.4914165     
   2538973236.8871789     
   2628683563.7608285     
   2579828690.0192876     
   2539269463.6197309     
   2507393263.2010751     
   2484593399.4288735     
   2654980552.0535369     
   2591776118.5602169     
   2536296154.7970934     
   2489024888.8431358     
   2450473317.1449113     
   2707282865.8368945     
   2629137573.2633619     
   2557975997.8434048     
   2494348740.1924047     
   2438859951.3936729     
   2611073322.2011328     
   2594661661.1183791     
   2588485731.7420650     
   2592686547.6821599     
   2607379922.5636129     
   2538973236.8871789     
   2511132291.4416337     
   2493450604.5194287     
   2486182272.7471809     
   2489547953.2530160     
   2484593399.4288735     
   2443168063.0647273     
   2411727846.5417633     
   2390674994.5766473     
   2380379240.0565729     
   2450473317.1449113     
   2393618314.5891719     
   2346378608.5539169     
   2309326156.8753791     
   2283017978.0201883     
   2438859951.3936729     
   2365223468.2189293     
   2300555960.3555636     
   2245591763.4052801     
   2201089229.0896254     
   2607379922.5636129     
   2594479996.8189697     
   2592766742.1967387     
   2602320193.5145631     
   2623236976.2324438     
   2489547953.2530160     
   2469844272.8284831     
   2462091497.0665808     
   2466427187.2204957     
   2482986648.8128176     
   2380379240.0565729     
   2351595591.9845943     
   2335680132.4869332     
   2332884013.2641983     
   2343429028.6376896     
   2283017978.0201883     
   2242522668.1850400     
   2215904502.3619590     
   2203612517.9624867     
   2206033951.9579115     
   2201089229.0896254     
   2145969510.4210329     
   2105711366.0471568     
   2081076846.4700506     
   2072739795.2462456     
   2623236976.2324438     
   2584902631.7300129     
   2552427456.5982985     
   2526392749.1984248     
   2507606731.8628058     
   2482986648.8128176     
   2450416587.0004196     
   2426394276.6352100     
   2411865029.1080947     
   2408205173.5500512     
   2343429028.6376896     
   2319066808.0670819     
   2306242317.7590246     
   2306361116.3652029     
   2321511129.2968130     
   2206033951.9579115     
   2191638640.2838764     
   2192257401.6049623     
   2209859849.3597255     
   2247365455.0163937     
   2072739795.2462456     
   2069112243.3701034     
   2084760606.8821776     
   2122317831.9261272     
   2185596086.2415519     
   2507606731.8628058     
   2357213591.1377568     
   2215007255.1705084     
   2085969642.1977329     
   1976978233.2419519     
   2408205173.5500512     
   2282883959.8819351     
   2168077615.0743842     
   2070526779.4088733     
   1998999815.0674663     
   2321511129.2968130     
   2224772411.4447012     
   2141366420.4301100     
   2079658318.4191930     
   2049819163.4136271     
   2247365455.0163937     
   2182668855.3787608     
   2134402772.8596711     
   2112233280.2049685     
   2127094157.1646190     
   2185596086.2415519     
   2156278790.0629010     
   2146539523.5993984     
   2166900752.6953034     
   2228433604.0421228     
   3687771112.9213061     
   3575759627.3120747     
   3471049228.9832253     
   3374250486.4696245     
   3286123861.4085126     
   3911857694.6644773     
   3782406906.6555281     
   3658788052.9568706     
   3541594004.0887971     
   3431574250.0219550     
   4164844133.3268805     
   4018464236.2363758     
   3876606976.0799522     
   3739810075.8385472     
   3608762134.7395129     
   4439847048.1071510     
   4277405847.0615954     
   4118363484.9145794     
   3963182980.2913527     
   3812463254.1590977     
   4731270533.8927164     
   4553826190.2137613     
   4378847386.6547556     
   4206717049.9190478     
   4037934008.5376859     
   3286123861.4085126     
   3210279840.9229622     
   3139294543.5215235     
   3073424183.5268245     
   3012973698.2291789     
   3431574250.0219550     
   3345174041.9042745     
   3262702953.6965065     
   3184404024.7306709     
   3110570484.1887469     
   3608762134.7395129     
   3512218360.9843569     
   3418772744.4454823     
   3328638508.9121523     
   3242076169.3713384     
   3812463254.1590977     
   3706448455.7791514     
   3602823784.0680618     
   3501764204.4638033     
   3403485890.8681483     
   4037934008.5376859     
   3923260630.0438070     
   3810401626.2549877     
   3699492192.2623386     
   3590701109.7706041     
   3012973698.2291789     
   2925711545.6312714     
   2845284438.9181762     
   2772259713.0643725     
   2707282865.8368945     
   3110570484.1887469     
   3007739334.9357758     
   2910736318.4597678     
   2820141272.3769102     
   2736638242.2805414     
   3242076169.3713384     
   3123989772.5089574     
   3010671009.4029713     
   2902662480.4436350     
   2800626654.8647151     
   3403485890.8681483     
   3270833854.4540629     
   3141913257.2447777     
   3017192044.0809407     
   2897260430.0157819     
   3590701109.7706041     
   3444381834.7955136     
   3300842122.4175324     
   3160455227.9926958     
   3023707472.3599405     
   2707282865.8368945     
   2629137573.2633619     
   2557975997.8434048     
   2494348740.1924047     
   2438859951.3936729     
   2736638242.2805414     
   2643549008.0960317     
   2556369374.4336195     
   2475677231.0624270     
   2402134353.2003436     
   2800626654.8647151     
   2693033704.0624075     
   2590162289.8466182     
   2492552913.5585837     
   2400850226.2613783     
   2897260430.0157819     
   2776211154.6879792     
   2658691149.9062438     
   2545149143.1262975     
   2436140707.8225956     
   3023707472.3599405     
   2890652334.5091033     
   2760035036.3510375     
   2632183726.9992518     
   2507519231.5382147     
   2438859951.3936729     
   2365223468.2189293     
   2300555960.3555636     
   2245591763.4052801     
   2201089229.0896254     
   2402134353.2003436     
   2310846874.5943880     
   2227412255.9945483     
   2152661862.3767152     
   2087507288.5848212     
   2400850226.2613783     
   2292371783.3899612     
   2190342222.7453852     
   2095585203.6647203     
   2009059585.0043795     
   2436140707.8225956     
   2311910234.2932525     
   2192593230.0121017     
   2078887029.3601503     
   1971649453.9579217     
   2507519231.5382147     
   2369759783.8325114     
   2235463121.7615600     
   2105120070.4328008     
   1979364294.9222674     
   2201089229.0896254     
   2145969510.4210329     
   2105711366.0471568     
   2081076846.4700506     
   2072739795.2462456     
   2087507288.5848212     
   2012468277.0275691     
   1949743978.2932956     
   1900408649.8454239     
   1865487132.5637317     
   2009059585.0043795     
   1912646495.3069623     
   1824997593.7299206     
   1747310930.4342537     
   1680876414.9860172     
   1971649453.9579217     
   1855406634.9849880     
   1743551256.3811264     
   1637007501.2020967     
   1536910098.7812271     
   1979364294.9222674     
   1848379143.4643300     
   1717465118.5911348     
   1586977539.9647889     
   1457432973.2526600     
   2072739795.2462456     
   2069112243.3701034     
   2084760606.8821776     
   2122317831.9261272     
   2185596086.2415519     
   1865487132.5637317     
   1854899461.4200161     
   1867308985.7714090     
   1904926116.6066105     
   1970782366.4951198     
   1680876414.9860172     
   1652344856.8625212     
   1651547647.2983263     
   1680854812.1109774     
   1742874844.0522840     
   1536910098.7812271     
   1476050414.5360272     
   1447887382.3262839     
   1456387210.8829997     
   1504842689.5535865     
   1457432973.2526600     
   1348466775.3452525     
   1274481432.1781173     
   1243600122.4133673     
   1262857246.6536486     
   2185596086.2415519     
   2156278790.0629010     
   2146539523.5993984     
   2166900752.6953034     
   2228433604.0421228     
   1970782366.4951198     
   1968942699.0204418     
   2003636118.6870317     
   2093537009.4991305     
   2257306754.5332274     
   1742874844.0522840     
   1787694132.0430112     
   1884653703.3319216     
   2060663823.1252310     
   2340956572.9199553     
   1504842689.5535865     
   1613249360.6554949     
   1788851979.1260161     
   2066402360.2390780     
   2476108919.6161637     
   1262857246.6536486     
   1446651274.0450814     
   1715666314.7198446     
   2110484986.9936328     
   2663548443.7322016     
   4731270533.8927164     
   4553826190.2137613     
   4378847386.6547556     
   4206717049.9190478     
   4037934008.5376859     
   5043041991.8277264     
   4849595318.2713423     
   4657655484.0807400     
   4467473787.9036484     
   4279405244.5293651     
   5380396371.6268511     
   5171550963.5274563     
   4963373326.1173935     
   4755984638.2152061     
   4549594276.8973742     
   5740460027.1001034     
   5516685849.2525568     
   5292868253.0283298     
   5069006614.2777987     
   4845172548.0455055     
   6120796838.2987356     
   5882431231.2325277     
   5643438427.8511448     
   5403707761.2338581     
   5163186271.7481747     
   4037934008.5376859     
   3923260630.0438070     
   3810401626.2549877     
   3699492192.2623386     
   3590701109.7706041     
   4279405244.5293651     
   4154467170.5124116     
   4031041985.6675105     
   3909224198.7887487     
   3789143396.1221814     
   4549594276.8973742     
   4414494114.7556562     
   4280598452.8786111     
   4147957186.0859494     
   4016655628.7332530     
   4845172548.0455055     
   4699832488.0549355     
   4555388487.6075964     
   4411844414.0245543     
   4269239161.6147418     
   5163186271.7481747     
   5007367382.5266790     
   4852139926.4516315     
   4697461957.1941748     
   4543325744.2878590     
   3590701109.7706041     
   3444381834.7955136     
   3300842122.4175324     
   3160455227.9926958     
   3023707472.3599405     
   3789143396.1221814     
   3628816974.7724915     
   3470400205.2804937     
   3314158148.8101535     
   3160460249.9143949     
   4016655628.7332530     
   3843027770.5236983     
   3670527425.0103836     
   3499308881.9641447     
   3329615588.9339061     
   4269239161.6147418     
   4082902349.4571104     
   3897016903.0720873     
   3711634212.1830077     
   3526877253.4914250     
   4543325744.2878590     
   4344732922.5167294     
   4146023403.5403557     
   3947158904.9967160     
   3748155792.9523921     
   3023707472.3599405     
   2890652334.5091033     
   2760035036.3510375     
   2632183726.9992518     
   2507519231.5382147     
   3160460249.9143949     
   3016285904.7824507     
   2873953693.2380800     
   2733689225.2519817     
   2595799429.4533644     
   3329615588.9339061     
   3175148778.5547476     
   3022011414.4928107     
   2870331416.1974683     
   2720303951.0132461     
   3526877253.4914250     
   3362685127.6335220     
   3199397788.1262755     
   3037058855.7550135     
   2875766261.8597374     
   3748155792.9523921     
   3574529796.0283294     
   3401461454.3350530     
   3228926084.0878987     
   3056943474.2841988     
   2507519231.5382147     
   2369759783.8325114     
   2235463121.7615600     
   2105120070.4328008     
   1979364294.9222674     
   2595799429.4533644     
   2448004286.7585859     
   2302289553.9078174     
   2158966943.5395594     
   2018455656.6965320     
   2720303951.0132461     
   2564455633.3360605     
   2409571403.3177514     
   2255797441.6049795     
   2103341419.6310315     
   2875766261.8597374     
   2713901821.2523766     
   2552204771.5873237     
   2390707057.3029394     
   2229466174.4764690     
   3056943474.2841988     
   2890956686.9465094     
   2724641461.7634630     
   2557975162.1280417     
   2390943287.0528803     
   1979364294.9222674     
   1848379143.4643300     
   1717465118.5911348     
   1586977539.9647889     
   1457432973.2526600     
   2018455656.6965320     
   1881395467.8588064     
   1744644483.0884402     
   1608332142.3065856     
   1472636696.2227402     
   2103341419.6310315     
   1962905518.1167905     
   1823383734.1569834     
   1684806118.8293877     
   1547229538.8885429     
   2229466174.4764690     
   2086640782.1755676     
   1945413161.3746576     
   1805785416.2713170     
   1667831847.1329517     
   2390943287.0528803     
   2245087914.2489953     
   2101371410.0343919     
   1959799340.3150871     
   1820536311.6092322     
   1457432973.2526600     
   1348466775.3452525     
   1274481432.1781173     
   1243600122.4133673     
   1262857246.6536486     
   1472636696.2227402     
   1328436302.9441521     
   1198709218.0520058     
   1087936018.3033004     
   1002021034.3257501     
   1547229538.8885429     
   1397384296.4289315     
   1243995389.5944548     
   1084792174.5858891     
   917744797.58192241     
   1667831847.1329517     
   1552435890.9752357     
   1427952263.4900627     
   1294734806.8739679     
   1158890280.7543807     
   1820536311.6092322     
   1779869253.7700081     
   1735720383.0096488     
   1696704236.3556781     
   1681276775.0819414     
   1262857246.6536486     
   1446651274.0450814     
   1715666314.7198446     
   2110484986.9936328     
   2663548443.7322016     
   1002021034.3257501     
   1164703288.0806251     
   1425420425.7134900     
   1808752980.9927988     
   2334779008.5170140     
   917744797.58192241     
   963144694.80858648     
   1144941521.5632119     
   1476483926.3499308     
   1957446939.2625945     
   1158890280.7543807     
   1008455054.1390198     
   985235864.44024599     
   1161476740.7872238     
   1544065337.4573097     
   1681276775.0819414     
   1383755629.7773294     
   1129466642.1954608     
   1010106459.4512216     
   1152923006.3773720     
 </DataArray>
 <DataArray  type="Float64" Name="strain" NumberOfComponents="3" format="ascii">
  0.10220729502442438       -2.9666415935139967E-002   3.0648729209226122E-003
   9.8141401809449857E-002  -2.8920257658839765E-002   2.3612955674718883E-003
   9.4075508594475332E-002  -2.8099629501372292E-002   1.9273370390311406E-003
   9.0009615379500807E-002  -2.7204531462737644E-002   1.7629973356007578E-003
   8.5943722164526282E-002  -2.6234963542935641E-002   1.8682764571799071E-003
   9.5658331199106161E-002  -2.7896401845118657E-002   9.0233896986771089E-003
   9.1855460438012793E-002  -2.7160172411318462E-002   8.5275508549153556E-003
   8.8052589676919535E-002  -2.6365310651242813E-002   8.2881380939062166E-003
   8.4249718915826222E-002  -2.5511816564891959E-002   8.3051514156493589E-003
   8.0446848154732853E-002  -2.4599690152265707E-002   8.5785908201447825E-003
   8.9257151150884506E-002  -2.6126387755097680E-002   1.4979896411378146E-002
   8.5704110101414738E-002  -2.5400087163796992E-002   1.4675958522413102E-002
   8.2151069051945025E-002  -2.4630991801113195E-002   1.4615253973943393E-002
   7.8598028002475256E-002  -2.3819101667046060E-002   1.4797782765968048E-002
   7.5044986953005544E-002  -2.2964416761595829E-002   1.5223544898487457E-002
   8.3003754879759195E-002  -2.4356373665076481E-002   2.0934393059025128E-002
   7.9687350799655582E-002  -2.3640001916275730E-002   2.0806518569965404E-002
   7.6370946719551816E-002  -2.2896672950983701E-002   2.0908684679142385E-002
   7.3054542639448078E-002  -2.2126386769200489E-002   2.1240891386557093E-002
   6.9738138559344381E-002  -2.1329143370926035E-002   2.1803138692208575E-002
   7.6898142385730506E-002  -2.2586359575055337E-002   2.6886879641618566E-002
   7.3805182532735158E-002  -2.1879916668754384E-002   2.6919230997571597E-002
   7.0712222679739839E-002  -2.1162354100854056E-002   2.7168430209504019E-002
   6.7619262826744450E-002  -2.0433671871354701E-002   2.7634477277416095E-002
   6.4526302973749172E-002  -1.9693869980256129E-002   2.8317372201307867E-002
   8.5943722164526282E-002  -2.6234963542935641E-002   1.8682764571799071E-003
   8.3400787200717252E-002  -2.5245071982535616E-002   1.4573391305409134E-003
   8.0857852236908223E-002  -2.4289003022106653E-002   1.2350515329830891E-003
   7.8314917273099194E-002  -2.3366756661648690E-002   1.2014136645065732E-003
   7.5771982309290165E-002  -2.2478332901161857E-002   1.3564255251112822E-003
   8.0446848154732853E-002  -2.4599690152265707E-002   8.5785908201447825E-003
   7.8084007580214554E-002  -2.3672781875446497E-002   8.2226653628514057E-003
   7.5721167005696199E-002  -2.2774942196515380E-002   8.0382789550583478E-003
   7.3358326431177900E-002  -2.1906171115472953E-002   8.0254315967652756E-003
   7.0995485856659601E-002  -2.1066468632318869E-002   8.1841232879726333E-003
   7.5044986953005544E-002  -2.2964416761595829E-002   1.5223544898487457E-002
   7.2845130088196861E-002  -2.2100491768357017E-002   1.4927385312622665E-002
   7.0645273223388150E-002  -2.1260881370924009E-002   1.4785654096676801E-002
   6.8445416358579439E-002  -2.0445585569296997E-002   1.4798351250650030E-002
   6.6245559493770756E-002  -1.9654604363475825E-002   1.4965476774542297E-002
   6.9738138559344381E-002  -2.1329143370926035E-002   2.1803138692208575E-002
   6.7684154724664200E-002  -2.0528201661267717E-002   2.1571498979854650E-002
   6.5630170889984019E-002  -1.9746820545332798E-002   2.1477176957838660E-002
   6.3576187055303823E-002  -1.8985000023121042E-002   2.1520172626160475E-002
   6.1522203220623670E-002  -1.8242740094632809E-002   2.1700485984820550E-002
   6.4526302973749172E-002  -1.9693869980256129E-002   2.8317372201307867E-002
   6.2601081489616489E-002  -1.8955911554178445E-002   2.8155006364547291E-002
   6.0675860005483806E-002  -1.8232759719741462E-002   2.8112847538543512E-002
   5.8750638521351151E-002  -1.7524414476945135E-002   2.8190895723296819E-002
   5.6825417037218495E-002  -1.6830875825789793E-002   2.8389150918806949E-002
   7.5771982309290165E-002  -2.2478332901161857E-002   1.3564255251112822E-003
   7.2438722329339178E-002  -2.1598051304500876E-002   9.4499168501938069E-004
   6.9105462349388247E-002  -2.0700231435521022E-002   7.5365148825640160E-004
   6.5772202369437316E-002  -1.9784873294221156E-002   7.8240493482123474E-004
   6.2438942389486329E-002  -1.8851976880603138E-002   1.0312520247145462E-003
   7.0995485856659601E-002  -2.1066468632318869E-002   8.1841232879726333E-003
   6.7877554454186251E-002  -2.0233395370001794E-002   7.8111686860392049E-003
   6.4759623051712956E-002  -1.9384511951469868E-002   7.6487775957327364E-003
   6.1641691649239633E-002  -1.8519818376722487E-002   7.6969500170532973E-003
   5.8523760246766365E-002  -1.7639314645761184E-002   7.9556859500011790E-003
   6.6245559493770756E-002  -1.9654604363475825E-002   1.4965476774542297E-002
   6.3333426537073786E-002  -1.8868739435502380E-002   1.4629273294662820E-002
   6.0421293580376872E-002  -1.8068792467418604E-002   1.4494103194709035E-002
   5.7509160623679959E-002  -1.7254763459224040E-002   1.4559966474681052E-002
   5.4597027666982961E-002  -1.6426652410919063E-002   1.4826863134578788E-002
   6.1522203220623670E-002  -1.8242740094632809E-002   2.1700485984820550E-002
   5.8806338578001868E-002  -1.7504083501003131E-002   2.1399305510890636E-002
   5.6090473935380032E-002  -1.6753072983367451E-002   2.1289628285185047E-002
   5.3374609292758182E-002  -1.5989708541725260E-002   2.1371454307704173E-002
   5.0658744650136395E-002  -1.5213990176076914E-002   2.1644783578447700E-002
   5.6825417037218495E-002  -1.6830875825789793E-002   2.8389150918806949E-002
   5.4296290576970496E-002  -1.6139427566503883E-002   2.8121265334722423E-002
   5.1767164116722469E-002  -1.5437353499316200E-002   2.8035352867160884E-002
   4.9238037656474498E-002  -1.4724653624226345E-002   2.8131413516122514E-002
   4.6708911196226444E-002  -1.4001327941235042E-002   2.8409447281607381E-002
   6.2438942389486329E-002  -1.8851976880603138E-002   1.0312520247145462E-003
   5.9560226116105897E-002  -1.7928532342378567E-002   7.2426426576210901E-004
   5.6681509842725353E-002  -1.7041529827260288E-002   5.8829619973227443E-004
   5.3802793569344864E-002  -1.6190969335249918E-002   6.2334782662612498E-004
   5.0924077295964376E-002  -1.5376850866345881E-002   8.2941914644218961E-004
   5.8523760246766365E-002  -1.7639314645761184E-002   7.9556859500011790E-003
   5.5811199080695983E-002  -1.6762758399343436E-002   7.6022095941670198E-003
   5.3098637914625629E-002  -1.5909907278229385E-002   7.4100237600301377E-003
   5.0386076748555289E-002  -1.5080761282418809E-002   7.3791284475907548E-003
   4.7673515582484893E-002  -1.4275320411911929E-002   7.5095236568484269E-003
   5.4597027666982961E-002  -1.6426652410919063E-002   1.4826863134578788E-002
   5.2040892436997055E-002  -1.5596984456308860E-002   1.4439635079666696E-002
   4.9484757207011065E-002  -1.4778284729198246E-002   1.4203968375226458E-002
   4.6928621977025145E-002  -1.3970553229588473E-002   1.4119863021257305E-002
   4.4372486747039169E-002  -1.3173789957478088E-002   1.4187319017759492E-002
   5.0658744650136395E-002  -1.5213990176076914E-002   2.1644783578447700E-002
   4.8249306185009014E-002  -1.4431210513273784E-002   2.1236540722260930E-002
   4.5839867719881647E-002  -1.3646662180167336E-002   2.0970130045319873E-002
   4.3430429254754294E-002  -1.2860345176757418E-002   2.0845551547624977E-002
   4.1020990789626892E-002  -1.2072259503044080E-002   2.0862805229175593E-002
   4.6708911196226444E-002  -1.4001327941235042E-002   2.8409447281607381E-002
   4.4436440324731902E-002  -1.3265436570238986E-002   2.7992926521949735E-002
   4.2163969453237360E-002  -1.2515039631136135E-002   2.7708508770311863E-002
   3.9891498581742763E-002  -1.1750137123926790E-002   2.7556194026694389E-002
   3.7619027710248276E-002  -1.0970729048610295E-002   2.7535982291096550E-002
   5.0924077295964376E-002  -1.5376850866345881E-002   8.2941914644218961E-004
   4.8154888246788707E-002  -1.4566504667506863E-002   5.1168122471123567E-004
   4.5385699197613039E-002  -1.3727260985688827E-002   2.6801025666500777E-004
   4.2616510148437342E-002  -1.2859119820892703E-002   9.8406242303783475E-005
   3.9847321099261701E-002  -1.1962081173118699E-002   2.8691816273962445E-006
   4.7673515582484893E-002  -1.4275320411911929E-002   7.5095236568484269E-003
   4.4983497759664037E-002  -1.3474105750629461E-002   7.1684979807377092E-003
   4.2293479936843154E-002  -1.2657638382492287E-002   6.9117478036513358E-003
   3.9603462114022311E-002  -1.1825918307500613E-002   6.7392731255902227E-003
   3.6913444291201358E-002  -1.0978945525653927E-002   6.6510739465529545E-003
   4.4372486747039169E-002  -1.3173789957478088E-002   1.4187319017759492E-002
   4.1771848695912966E-002  -1.2381706833752448E-002   1.3809360811144838E-002
   3.9171210644786777E-002  -1.1588015779295774E-002   1.3525886648895175E-002
   3.6570572593660582E-002  -1.0792716794108308E-002   1.3336896531009695E-002
   3.3969934542534413E-002  -9.9958098781897098E-003   1.3242390457489317E-002
   4.1020990789626892E-002  -1.2072259503044080E-002   2.0862805229175593E-002
   3.8519941055535370E-002  -1.1289307916875352E-002   2.0434269715933762E-002
   3.6018891321443869E-002  -1.0518393176099136E-002   2.0110426792396302E-002
   3.3517841587352347E-002  -9.7595152807158879E-003   1.9891276458563544E-002
   3.1016791853260783E-002  -9.0126742307249930E-003   1.9776818714435707E-002
   3.7619027710248276E-002  -1.0970729048610295E-002   2.7535982291096550E-002
   3.5227774838531345E-002  -1.0196908999998311E-002   2.7043224695103785E-002
   3.2836521966814414E-002  -9.4487705729030258E-003   2.6665368234155495E-002
   3.0445269095097482E-002  -8.7263137673235999E-003   2.6402412908251877E-002
   2.8054016223380551E-002  -8.0295385832608313E-003   2.6254358717392567E-002
   3.9847321099261701E-002  -1.1962081173118699E-002   2.8691816273962445E-006
   3.7439729200620775E-002  -1.1131034250077665E-002  -2.7606542734637252E-004
   3.5032137301979849E-002  -1.0460868259480893E-002  -4.7142829630753003E-004
   3.2624545403338867E-002  -9.9515832013290506E-003  -5.8321942525629833E-004
   3.0216953504697996E-002  -9.6031790756221369E-003  -6.1143881419289947E-004
   3.6913444291201358E-002  -1.0978945525653927E-002   6.6510739465529545E-003
   3.4572496599270586E-002  -1.0177184222474489E-002   6.2123005653540453E-003
   3.2231548907339813E-002  -9.4810985834832273E-003   5.8232438575623879E-003
   2.9890601215409041E-002  -8.8906886086805859E-003   5.4839038231789539E-003
   2.7549653523478157E-002  -8.4059542980658986E-003   5.1942804622031602E-003
   3.3969934542534413E-002  -9.9958098781897098E-003   1.3242390457489317E-002
   3.1661775990709073E-002  -9.2233341948715353E-003   1.2698983572320799E-002
   2.9353617438883733E-002  -8.5013289074853393E-003   1.2171438293955783E-002
   2.7045458887058380E-002  -7.8297940160314550E-003   1.1659754622393506E-002
   2.4737300335233053E-002  -7.2087295205094382E-003   1.1163932557634482E-002
   3.1016791853260783E-002  -9.0126742307249930E-003   1.9776818714435707E-002
   2.8707567374936190E-002  -8.2694841672686925E-003   1.9183983593554749E-002
   2.6398342896611561E-002  -7.5215592314875623E-003   1.8573155012871795E-002
   2.4089118418286974E-002  -6.7688994233824351E-003   1.7944332972387581E-002
   2.1779893939962346E-002  -6.0115047429530888E-003   1.7297517472101523E-002
   2.8054016223380551E-002  -8.0295385832608313E-003   2.6254358717392567E-002
   2.5709870751952024E-002  -7.3156341396654612E-003   2.5667300629054979E-002
   2.3365725280523442E-002  -6.5417895554899241E-003   2.5028394014311117E-002
   2.1021579809094873E-002  -5.7080048307336165E-003   2.4337638873160455E-002
   1.8677434337666332E-002  -4.8142799653965174E-003   2.3595035205604353E-002
   3.0216953504697996E-002  -9.6031790756221369E-003  -6.1143881419289947E-004
   2.9607559850266307E-002  -9.1323620820684681E-003  -3.6692785591796451E-004
   2.8998166195834674E-002  -8.2558384203775259E-003  -1.8020921848536098E-003
   2.8388772541402957E-002  -6.9736080905492132E-003  -4.9169318009995022E-003
   2.7779378886971351E-002  -5.2856710925823780E-003  -9.7114467043555308E-003
   2.7549653523478157E-002  -8.4059542980658986E-003   5.1942804622031602E-003
   2.5529637348941148E-002  -7.8694443554491178E-003   5.8702577787222987E-003
   2.3509621174404249E-002  -7.1237074846401960E-003   5.4046653422415991E-003
   2.1489604999867323E-002  -6.1687436856393552E-003   3.7975031527599235E-003
   1.9469588825330342E-002  -5.0045529584450410E-003   1.0487712102789093E-003
   2.4737300335233053E-002  -7.2087295205094382E-003   1.1163932557634482E-002
   2.1844767174800717E-002  -6.6065266288297675E-003   1.2074896492453357E-002
   1.8952234014368477E-002  -5.9915765489032824E-003   1.2382396208481611E-002
   1.6059700853936161E-002  -5.3638792807297123E-003   1.2086431705719797E-002
   1.3167167693503901E-002  -4.7234348243084812E-003   1.1187002984167138E-002
   2.1779893939962346E-002  -6.0115047429530888E-003   1.7297517472101523E-002
   1.8552949327844813E-002  -5.3436089022103062E-003   1.8246988285274074E-002
   1.5326004715727381E-002  -4.8594456131658276E-003   1.9131100413866724E-002
   1.2099060103609867E-002  -4.5590148758195177E-003   1.9949853857878935E-002
   8.8721154914924161E-003  -4.4423166901715327E-003   2.0703248617310752E-002
   1.8677434337666332E-002  -4.8142799653965174E-003   2.3595035205604353E-002
   1.5654183808073596E-002  -4.0806911755911779E-003   2.4386533157185863E-002
   1.2630933278480944E-002  -3.7273146774288168E-003   2.5650777958397097E-002
   9.6076827488882910E-003  -3.7541504709101003E-003   2.7387769609238083E-002
   6.5844322192955551E-003  -4.1611985560345843E-003   2.9597508109708848E-002
   2.7779378886971351E-002  -5.2856710925823780E-003  -9.7114467043555308E-003
   2.3353077168193126E-002  -4.2072927719969400E-003  -4.1851751667223436E-003
   1.8926775449414901E-002  -4.7537384743084332E-003   2.6049703146046044E-003
   1.4500473730636509E-002  -6.9250081995203688E-003   1.0658989739625480E-002
   1.0074172011858451E-002  -1.0721101947629208E-002   1.9976883108338228E-002
   1.9469588825330342E-002  -5.0045529584450410E-003   1.0487712102789093E-003
   1.6234835050719654E-002  -4.6912708152532234E-003   6.7421516186553232E-003
   1.3000081276109077E-002  -6.2890327682542657E-003   1.3554753971673827E-002
   9.7653275014984997E-003  -9.7978388174498193E-003   2.1486578269335199E-002
   6.5305737268879227E-003  -1.5217688962839482E-002   3.0537624511637773E-002
   1.3167167693503901E-002  -4.7234348243084812E-003   1.1187002984167138E-002
   1.0979309864009912E-002  -5.1752488585088408E-003   1.6761272189991183E-002
   8.7914520345159231E-003  -7.8243270621994043E-003   2.3310111341406231E-002
   6.6035942050218926E-003  -1.2670669435379707E-002   3.0833520438412379E-002
   4.4157363755279455E-003  -1.9714275978049312E-002   3.9331499481009224E-002
   8.8721154914924161E-003  -4.4423166901715327E-003   2.0703248617310752E-002
   7.5865016080639142E-003  -5.6592269017652352E-003   2.5872186547286111E-002
   6.3008877246353567E-003  -9.3596213561442237E-003   3.1871042423801461E-002
   5.0152738412068167E-003  -1.5543500053309376E-002   3.8699816246857047E-002
   3.7296599577782974E-003  -2.4210862993259807E-002   4.6358508016452304E-002
   6.5844322192955551E-003  -4.1611985560345843E-003   2.9597508109708848E-002
   6.0564102828815081E-003  -6.1432049450209636E-003   3.4074894690540480E-002
   5.5283883464674888E-003  -1.0894915650089876E-002   3.9237547218860414E-002
   5.0003664100534834E-003  -1.8416330671239142E-002   4.5085465694668980E-002
   4.4723444736394224E-003  -2.8707450008469859E-002   5.1618650117967402E-002
   7.6898142385730506E-002  -2.2586359575055337E-002   2.6886879641618566E-002
   7.3805182532735158E-002  -2.1879916668754384E-002   2.6919230997571597E-002
   7.0712222679739839E-002  -2.1162354100854056E-002   2.7168430209504019E-002
   6.7619262826744450E-002  -2.0433671871354701E-002   2.7634477277416095E-002
   6.4526302973749172E-002  -1.9693869980256129E-002   2.8317372201307867E-002
   7.0782266470995725E-002  -2.0670071269064783E-002   3.2981970310979325E-002
   6.7916309072635406E-002  -2.0042503376554471E-002   3.2869542475761737E-002
   6.5050351674275142E-002  -1.9399301488278134E-002   3.2994271693834870E-002
   6.2184394275914878E-002  -1.8740465604235788E-002   3.3356157965198155E-002
   5.9318436877554642E-002  -1.8065995724427686E-002   3.3955201289852160E-002
   6.4498079937752292E-002  -1.8753782963074256E-002   3.8995928799466076E-002
   6.1879434191338067E-002  -1.8205090084354586E-002   3.8743236107244935E-002
   5.9260788444923794E-002  -1.7636248875702178E-002   3.8748009665624937E-002
   5.6642142698509548E-002  -1.7047259337117038E-002   3.9010249474606642E-002
   5.4023496952095240E-002  -1.6438121468599187E-002   3.9529955534189712E-002
   5.8045582786000513E-002  -1.6837494657083743E-002   4.4928755107078874E-002
   5.5694557888843171E-002  -1.6367676792154770E-002   4.4540311892020706E-002
   5.3343532991685837E-002  -1.5873196263126266E-002   4.4429644124874615E-002
   5.0992508094528467E-002  -1.5354053069998264E-002   4.4596751805641231E-002
   4.8641483197371133E-002  -1.4810247212770772E-002   4.5041634934320257E-002
   5.1424775015740110E-002  -1.4921206351093175E-002   5.0780449233817304E-002
   4.9361680165150634E-002  -1.4530263499954815E-002   5.0260769830089036E-002
   4.7298585314561159E-002  -1.4110143650550300E-002   5.0039175071583841E-002
   4.5235490463971670E-002  -1.3660846802879392E-002   5.0115664958302081E-002
   4.3172395613382181E-002  -1.3182372956942245E-002   5.0490239490243727E-002
   6.4526302973749172E-002  -1.9693869980256129E-002   2.8317372201307867E-002
   6.2601081489616489E-002  -1.8955911554178445E-002   2.8155006364547291E-002
   6.0675860005483806E-002  -1.8232759719741462E-002   2.8112847538543512E-002
   5.8750638521351151E-002  -1.7524414476945135E-002   2.8190895723296819E-002
   5.6825417037218495E-002  -1.6830875825789793E-002   2.8389150918806949E-002
   5.9318436877554642E-002  -1.8065995724427686E-002   3.3955201289852160E-002
   5.7520861837027815E-002  -1.7388469890306887E-002   3.3701036717284819E-002
   5.5723286796501001E-002  -1.6720466143326992E-002   3.3581958021172378E-002
   5.3925711755974194E-002  -1.6061984483488122E-002   3.3597965201514556E-002
   5.2128136715447415E-002  -1.5413024910789941E-002   3.3749058258311426E-002
   5.4023496952095240E-002  -1.6438121468599187E-002   3.9529955534189712E-002
   5.2368447220872139E-002  -1.5821028226435399E-002   3.9189276730315553E-002
   5.0713397489648995E-002  -1.5208172566912641E-002   3.8998562668593868E-002
   4.9058347758425852E-002  -1.4599554490030834E-002   3.8957813349024886E-002
   4.7403298027202750E-002  -1.3995173995789978E-002   3.9067028771608378E-002
   4.8641483197371133E-002  -1.4810247212770772E-002   4.5041634934320257E-002
   4.7143837641149475E-002  -1.4253586562563932E-002   4.4619726403639190E-002
   4.5646192084927775E-002  -1.3695878990498258E-002   4.4362661480808391E-002
   4.4148546528706076E-002  -1.3137124496573616E-002   4.4270440165828075E-002
   4.2650900972484411E-002  -1.2577323080790098E-002   4.4343062458698040E-002
   4.3172395613382181E-002  -1.3182372956942245E-002   5.0490239490243727E-002
   4.1847033097859782E-002  -1.2686144898692381E-002   4.9992385737255673E-002
   4.0521670582337355E-002  -1.2183585414083861E-002   4.9674254457815759E-002
   3.9196308066814935E-002  -1.1674694503116489E-002   4.9535845651923899E-002
   3.7870945551292501E-002  -1.1159472165790107E-002   4.9577159319580288E-002
   5.6825417037218495E-002  -1.6830875825789793E-002   2.8389150918806949E-002
   5.4296290576970496E-002  -1.6139427566503883E-002   2.8121265334722423E-002
   5.1767164116722469E-002  -1.5437353499316200E-002   2.8035352867160884E-002
   4.9238037656474498E-002  -1.4724653624226345E-002   2.8131413516122514E-002
   4.6708911196226444E-002  -1.4001327941235042E-002   2.8409447281607381E-002
   5.2128136715447415E-002  -1.5413024910789941E-002   3.3749058258311426E-002
   4.9783846551088973E-002  -1.4763602165503098E-002   3.3467014607229506E-002
   4.7439556386730516E-002  -1.4103730987898008E-002   3.3372670431403600E-002
   4.5095266222372053E-002  -1.3433411377974418E-002   3.3466025730833876E-002
   4.2750976058013618E-002  -1.2752643335732783E-002   3.3747080505519722E-002
   4.7403298027202750E-002  -1.3995173995789978E-002   3.9067028771608378E-002
   4.5249570517466614E-002  -1.3387776764502313E-002   3.8770649677945856E-002
   4.3095843007730547E-002  -1.2770108476479809E-002   3.8667696418272078E-002
   4.0942115497994438E-002  -1.2142169131722657E-002   3.8758168992587064E-002
   3.8788387988258399E-002  -1.1503958730230829E-002   3.9042067400890793E-002
   4.2650900972484411E-002  -1.2577323080790098E-002   4.4343062458698040E-002
   4.0693462476103497E-002  -1.2011951363501472E-002   4.4032170546871072E-002
   3.8736023979722548E-002  -1.1436485965061780E-002   4.3920430827765838E-002
   3.6778585483341612E-002  -1.0850926885470701E-002   4.4007843301382209E-002
   3.4821146986960691E-002  -1.0255274124728611E-002   4.4294407967719926E-002
   3.7870945551292501E-002  -1.1159472165790107E-002   4.9577159319580288E-002
   3.6115522426999558E-002  -1.0636125962500714E-002   4.9251577214005804E-002
   3.4360099302706559E-002  -1.0102863453643460E-002   4.9130873659885527E-002
   3.2604676178413575E-002  -9.5596846392188677E-003   4.9215048657219471E-002
   3.0849253054120590E-002  -9.0065895192267265E-003   4.9504102206007761E-002
   4.6708911196226444E-002  -1.4001327941235042E-002   2.8409447281607381E-002
   4.4436440324731902E-002  -1.3265436570238986E-002   2.7992926521949735E-002
   4.2163969453237360E-002  -1.2515039631136135E-002   2.7708508770311863E-002
   3.9891498581742763E-002  -1.1750137123926790E-002   2.7556194026694389E-002
   3.7619027710248276E-002  -1.0970729048610295E-002   2.7535982291096550E-002
   4.2750976058013618E-002  -1.2752643335732783E-002   3.3747080505519722E-002
   4.0616351842281823E-002  -1.2060093125615234E-002   3.3345461197832771E-002
   3.8481727626550041E-002  -1.1354427012063850E-002   3.3087432193651373E-002
   3.6347103410818225E-002  -1.0635644995078672E-002   3.2972993492975708E-002
   3.4212479195086437E-002  -9.9037470746601297E-003   3.3002145095805402E-002
   3.8788387988258399E-002  -1.1503958730230829E-002   3.9042067400890793E-002
   3.6803097723774957E-002  -1.0854749680991344E-002   3.8653959880501298E-002
   3.4817807459291542E-002  -1.0193814392991350E-002   3.8420929959102894E-002
   3.2832517194808154E-002  -9.5211528662307778E-003   3.8342977636695710E-002
   3.0847226930324725E-002  -8.8367651007099646E-003   3.8420102913279935E-002
   3.4821146986960691E-002  -1.0255274124728611E-002   4.4294407967719926E-002
   3.2996677969211310E-002  -9.6494062363673555E-003   4.3918422569954776E-002
   3.1172208951461885E-002  -9.0332017739188745E-003   4.3709002066666433E-002
   2.9347739933712487E-002  -8.4066607373829393E-003   4.3666146457854813E-002
   2.7523270915963079E-002  -7.7697831267598549E-003   4.3789855743520241E-002
   3.0849253054120590E-002  -9.0065895192267265E-003   4.9504102206007761E-002
   2.9197092578590794E-002  -8.4440627917435895E-003   4.9138849266193774E-002
   2.7544932103061054E-002  -7.8725891548464544E-003   4.8951648516341928E-002
   2.5892771627531286E-002  -7.2921686085349047E-003   4.8942499956452723E-002
   2.4240611152001490E-002  -6.7028011528097453E-003   4.9111403586525881E-002
   3.7619027710248276E-002  -1.0970729048610295E-002   2.7535982291096550E-002
   3.5227774838531345E-002  -1.0196908999998311E-002   2.7043224695103785E-002
   3.2836521966814414E-002  -9.4487705729030258E-003   2.6665368234155495E-002
   3.0445269095097482E-002  -8.7263137673235999E-003   2.6402412908251877E-002
   2.8054016223380551E-002  -8.0295385832608313E-003   2.6254358717392567E-002
   3.4212479195086437E-002  -9.9037470746601297E-003   3.3002145095805402E-002
   3.1944572457812181E-002  -9.1739693793208010E-003   3.2537609762056330E-002
   2.9676665720537843E-002  -8.4615480375739849E-003   3.2204865562148022E-002
   2.7408758983263601E-002  -7.7664830494197229E-003   3.2003912496080408E-002
   2.5140852245989276E-002  -7.0887744148577791E-003   3.1934750563853365E-002
   3.0847226930324725E-002  -8.8367651007099646E-003   3.8420102913279935E-002
   2.8719556326289225E-002  -8.1510297586430414E-003   3.7992115109698354E-002
   2.6591885722253683E-002  -7.4743255022450689E-003   3.7712808438753798E-002
   2.4464215118218210E-002  -6.8066523315156273E-003   3.7582182900445897E-002
   2.2336544514182641E-002  -6.1480102464548936E-003   3.7600238494775062E-002
   2.7523270915963079E-002  -7.7697831267598549E-003   4.3789855743520241E-002
   2.5552726443962483E-002  -7.1280901379654066E-003   4.3406740738029831E-002
   2.3582181971961835E-002  -6.4871029669160349E-003   4.3189196863972781E-002
   2.1611637499961235E-002  -5.8468216136114189E-003   4.3137224121348565E-002
   1.9641093027960601E-002  -5.2072460780520358E-003   4.3250822510157501E-002
   2.4240611152001490E-002  -6.7028011528097453E-003   4.9111403586525881E-002
   2.2444082810831961E-002  -6.1051505172878273E-003   4.8781486647050787E-002
   2.0647554469662377E-002  -5.4998804315871397E-003   4.8634030837804987E-002
   1.8851026128492820E-002  -4.8869908957074396E-003   4.8669036158787898E-002
   1.7054497787323208E-002  -4.2664819096490669E-003   4.8886502610000271E-002
   2.8054016223380551E-002  -8.0295385832608313E-003   2.6254358717392567E-002
   2.5709870751952024E-002  -7.3156341396654612E-003   2.5667300629054979E-002
   2.3365725280523442E-002  -6.5417895554899241E-003   2.5028394014311117E-002
   2.1021579809094873E-002  -5.7080048307336165E-003   2.4337638873160455E-002
   1.8677434337666332E-002  -4.8142799653965174E-003   2.3595035205604353E-002
   2.5140852245989276E-002  -7.0887744148577791E-003   3.1934750563853365E-002
   2.2783058459997618E-002  -6.4119679162307208E-003   3.1532495044095221E-002
   2.0425264674006016E-002  -5.7196093358803934E-003   3.1154791421617645E-002
   1.8067470888014421E-002  -5.0116986738067831E-003   3.0801639696420344E-002
   1.5709677102022757E-002  -4.2882359300100426E-003   3.0473039868502694E-002
   2.2336544514182641E-002  -6.1480102464548936E-003   3.7600238494775062E-002
   2.0041502837314373E-002  -5.5083016927957307E-003   3.7338397484739438E-002
   1.7746461160446154E-002  -4.8974291162708489E-003   3.7177508795670292E-002
   1.5451419483577842E-002  -4.3153925168802794E-003   3.7117572427567906E-002
   1.3156377806709654E-002  -3.7621918946236788E-003   3.7158588380432012E-002
   1.9641093027960601E-002  -5.2072460780520358E-003   4.3250822510157501E-002
   1.7485203883902165E-002  -4.6046354693606434E-003   4.3085007950986590E-002
   1.5329314739843699E-002  -4.0752488966613112E-003   4.3096546136468905E-002
   1.3173425595785271E-002  -3.6190863599536108E-003   4.3285437066604031E-002
   1.1017536451726796E-002  -3.2361478592373150E-003   4.3651680741392501E-002
   1.7054497787323208E-002  -4.2664819096490669E-003   4.8886502610000271E-002
   1.5114161599761033E-002  -3.7009692459260002E-003   4.8772326442837133E-002
   1.3173825412198831E-002  -3.2530686770517736E-003   4.8911903444013305E-002
   1.1233489224636642E-002  -2.9227802030271643E-003   4.9305233613528926E-002
   9.2931530370744531E-003  -2.7101038238508401E-003   4.9952316951384024E-002
   1.8677434337666332E-002  -4.8142799653965174E-003   2.3595035205604353E-002
   1.5654183808073596E-002  -4.0806911755911779E-003   2.4386533157185863E-002
   1.2630933278480944E-002  -3.7273146774288168E-003   2.5650777958397097E-002
   9.6076827488882910E-003  -3.7541504709101003E-003   2.7387769609238083E-002
   6.5844322192955551E-003  -4.1611985560345843E-003   2.9597508109708848E-002
   1.5709677102022757E-002  -4.2882359300100426E-003   3.0473039868502694E-002
   1.3141049211657208E-002  -3.7753785369180060E-003   3.1252384012623813E-002
   1.0572421321291686E-002  -3.6992839269583966E-003   3.2468226585569637E-002
   8.0037934309261718E-003  -4.0599521001312977E-003   3.4120567587339806E-002
   5.4351655405605603E-003  -4.8573830564366816E-003   3.6209407017934292E-002
   1.3156377806709654E-002  -3.7621918946236788E-003   3.7158588380432012E-002
   1.1006124134765871E-002  -3.4700658982452226E-003   3.7869228225604068E-002
   8.8558704628221019E-003  -3.6712531764880874E-003   3.8980118078795034E-002
   6.7056167908783187E-003  -4.3657537293528281E-003   4.0491257940005285E-002
   4.5553631189345495E-003  -5.5535675568390008E-003   4.2402647809234584E-002
   1.1017536451726796E-002  -3.2361478592373150E-003   4.3651680741392501E-002
   9.2494085773994206E-003  -3.1647532595725780E-003   4.4237065796125880E-002
   7.4812807030721351E-003  -3.6432224260179447E-003   4.5186452438073482E-002
   5.7131528287448635E-003  -4.6715553585745251E-003   4.6499840667234539E-002
   3.9450249544174219E-003  -6.2497520572412091E-003   4.8177230483609085E-002
   9.2931530370744531E-003  -2.7101038238508401E-003   4.9952316951384024E-002
   7.8709025395581333E-003  -2.8594406208992673E-003   5.0355896724190052E-002
   6.4486520420418691E-003  -3.6151916755473856E-003   5.1087229663404454E-002
   5.0264015445255772E-003  -4.9773569877957294E-003   5.2146315769027202E-002
   3.6041510470092852E-003  -6.9459365576435284E-003   5.3533155041058378E-002
   6.5844322192955551E-003  -4.1611985560345843E-003   2.9597508109708848E-002
   6.0564102828815081E-003  -6.1432049450209636E-003   3.4074894690540480E-002
   5.5283883464674888E-003  -1.0894915650089876E-002   3.9237547218860414E-002
   5.0003664100534834E-003  -1.8416330671239142E-002   4.5085465694668980E-002
   4.4723444736394224E-003  -2.8707450008469859E-002   5.1618650117967402E-002
   5.4351655405605603E-003  -4.8573830564366816E-003   3.6209407017934292E-002
   5.4885496420561120E-003  -6.9913888216129871E-003   3.8349352370949719E-002
   5.5419337435516358E-003  -1.1361781421398709E-002   4.0966843852295654E-002
   5.5953178450471805E-003  -1.7968560855794305E-002   4.4061881461971791E-002
   5.6487019465427668E-003  -2.6811727124798512E-002   4.7634465199977383E-002
   4.5553631189345495E-003  -5.5535675568390008E-003   4.2402647809234584E-002
   4.9824334391809777E-003  -7.8395726982046776E-003   4.2738469415905755E-002
   5.4095037594273018E-003  -1.1828647192708014E-002   4.3344117331748727E-002
   5.8365740796736572E-003  -1.7520791040349031E-002   4.4219591556762902E-002
   6.2636443999200542E-003  -2.4916004241127609E-002   4.5364892090948850E-002
   3.9450249544174219E-003  -6.2497520572412091E-003   4.8177230483609085E-002
   4.5380616742559388E-003  -8.6877565747964236E-003   4.7242245825408327E-002
   5.1310983940944018E-003  -1.2295512964017194E-002   4.6369367657220571E-002
   5.7241351139329074E-003  -1.7073021224904308E-002   4.5558595979045532E-002
   6.3171718337714372E-003  -2.3020281357456596E-002   4.4809930790883468E-002
   3.6041510470092852E-003  -6.9459365576435284E-003   5.3533155041058378E-002
   4.1554343472811617E-003  -9.5359404513882806E-003   5.1860681599457559E-002
   4.7067176475530381E-003  -1.2762378735326235E-002   5.0042594828710596E-002
   5.2580009478249562E-003  -1.6625251409458829E-002   4.8078894728817906E-002
   5.8092842480967910E-003  -2.1124558473785360E-002   4.5969581299778906E-002
   5.1424775015740110E-002  -1.4921206351093175E-002   5.0780449233817304E-002
   4.9361680165150634E-002  -1.4530263499954815E-002   5.0260769830089036E-002
   4.7298585314561159E-002  -1.4110143650550300E-002   5.0039175071583841E-002
   4.5235490463971670E-002  -1.3660846802879392E-002   5.0115664958302081E-002
   4.3172395613382181E-002  -1.3182372956942245E-002   5.0490239490243727E-002
   4.4786057135591723E-002  -1.3023345302700828E-002   5.3238076634414599E-002
   4.3011257638014777E-002  -1.2689758694460124E-002   5.2869595455179358E-002
   4.1236458140437901E-002  -1.2328354848542986E-002   5.2779620336745797E-002
   3.9461658642861011E-002  -1.1939133764949480E-002   5.2968151279114001E-002
   3.7686859145284080E-002  -1.1522095443679548E-002   5.3435188282284191E-002
   3.8279829654175673E-002  -1.1125484254308482E-002   5.5639027672409386E-002
   3.6773746925189893E-002  -1.0849253888965391E-002   5.5420384957077032E-002
   3.5267664196204078E-002  -1.0546566046535755E-002   5.5460669718125188E-002
   3.3761581467218249E-002  -1.0217420727019595E-002   5.5759881955553689E-002
   3.2255498738232490E-002  -9.8618179304169051E-003   5.6318021669362464E-002
   3.1906092571492115E-002  -9.2276232059161356E-003   5.7983302347801413E-002
   3.0649148026675916E-002  -9.0087490834706366E-003   5.7913138335782294E-002
   2.9392203481859717E-002  -8.7647772445285377E-003   5.8082323215722216E-002
   2.8135258937043509E-002  -8.4957076890897799E-003   5.8490856987621034E-002
   2.6878314392227300E-002  -8.2015404171543183E-003   5.9138739651478686E-002
   2.5664845887540921E-002  -7.3297621575237892E-003   6.0270900660590598E-002
   2.4637460942472850E-002  -7.1682442779759104E-003   6.0347855591295074E-002
   2.3610075997404792E-002  -6.9829884425212374E-003   6.0644580829536887E-002
   2.2582691052336713E-002  -6.7739946511597912E-003   6.1161076375316009E-002
   2.1555306107268649E-002  -6.5412629038915648E-003   6.1897342228632579E-002
   4.3172395613382181E-002  -1.3182372956942245E-002   5.0490239490243727E-002
   4.1847033097859782E-002  -1.2686144898692381E-002   4.9992385737255673E-002
   4.0521670582337355E-002  -1.2183585414083861E-002   4.9674254457815759E-002
   3.9196308066814935E-002  -1.1674694503116489E-002   4.9535845651923899E-002
   3.7870945551292501E-002  -1.1159472165790107E-002   4.9577159319580288E-002
   3.7686859145284080E-002  -1.1522095443679548E-002   5.3435188282284191E-002
   3.6537805592400552E-002  -1.1088113186525833E-002   5.2994298109658416E-002
   3.5388752039517010E-002  -1.0648060295280787E-002   5.2726303388762205E-002
   3.4239698486633469E-002  -1.0201936769944485E-002   5.2631204119595675E-002
   3.3090644933749941E-002  -9.7497426105168650E-003   5.2709000302158610E-002
   3.2255498738232490E-002  -9.8618179304169051E-003   5.6318021669362464E-002
   3.1275927126169278E-002  -9.4900814743591050E-003   5.5933834284831452E-002
   3.0296355514106064E-002  -9.1125351764776083E-003   5.5715715330211350E-002
   2.9316783902042842E-002  -8.7291790367724272E-003   5.5663664805502333E-002
   2.8337212289979638E-002  -8.3400130552435392E-003   5.5777682710704310E-002
   2.6878314392227300E-002  -8.2015404171543183E-003   5.9138739651478686E-002
   2.6061397699165878E-002  -7.8920497621924948E-003   5.8810994262774662E-002
   2.5244481006104429E-002  -7.5770100576743986E-003   5.8642490282163152E-002
   2.4427564313043010E-002  -7.2564213036004242E-003   5.8633227709644117E-002
   2.3610647619981561E-002  -6.9302834999701718E-003   5.8783206545217515E-002
   2.1555306107268649E-002  -6.5412629038915648E-003   6.1897342228632579E-002
   2.0894217311390420E-002  -6.2940180500258014E-003   6.1625778043488233E-002
   2.0233128515512205E-002  -6.0414849388713415E-003   6.1506628244617584E-002
   1.9572039719633984E-002  -5.7836635704284732E-003   6.1539892832020979E-002
   1.8910950923755762E-002  -5.5205539446969154E-003   6.1725571805698320E-002
   3.7870945551292501E-002  -1.1159472165790107E-002   4.9577159319580288E-002
   3.6115522426999558E-002  -1.0636125962500714E-002   4.9251577214005804E-002
   3.4360099302706559E-002  -1.0102863453643460E-002   4.9130873659885527E-002
   3.2604676178413575E-002  -9.5596846392188677E-003   4.9215048657219471E-002
   3.0849253054120590E-002  -9.0065895192267265E-003   4.9504102206007761E-002
   3.3090644933749941E-002  -9.7497426105168650E-003   5.2709000302158610E-002
   3.1541309777787005E-002  -9.2894892777761751E-003   5.2421477596282989E-002
   2.9991974621824069E-002  -8.8191882325006354E-003   5.2341252275613440E-002
   2.8442639465861133E-002  -8.3388394746905306E-003   5.2468324340149440E-002
   2.6893304309898225E-002  -7.8484430043453957E-003   5.2802693789891109E-002
   2.8337212289979638E-002  -8.3400130552435392E-003   5.5777682710704310E-002
   2.6996383936098170E-002  -7.9428525930517607E-003   5.5528350811495153E-002
   2.5655555582216681E-002  -7.5355130113579291E-003   5.5488735131243201E-002
   2.4314727228335210E-002  -7.1179943101620843E-003   5.5658835669948337E-002
   2.2973898874453724E-002  -6.6902964894642314E-003   5.6038652427610691E-002
   2.3610647619981561E-002  -6.9302834999701718E-003   5.8783206545217515E-002
   2.2480744901932952E-002  -6.5962159083273950E-003   5.8572196859642038E-002
   2.1350842183884354E-002  -6.2518377902150528E-003   5.8573322226775061E-002
   2.0220939465835749E-002  -5.8971491456336926E-003   5.8786582646616625E-002
   1.9091036747787143E-002  -5.5321499745830949E-003   5.9211978119166814E-002
   1.8910950923755762E-002  -5.5205539446969154E-003   6.1725571805698320E-002
   1.7994392675291418E-002  -5.2495792236028627E-003   6.1553015740723638E-002
   1.7077834426827095E-002  -4.9681625690723846E-003   6.1595013562208811E-002
   1.6161276178362754E-002  -4.6763039811052697E-003   6.1851565270154105E-002
   1.5244717929898427E-002  -4.3740034597018473E-003   6.2322670864559337E-002
   3.0849253054120590E-002  -9.0065895192267265E-003   4.9504102206007761E-002
   2.9197092578590794E-002  -8.4440627917435895E-003   4.9138849266193774E-002
   2.7544932103061054E-002  -7.8725891548464544E-003   4.8951648516341928E-002
   2.5892771627531286E-002  -7.2921686085349047E-003   4.8942499956452723E-002
   2.4240611152001490E-002  -6.7028011528097453E-003   4.9111403586525881E-002
   2.6893304309898225E-002  -7.8484430043453957E-003   5.2802693789891109E-002
   2.5423713013039098E-002  -7.3488720568513910E-003   5.2487125223151548E-002
   2.3954121716179971E-002  -6.8409998675942052E-003   5.2358642823791074E-002
   2.2484530419320858E-002  -6.3248264365736370E-003   5.2417246591809519E-002
   2.1014939122461745E-002  -5.8003517637900126E-003   5.2662936527206494E-002
   2.2973898874453724E-002  -6.6902964894642314E-003   5.6038652427610691E-002
   2.1695910733681663E-002  -6.2536813219591925E-003   5.5772122566295157E-002
   2.0417922592909581E-002  -5.8094105803419560E-003   5.5701712849774834E-002
   1.9139934452137498E-002  -5.3574842646122028E-003   5.5827423278049945E-002
   1.7861946311365437E-002  -4.8979023747702244E-003   5.6149253851119935E-002
   1.9091036747787143E-002  -5.5321499745830949E-003   5.9211978119166814E-002
   1.8013685740518516E-002  -5.1584905870669384E-003   5.8993841295624273E-002
   1.6936334733249892E-002  -4.7778212930895403E-003   5.8980858594293209E-002
   1.5858983725981234E-002  -4.3901420926507964E-003   5.9173030015173912E-002
   1.4781632718712637E-002  -3.9954529857506305E-003   5.9570355558266196E-002
   1.5244717929898427E-002  -4.3740034597018473E-003   6.2322670864559337E-002
   1.4377038033549644E-002  -4.0632998521748509E-003   6.2152281411138877E-002
   1.3509358137200875E-002  -3.7462320058375131E-003   6.2196080057346392E-002
   1.2641678240852099E-002  -3.4227999206894594E-003   6.2454066803181912E-002
   1.1773998344503322E-002  -3.0930035967308145E-003   6.2926241648645465E-002
   2.4240611152001490E-002  -6.7028011528097453E-003   4.9111403586525881E-002
   2.2444082810831961E-002  -6.1051505172878273E-003   4.8781486647050787E-002
   2.0647554469662377E-002  -5.4998804315871397E-003   4.8634030837804987E-002
   1.8851026128492820E-002  -4.8869908957074396E-003   4.8669036158787898E-002
   1.7054497787323208E-002  -4.2664819096490669E-003   4.8886502610000271E-002
   2.1014939122461745E-002  -5.8003517637900126E-003   5.2662936527206494E-002
   1.9406836603732158E-002  -5.2709476656400134E-003   5.2416252027959798E-002
   1.7798734085002599E-002  -4.7399859585214588E-003   5.2363958043363856E-002
   1.6190631566273039E-002  -4.2074666424332177E-003   5.2506054573419184E-002
   1.4582529047543452E-002  -3.6733897173760743E-003   5.2842541618124961E-002
   1.7861946311365437E-002  -4.8979023747702244E-003   5.6149253851119935E-002
   1.6454198999497620E-002  -4.4367448139923937E-003   5.5979739950891977E-002
   1.5046451687629830E-002  -3.9800914854553199E-003   5.6016545949736471E-002
   1.3638704375762034E-002  -3.5279423891587704E-003   5.6259671847653646E-002
   1.2230957063894224E-002  -3.0802975251028042E-003   5.6709117644643509E-002
   1.4781632718712637E-002  -3.9954529857506305E-003   5.9570355558266196E-002
   1.3586169998128382E-002  -3.6025419623446769E-003   5.9471950415847095E-002
   1.2390707277544093E-002  -3.2201970123894100E-003   5.9591794556922179E-002
   1.1195244556959805E-002  -2.8484181358843803E-003   5.9929887981491917E-002
   9.9997818363755479E-003  -2.4872053328296728E-003   6.0486230689555762E-002
   1.1773998344503322E-002  -3.0930035967308145E-003   6.2926241648645465E-002
   1.0802749599624337E-002  -2.7683391106970157E-003   6.2892883422825507E-002
   9.8315008547453786E-003  -2.4603025393235833E-003   6.3089703864921520E-002
   8.8602521098664067E-003  -2.1688938826100110E-003   6.3516702974933864E-002
   7.8890033649874347E-003  -1.8941131405564304E-003   6.4173880752862345E-002
   1.7054497787323208E-002  -4.2664819096490669E-003   4.8886502610000271E-002
   1.5114161599761033E-002  -3.7009692459260002E-003   4.8772326442837133E-002
   1.3173825412198831E-002  -3.2530686770517736E-003   4.8911903444013305E-002
   1.1233489224636642E-002  -2.9227802030271643E-003   4.9305233613528926E-002
   9.2931530370744531E-003  -2.7101038238508401E-003   4.9952316951384024E-002
   1.4582529047543452E-002  -3.6733897173760743E-003   5.2842541618124961E-002
   1.2895502629915415E-002  -3.1964370126422725E-003   5.2731609736454355E-002
   1.1208476212287363E-002  -2.8352903575241672E-003   5.2873544226312741E-002
   9.5214497946593118E-003  -2.5899497520219805E-003   5.3268345087700231E-002
   7.8344233770312743E-003  -2.4604151961352683E-003   5.3916012320616269E-002
   1.2230957063894224E-002  -3.0802975251028042E-003   5.6709117644643509E-002
   1.0796353619389729E-002  -2.6919047793584339E-003   5.6603236093699327E-002
   9.3617501748852333E-003  -2.4175120379963388E-003   5.6749334117473238E-002
   7.9271467303807554E-003  -2.2571193010166857E-003   5.7147411715965546E-002
   6.4925432858762427E-003  -2.2107265684194743E-003   5.7797468889175890E-002
   9.9997818363755479E-003  -2.4872053328296728E-003   6.0486230689555762E-002
   8.8167145681840274E-003  -2.1873725460745952E-003   6.0387205514571107E-002
   7.6336472999924514E-003  -1.9997337184686770E-003   6.0539273117494130E-002
   6.4505800318009178E-003  -1.9242888500115574E-003   6.0942433498324816E-002
   5.2675127636093826E-003  -1.9610379407036249E-003   6.1596686657063159E-002
   7.8890033649874347E-003  -1.8941131405564304E-003   6.4173880752862345E-002
   6.9565854762982104E-003  -1.6828403127908120E-003   6.4083517999070416E-002
   6.0241675876090139E-003  -1.5819553989408486E-003   6.4243361226375639E-002
   5.0917496989198105E-003  -1.5914583990066927E-003   6.4653410434777986E-002
   4.1593318102305932E-003  -1.7113493129879975E-003   6.5313665624277095E-002
   9.2931530370744531E-003  -2.7101038238508401E-003   4.9952316951384024E-002
   7.8709025395581333E-003  -2.8594406208992673E-003   5.0355896724190052E-002
   6.4486520420418691E-003  -3.6151916755473856E-003   5.1087229663404454E-002
   5.0264015445255772E-003  -4.9773569877957294E-003   5.2146315769027202E-002
   3.6041510470092852E-003  -6.9459365576435284E-003   5.3533155041058378E-002
   7.8344233770312743E-003  -2.4604151961352683E-003   5.3916012320616269E-002
   6.7137172685785146E-003  -2.6453032921800457E-003   5.3850506129042242E-002
   5.5930111601257548E-003  -3.3432306424713010E-003   5.4060335549187044E-002
   4.4723050516730090E-003  -4.5541972470096379E-003   5.4545500581050455E-002
   3.3515989432202353E-003  -6.2782031057946330E-003   5.5306001224632584E-002
   6.4925432858762427E-003  -2.2107265684194743E-003   5.7797468889175890E-002
   5.6209640117972984E-003  -2.4311659634602689E-003   5.7356251736574937E-002
   4.7493847377183609E-003  -3.0712696093948694E-003   5.7137952641002784E-002
   3.8778054636394235E-003  -4.1310375062232098E-003   5.7142571602459870E-002
   3.0062261895604792E-003  -5.6104696539454602E-003   5.7370108620945631E-002
   5.2675127636093826E-003  -1.9610379407036249E-003   6.1596686657063159E-002
   4.5926427692145246E-003  -2.2170286347408252E-003   6.0873133546787909E-002
   3.9177727748196858E-003  -2.7993085763184447E-003   6.0320080938852189E-002
   3.2429027804248590E-003  -3.7078777654369500E-003   5.9937528833255774E-002
   2.5680327860300167E-003  -4.9427362020964261E-003   5.9725477229998346E-002
   4.1593318102305932E-003  -1.7113493129879975E-003   6.5313665624277095E-002
   3.6287535408301569E-003  -2.0028913060212705E-003   6.4401151559681069E-002
   3.0981752714297206E-003  -2.5273475432422698E-003   6.3606720442734632E-002
   2.5675970020292704E-003  -3.2847180246506139E-003   6.2930372273437757E-002
   2.0370187326288203E-003  -4.2750027502473920E-003   6.2372107051790415E-002
   3.6041510470092852E-003  -6.9459365576435284E-003   5.3533155041058378E-002
   4.1554343472811617E-003  -9.5359404513882806E-003   5.1860681599457559E-002
   4.7067176475530381E-003  -1.2762378735326235E-002   5.0042594828710596E-002
   5.2580009478249562E-003  -1.6625251409458829E-002   4.8078894728817906E-002
   5.8092842480967910E-003  -2.1124558473785360E-002   4.5969581299778906E-002
   3.3515989432202353E-003  -6.2782031057946330E-003   5.5306001224632584E-002
   3.7748325201433230E-003  -8.5464654601367096E-003   5.2952316675427324E-002
   4.1980660970664108E-003  -1.1390201551345791E-002   5.0488146008670631E-002
   4.6212996739895193E-003  -1.4809411379422807E-002   4.7913489224362921E-002
   5.0445332509125862E-003  -1.8804094944366856E-002   4.5228346322502500E-002
   3.0062261895604792E-003  -5.6104696539454602E-003   5.7370108620945631E-002
   3.3365372547291827E-003  -7.5569904688849721E-003   5.4396173617462851E-002
   3.6668483198978863E-003  -1.0018024367365139E-002   5.1346879708023249E-002
   3.9971593850665725E-003  -1.2993571349386456E-002   4.8222226892626154E-002
   4.3274704502352934E-003  -1.6483631414948574E-002   4.5022215171271696E-002
   2.5680327860300167E-003  -4.9427362020964261E-003   5.9725477229998346E-002
   2.8405485510387130E-003  -6.5675154776333178E-003   5.6192252425564651E-002
   3.1130643160474092E-003  -8.6458471833843684E-003   5.2618795926768172E-002
   3.3855800810561427E-003  -1.1177731319350492E-002   4.9005107733608298E-002
   3.6580958460648016E-003  -1.4163167885530070E-002   4.5351187846086549E-002
   2.0370187326288203E-003  -4.2750027502473920E-003   6.2372107051790415E-002
   2.2868664090719415E-003  -5.5780404863815525E-003   5.8340553099732073E-002
   2.5367140855150350E-003  -7.2736699994038756E-003   5.4303894664905150E-002
   2.7865617619581076E-003  -9.3618912893140421E-003   5.0262131747309813E-002
   3.0364094384012219E-003  -1.1842704356111788E-002   4.6215264346946228E-002
   2.5664845887540921E-002  -7.3297621575237892E-003   6.0270900660590598E-002
   2.4637460942472850E-002  -7.1682442779759104E-003   6.0347855591295074E-002
   2.3610075997404792E-002  -6.9829884425212374E-003   6.0644580829536887E-002
   2.2582691052336713E-002  -6.7739946511597912E-003   6.1161076375316009E-002
   2.1555306107268649E-002  -6.5412629038915648E-003   6.1897342228632579E-002
   1.9429541906135370E-002  -5.4973216180951856E-003   6.1922725217029628E-002
   1.8631196250786256E-002  -5.3761832084687766E-003   6.1909114847698704E-002
   1.7832850595437134E-002  -5.2372413319004274E-003   6.2133812750268497E-002
   1.7034504940088024E-002  -5.0804959883901865E-003   6.2596818924738687E-002
   1.6236159284738885E-002  -4.9059471779382413E-003   6.3298133371109261E-002
   1.3073632931088715E-002  -3.6648810786666097E-003   6.3537137548029615E-002
   1.2522864529821660E-002  -3.5841221389615596E-003   6.3427027389698687E-002
   1.1972096128554589E-002  -3.4914942212796035E-003   6.3573763467631314E-002
   1.1421327727287526E-002  -3.3869973256206963E-003   6.3977345781827594E-002
   1.0870559326020462E-002  -3.2706314519848623E-003   6.4637774332287498E-002
   6.5971189624009410E-003  -1.8324405392380061E-003   6.5114137653590753E-002
   6.3124657795790382E-003  -1.7920610694544120E-003   6.4901593217294773E-002
   6.0278125967571485E-003  -1.7457471106588421E-003   6.4964432981625297E-002
   5.7431594139352588E-003  -1.6934986628512044E-003   6.5302656946582702E-002
   5.4585062311133560E-003  -1.6353157260314832E-003   6.5916265112166736E-002
   7.2039596510364845E-014   1.9056978217690812E-013   6.6653725533712960E-002
   5.8418547776994956E-014   5.2791104820926193E-014   6.6332812330486768E-002
   4.4818315725336788E-014  -3.7914116290949096E-014   6.6305821292250600E-002
   3.1204205885870806E-014  -8.1559758946525562E-014   6.6572752419004205E-002
   1.7593565493356778E-014  -7.8104189782379763E-014   6.7133605710747557E-002
   2.1555306107268649E-002  -6.5412629038915648E-003   6.1897342228632579E-002
   2.0894217311390420E-002  -6.2940180500258014E-003   6.1625778043488233E-002
   2.0233128515512205E-002  -6.0414849388713415E-003   6.1506628244617584E-002
   1.9572039719633984E-002  -5.7836635704284732E-003   6.1539892832020979E-002
   1.8910950923755762E-002  -5.5205539446969154E-003   6.1725571805698320E-002
   1.6236159284738885E-002  -4.9059471779382413E-003   6.3298133371109261E-002
   1.5730699328308062E-002  -4.7205135375326390E-003   6.2987957728076638E-002
   1.5225239371877239E-002  -4.5311137041615795E-003   6.2836625377664726E-002
   1.4719779415446405E-002  -4.3377476778253508E-003   6.2844136319873817E-002
   1.4214319459015592E-002  -4.1404154585233943E-003   6.3010490554703702E-002
   1.0870559326020462E-002  -3.2706314519848623E-003   6.4637774332287498E-002
   1.0527157115383969E-002  -3.1470090250394905E-003   6.4287665167043304E-002
   1.0183754904747482E-002  -3.0207424694518800E-003   6.4102828200766987E-002
   9.8403526941110049E-003  -2.8918317852221192E-003   6.4083263433458493E-002
   9.4969504834745110E-003  -2.7602769723500120E-003   6.4228970865117710E-002
   5.4585062311133560E-003  -1.6353157260314832E-003   6.5916265112166736E-002
   5.2835906726181473E-003  -1.5735045125463351E-003   6.5524900360388189E-002
   5.1086751141229281E-003  -1.5103712347420938E-003   6.5305236713924200E-002
   4.9337595556277142E-003  -1.4459158926189422E-003   6.5257274172774937E-002
   4.7588439971324942E-003  -1.3801384861765048E-003   6.5381012736940539E-002
   1.7593565493356778E-014  -7.8104189782379763E-014   6.7133605710747557E-002
   1.0588752097362431E-014  -5.3207438455160627E-014   6.6699663308111168E-002
   3.5822039778921066E-015  -3.2404634531246757E-014   6.6443850917136366E-002
  -3.4234767798402288E-015  -1.5817208653956527E-014   6.6366168537823358E-002
  -1.0429157537572564E-014  -3.1641356201816961E-015   6.6466616170171910E-002
   1.8910950923755762E-002  -5.5205539446969154E-003   6.1725571805698320E-002
   1.7994392675291418E-002  -5.2495792236028627E-003   6.1553015740723638E-002
   1.7077834426827095E-002  -4.9681625690723846E-003   6.1595013562208811E-002
   1.6161276178362754E-002  -4.6763039811052697E-003   6.1851565270154105E-002
   1.5244717929898427E-002  -4.3740034597018473E-003   6.2322670864559337E-002
   1.4214319459015592E-002  -4.1404154585233943E-003   6.3010490554703702E-002
   1.3515961515925316E-002  -3.9371844177007453E-003   6.2829980089598531E-002
   1.2817603572835047E-002  -3.7261219268016760E-003   6.2871316348781597E-002
   1.2119245629744774E-002  -3.5072279858262313E-003   6.3134499332252750E-002
   1.1420887686654516E-002  -3.2805025947743593E-003   6.3619529040011946E-002
   9.4969504834745110E-003  -2.7602769723500120E-003   6.4228970865117710E-002
   9.0240856835864421E-003  -2.6247896117987113E-003   6.4037895516522100E-002
   8.5512208836983610E-003  -2.4840812845310298E-003   6.4075959730042736E-002
   8.0783560838102939E-003  -2.3381519905470837E-003   6.4343163505679771E-002
   7.6054912839222250E-003  -2.1870017298467048E-003   6.4839506843432926E-002
   4.7588439971324942E-003  -1.3801384861765048E-003   6.5381012736940539E-002
   4.5187651782747683E-003  -1.3123948058965801E-003   6.5176762021494333E-002
   4.2786863594170468E-003  -1.2420406422604079E-003   6.5208943705992603E-002
   4.0386075405593096E-003  -1.1690759952679352E-003   6.5477557790435376E-002
   3.7985287217015915E-003  -1.0935008649190225E-003   6.5982604274822457E-002
  -1.0429157537572564E-014  -3.1641356201816961E-015   6.6466616170171910E-002
  -9.6728181020466764E-015   5.4400928206632670E-015   6.6246579604515077E-002
  -8.9130092195688349E-015   1.0269562977782698E-014   6.6270268276630934E-002
  -8.1532003370909933E-015   1.1116108034059380E-014   6.6537682186519287E-002
  -7.3968609015651055E-015   8.4932061383824475E-015   6.7048821334180275E-002
   1.5244717929898427E-002  -4.3740034597018473E-003   6.2322670864559337E-002
   1.4377038033549644E-002  -4.0632998521748509E-003   6.2152281411138877E-002
   1.3509358137200875E-002  -3.7462320058375131E-003   6.2196080057346392E-002
   1.2641678240852099E-002  -3.4227999206894594E-003   6.2454066803181912E-002
   1.1773998344503322E-002  -3.0930035967308145E-003   6.2926241648645465E-002
   1.1420887686654516E-002  -3.2805025947743593E-003   6.3619529040011946E-002
   1.0768078858548670E-002  -3.0474748891300418E-003   6.3463825104677296E-002
   1.0115270030442818E-002  -2.8096740043776908E-003   6.3523675206200503E-002
   9.4624612023369720E-003  -2.5670999405169835E-003   6.3799079344581441E-002
   8.8096523742311333E-003  -2.3197526975480276E-003   6.4290037519820264E-002
   7.6054912839222250E-003  -2.1870017298467048E-003   6.4839506843432926E-002
   7.1689194612890861E-003  -2.0316499260852050E-003   6.4696897366481945E-002
   6.7323476386559646E-003  -1.8731160029178684E-003   6.4771207863618452E-002
   6.2957758160228344E-003  -1.7113999603446187E-003   6.5062438334842723E-002
   5.8592039933897180E-003  -1.5465017983654072E-003   6.5570588780154593E-002
   3.7985287217015915E-003  -1.0935008649190225E-003   6.5982604274822457E-002
   3.5795598417709528E-003  -1.0158249630403265E-003   6.5851498196552588E-002
   3.3605909618403089E-003  -9.3655800145810153E-004   6.5938678029600239E-002
   3.1416220819096750E-003  -8.5569998017219831E-004   6.6244143773965244E-002
   2.9226532019790193E-003  -7.7325089918275913E-004   6.6767895429647672E-002
  -7.3968609015651055E-015   8.4932061383824475E-015   6.7048821334180275E-002
  -5.7696902810988604E-015   4.4408920985006262E-015   6.6927627594889461E-002
  -4.1390502136806617E-015   1.7624790515924360E-015   6.7026085704145838E-002
  -2.5049406993105094E-015   2.7408630920433552E-016   6.7344195661949255E-002
  -8.8123952579621800E-016   1.1102230246251565E-016   6.7881957468300058E-002
   1.1773998344503322E-002  -3.0930035967308145E-003   6.2926241648645465E-002
   1.0802749599624337E-002  -2.7683391106970157E-003   6.2892883422825507E-002
   9.8315008547453786E-003  -2.4603025393235833E-003   6.3089703864921520E-002
   8.8602521098664067E-003  -2.1688938826100110E-003   6.3516702974933864E-002
   7.8890033649874347E-003  -1.8941131405564304E-003   6.4173880752862345E-002
   8.8096523742311333E-003  -2.3197526975480276E-003   6.4290037519820264E-002
   8.0717406768442412E-003  -2.0762543330228311E-003   6.4259185837679256E-002
   7.3338289794573561E-003  -1.8452269044926806E-003   6.4464829582606409E-002
   6.5959172820704536E-003  -1.6266704119570624E-003   6.4906968754601266E-002
   5.8580055846835788E-003  -1.4205848554169620E-003   6.5585603353664368E-002
   5.8592039933897180E-003  -1.5465017983654072E-003   6.5570588780154593E-002
   5.3609461026467055E-003  -1.3841695553485078E-003   6.5546400620357520E-002
   4.8626882119037068E-003  -1.2301512696614586E-003   6.5765024646780398E-002
   4.3644303211606977E-003  -1.0844469413044504E-003   6.6226460859423048E-002
   3.8661724304176956E-003  -9.4705657027754908E-004   6.6930709258285537E-002
   2.9226532019790193E-003  -7.7325089918275913E-004   6.6767895429647672E-002
   2.6703658770317320E-003  -6.9208477767408738E-004   6.6754527770859787E-002
   2.4180785520844204E-003  -6.1507563483017419E-004   6.6990289057443586E-002
   2.1657912271371149E-003  -5.4222347065183661E-004   6.7475179289399029E-002
   1.9135039021898215E-003  -4.7352828513833045E-004   6.8209198466726004E-002
  -8.8123952579621800E-016   1.1102230246251565E-016   6.7881957468300058E-002
  -6.8695049648681561E-016   2.2204460492503131E-016   6.7883567289186209E-002
  -4.8919202022545960E-016   6.9388939039072284E-016   6.8140622814596041E-002
  -2.8969882048812678E-016   1.0616507672978059E-015   6.8653124044528946E-002
  -9.7144514654701197E-017   1.3322676295501878E-015   6.9421070978985533E-002
   7.8890033649874347E-003  -1.8941131405564304E-003   6.4173880752862345E-002
   6.9565854762982104E-003  -1.6828403127908120E-003   6.4083517999070416E-002
   6.0241675876090139E-003  -1.5819553989408486E-003   6.4243361226375639E-002
   5.0917496989198105E-003  -1.5914583990066927E-003   6.4653410434777986E-002
   4.1593318102305932E-003  -1.7113493129879975E-003   6.5313665624277095E-002
   5.8580055846835788E-003  -1.4205848554169620E-003   6.5585603353664368E-002
   5.1715182998601922E-003  -1.2621302345925955E-003   6.5433540424003178E-002
   4.4850310150368264E-003  -1.1864665492052895E-003   6.5523132720976512E-002
   3.7985437302134571E-003  -1.1935937992542389E-003   6.5854380244584329E-002
   3.1120564453900740E-003  -1.2835119847405263E-003   6.6427282994827141E-002
   3.8661724304176956E-003  -9.4705657027754908E-004   6.6930709258285537E-002
   3.4170649949977691E-003  -8.4142015639462886E-004   6.6744543131233736E-002
   2.9679575595778357E-003  -7.9097769946964713E-004   6.6791481476354359E-002
   2.5188501241578936E-003  -7.9572919950245818E-004   6.7071524293647031E-002
   2.0697426887379758E-003  -8.5567465649299956E-004   6.7584671583111960E-002
   1.9135039021898215E-003  -4.7352828513833045E-004   6.8209198466726004E-002
   1.6932255617109135E-003  -4.2071007819687034E-004   6.8016526120762602E-002
   1.4729472212320262E-003  -3.9548884973415743E-004   6.8048407492508955E-002
   1.2526688807531386E-003  -3.9786459975034091E-004   6.8304842581965369E-002
   1.0323905402742310E-003  -4.2783732824555609E-004   6.8785831389131552E-002
  -9.7144514654701197E-017   1.3322676295501878E-015   6.9421070978985533E-002
  -3.4694469519536142E-016   1.4988010832439613E-015   6.9249489392589458E-002
  -5.9327542878406803E-016   1.5543122344752192E-015   6.9293910769440914E-002
  -8.3960616237277463E-016   1.7208456881689926E-015   6.9554335109539789E-002
  -1.0894063429134349E-015   1.8873791418627661E-015   7.0030762412886083E-002
   4.1593318102305932E-003  -1.7113493129879975E-003   6.5313665624277095E-002
   3.6287535408301569E-003  -2.0028913060212705E-003   6.4401151559681069E-002
   3.0981752714297206E-003  -2.5273475432422698E-003   6.3606720442734632E-002
   2.5675970020292704E-003  -3.2847180246506139E-003   6.2930372273437757E-002
   2.0370187326288203E-003  -4.2750027502473920E-003   6.2372107051790415E-002
   3.1120564453900740E-003  -1.2835119847405263E-003   6.6427282994827141E-002
   2.7032015285643751E-003  -1.5021684795152312E-003   6.5319570979680386E-002
   2.2943466117386763E-003  -1.8955106574312097E-003   6.4337222722033294E-002
   1.8854916949129809E-003  -2.4635385184882397E-003   6.3480238221886393E-002
   1.4766367780872786E-003  -3.2062520626858770E-003   6.2748617479239099E-002
   2.0697426887379758E-003  -8.5567465649299956E-004   6.7584671583111960E-002
   1.7898919343373836E-003  -1.0014456530096361E-003   6.6339990178461150E-002
   1.5100411799367948E-003  -1.2636737716205798E-003   6.5227953341160619E-002
   1.2301904255362095E-003  -1.6423590123253069E-003   6.4248561071210353E-002
   9.5033967113562767E-004  -2.1375013751243621E-003   6.3401813368610282E-002
   1.0323905402742310E-003  -4.2783732824555609E-004   6.8785831389131552E-002
   8.8882475814916397E-004  -5.0072282650381883E-004   6.7462409156023639E-002
   7.4525897602407704E-004  -6.3183688580962377E-004   6.6278912300116177E-002
   6.0169319389899965E-004  -8.2117950616254244E-004   6.5235340821409624E-002
   4.5812741177392313E-004  -1.0687506875630692E-003   6.4331694719903645E-002
  -1.0894063429134349E-015   1.8873791418627661E-015   7.0030762412886083E-002
  -2.9143354396410359E-016   1.9984014443252818E-015   6.8686827912367687E-002
   5.2041704279304213E-016   9.9920072216264089E-016   6.7490099598900510E-002
   1.3305329060742110E-015  -2.7755575615628914E-017   6.6440577472484330E-002
   2.1302404284995191E-015  -1.4432899320127035E-015   6.5538261533118924E-002
   2.0370187326288203E-003  -4.2750027502473920E-003   6.2372107051790415E-002
   2.2868664090719415E-003  -5.5780404863815525E-003   5.8340553099732073E-002
   2.5367140855150350E-003  -7.2736699994038756E-003   5.4303894664905150E-002
   2.7865617619581076E-003  -9.3618912893140421E-003   5.0262131747309813E-002
   3.0364094384012219E-003  -1.1842704356111788E-002   4.6215264346946228E-002
   1.4766367780872786E-003  -3.2062520626858770E-003   6.2748617479239099E-002
   1.7070406126763332E-003  -4.1835303647868582E-003   5.8393291210908749E-002
   1.9374444472653879E-003  -5.4552524995533647E-003   5.4004181741638124E-002
   2.1678482818544287E-003  -7.0214184669858681E-003   4.9581289071428031E-002
   2.3982521164434834E-003  -8.8820282670836193E-003   4.5124613200278052E-002
   9.5033967113562767E-004  -2.1375013751243621E-003   6.3401813368610282E-002
   1.1326209456993808E-003  -2.7890202431921085E-003   5.8820862728229534E-002
   1.3149022202631200E-003  -3.6368349997037142E-003   5.4177450168737623E-002
   1.4971834948268748E-003  -4.6809456446579092E-003   4.9471575690134412E-002
   1.6794647693906262E-003  -5.9213521780558942E-003   4.4703239292421038E-002
   4.5812741177392313E-004  -1.0687506875630692E-003   6.4331694719903645E-002
   5.6360740814110494E-004  -1.3945101215978306E-003   5.9623267651694664E-002
   6.6908740450827980E-004  -1.8184174998531893E-003   5.4823699946203487E-002
   7.7456740087547419E-004  -2.3404728223298428E-003   4.9932991603430524E-002
   8.8004739724265035E-004  -2.9606760890278361E-003   4.4951142623375157E-002
   2.1302404284995191E-015  -1.4432899320127035E-015   6.5538261533118924E-002
   1.4849232954361469E-015  -2.9976021664879227E-015   6.0800505981304487E-002
   8.3960616237277463E-016  -3.3584246494910985E-015   5.5942931074036750E-002
   2.0469737016526324E-016  -1.8388068845354155E-015   5.0965536811315021E-002
  -4.4408920985006262E-016   0.0000000000000000        4.5868323193140270E-002
   7.2039596510364845E-014   1.9056978217690812E-013   6.6653725533712960E-002
   5.8418547776994956E-014   5.2791104820926193E-014   6.6332812330486768E-002
   4.4818315725336788E-014  -3.7914116290949096E-014   6.6305821292250600E-002
   3.1204205885870806E-014  -8.1559758946525562E-014   6.6572752419004205E-002
   1.7593565493356778E-014  -7.8104189782379763E-014   6.7133605710747557E-002
  -6.5971189622614085E-003   1.8324405394117282E-003   6.5114137653344450E-002
  -6.3124657794660713E-003   1.7920610694709960E-003   6.4901593217115083E-002
  -6.0278125966707150E-003   1.7457471105744721E-003   6.4964432981513859E-002
  -5.7431594138753666E-003   1.6934986627219241E-003   6.5302656946540652E-002
  -5.4585062310800285E-003   1.6353157259135775E-003   6.5916265112195449E-002
  -1.3073632930962845E-002   3.6648810786328312E-003   6.3537137547674705E-002
  -1.2522864529720290E-002   3.5841221388892286E-003   6.3427027389439047E-002
  -1.1972096128477754E-002   3.4914942211868027E-003   6.3573763467469804E-002
  -1.1421327727235224E-002   3.3869973255254635E-003   6.3977345781766767E-002
  -1.0870559325992672E-002   3.2706314519052315E-003   6.4637774332330131E-002
  -1.9429541906032230E-002   5.4973216178539619E-003   6.1922725216703348E-002
  -1.8631196250704276E-002   5.3761832083074751E-003   6.1909114847458493E-002
  -1.7832850595376301E-002   5.2372413317992167E-003   6.2133812750118360E-002
  -1.7034504940048340E-002   5.0804959883288918E-003   6.2596818924682621E-002
  -1.6236159284720376E-002   4.9059471778969271E-003   6.3298133371151394E-002
  -2.5664845887469596E-002   7.3297621570750926E-003   6.0270900660430782E-002
  -2.4637460942417984E-002   7.1682442777256383E-003   6.0347855591173782E-002
  -2.3610075997366361E-002   6.9829884424116168E-003   6.0644580829459588E-002
  -2.2582691052314724E-002   6.7739946511325526E-003   6.1161076375288129E-002
  -2.1555306107263104E-002   6.5412629038886227E-003   6.1897342228659391E-002
   1.7593565493356778E-014  -7.8104189782379763E-014   6.7133605710747557E-002
   1.0588752097362431E-014  -5.3207438455160627E-014   6.6699663308111168E-002
   3.5822039778921066E-015  -3.2404634531246757E-014   6.6443850917136366E-002
  -3.4234767798402288E-015  -1.5817208653956527E-014   6.6366168537823358E-002
  -1.0429157537572564E-014  -3.1641356201816961E-015   6.6466616170171910E-002
  -5.4585062310800285E-003   1.6353157259135775E-003   6.5916265112195449E-002
  -5.2835906725979100E-003   1.5735045124647268E-003   6.5524900360406937E-002
  -5.1086751141157863E-003   1.5103712346910131E-003   6.5305236713934914E-002
  -4.9337595556336608E-003   1.4459158925920375E-003   6.5257274172779517E-002
  -4.7588439971515441E-003   1.3801384861683585E-003   6.5381012736940691E-002
  -1.0870559325992672E-002   3.2706314519052315E-003   6.4637774332330131E-002
  -1.0527157115366531E-002   3.1470090249826471E-003   6.4287665167068589E-002
  -1.0183754904740399E-002   3.0207424694142018E-003   6.4102828200778450E-002
  -9.8403526941142540E-003   2.8918317852000015E-003   6.4083263433459742E-002
  -9.4969504834881112E-003   2.7602769723399090E-003   6.4228970865112700E-002
  -1.6236159284720376E-002   4.9059471778969271E-003   6.3298133371151394E-002
  -1.5730699328295326E-002   4.7205135375005744E-003   6.2987957728095928E-002
  -1.5225239371870244E-002   4.5311137041376438E-003   6.2836625377666905E-002
  -1.4719779415445181E-002   4.3377476778078553E-003   6.2844136319864297E-002
  -1.4214319459020115E-002   4.1404154585113345E-003   6.3010490554687895E-002
  -2.1555306107263104E-002   6.5412629038886227E-003   6.1897342228659391E-002
  -2.0894217311384227E-002   6.2940180500185572E-003   6.1625778043489232E-002
  -2.0233128515505343E-002   6.0414849388607944E-003   6.1506628244600348E-002
  -1.9572039719626462E-002   5.7836635704157889E-003   6.1539892831992696E-002
  -1.8910950923747581E-002   5.5205539446829821E-003   6.1725571805666291E-002
  -1.0429157537572564E-014  -3.1641356201816961E-015   6.6466616170171910E-002
  -9.6728181020466764E-015   5.4400928206632670E-015   6.6246579604515077E-002
  -8.9130092195688349E-015   1.0269562977782698E-014   6.6270268276630934E-002
  -8.1532003370909933E-015   1.1116108034059380E-014   6.6537682186519287E-002
  -7.3968609015651055E-015   8.4932061383824475E-015   6.7048821334180275E-002
  -4.7588439971515441E-003   1.3801384861683585E-003   6.5381012736940691E-002
  -4.5187651782925206E-003   1.3123948059011736E-003   6.5176762021491391E-002
  -4.2786863594334989E-003   1.2420406422725544E-003   6.5208943705986261E-002
  -4.0386075405744789E-003   1.1690759952823031E-003   6.5477557790425023E-002
  -3.7985287217154606E-003   1.0935008649302635E-003   6.5982604274807566E-002
  -9.4969504834881112E-003   2.7602769723399090E-003   6.4228970865112700E-002
  -9.0240856835994143E-003   2.6247896117971292E-003   6.4037895516513191E-002
  -8.5512208837107175E-003   2.4840812845349503E-003   6.4075959730029039E-002
  -8.0783560838220258E-003   2.3381519905533235E-003   6.4343163505660245E-002
  -7.6054912839333254E-003   2.1870017298522282E-003   6.4839506843406877E-002
  -1.4214319459020115E-002   4.1404154585113345E-003   6.3010490554687895E-002
  -1.3515961515930340E-002   3.9371844176929738E-003   6.2829980089580240E-002
  -1.2817603572840560E-002   3.7261219267972628E-003   6.2871316348759476E-002
  -1.2119245629750770E-002   3.5072279858243717E-003   6.3134499332225494E-002
  -1.1420887686660993E-002   3.2805025947739291E-003   6.3619529039978265E-002
  -1.8910950923747581E-002   5.5205539446829821E-003   6.1725571805666291E-002
  -1.7994392675285312E-002   5.2495792235888739E-003   6.1553015740692829E-002
  -1.7077834426823025E-002   4.9681625690596032E-003   6.1595013562177475E-002
  -1.6161276178360745E-002   4.6763039810955240E-003   6.1851565270120340E-002
  -1.5244717929898462E-002   4.3740034596959632E-003   6.2322670864521479E-002
  -7.3968609015651055E-015   8.4932061383824475E-015   6.7048821334180275E-002
  -5.7696902810988604E-015   4.4408920985006262E-015   6.6927627594889461E-002
  -4.1390502136806617E-015   1.7624790515924360E-015   6.7026085704145838E-002
  -2.5049406993105094E-015   2.7408630920433552E-016   6.7344195661949255E-002
  -8.8123952579621800E-016   1.1102230246251565E-016   6.7881957468300058E-002
  -3.7985287217154606E-003   1.0935008649302635E-003   6.5982604274807566E-002
  -3.5795598417817289E-003   1.0158249630465577E-003   6.5851498196541597E-002
  -3.3605909618479989E-003   9.3655800146079382E-004   6.5938678029592662E-002
  -3.1416220819142715E-003   8.5569998017280199E-004   6.6244143773960679E-002
  -2.9226532019805303E-003   7.7325089918300893E-004   6.6767895429645729E-002
  -7.6054912839333254E-003   2.1870017298522282E-003   6.4839506843406877E-002
  -7.1689194612976079E-003   2.0316499260887300E-003   6.4696897366462405E-002
  -6.7323476386618834E-003   1.8731160029199431E-003   6.4771207863604685E-002
  -6.2957758160261650E-003   1.7113999603455537E-003   6.5062438334834063E-002
  -5.8592039933904553E-003   1.5465017983660734E-003   6.5570588780150346E-002
  -1.1420887686660993E-002   3.2805025947739291E-003   6.3619529039978265E-002
  -1.0768078858553385E-002   3.0474748891308190E-003   6.3463825104651719E-002
  -1.0115270030445786E-002   2.8096740043790890E-003   6.3523675206182045E-002
  -9.4624612023381863E-003   2.5670999405183045E-003   6.3799079344569215E-002
  -8.8096523742305765E-003   2.3197526975489990E-003   6.4290037519813215E-002
  -1.5244717929898462E-002   4.3740034596959632E-003   6.2322670864521479E-002
  -1.4377038033549089E-002   4.0632998521731301E-003   6.2152281411109789E-002
  -1.3509358137199723E-002   3.7462320058383181E-003   6.2196080057324743E-002
  -1.2641678240850347E-002   3.4227999206908818E-003   6.2454066803166591E-002
  -1.1773998344500977E-002   3.0930035967321468E-003   6.2926241648635028E-002
  -8.8123952579621800E-016   1.1102230246251565E-016   6.7881957468300058E-002
  -6.8695049648681561E-016   2.2204460492503131E-016   6.7883567289186209E-002
  -4.8919202022545960E-016   6.9388939039072284E-016   6.8140622814596041E-002
  -2.8969882048812678E-016   1.0616507672978059E-015   6.8653124044528946E-002
  -9.7144514654701197E-017   1.3322676295501878E-015   6.9421070978985533E-002
  -2.9226532019805303E-003   7.7325089918300893E-004   6.6767895429645729E-002
  -2.6703658770328882E-003   6.9208477767468413E-004   6.6754527770858385E-002
  -2.4180785520852323E-003   6.1507563483129135E-004   6.6990289057442531E-002
  -2.1657912271375772E-003   5.4222347065318449E-004   6.7475179289398085E-002
  -1.9135039021899343E-003   4.7352828513991252E-004   6.8209198466725240E-002
  -5.8592039933904553E-003   1.5465017983660734E-003   6.5570588780150346E-002
  -5.3609461026472207E-003   1.3841695553489242E-003   6.5546400620354245E-002
  -4.8626882119040000E-003   1.2301512696618749E-003   6.5765024646777928E-002
  -4.3644303211607862E-003   1.0844469413052484E-003   6.6226460859421188E-002
  -3.8661724304175586E-003   9.4705657027871482E-004   6.6930709258284149E-002
  -8.8096523742305765E-003   2.3197526975489990E-003   6.4290037519813215E-002
  -8.0717406768437069E-003   2.0762543330232197E-003   6.4259185837673927E-002
  -7.3338289794568157E-003   1.8452269044924655E-003   6.4464829582602440E-002
  -6.5959172820699314E-003   1.6266704119573417E-003   6.4906968754598476E-002
  -5.8580055846830532E-003   1.4205848554175171E-003   6.5585603353662453E-002
  -1.1773998344500977E-002   3.0930035967321468E-003   6.2926241648635028E-002
  -1.0802749599622311E-002   2.7683391106975708E-003   6.2892883422817625E-002
  -9.8315008547436543E-003   2.4603025393231948E-003   6.3089703864915747E-002
  -8.8602521098649894E-003   2.1688938826095253E-003   6.3516702974929728E-002
  -7.8890033649863314E-003   1.8941131405562084E-003   6.4173880752859791E-002
  -9.7144514654701197E-017   1.3322676295501878E-015   6.9421070978985533E-002
  -3.4694469519536142E-016   1.4988010832439613E-015   6.9249489392589458E-002
  -5.9327542878406803E-016   1.5543122344752192E-015   6.9293910769440914E-002
  -8.3960616237277463E-016   1.7208456881689926E-015   6.9554335109539789E-002
  -1.0894063429134349E-015   1.8873791418627661E-015   7.0030762412886083E-002
  -1.9135039021899343E-003   4.7352828513991252E-004   6.8209198466725240E-002
  -1.6932255617114825E-003   4.2071007819888262E-004   6.8016526120762144E-002
  -1.4729472212330411E-003   3.9548884973644727E-004   6.8048407492508706E-002
  -1.2526688807545910E-003   3.9786459975311994E-004   6.8304842581965439E-002
  -1.0323905402761478E-003   4.2783732824824838E-004   6.8785831389131746E-002
  -3.8661724304175586E-003   9.4705657027871482E-004   6.6930709258284149E-002
  -3.4170649949979408E-003   8.4142015639629419E-004   6.6744543131232514E-002
  -2.9679575595783214E-003   7.9097769947134022E-004   6.6791481476353498E-002
  -2.5188501241587089E-003   7.9572919950396392E-004   6.7071524293646906E-002
  -2.0697426887390982E-003   8.5567465649444285E-004   6.7584671583112543E-002
  -5.8580055846830532E-003   1.4205848554175171E-003   6.5585603353662453E-002
  -5.1715182998597533E-003   1.2621302345935254E-003   6.5433540424001430E-002
  -4.4850310150364586E-003   1.1864665492062887E-003   6.5523132720975069E-002
  -3.7985437302131605E-003   1.1935937992550855E-003   6.5854380244583774E-002
  -3.1120564453898636E-003   1.2835119847406651E-003   6.6427282994827336E-002
  -7.8890033649863314E-003   1.8941131405562084E-003   6.4173880752859791E-002
  -6.9565854762968712E-003   1.6828403127909786E-003   6.4083517999067974E-002
  -6.0241675876074284E-003   1.5819553989412372E-003   6.4243361226373530E-002
  -5.0917496989179838E-003   1.5914583990063458E-003   6.4653410434776598E-002
  -4.1593318102285254E-003   1.7113493129869983E-003   6.5313665624277095E-002
  -1.0894063429134349E-015   1.8873791418627661E-015   7.0030762412886083E-002
  -2.9143354396410359E-016   1.9984014443252818E-015   6.8686827912367687E-002
   5.2041704279304213E-016   9.9920072216264089E-016   6.7490099598900510E-002
   1.3305329060742110E-015  -2.7755575615628914E-017   6.6440577472484330E-002
   2.1302404284995191E-015  -1.4432899320127035E-015   6.5538261533118924E-002
  -1.0323905402761478E-003   4.2783732824824838E-004   6.8785831389131746E-002
  -8.8882475814957770E-004   5.0072282650609479E-004   6.7462409156023806E-002
  -7.4525897602299197E-004   6.3183688581106012E-004   6.6278912300115844E-002
  -6.0169319389640537E-004   8.2117950616265173E-004   6.5235340821408527E-002
  -4.5812741176983612E-004   1.0687506875612929E-003   6.4331694719901522E-002
  -2.0697426887390982E-003   8.5567465649444285E-004   6.7584671583112543E-002
  -1.7898919343373263E-003   1.0014456530107463E-003   6.6339990178461483E-002
  -1.5100411799355675E-003   1.2636737716207880E-003   6.5227953341160161E-002
  -1.2301904255338021E-003   1.6423590123253312E-003   6.4248561071208798E-002
  -9.5033967113203680E-004   2.1375013751238625E-003   6.3401813368607368E-002
  -3.1120564453898636E-003   1.2835119847406651E-003   6.6427282994827336E-002
  -2.7032015285635342E-003   1.5021684795149537E-003   6.5319570979680913E-002
  -2.2943466117372044E-003   1.8955106574310154E-003   6.4337222722033779E-002
  -1.8854916949108749E-003   2.4635385184881217E-003   6.3480238221885588E-002
  -1.4766367780845455E-003   3.2062520626864044E-003   6.2748617479236851E-002
  -4.1593318102285254E-003   1.7113493129869983E-003   6.5313665624277095E-002
  -3.6287535408282209E-003   2.0028913060194942E-003   6.4401151559682401E-002
  -3.0981752714279061E-003   2.5273475432407155E-003   6.3606720442736242E-002
  -2.5675970020275947E-003   3.2847180246508359E-003   6.2930372273438978E-002
  -2.0370187326272868E-003   4.2750027502492793E-003   6.2372107051790304E-002
   2.1302404284995191E-015  -1.4432899320127035E-015   6.5538261533118924E-002
   1.4849232954361469E-015  -2.9976021664879227E-015   6.0800505981304487E-002
   8.3960616237277463E-016  -3.3584246494910985E-015   5.5942931074036750E-002
   2.0469737016526324E-016  -1.8388068845354155E-015   5.0965536811315021E-002
  -4.4408920985006262E-016   0.0000000000000000        4.5868323193140270E-002
  -4.5812741176983612E-004   1.0687506875612929E-003   6.4331694719901522E-002
  -5.6360740813824958E-004   1.3945101215939171E-003   5.9623267651694178E-002
  -6.6908740450668039E-004   1.8184174998490399E-003   5.4823699946204174E-002
  -7.7456740087509732E-004   2.3404728223268625E-003   4.9932991603432897E-002
  -8.8004739724351078E-004   2.9606760890259487E-003   4.4951142623378626E-002
  -9.5033967113203680E-004   2.1375013751238625E-003   6.3401813368607368E-002
  -1.1326209456968862E-003   2.7890202431908873E-003   5.8820862728228035E-002
  -1.3149022202617339E-003   3.6368349997014521E-003   5.4177450168738164E-002
  -1.4971834948265825E-003   4.6809456446552343E-003   4.9471575690137472E-002
  -1.6794647693914311E-003   5.9213521780523415E-003   4.4703239292426034E-002
  -1.4766367780845455E-003   3.2062520626864044E-003   6.2748617479236851E-002
  -1.7070406126744398E-003   4.1835303647880517E-003   5.8393291210906952E-002
  -1.9374444472643614E-003   5.4552524995536353E-003   5.4004181741637541E-002
  -2.1678482818542864E-003   7.0214184669839929E-003   4.9581289071428974E-002
  -2.3982521164441772E-003   8.8820282670784012E-003   4.5124613200279967E-002
  -2.0370187326272868E-003   4.2750027502492793E-003   6.2372107051790304E-002
  -2.2868664090709007E-003   5.5780404863846611E-003   5.8340553099730741E-002
  -2.5367140855145319E-003   7.2736699994061793E-003   5.4303894664902763E-002
  -2.7865617619581423E-003   9.3618912893126197E-003   5.0262131747307343E-002
  -3.0364094384017770E-003   1.1842704356104683E-002   4.6215264346943563E-002
  -2.5664845887469596E-002   7.3297621570750926E-003   6.0270900660430782E-002
  -2.4637460942417984E-002   7.1682442777256383E-003   6.0347855591173782E-002
  -2.3610075997366361E-002   6.9829884424116168E-003   6.0644580829459588E-002
  -2.2582691052314724E-002   6.7739946511325526E-003   6.1161076375288129E-002
  -2.1555306107263104E-002   6.5412629038886227E-003   6.1897342228659391E-002
  -3.1906092571464775E-002   9.2276232056177632E-003   5.7983302347883597E-002
  -3.0649148026656931E-002   9.0087490833171691E-003   5.7913138335839359E-002
  -2.9392203481849115E-002   8.7647772444754413E-003   5.8082323215764661E-002
  -2.8135258937041271E-002   8.4957076890924479E-003   5.8490856987659719E-002
  -2.6878314392233427E-002   8.2015404171680850E-003   5.9138739651524413E-002
  -3.8279829654207710E-002   1.1125484254160406E-002   5.5639027672673466E-002
  -3.6773746925216712E-002   1.0849253888908658E-002   5.5420384957265478E-002
  -3.5267664196225769E-002   1.0546566046539356E-002   5.5460669718253995E-002
  -3.3761581467234812E-002   1.0217420727052317E-002   5.5759881955639107E-002
  -3.2255498738243848E-002   9.8618179304476306E-003   5.6318021669420695E-002
  -4.4786057135698221E-002   1.3023345302703035E-002   5.3238076634800430E-002
  -4.3011257638097267E-002   1.2689758694500224E-002   5.2869595455452202E-002
  -4.1236458140496347E-002   1.2328354848603226E-002   5.2779620336927548E-002
  -3.9461658642895400E-002   1.1939133765012173E-002   5.2968151279226230E-002
  -3.7686859145294453E-002   1.1522095443727079E-002   5.3435188282348556E-002
  -5.1424775015936480E-002   1.4921206351245719E-002   5.0780449234264280E-002
  -4.9361680165298655E-002   1.4530263500091622E-002   5.0260769830399676E-002
  -4.7298585314660829E-002   1.4110143650667151E-002   5.0039175071785291E-002
  -4.5235490464022976E-002   1.3660846802972124E-002   5.0115664958421235E-002
  -4.3172395613385164E-002   1.3182372957006638E-002   5.0490239490307620E-002
  -2.1555306107263104E-002   6.5412629038886227E-003   6.1897342228659391E-002
  -2.0894217311384227E-002   6.2940180500185572E-003   6.1625778043489232E-002
  -2.0233128515505343E-002   6.0414849388607944E-003   6.1506628244600348E-002
  -1.9572039719626462E-002   5.7836635704157889E-003   6.1539892831992696E-002
  -1.8910950923747581E-002   5.5205539446829821E-003   6.1725571805666291E-002
  -2.6878314392233427E-002   8.2015404171680850E-003   5.9138739651524413E-002
  -2.6061397699165469E-002   7.8920497621963043E-003   5.8810994262801272E-002
  -2.5244481006097524E-002   7.5770100576707661E-003   5.8642490282174969E-002
  -2.4427564313029587E-002   7.2564213035915572E-003   5.8633227709645519E-002
  -2.3610647619961633E-002   6.9302834999587226E-003   5.8783206545212907E-002
  -3.2255498738243848E-002   9.8618179304476306E-003   5.6318021669420695E-002
  -3.1275927126171221E-002   9.4900814743741069E-003   5.5933834284878442E-002
  -3.0296355514098636E-002   9.1125351764808002E-003   5.5715715330248723E-002
  -2.9316783902026050E-002   8.7291790367675492E-003   5.5663664805531352E-002
  -2.8337212289953423E-002   8.3400130552345186E-003   5.5777682710726528E-002
  -3.7686859145294453E-002   1.1522095443727079E-002   5.3435188282348556E-002
  -3.6537805592401593E-002   1.1088113186551854E-002   5.2994298109720922E-002
  -3.5388752039508697E-002   1.0648060295290609E-002   5.2726303388821429E-002
  -3.4239698486615844E-002   1.0201936769943680E-002   5.2631204119650096E-002
  -3.3090644933722942E-002   9.7497426105103147E-003   5.2709000302206675E-002
  -4.3172395613385164E-002   1.3182372957006638E-002   5.0490239490307620E-002
  -4.1847033097856409E-002   1.2686144898729657E-002   4.9992385737328643E-002
  -4.0521670582327689E-002   1.2183585414100778E-002   4.9674254457893391E-002
  -3.9196308066798927E-002   1.1674694503119358E-002   4.9535845652001725E-002
  -3.7870945551270213E-002   1.1159472165786111E-002   4.9577159319653785E-002
  -1.8910950923747581E-002   5.5205539446829821E-003   6.1725571805666291E-002
  -1.7994392675285312E-002   5.2495792235888739E-003   6.1553015740692829E-002
  -1.7077834426823025E-002   4.9681625690596032E-003   6.1595013562177475E-002
  -1.6161276178360745E-002   4.6763039810955240E-003   6.1851565270120340E-002
  -1.5244717929898462E-002   4.3740034596959632E-003   6.2322670864521479E-002
  -2.3610647619961633E-002   6.9302834999587226E-003   5.8783206545212907E-002
  -2.2480744901916528E-002   6.5962159083149396E-003   5.8572196859634884E-002
  -2.1350842183871413E-002   6.2518377902036348E-003   5.8573322226764313E-002
  -2.0220939465826326E-002   5.8971491456242739E-003   5.8786582646601207E-002
  -1.9091036747781197E-002   5.5321499745771829E-003   5.9211978119145581E-002
  -2.8337212289953423E-002   8.3400130552345186E-003   5.5777682710726528E-002
  -2.6996383936076243E-002   7.9428525930413107E-003   5.5528350811511085E-002
  -2.5655555582199067E-002   7.5355130113474028E-003   5.5488735131252492E-002
  -2.4314727228321870E-002   7.1179943101532493E-003   5.5658835669950536E-002
  -2.2973898874444711E-002   6.6902964894584027E-003   5.6038652427605196E-002
  -3.3090644933722942E-002   9.7497426105103147E-003   5.2709000302206675E-002
  -3.1541309777764440E-002   9.2894892777675847E-003   5.2421477596321424E-002
  -2.9991974621805910E-002   8.8191882324912471E-003   5.2341252275642028E-002
  -2.8442639465847408E-002   8.3388394746822230E-003   5.2468324340168668E-002
  -2.6893304309888906E-002   7.8484430043396225E-003   5.2802693789901260E-002
  -3.7870945551270213E-002   1.1159472165786111E-002   4.9577159319653785E-002
  -3.6115522426981128E-002   1.0636125962493748E-002   4.9251577214065756E-002
  -3.4360099302692029E-002   1.0102863453635230E-002   4.9130873659932989E-002
  -3.2604676178402958E-002   9.5596846392110371E-003   4.9215048657255317E-002
  -3.0849253054113859E-002   9.0065895192208978E-003   4.9504102206032907E-002
  -1.5244717929898462E-002   4.3740034596959632E-003   6.2322670864521479E-002
  -1.4377038033549089E-002   4.0632998521731301E-003   6.2152281411109789E-002
  -1.3509358137199723E-002   3.7462320058383181E-003   6.2196080057324743E-002
  -1.2641678240850347E-002   3.4227999206908818E-003   6.2454066803166591E-002
  -1.1773998344500977E-002   3.0930035967321468E-003   6.2926241648635028E-002
  -1.9091036747781197E-002   5.5321499745771829E-003   5.9211978119145581E-002
  -1.8013685740513076E-002   5.1584905870647735E-003   5.8993841295607724E-002
  -1.6936334733244983E-002   4.7778212930898178E-003   5.8980858594280705E-002
  -1.5858983725976862E-002   4.3901420926519344E-003   5.9173030015164413E-002
  -1.4781632718708745E-002   3.9954529857514354E-003   5.9570355558258958E-002
  -2.2973898874444711E-002   6.6902964894584027E-003   5.6038652427605196E-002
  -2.1695910733673787E-002   6.2536813219566389E-003   5.5772122566290744E-002
  -2.0417922592902874E-002   5.8094105803415536E-003   5.5701712849771004E-002
  -1.9139934452131951E-002   5.3574842646128239E-003   5.5827423278046052E-002
  -1.7861946311361065E-002   4.8979023747708905E-003   5.6149253851116077E-002
  -2.6893304309888906E-002   7.8484430043396225E-003   5.2802693789901260E-002
  -2.5423713013031125E-002   7.3488720568483934E-003   5.2487125223159160E-002
  -2.3954121716173404E-002   6.8409998675931713E-003   5.2358642823796014E-002
  -2.2484530419315654E-002   6.3248264365736839E-003   5.2417246591811587E-002
  -2.1014939122457933E-002   5.8003517637902069E-003   5.2662936527206335E-002
  -3.0849253054113859E-002   9.0065895192208978E-003   4.9504102206032907E-002
  -2.9197092578585229E-002   8.4440627917402034E-003   4.9138849266212647E-002
  -2.7544932103056578E-002   7.8725891548448862E-003   4.8951648516355389E-002
  -2.5892771627527931E-002   7.2921686085346236E-003   4.8942499956460980E-002
  -2.4240611151999297E-002   6.7028011528097453E-003   4.9111403586529545E-002
  -1.1773998344500977E-002   3.0930035967321468E-003   6.2926241648635028E-002
  -1.0802749599622311E-002   2.7683391106975708E-003   6.2892883422817625E-002
  -9.8315008547436543E-003   2.4603025393231948E-003   6.3089703864915747E-002
  -8.8602521098649894E-003   2.1688938826095253E-003   6.3516702974929728E-002
  -7.8890033649863314E-003   1.8941131405562084E-003   6.4173880752859791E-002
  -1.4781632718708745E-002   3.9954529857514354E-003   5.9570355558258958E-002
  -1.3586169998125015E-002   3.6025419623448296E-003   5.9471950415841801E-002
  -1.2390707277541263E-002   3.2201970123891255E-003   5.9591794556918903E-002
  -1.1195244556957543E-002   2.8484181358837263E-003   5.9929887981490251E-002
  -9.9997818363737820E-003   2.4872053328294230E-003   6.0486230689556053E-002
  -1.7861946311361065E-002   4.8979023747708905E-003   5.6149253851116077E-002
  -1.6454198999493720E-002   4.4367448139926713E-003   5.5979739950889340E-002
  -1.5046451687626385E-002   3.9800914854550423E-003   5.6016545949735416E-002
  -1.3638704375759049E-002   3.5279423891583679E-003   5.6259671847654284E-002
  -1.2230957063891728E-002   3.0802975251025821E-003   5.6709117644646090E-002
  -2.1014939122457933E-002   5.8003517637902069E-003   5.2662936527206335E-002
  -1.9406836603728488E-002   5.2709476656399440E-003   5.2416252027960158E-002
  -1.7798734084999036E-002   4.7399859585209661E-003   5.2363958043365258E-002
  -1.6190631566269587E-002   4.2074666424328448E-003   5.2506054573421793E-002
  -1.4582529047540141E-002   3.6733897173757690E-003   5.2842541618129943E-002
  -2.4240611151999297E-002   6.7028011528097453E-003   4.9111403586529545E-002
  -2.2444082810829227E-002   6.1051505172878273E-003   4.8781486647054229E-002
  -2.0647554469659185E-002   5.4998804315869176E-003   4.8634030837808706E-002
  -1.8851026128489122E-002   4.8869908957072175E-003   4.8669036158793089E-002
  -1.7054497787319073E-002   4.2664819096488449E-003   4.8886502610007376E-002
  -7.8890033649863314E-003   1.8941131405562084E-003   6.4173880752859791E-002
  -6.9565854762968712E-003   1.6828403127909786E-003   6.4083517999067974E-002
  -6.0241675876074284E-003   1.5819553989412372E-003   6.4243361226373530E-002
  -5.0917496989179838E-003   1.5914583990063458E-003   6.4653410434776598E-002
  -4.1593318102285254E-003   1.7113493129869983E-003   6.5313665624277095E-002
  -9.9997818363737820E-003   2.4872053328294230E-003   6.0486230689556053E-002
  -8.8167145681817480E-003   2.1873725460744287E-003   6.0387205514571052E-002
  -7.6336472999897001E-003   1.9997337184684827E-003   6.0539273117493630E-002
  -6.4505800317976886E-003   1.9242888500113839E-003   6.0942433498323900E-002
  -5.2675127636056460E-003   1.9610379407029033E-003   6.1596686657062416E-002
  -1.2230957063891728E-002   3.0802975251025821E-003   5.6709117644646090E-002
  -1.0796353619386759E-002   2.6919047793580453E-003   5.6603236093701187E-002
  -9.3617501748817882E-003   2.4175120379962833E-003   5.6749334117474293E-002
  -7.9271467303768037E-003   2.2571193010162000E-003   5.7147411715965657E-002
  -6.4925432858718470E-003   2.2107265684185862E-003   5.7797468889174891E-002
  -1.4582529047540141E-002   3.6733897173757690E-003   5.2842541618129943E-002
  -1.2895502629911872E-002   3.1964370126415786E-003   5.2731609736458608E-002
  -1.1208476212283618E-002   2.8352903575238064E-003   5.2873544226315725E-002
  -9.5214497946553445E-003   2.5899497520210160E-003   5.3268345087701251E-002
  -7.8344233770270971E-003   2.4604151961344911E-003   5.3916012320615332E-002
  -1.7054497787319073E-002   4.2664819096488449E-003   4.8886502610007376E-002
  -1.5114161599757175E-002   3.7009692459251120E-003   4.8772326442843128E-002
  -1.3173825412195250E-002   3.2530686770512185E-003   4.8911903444017801E-002
  -1.1233489224633353E-002   2.9227802030258043E-003   4.9305233613531341E-002
  -9.2931530370714277E-003   2.7101038238501740E-003   4.9952316951383469E-002
  -4.1593318102285254E-003   1.7113493129869983E-003   6.5313665624277095E-002
  -3.6287535408282209E-003   2.0028913060194942E-003   6.4401151559682401E-002
  -3.0981752714279061E-003   2.5273475432407155E-003   6.3606720442736242E-002
  -2.5675970020275947E-003   3.2847180246508359E-003   6.2930372273438978E-002
  -2.0370187326272868E-003   4.2750027502492793E-003   6.2372107051790304E-002
  -5.2675127636056460E-003   1.9610379407029033E-003   6.1596686657062416E-002
  -4.5926427692115669E-003   2.2170286347394375E-003   6.0873133546788583E-002
  -3.9177727748175330E-003   2.7993085763171610E-003   6.0320080938853660E-002
  -3.2429027804234851E-003   3.7078777654369621E-003   5.9937528833257758E-002
  -2.5680327860294200E-003   4.9427362020980636E-003   5.9725477230000323E-002
  -6.4925432858718470E-003   2.2107265684185862E-003   5.7797468889174891E-002
  -5.6209640117939001E-003   2.4311659634591587E-003   5.7356251736575242E-002
  -4.7493847377159653E-003   3.0712696093940367E-003   5.7137952641004450E-002
  -3.8778054636380227E-003   4.1310375062234179E-003   5.7142571602462673E-002
  -3.0062261895600836E-003   5.6104696539467924E-003   5.7370108620949906E-002
  -7.8344233770270971E-003   2.4604151961344911E-003   5.3916012320615332E-002
  -6.7137172685751345E-003   2.6453032921790465E-003   5.3850506129042325E-002
  -5.5930111601231840E-003   3.3432306424705863E-003   5.4060335549188529E-002
  -4.4723050516712187E-003   4.5541972470095980E-003   5.4545500581053584E-002
  -3.3515989432192691E-003   6.2782031057955490E-003   5.5306001224638003E-002
  -9.2931530370714277E-003   2.7101038238501740E-003   4.9952316951383469E-002
  -7.8709025395553439E-003   2.8594406208987677E-003   5.0355896724189941E-002
  -6.4486520420392046E-003   3.6151916755475522E-003   5.1087229663405731E-002
  -5.0264015445231069E-003   4.9773569877959931E-003   5.2146315769030754E-002
  -3.6041510470069815E-003   6.9459365576444165E-003   5.3533155041064817E-002
  -2.0370187326272868E-003   4.2750027502492793E-003   6.2372107051790304E-002
  -2.2868664090709007E-003   5.5780404863846611E-003   5.8340553099730741E-002
  -2.5367140855145319E-003   7.2736699994061793E-003   5.4303894664902763E-002
  -2.7865617619581423E-003   9.3618912893126197E-003   5.0262131747307343E-002
  -3.0364094384017770E-003   1.1842704356104683E-002   4.6215264346943563E-002
  -2.5680327860294200E-003   4.9427362020980636E-003   5.9725477230000323E-002
  -2.8405485510384007E-003   6.5675154776362876E-003   5.6192252425564360E-002
  -3.1130643160473745E-003   8.6458471833868455E-003   5.2618795926765494E-002
  -3.3855800810563465E-003   1.1177731319350806E-002   4.9005107733603365E-002
  -3.6580958460653012E-003   1.4163167885527184E-002   4.5351187846079499E-002
  -3.0062261895600836E-003   5.6104696539467924E-003   5.7370108620949906E-002
  -3.3365372547290318E-003   7.5569904688871925E-003   5.4396173617464072E-002
  -3.6668483198979661E-003   1.0018024367368164E-002   5.1346879708020834E-002
  -3.9971593850668848E-003   1.2993571349388878E-002   4.8222226892620922E-002
  -4.3274704502357930E-003   1.6483631414949684E-002   4.5022215171263036E-002
  -3.3515989432192691E-003   6.2782031057955490E-003   5.5306001224638003E-002
  -3.7748325201427922E-003   8.5464654601387913E-003   5.2952316675430100E-002
  -4.1980660970663301E-003   1.1390201551348934E-002   5.0488146008670173E-002
  -4.6212996739898394E-003   1.4809411379426896E-002   4.7913489224358168E-002
  -5.0445332509133642E-003   1.8804094944372296E-002   4.5228346322495228E-002
  -3.6041510470069815E-003   6.9459365576444165E-003   5.3533155041064817E-002
  -4.1554343472796768E-003   9.5359404513900570E-003   5.1860681599462000E-002
  -4.7067176475524414E-003   1.2762378735329954E-002   5.0042594828713038E-002
  -5.2580009478251852E-003   1.6625251409465087E-002   4.8078894728817129E-002
  -5.8092842480979012E-003   2.1124558473794686E-002   4.5969581299774909E-002
  -5.1424775015936480E-002   1.4921206351245719E-002   5.0780449234264280E-002
  -4.9361680165298655E-002   1.4530263500091622E-002   5.0260769830399676E-002
  -4.7298585314660829E-002   1.4110143650667151E-002   5.0039175071785291E-002
  -4.5235490464022976E-002   1.3660846802972124E-002   5.0115664958421235E-002
  -4.3172395613385164E-002   1.3182372957006638E-002   5.0490239490307620E-002
  -5.8045582786263400E-002   1.6837494657225449E-002   4.4928755107431051E-002
  -5.5694557889039764E-002   1.6367676792279628E-002   4.4540311892285966E-002
  -5.3343532991816045E-002   1.5873196263231762E-002   4.4429644125062173E-002
  -5.0992508094592402E-002   1.5354053070081839E-002   4.4596751805759852E-002
  -4.8641483197368683E-002   1.4810247212830002E-002   4.5041634934378738E-002
  -6.4498079938020064E-002   1.8753782963205151E-002   3.8995928799721691E-002
  -6.1879434191539490E-002   1.8205090084467551E-002   3.8743236107464718E-002
  -5.9260788445058929E-002   1.7636248875796373E-002   3.8748009665799985E-002
  -5.6642142698578368E-002   1.7047259337191666E-002   3.9010249474727768E-002
  -5.4023496952097808E-002   1.6438121468653422E-002   3.9529955534247957E-002
  -7.0782266471206362E-002   2.0670071269184853E-002   3.2981970311136422E-002
  -6.7916309072797915E-002   2.0042503376655488E-002   3.2869542475935862E-002
  -6.5050351674389384E-002   1.9399301488360957E-002   3.2994271693998760E-002
  -6.2184394275980943E-002   1.8740465604301464E-002   3.3356157965325164E-002
  -5.9318436877572447E-002   1.8065995724476897E-002   3.3955201289914798E-002
  -7.6898142385822432E-002   2.2586359575164583E-002   2.6886879641675021E-002
  -7.3805182532814984E-002   2.1879916668843313E-002   2.6919230997699550E-002
  -7.0712222679807563E-002   2.1162354100925568E-002   2.7168430209658478E-002
  -6.7619262826800086E-002   2.0433671871411187E-002   2.7634477277551889E-002
  -6.4526302973792637E-002   1.9693869980300260E-002   2.8317372201379809E-002
  -4.3172395613385164E-002   1.3182372957006638E-002   5.0490239490307620E-002
  -4.1847033097856409E-002   1.2686144898729657E-002   4.9992385737328643E-002
  -4.0521670582327689E-002   1.2183585414100778E-002   4.9674254457893391E-002
  -3.9196308066798927E-002   1.1674694503119358E-002   4.9535845652001725E-002
  -3.7870945551270213E-002   1.1159472165786111E-002   4.9577159319653785E-002
  -4.8641483197368683E-002   1.4810247212830002E-002   4.5041634934378738E-002
  -4.7143837641144042E-002   1.4253586562600257E-002   4.4619726403703708E-002
  -4.5646192084919351E-002   1.3695878990517087E-002   4.4362661480876808E-002
  -4.4148546528694675E-002   1.3137124496580119E-002   4.4270440165898248E-002
  -4.2650900972469950E-002   1.2577323080789682E-002   4.4343062458767735E-002
  -5.4023496952097808E-002   1.6438121468653422E-002   3.9529955534247957E-002
  -5.2368447220872603E-002   1.5821028226470912E-002   3.9189276730375193E-002
  -5.0713397489647392E-002   1.5208172566933451E-002   3.8998562668655298E-002
  -4.9058347758422244E-002   1.4599554490040769E-002   3.8957813349088204E-002
  -4.7403298027197054E-002   1.3995173995793225E-002   3.9067028771673867E-002
  -5.9318436877572447E-002   1.8065995724476897E-002   3.3955201289914798E-002
  -5.7520861837042185E-002   1.7388469890341512E-002   3.3701036717343244E-002
  -5.5723286796511895E-002   1.6720466143349842E-002   3.3581958021228805E-002
  -5.3925711755981647E-002   1.6061984483501476E-002   3.3597965201571989E-002
  -5.2128136715451391E-002   1.5413024910796727E-002   3.3749058258372336E-002
  -6.4526302973792637E-002   1.9693869980300260E-002   2.8317372201379809E-002
  -6.2601081489652724E-002   1.8955911554212140E-002   2.8155006364607660E-002
  -6.0675860005512838E-002   1.8232759719766137E-002   2.8112847538597413E-002
  -5.8750638521372925E-002   1.7524414476962128E-002   2.8190895723349069E-002
  -5.6825417037233039E-002   1.6830875825800340E-002   2.8389150918862738E-002
  -3.7870945551270213E-002   1.1159472165786111E-002   4.9577159319653785E-002
  -3.6115522426981128E-002   1.0636125962493748E-002   4.9251577214065756E-002
  -3.4360099302692029E-002   1.0102863453635230E-002   4.9130873659932989E-002
  -3.2604676178402958E-002   9.5596846392110371E-003   4.9215048657255317E-002
  -3.0849253054113859E-002   9.0065895192208978E-003   4.9504102206032907E-002
  -4.2650900972469950E-002   1.2577323080789682E-002   4.4343062458767735E-002
  -4.0693462476091978E-002   1.2011951363497725E-002   4.4032170546928540E-002
  -3.8736023979713985E-002   1.1436485965056503E-002   4.3920430827811996E-002
  -3.6778585483335985E-002   1.0850926885465899E-002   4.4007843301417923E-002
  -3.4821146986958013E-002   1.0255274124726099E-002   4.4294407967746696E-002
  -4.7403298027197054E-002   1.3995173995793225E-002   3.9067028771673867E-002
  -4.5249570517462714E-002   1.3387776764501758E-002   3.8770649678000119E-002
  -4.3095843007728396E-002   1.2770108476477540E-002   3.8667696418316383E-002
  -4.0942115497994064E-002   1.2142169131720646E-002   3.8758168992622695E-002
  -3.8788387988259801E-002   1.1503958730231051E-002   3.9042067400919020E-002
  -5.2128136715451391E-002   1.5413024910796727E-002   3.3749058258372336E-002
  -4.9783846551093323E-002   1.4763602165505679E-002   3.3467014607280424E-002
  -4.7439556386735263E-002   1.4103730987898667E-002   3.3372670431446219E-002
  -4.5095266222377188E-002   1.3433411377975284E-002   3.3466025730869250E-002
  -4.2750976058019120E-002   1.2752643335736294E-002   3.3747080505549990E-002
  -5.6825417037233039E-002   1.6830875825800340E-002   2.8389150918862738E-002
  -5.4296290576983791E-002   1.6139427566509795E-002   2.8121265334769552E-002
  -5.1767164116734571E-002   1.5437353499319850E-002   2.8035352867201380E-002
  -4.9238037656485309E-002   1.4724653624230172E-002   2.8131413516158013E-002
  -4.6708911196236047E-002   1.4001327941241204E-002   2.8409447281639522E-002
  -3.0849253054113859E-002   9.0065895192208978E-003   4.9504102206032907E-002
  -2.9197092578585229E-002   8.4440627917402034E-003   4.9138849266212647E-002
  -2.7544932103056578E-002   7.8725891548448862E-003   4.8951648516355389E-002
  -2.5892771627527931E-002   7.2921686085346236E-003   4.8942499956460980E-002
  -2.4240611151999297E-002   6.7028011528097453E-003   4.9111403586529545E-002
  -3.4821146986958013E-002   1.0255274124726099E-002   4.4294407967746696E-002
  -3.2996677969209180E-002   9.6494062363673971E-003   4.3918422569974414E-002
  -3.1172208951460376E-002   9.0332017739200993E-003   4.3709002066679631E-002
  -2.9347739933711627E-002   8.4066607373846393E-003   4.3666146457862307E-002
  -2.7523270915962753E-002   7.7697831267609097E-003   4.3789855743522232E-002
  -3.8788387988259801E-002   1.1503958730231051E-002   3.9042067400919020E-002
  -3.6803097723776317E-002   1.0854749680994230E-002   3.8653959880521296E-002
  -3.4817807459292825E-002   1.0193814392995430E-002   3.8420929959115467E-002
  -3.2832517194809424E-002   9.5211528662347122E-003   3.8342977636701567E-002
  -3.0847226930325898E-002   8.8367651007122405E-003   3.8420102913279436E-002
  -4.2750976058019120E-002   1.2752643335736294E-002   3.3747080505549990E-002
  -4.0616351842286492E-002   1.2060093125621243E-002   3.3345461197853241E-002
  -3.8481727626553920E-002   1.1354427012070702E-002   3.3087432193662794E-002
  -3.6347103410821362E-002   1.0635644995084757E-002   3.2972993492978823E-002
  -3.4212479195088720E-002   9.9037470746634326E-003   3.3002145095801357E-002
  -4.6708911196236047E-002   1.4001327941241204E-002   2.8409447281639522E-002
  -4.4436440324739923E-002   1.3265436570248146E-002   2.7992926521970274E-002
  -4.2163969453243660E-002   1.2515039631145891E-002   2.7708508770321716E-002
  -3.9891498581747453E-002   1.1750137123934724E-002   2.7556194026694125E-002
  -3.7619027710251246E-002   1.0970729048614847E-002   2.7535982291087446E-002
  -2.4240611151999297E-002   6.7028011528097453E-003   4.9111403586529545E-002
  -2.2444082810829227E-002   6.1051505172878273E-003   4.8781486647054229E-002
  -2.0647554469659185E-002   5.4998804315869176E-003   4.8634030837808706E-002
  -1.8851026128489122E-002   4.8869908957072175E-003   4.8669036158793089E-002
  -1.7054497787319073E-002   4.2664819096488449E-003   4.8886502610007376E-002
  -2.7523270915962753E-002   7.7697831267609097E-003   4.3789855743522232E-002
  -2.5552726443961012E-002   7.1280901379655592E-003   4.3406740738032357E-002
  -2.3582181971959222E-002   6.4871029669153757E-003   4.3189196863975904E-002
  -2.1611637499957405E-002   5.8468216136102272E-003   4.3137224121353165E-002
  -1.9641093027955636E-002   5.2072460780507868E-003   4.3250822510163989E-002
  -3.0847226930325898E-002   8.8367651007122405E-003   3.8420102913279436E-002
  -2.8719556326288712E-002   8.1510297586432634E-003   3.7992115109699048E-002
  -2.6591885722251438E-002   7.4743255022438199E-003   3.7712808438755810E-002
  -2.4464215118214248E-002   6.8066523315134554E-003   3.7582182900449922E-002
  -2.2336544514176979E-002   6.1480102464525621E-003   3.7600238494781446E-002
  -3.4212479195088720E-002   9.9037470746634326E-003   3.3002145095801357E-002
  -3.1944572457812320E-002   9.1739693793209814E-003   3.2537609762054200E-002
  -2.9676665720535931E-002   8.4615480375721600E-003   3.2204865562148355E-002
  -2.7408758983259545E-002   7.7664830494165744E-003   3.2003912496083371E-002
  -2.5140852245983142E-002   7.0887744148544207E-003   3.1934750563859499E-002
  -3.7619027710251246E-002   1.0970729048614847E-002   2.7535982291087446E-002
  -3.5227774838531928E-002   1.0196908999998866E-002   2.7043224695098012E-002
  -3.2836521966812623E-002   9.4487705729008054E-003   2.6665368234153441E-002
  -3.0445269095093326E-002   8.7263137673197141E-003   2.6402412908253625E-002
  -2.8054016223374029E-002   8.0295385832563904E-003   2.6254358717398563E-002
  -1.7054497787319073E-002   4.2664819096488449E-003   4.8886502610007376E-002
  -1.5114161599757175E-002   3.7009692459251120E-003   4.8772326442843128E-002
  -1.3173825412195250E-002   3.2530686770512185E-003   4.8911903444017801E-002
  -1.1233489224633353E-002   2.9227802030258043E-003   4.9305233613531341E-002
  -9.2931530370714277E-003   2.7101038238501740E-003   4.9952316951383469E-002
  -1.9641093027955636E-002   5.2072460780507868E-003   4.3250822510163989E-002
  -1.7485203883898029E-002   4.6046354693596858E-003   4.3085007950992404E-002
  -1.5329314739840456E-002   4.0752488966602496E-003   4.3096546136473290E-002
  -1.3173425595782832E-002   3.6190863599528736E-003   4.3285437066606702E-002
  -1.1017536451725277E-002   3.2361478592375370E-003   4.3651680741392751E-002
  -2.2336544514176979E-002   6.1480102464525621E-003   3.7600238494781446E-002
  -2.0041502837309981E-002   5.5083016927934825E-003   3.7338397484745045E-002
  -1.7746461160443039E-002   4.8974291162691697E-003   3.7177508795675163E-002
  -1.5451419483576131E-002   4.3153925168796098E-003   3.7117572427571244E-002
  -1.3156377806709162E-002   3.7621918946247890E-003   3.7158588380433927E-002
  -2.5140852245983142E-002   7.0887744148544207E-003   3.1934750563859499E-002
  -2.2783058459993035E-002   6.4119679162276122E-003   3.1532495044101390E-002
  -2.0425264674002991E-002   5.7196093358783118E-003   3.1154791421623293E-002
  -1.8067470888012891E-002   5.0116986738061794E-003   3.0801639696425083E-002
  -1.5709677102022843E-002   4.2882359300122075E-003   3.0473039868506614E-002
  -2.8054016223374029E-002   8.0295385832563904E-003   2.6254358717398563E-002
  -2.5709870751947195E-002   7.3156341396617419E-003   2.5667300629061307E-002
  -2.3365725280520319E-002   6.5417895554871763E-003   2.5028394014317834E-002
  -2.1021579809093478E-002   5.7080048307332071E-003   2.4337638873167977E-002
  -1.8677434337666610E-002   4.8142799653994039E-003   2.3595035205611903E-002
  -9.2931530370714277E-003   2.7101038238501740E-003   4.9952316951383469E-002
  -7.8709025395553439E-003   2.8594406208987677E-003   5.0355896724189941E-002
  -6.4486520420392046E-003   3.6151916755475522E-003   5.1087229663405731E-002
  -5.0264015445231069E-003   4.9773569877959931E-003   5.2146315769030754E-002
  -3.6041510470069815E-003   6.9459365576444165E-003   5.3533155041064817E-002
  -1.1017536451725277E-002   3.2361478592375370E-003   4.3651680741392751E-002
  -9.2494085773974083E-003   3.1647532595733274E-003   4.4237065796127018E-002
  -7.4812807030694914E-003   3.6432224260191937E-003   4.5186452438075425E-002
  -5.7131528287416126E-003   4.6715553585757116E-003   4.6499840667238265E-002
  -3.9450249544137062E-003   6.2497520572426524E-003   4.8177230483615552E-002
  -1.3156377806709162E-002   3.7621918946247890E-003   3.7158588380433927E-002
  -1.1006124134764369E-002   3.4700658982476928E-003   3.7869228225606288E-002
  -8.8558704628196039E-003   3.6712531764914041E-003   3.8980118078798129E-002
  -6.7056167908748077E-003   4.3657537293557667E-003   4.0491257940009372E-002
  -4.5553631189300461E-003   5.5535675568412768E-003   4.2402647809240107E-002
  -1.5709677102022843E-002   4.2882359300122075E-003   3.0473039868506614E-002
  -1.3141049211656153E-002   3.7753785369219334E-003   3.1252384012627900E-002
  -1.0572421321289431E-002   3.6992839269633301E-003   3.2468226585573565E-002
  -8.0037934309227510E-003   4.0599521001359867E-003   3.4120567587343657E-002
  -5.4351655405559616E-003   4.8573830564399290E-003   3.6209407017938379E-002
  -1.8677434337666610E-002   4.8142799653994039E-003   2.3595035205611903E-002
  -1.5654183808072875E-002   4.0806911755965625E-003   2.4386533157191970E-002
  -1.2630933278479056E-002   3.7273146774352284E-003   2.5650777958401705E-002
  -9.6076827488852795E-003   3.7541504709157555E-003   2.7387769609241081E-002
  -6.5844322192915028E-003   4.1611985560382481E-003   2.9597508109710069E-002
  -3.6041510470069815E-003   6.9459365576444165E-003   5.3533155041064817E-002
  -4.1554343472796768E-003   9.5359404513900570E-003   5.1860681599462000E-002
  -4.7067176475524414E-003   1.2762378735329954E-002   5.0042594828713038E-002
  -5.2580009478251852E-003   1.6625251409465087E-002   4.8078894728817129E-002
  -5.8092842480979012E-003   2.1124558473794686E-002   4.5969581299774909E-002
  -3.9450249544137062E-003   6.2497520572426524E-003   4.8177230483615552E-002
  -4.5380616742534408E-003   8.6877565747979224E-003   4.7242245825413420E-002
  -5.1310983940932031E-003   1.2295512964020289E-002   4.6369367657223770E-002
  -5.7241351139328753E-003   1.7073021224909328E-002   4.5558595979046407E-002
  -6.3171718337727001E-003   2.3020281357464922E-002   4.4809930790882024E-002
  -4.5553631189300461E-003   5.5535675568412768E-003   4.2402647809240107E-002
  -4.9824334391777095E-003   7.8395726982065095E-003   4.2738469415910724E-002
  -5.4095037594253693E-003   1.1828647192710387E-002   4.3344117331752571E-002
  -5.8365740796730275E-003   1.7520791040353399E-002   4.4219591556766434E-002
  -6.2636443999206926E-003   2.4916004241134937E-002   4.5364892090951847E-002
  -5.4351655405559616E-003   4.8573830564399290E-003   3.6209407017938379E-002
  -5.4885496420525610E-003   6.9913888216149578E-003   3.8349352370953375E-002
  -5.5419337435491595E-003   1.1361781421400603E-002   4.0966843852299289E-002
  -5.5953178450457164E-003   1.7968560855797441E-002   4.4061881461976503E-002
  -5.6487019465423019E-003   2.6811727124805063E-002   4.7634465199983295E-002
  -6.5844322192915028E-003   4.1611985560382481E-003   2.9597508109710069E-002
  -6.0564102828778443E-003   6.1432049450226289E-003   3.4074894690542257E-002
  -5.5283883464642969E-003   1.0894915650090903E-002   3.9237547218864133E-002
  -5.0003664100506245E-003   1.8416330671241730E-002   4.5085465694675947E-002
  -4.4723444736370910E-003   2.8707450008475188E-002   5.1618650117977172E-002
  -7.6898142385822432E-002   2.2586359575164583E-002   2.6886879641675021E-002
  -7.3805182532814984E-002   2.1879916668843313E-002   2.6919230997699550E-002
  -7.0712222679807563E-002   2.1162354100925568E-002   2.7168430209658478E-002
  -6.7619262826800086E-002   2.0433671871411187E-002   2.7634477277551889E-002
  -6.4526302973792637E-002   1.9693869980300260E-002   2.8317372201379809E-002
  -8.3003754879725805E-002   2.4356373665104958E-002   2.0934393059118706E-002
  -7.9687350799647644E-002   2.3640001916310355E-002   2.0806518570089028E-002
  -7.6370946719569510E-002   2.2896672951021657E-002   2.0908684679266210E-002
  -7.3054542639491349E-002   2.2126386769238851E-002   2.1240891386650654E-002
  -6.9738138559413201E-002   2.1329143370961867E-002   2.1803138692241847E-002
  -8.9257151150774344E-002   2.6126387755045222E-002   1.4979896411537630E-002
  -8.5704110101352884E-002   2.5400087163777424E-002   1.4675958522556196E-002
  -8.2151069051931508E-002   2.4630991801117871E-002   1.4615253974054374E-002
  -7.8598028002510090E-002   2.3819101667066401E-002   1.4797782766031886E-002
  -7.5044986953088727E-002   2.2964416761623446E-002   1.5223544898488831E-002
  -9.5658331198967564E-002   2.7896401844985569E-002   9.0233896989320439E-003
  -9.1855460437930553E-002   2.7160172411244313E-002   8.5275508551015781E-003
  -8.8052589676893528E-002   2.6365310651213746E-002   8.2881380940226825E-003
  -8.4249718915856517E-002   2.5511816564893923E-002   8.3051514156958755E-003
  -8.0446848154819561E-002   2.4599690152284928E-002   8.5785908201211659E-003
 -0.10220729502430603        2.9666415934925916E-002   3.0648729213019754E-003
  -9.8141401809380913E-002   2.8920257658711312E-002   2.3612955677246306E-003
  -9.4075508594455681E-002   2.8099629501310092E-002   1.9273370391716116E-003
  -9.0009615379530450E-002   2.7204531462721594E-002   1.7629973356428699E-003
  -8.5943722164605330E-002   2.6234963542946521E-002   1.8682764571386068E-003
  -6.4526302973792637E-002   1.9693869980300260E-002   2.8317372201379809E-002
  -6.2601081489652724E-002   1.8955911554212140E-002   2.8155006364607660E-002
  -6.0675860005512838E-002   1.8232759719766137E-002   2.8112847538597413E-002
  -5.8750638521372925E-002   1.7524414476962128E-002   2.8190895723349069E-002
  -5.6825417037233039E-002   1.6830875825800340E-002   2.8389150918862738E-002
  -6.9738138559413201E-002   2.1329143370961867E-002   2.1803138692241847E-002
  -6.7684154724722223E-002   2.0528201661299164E-002   2.1571498979885986E-002
  -6.5630170890031314E-002   1.9746820545359381E-002   2.1477176957870450E-002
  -6.3576187055340419E-002   1.8985000023142285E-002   2.1520172626194899E-002
  -6.1522203220649510E-002   1.8242740094648213E-002   2.1700485984859436E-002
  -7.5044986953088727E-002   2.2964416761623446E-002   1.5223544898488831E-002
  -7.2845130088268678E-002   2.2100491768386396E-002   1.4927385312630395E-002
  -7.0645273223448601E-002   2.1260881370952563E-002   1.4785654096690082E-002
  -6.8445416358628483E-002   2.0445585569322605E-002   1.4798351250667845E-002
  -6.6245559493808448E-002   1.9654604363495920E-002   1.4965476774564085E-002
  -8.0446848154819561E-002   2.4599690152284928E-002   8.5785908201211659E-003
  -7.8084007580292089E-002   2.3672781875473357E-002   8.2226653628404145E-003
  -7.5721167005764617E-002   2.2774942196545998E-002   8.0382789550560076E-003
  -7.3358326431237145E-002   2.1906171115502679E-002   8.0254315967680685E-003
  -7.0995485856709728E-002   2.1066468632343655E-002   8.1841232879767620E-003
  -8.5943722164605330E-002   2.6234963542946521E-002   1.8682764571386068E-003
  -8.3400787200792359E-002   2.5245071982560541E-002   1.4573391305160999E-003
  -8.0857852236979388E-002   2.4289003022138989E-002   1.2350515329688228E-003
  -7.8314917273166390E-002   2.3366756661682864E-002   1.2014136644957069E-003
  -7.5771982309353447E-002   2.2478332901191611E-002   1.3564255250974044E-003
  -5.6825417037233039E-002   1.6830875825800340E-002   2.8389150918862738E-002
  -5.4296290576983791E-002   1.6139427566509795E-002   2.8121265334769552E-002
  -5.1767164116734571E-002   1.5437353499319850E-002   2.8035352867201380E-002
  -4.9238037656485309E-002   1.4724653624230172E-002   2.8131413516158013E-002
  -4.6708911196236047E-002   1.4001327941241204E-002   2.8409447281639522E-002
  -6.1522203220649510E-002   1.8242740094648213E-002   2.1700485984859436E-002
  -5.8806338578024434E-002   1.7504083501013096E-002   2.1399305510923144E-002
  -5.6090473935399336E-002   1.6753072983374112E-002   2.1289628285213510E-002
  -5.3374609292774294E-002   1.5989708541731061E-002   2.1371454307730943E-002
  -5.0658744650149148E-002   1.5213990176083936E-002   2.1644783578474991E-002
  -6.6245559493808448E-002   1.9654604363495920E-002   1.4965476774564085E-002
  -6.3333426537105580E-002   1.8868739435516604E-002   1.4629273294679918E-002
  -6.0421293580402706E-002   1.8068792467428652E-002   1.4494103194724640E-002
  -5.7509160623699748E-002   1.7254763459231895E-002   1.4559966474697893E-002
  -5.4597027666996964E-002   1.6426652410926446E-002   1.4826863134599993E-002
  -7.0995485856709728E-002   2.1066468632343655E-002   8.1841232879767620E-003
  -6.7877554454227107E-002   2.0233395370020175E-002   7.8111686860399682E-003
  -6.4759623051744514E-002   1.9384511951483108E-002   7.6487775957341207E-003
  -6.1641691649261907E-002   1.8519818376732756E-002   7.6969500170589733E-003
  -5.8523760246779286E-002   1.7639314645769066E-002   7.9556859500143698E-003
  -7.5771982309353447E-002   2.2478332901191611E-002   1.3564255250974044E-003
  -7.2438722329389194E-002   2.1598051304523302E-002   9.4499168500339348E-004
  -6.9105462349424884E-002   2.0700231435537425E-002   7.5365148824249606E-004
  -6.5772202369460547E-002   1.9784873294233250E-002   7.8240493481402523E-004
  -6.2438942389496321E-002   1.8851976880611465E-002   1.0312520247179879E-003
  -4.6708911196236047E-002   1.4001327941241204E-002   2.8409447281639522E-002
  -4.4436440324739923E-002   1.3265436570248146E-002   2.7992926521970274E-002
  -4.2163969453243660E-002   1.2515039631145891E-002   2.7708508770321716E-002
  -3.9891498581747453E-002   1.1750137123934724E-002   2.7556194026694125E-002
  -3.7619027710251246E-002   1.0970729048614847E-002   2.7535982291087446E-002
  -5.0658744650149148E-002   1.5213990176083936E-002   2.1644783578474991E-002
  -4.8249306185019242E-002   1.4431210513282278E-002   2.1236540722276903E-002
  -4.5839867719889342E-002   1.3646662180175628E-002   2.0970130045325441E-002
  -4.3430429254759456E-002   1.2860345176764015E-002   2.0845551547620397E-002
  -4.1020990789629536E-002   1.2072259503047578E-002   2.0862805229162118E-002
  -5.4597027666996964E-002   1.6426652410926446E-002   1.4826863134599993E-002
  -5.2040892437007644E-002   1.5596984456316243E-002   1.4439635079677299E-002
  -4.9484757207018275E-002   1.4778284729205574E-002   1.4203968375226653E-002
  -4.6928621977029003E-002   1.3970553229593247E-002   1.4119863021248361E-002
  -4.4372486747039634E-002   1.3173789957480586E-002   1.4187319017742200E-002
  -5.8523760246779286E-002   1.7639314645769066E-002   7.9556859500143698E-003
  -5.5811199080704976E-002   1.6762758399350236E-002   7.6022095941711762E-003
  -5.3098637914630549E-002   1.5909907278234749E-002   7.4100237600255026E-003
  -5.0386076748556170E-002   1.5080761282422620E-002   7.3791284475780029E-003
  -4.7673515582481826E-002   1.4275320411913622E-002   7.5095236568285054E-003
  -6.2438942389496321E-002   1.8851976880611465E-002   1.0312520247179879E-003
  -5.9560226116111226E-002   1.7928532342384451E-002   7.2426426575833425E-004
  -5.6681509842726074E-002   1.7041529827264867E-002   5.8829619972189384E-004
  -5.3802793569340951E-002   1.6190969335251340E-002   6.2334782660911081E-004
  -5.0924077295955827E-002   1.5376850866346325E-002   8.2941914642020720E-004
  -3.7619027710251246E-002   1.0970729048614847E-002   2.7535982291087446E-002
  -3.5227774838531928E-002   1.0196908999998866E-002   2.7043224695098012E-002
  -3.2836521966812623E-002   9.4487705729008054E-003   2.6665368234153441E-002
  -3.0445269095093326E-002   8.7263137673197141E-003   2.6402412908253625E-002
  -2.8054016223374029E-002   8.0295385832563904E-003   2.6254358717398563E-002
  -4.1020990789629536E-002   1.2072259503047578E-002   2.0862805229162118E-002
  -3.8519941055535842E-002   1.1289307916875491E-002   2.0434269715925990E-002
  -3.6018891321442148E-002   1.0518393176097429E-002   2.0110426792394026E-002
  -3.3517841587348420E-002   9.7595152807127689E-003   1.9891276458566143E-002
  -3.1016791853254705E-002   9.0126742307222729E-003   1.9776818714442090E-002
  -4.4372486747039634E-002   1.3173789957480586E-002   1.4187319017742200E-002
  -4.1771848695912328E-002   1.2381706833752587E-002   1.3809360811135762E-002
  -3.9171210644784918E-002   1.1588015779294289E-002   1.3525886648892899E-002
  -3.6570572593657570E-002   1.0792716794106105E-002   1.3336896531013144E-002
  -3.3969934542530243E-002   9.9958098781878779E-003   1.3242390457496644E-002
  -4.7673515582481826E-002   1.4275320411913622E-002   7.5095236568285054E-003
  -4.4983497759661498E-002   1.3474105750629004E-002   7.1684979807277172E-003
  -4.2293479936841114E-002   1.2657638382491086E-002   6.9117478036496739E-003
  -3.9603462114020750E-002   1.1825918307499466E-002   6.7392731255944398E-003
  -3.6913444291200408E-002   1.0978945525653289E-002   6.6510739465615309E-003
  -5.0924077295955827E-002   1.5376850866346325E-002   8.2941914642020720E-004
  -4.8154888246783267E-002   1.4566504667506530E-002   5.1168122470157673E-004
  -4.5385699197610652E-002   1.3727260985687662E-002   2.6801025666517431E-004
  -4.2616510148438091E-002   1.2859119820892523E-002   9.8406242310153380E-005
  -3.9847321099265476E-002   1.1962081173119588E-002   2.8691816370551848E-006
  -2.8054016223374029E-002   8.0295385832563904E-003   2.6254358717398563E-002
  -2.5709870751947195E-002   7.3156341396617419E-003   2.5667300629061307E-002
  -2.3365725280520319E-002   6.5417895554871763E-003   2.5028394014317834E-002
  -2.1021579809093478E-002   5.7080048307332071E-003   2.4337638873167977E-002
  -1.8677434337666610E-002   4.8142799653994039E-003   2.3595035205611903E-002
  -3.1016791853254705E-002   9.0126742307222729E-003   1.9776818714442090E-002
  -2.8707567374931645E-002   8.2694841672660280E-003   1.9183983593561049E-002
  -2.6398342896608529E-002   7.5215592314860635E-003   1.8573155012878428E-002
  -2.4089118418285427E-002   6.7688994233825600E-003   1.7944332972394894E-002
  -2.1779893939962408E-002   6.0115047429544211E-003   1.7297517472110058E-002
  -3.3969934542530243E-002   9.9958098781878779E-003   1.3242390457496644E-002
  -3.1661775990705673E-002   9.2233341948703695E-003   1.2698983572327127E-002
  -2.9353617438881232E-002   8.5013289074849230E-003   1.2171438293961417E-002
  -2.7045458887056784E-002   7.8297940160315729E-003   1.1659754622400043E-002
  -2.4737300335232276E-002   7.2087295205096602E-003   1.1163932557642364E-002
  -3.6913444291200408E-002   1.0978945525653289E-002   6.6510739465615309E-003
  -3.4572496599269392E-002   1.0177184222475016E-002   6.2123005653597213E-003
  -3.2231548907338294E-002   9.4810985834835743E-003   5.8232438575668427E-003
  -2.9890601215407209E-002   8.8906886086803118E-003   5.4839038231836307E-003
  -2.7549653523476176E-002   8.4059542980648438E-003   5.1942804622089611E-003
  -3.9847321099265476E-002   1.1962081173119588E-002   2.8691816370551848E-006
  -3.7439729200622662E-002   1.1131034250078775E-002  -2.7606542734126549E-004
  -3.5032137301979849E-002   1.0460868259482836E-002  -4.7142829630536509E-004
  -3.2624545403337091E-002   9.9515832013294253E-003  -5.8321942525517423E-004
  -3.0216953504694222E-002   9.6031790756199165E-003  -6.1143881419034596E-004
  -1.8677434337666610E-002   4.8142799653994039E-003   2.3595035205611903E-002
  -1.5654183808072875E-002   4.0806911755965625E-003   2.4386533157191970E-002
  -1.2630933278479056E-002   3.7273146774352284E-003   2.5650777958401705E-002
  -9.6076827488852795E-003   3.7541504709157555E-003   2.7387769609241081E-002
  -6.5844322192915028E-003   4.1611985560382481E-003   2.9597508109710069E-002
  -2.1779893939962408E-002   6.0115047429544211E-003   1.7297517472110058E-002
  -1.8552949327844043E-002   5.3436089022134703E-003   1.8246988285280596E-002
  -1.5326004715725816E-002   4.8594456131698383E-003   1.9131100413870644E-002
  -1.2099060103607583E-002   4.5590148758235458E-003   1.9949853857879965E-002
  -8.8721154914892242E-003   4.4423166901743638E-003   2.0703248617308767E-002
  -2.4737300335232276E-002   7.2087295205096602E-003   1.1163932557642364E-002
  -2.1844767174799704E-002   6.6065266288305169E-003   1.2074896492458964E-002
  -1.8952234014367117E-002   5.9915765489037959E-003   1.2382396208484706E-002
  -1.6059700853934569E-002   5.3638792807314505E-003   1.2086431705719776E-002
  -1.3167167693502013E-002   4.7234348243106461E-003   1.1187002984164057E-002
  -2.7549653523476176E-002   8.4059542980648438E-003   5.1942804622089611E-003
  -2.5529637348939576E-002   7.8694443554473831E-003   5.8702577787270518E-003
  -2.3509621174402973E-002   7.1237074846388013E-003   5.4046653422441769E-003
  -2.1489604999866317E-002   6.1687436856386318E-003   3.7975031527602513E-003
  -1.9469588825329769E-002   5.0045529584468451E-003   1.0487712102753080E-003
  -3.0216953504694222E-002   9.6031790756199165E-003  -6.1143881419034596E-004
  -2.9607559850263754E-002   9.1323620820645823E-003  -3.6692785591485588E-004
  -2.8998166195833286E-002   8.2558384203724744E-003  -1.8020921848511395E-003
  -2.8388772541402790E-002   6.9736080905466180E-003  -4.9169318009981075E-003
  -2.7779378886972350E-002   5.2856710925830441E-003  -9.7114467043568631E-003
  -6.5844322192915028E-003   4.1611985560382481E-003   2.9597508109710069E-002
  -6.0564102828778443E-003   6.1432049450226289E-003   3.4074894690542257E-002
  -5.5283883464642969E-003   1.0894915650090903E-002   3.9237547218864133E-002
  -5.0003664100506245E-003   1.8416330671241730E-002   4.5085465694675947E-002
  -4.4723444736370910E-003   2.8707450008475188E-002   5.1618650117977172E-002
  -8.8721154914892242E-003   4.4423166901743638E-003   2.0703248617308767E-002
  -7.5865016080608472E-003   5.6592269017674002E-003   2.5872186547285903E-002
  -6.3008877246324563E-003   9.3596213561477071E-003   3.1871042423803064E-002
  -5.0152738412041348E-003   1.5543500053314771E-002   3.8699816246860225E-002
  -3.7296599577756884E-003   2.4210862993268467E-002   4.6358508016457023E-002
  -1.3167167693502013E-002   4.7234348243106461E-003   1.1187002984164057E-002
  -1.0979309864008649E-002   5.1752488585120049E-003   1.6761272189990101E-002
  -8.7914520345153263E-003   7.8243270622045252E-003   2.3310111341406412E-002
  -6.6035942050219863E-003   1.2670669435388204E-002   3.0833520438413121E-002
  -4.4157363755286394E-003   1.9714275978061968E-002   3.9331499481009335E-002
  -1.9469588825329769E-002   5.0045529584468451E-003   1.0487712102753080E-003
  -1.6234835050721198E-002   4.6912708152566929E-003   6.7421516186544350E-003
  -1.3000081276112628E-002   6.2890327682617805E-003   1.3554753971673810E-002
  -9.7653275015042243E-003   9.7978388174613292E-003   2.1486578269333728E-002
  -6.5305737268954792E-003   1.5217688962855358E-002   3.0537624511633721E-002
  -2.7779378886972350E-002   5.2856710925830441E-003  -9.7114467043568631E-003
  -2.3353077168198455E-002   4.2072927720016029E-003  -4.1851751667204562E-003
  -1.8926775449424615E-002   4.7537384743179256E-003   2.6049703146059366E-003
  -1.4500473730650609E-002   6.9250081995346213E-003   1.0658989739623231E-002
  -1.0074172011876881E-002   1.0721101947648748E-002   1.9976883108330235E-002
 </DataArray>
 </PointData>
 </Piece>
 </UnstructuredGrid>
 </VTKFile>
