 <VTKFile type="UnstructuredGrid"  version="0.1"   >
 <UnstructuredGrid>
 <Piece  NumberOfPoints="           400 "  NumberOfCells="          256 ">
 <Points>
 <DataArray  type="Float64" NumberOfComponents="3"  format="ascii" >
   0.0000000000000000        0.0000000000000000        0.0000000000000000     
   6.2500000000000000E-002   0.0000000000000000        0.0000000000000000     
  0.12500000000000000        0.0000000000000000        0.0000000000000000     
  0.18750000000000000        0.0000000000000000        0.0000000000000000     
  0.25000000000000000        0.0000000000000000        0.0000000000000000     
   0.0000000000000000        6.2500000000000000E-002   0.0000000000000000     
   6.2500000000000000E-002   6.2500000000000000E-002   0.0000000000000000     
  0.12500000000000000        6.2500000000000000E-002   0.0000000000000000     
  0.18750000000000000        6.2500000000000000E-002   0.0000000000000000     
  0.25000000000000000        6.2500000000000000E-002   0.0000000000000000     
   0.0000000000000000       0.12500000000000000        0.0000000000000000     
   6.2500000000000000E-002  0.12500000000000000        0.0000000000000000     
  0.12500000000000000       0.12500000000000000        0.0000000000000000     
  0.18750000000000000       0.12500000000000000        0.0000000000000000     
  0.25000000000000000       0.12500000000000000        0.0000000000000000     
   0.0000000000000000       0.18750000000000000        0.0000000000000000     
   6.2500000000000000E-002  0.18750000000000000        0.0000000000000000     
  0.12500000000000000       0.18750000000000000        0.0000000000000000     
  0.18750000000000000       0.18750000000000000        0.0000000000000000     
  0.25000000000000000       0.18750000000000000        0.0000000000000000     
   0.0000000000000000       0.25000000000000000        0.0000000000000000     
   6.2500000000000000E-002  0.25000000000000000        0.0000000000000000     
  0.12500000000000000       0.25000000000000000        0.0000000000000000     
  0.18750000000000000       0.25000000000000000        0.0000000000000000     
  0.25000000000000000       0.25000000000000000        0.0000000000000000     
  0.25000000000000000        0.0000000000000000        0.0000000000000000     
  0.31250000000000000        0.0000000000000000        0.0000000000000000     
  0.37500000000000000        0.0000000000000000        0.0000000000000000     
  0.43750000000000000        0.0000000000000000        0.0000000000000000     
  0.50000000000000000        0.0000000000000000        0.0000000000000000     
  0.25000000000000000        6.2500000000000000E-002   0.0000000000000000     
  0.31250000000000000        6.2500000000000000E-002   0.0000000000000000     
  0.37500000000000000        6.2500000000000000E-002   0.0000000000000000     
  0.43750000000000000        6.2500000000000000E-002   0.0000000000000000     
  0.50000000000000000        6.2500000000000000E-002   0.0000000000000000     
  0.25000000000000000       0.12500000000000000        0.0000000000000000     
  0.31250000000000000       0.12500000000000000        0.0000000000000000     
  0.37500000000000000       0.12500000000000000        0.0000000000000000     
  0.43750000000000000       0.12500000000000000        0.0000000000000000     
  0.50000000000000000       0.12500000000000000        0.0000000000000000     
  0.25000000000000000       0.18750000000000000        0.0000000000000000     
  0.31250000000000000       0.18750000000000000        0.0000000000000000     
  0.37500000000000000       0.18750000000000000        0.0000000000000000     
  0.43750000000000000       0.18750000000000000        0.0000000000000000     
  0.50000000000000000       0.18750000000000000        0.0000000000000000     
  0.25000000000000000       0.25000000000000000        0.0000000000000000     
  0.31250000000000000       0.25000000000000000        0.0000000000000000     
  0.37500000000000000       0.25000000000000000        0.0000000000000000     
  0.43750000000000000       0.25000000000000000        0.0000000000000000     
  0.50000000000000000       0.25000000000000000        0.0000000000000000     
  0.50000000000000000        0.0000000000000000        0.0000000000000000     
  0.56250000000000000        0.0000000000000000        0.0000000000000000     
  0.62500000000000000        0.0000000000000000        0.0000000000000000     
  0.68750000000000000        0.0000000000000000        0.0000000000000000     
  0.75000000000000000        0.0000000000000000        0.0000000000000000     
  0.50000000000000000        6.2500000000000000E-002   0.0000000000000000     
  0.56250000000000000        6.2500000000000000E-002   0.0000000000000000     
  0.62500000000000000        6.2500000000000000E-002   0.0000000000000000     
  0.68750000000000000        6.2500000000000000E-002   0.0000000000000000     
  0.75000000000000000        6.2500000000000000E-002   0.0000000000000000     
  0.50000000000000000       0.12500000000000000        0.0000000000000000     
  0.56250000000000000       0.12500000000000000        0.0000000000000000     
  0.62500000000000000       0.12500000000000000        0.0000000000000000     
  0.68750000000000000       0.12500000000000000        0.0000000000000000     
  0.75000000000000000       0.12500000000000000        0.0000000000000000     
  0.50000000000000000       0.18750000000000000        0.0000000000000000     
  0.56250000000000000       0.18750000000000000        0.0000000000000000     
  0.62500000000000000       0.18750000000000000        0.0000000000000000     
  0.68750000000000000       0.18750000000000000        0.0000000000000000     
  0.75000000000000000       0.18750000000000000        0.0000000000000000     
  0.50000000000000000       0.25000000000000000        0.0000000000000000     
  0.56250000000000000       0.25000000000000000        0.0000000000000000     
  0.62500000000000000       0.25000000000000000        0.0000000000000000     
  0.68750000000000000       0.25000000000000000        0.0000000000000000     
  0.75000000000000000       0.25000000000000000        0.0000000000000000     
  0.75000000000000000        0.0000000000000000        0.0000000000000000     
  0.81250000000000000        0.0000000000000000        0.0000000000000000     
  0.87500000000000000        0.0000000000000000        0.0000000000000000     
  0.93750000000000000        0.0000000000000000        0.0000000000000000     
   1.0000000000000000        0.0000000000000000        0.0000000000000000     
  0.75000000000000000        6.2500000000000000E-002   0.0000000000000000     
  0.81250000000000000        6.2500000000000000E-002   0.0000000000000000     
  0.87500000000000000        6.2500000000000000E-002   0.0000000000000000     
  0.93750000000000000        6.2500000000000000E-002   0.0000000000000000     
   1.0000000000000000        6.2500000000000000E-002   0.0000000000000000     
  0.75000000000000000       0.12500000000000000        0.0000000000000000     
  0.81250000000000000       0.12500000000000000        0.0000000000000000     
  0.87500000000000000       0.12500000000000000        0.0000000000000000     
  0.93750000000000000       0.12500000000000000        0.0000000000000000     
   1.0000000000000000       0.12500000000000000        0.0000000000000000     
  0.75000000000000000       0.18750000000000000        0.0000000000000000     
  0.81250000000000000       0.18750000000000000        0.0000000000000000     
  0.87500000000000000       0.18750000000000000        0.0000000000000000     
  0.93750000000000000       0.18750000000000000        0.0000000000000000     
   1.0000000000000000       0.18750000000000000        0.0000000000000000     
  0.75000000000000000       0.25000000000000000        0.0000000000000000     
  0.81250000000000000       0.25000000000000000        0.0000000000000000     
  0.87500000000000000       0.25000000000000000        0.0000000000000000     
  0.93750000000000000       0.25000000000000000        0.0000000000000000     
   1.0000000000000000       0.25000000000000000        0.0000000000000000     
   0.0000000000000000       0.25000000000000000        0.0000000000000000     
   6.2500000000000000E-002  0.25000000000000000        0.0000000000000000     
  0.12500000000000000       0.25000000000000000        0.0000000000000000     
  0.18750000000000000       0.25000000000000000        0.0000000000000000     
  0.25000000000000000       0.25000000000000000        0.0000000000000000     
   0.0000000000000000       0.31250000000000000        0.0000000000000000     
   6.2500000000000000E-002  0.31250000000000000        0.0000000000000000     
  0.12500000000000000       0.31250000000000000        0.0000000000000000     
  0.18750000000000000       0.31250000000000000        0.0000000000000000     
  0.25000000000000000       0.31250000000000000        0.0000000000000000     
   0.0000000000000000       0.37500000000000000        0.0000000000000000     
   6.2500000000000000E-002  0.37500000000000000        0.0000000000000000     
  0.12500000000000000       0.37500000000000000        0.0000000000000000     
  0.18750000000000000       0.37500000000000000        0.0000000000000000     
  0.25000000000000000       0.37500000000000000        0.0000000000000000     
   0.0000000000000000       0.43750000000000000        0.0000000000000000     
   6.2500000000000000E-002  0.43750000000000000        0.0000000000000000     
  0.12500000000000000       0.43750000000000000        0.0000000000000000     
  0.18750000000000000       0.43750000000000000        0.0000000000000000     
  0.25000000000000000       0.43750000000000000        0.0000000000000000     
   0.0000000000000000       0.50000000000000000        0.0000000000000000     
   6.2500000000000000E-002  0.50000000000000000        0.0000000000000000     
  0.12500000000000000       0.50000000000000000        0.0000000000000000     
  0.18750000000000000       0.50000000000000000        0.0000000000000000     
  0.25000000000000000       0.50000000000000000        0.0000000000000000     
  0.25000000000000000       0.25000000000000000        0.0000000000000000     
  0.31250000000000000       0.25000000000000000        0.0000000000000000     
  0.37500000000000000       0.25000000000000000        0.0000000000000000     
  0.43750000000000000       0.25000000000000000        0.0000000000000000     
  0.50000000000000000       0.25000000000000000        0.0000000000000000     
  0.25000000000000000       0.31250000000000000        0.0000000000000000     
  0.31250000000000000       0.31250000000000000        0.0000000000000000     
  0.37500000000000000       0.31250000000000000        0.0000000000000000     
  0.43750000000000000       0.31250000000000000        0.0000000000000000     
  0.50000000000000000       0.31250000000000000        0.0000000000000000     
  0.25000000000000000       0.37500000000000000        0.0000000000000000     
  0.31250000000000000       0.37500000000000000        0.0000000000000000     
  0.37500000000000000       0.37500000000000000        0.0000000000000000     
  0.43750000000000000       0.37500000000000000        0.0000000000000000     
  0.50000000000000000       0.37500000000000000        0.0000000000000000     
  0.25000000000000000       0.43750000000000000        0.0000000000000000     
  0.31250000000000000       0.43750000000000000        0.0000000000000000     
  0.37500000000000000       0.43750000000000000        0.0000000000000000     
  0.43750000000000000       0.43750000000000000        0.0000000000000000     
  0.50000000000000000       0.43750000000000000        0.0000000000000000     
  0.25000000000000000       0.50000000000000000        0.0000000000000000     
  0.31250000000000000       0.50000000000000000        0.0000000000000000     
  0.37500000000000000       0.50000000000000000        0.0000000000000000     
  0.43750000000000000       0.50000000000000000        0.0000000000000000     
  0.50000000000000000       0.50000000000000000        0.0000000000000000     
  0.50000000000000000       0.25000000000000000        0.0000000000000000     
  0.56250000000000000       0.25000000000000000        0.0000000000000000     
  0.62500000000000000       0.25000000000000000        0.0000000000000000     
  0.68750000000000000       0.25000000000000000        0.0000000000000000     
  0.75000000000000000       0.25000000000000000        0.0000000000000000     
  0.50000000000000000       0.31250000000000000        0.0000000000000000     
  0.56250000000000000       0.31250000000000000        0.0000000000000000     
  0.62500000000000000       0.31250000000000000        0.0000000000000000     
  0.68750000000000000       0.31250000000000000        0.0000000000000000     
  0.75000000000000000       0.31250000000000000        0.0000000000000000     
  0.50000000000000000       0.37500000000000000        0.0000000000000000     
  0.56250000000000000       0.37500000000000000        0.0000000000000000     
  0.62500000000000000       0.37500000000000000        0.0000000000000000     
  0.68750000000000000       0.37500000000000000        0.0000000000000000     
  0.75000000000000000       0.37500000000000000        0.0000000000000000     
  0.50000000000000000       0.43750000000000000        0.0000000000000000     
  0.56250000000000000       0.43750000000000000        0.0000000000000000     
  0.62500000000000000       0.43750000000000000        0.0000000000000000     
  0.68750000000000000       0.43750000000000000        0.0000000000000000     
  0.75000000000000000       0.43750000000000000        0.0000000000000000     
  0.50000000000000000       0.50000000000000000        0.0000000000000000     
  0.56250000000000000       0.50000000000000000        0.0000000000000000     
  0.62500000000000000       0.50000000000000000        0.0000000000000000     
  0.68750000000000000       0.50000000000000000        0.0000000000000000     
  0.75000000000000000       0.50000000000000000        0.0000000000000000     
  0.75000000000000000       0.25000000000000000        0.0000000000000000     
  0.81250000000000000       0.25000000000000000        0.0000000000000000     
  0.87500000000000000       0.25000000000000000        0.0000000000000000     
  0.93750000000000000       0.25000000000000000        0.0000000000000000     
   1.0000000000000000       0.25000000000000000        0.0000000000000000     
  0.75000000000000000       0.31250000000000000        0.0000000000000000     
  0.81250000000000000       0.31250000000000000        0.0000000000000000     
  0.87500000000000000       0.31250000000000000        0.0000000000000000     
  0.93750000000000000       0.31250000000000000        0.0000000000000000     
   1.0000000000000000       0.31250000000000000        0.0000000000000000     
  0.75000000000000000       0.37500000000000000        0.0000000000000000     
  0.81250000000000000       0.37500000000000000        0.0000000000000000     
  0.87500000000000000       0.37500000000000000        0.0000000000000000     
  0.93750000000000000       0.37500000000000000        0.0000000000000000     
   1.0000000000000000       0.37500000000000000        0.0000000000000000     
  0.75000000000000000       0.43750000000000000        0.0000000000000000     
  0.81250000000000000       0.43750000000000000        0.0000000000000000     
  0.87500000000000000       0.43750000000000000        0.0000000000000000     
  0.93750000000000000       0.43750000000000000        0.0000000000000000     
   1.0000000000000000       0.43750000000000000        0.0000000000000000     
  0.75000000000000000       0.50000000000000000        0.0000000000000000     
  0.81250000000000000       0.50000000000000000        0.0000000000000000     
  0.87500000000000000       0.50000000000000000        0.0000000000000000     
  0.93750000000000000       0.50000000000000000        0.0000000000000000     
   1.0000000000000000       0.50000000000000000        0.0000000000000000     
   0.0000000000000000       0.50000000000000000        0.0000000000000000     
   6.2500000000000000E-002  0.50000000000000000        0.0000000000000000     
  0.12500000000000000       0.50000000000000000        0.0000000000000000     
  0.18750000000000000       0.50000000000000000        0.0000000000000000     
  0.25000000000000000       0.50000000000000000        0.0000000000000000     
   0.0000000000000000       0.56250000000000000        0.0000000000000000     
   6.2500000000000000E-002  0.56250000000000000        0.0000000000000000     
  0.12500000000000000       0.56250000000000000        0.0000000000000000     
  0.18750000000000000       0.56250000000000000        0.0000000000000000     
  0.25000000000000000       0.56250000000000000        0.0000000000000000     
   0.0000000000000000       0.62500000000000000        0.0000000000000000     
   6.2500000000000000E-002  0.62500000000000000        0.0000000000000000     
  0.12500000000000000       0.62500000000000000        0.0000000000000000     
  0.18750000000000000       0.62500000000000000        0.0000000000000000     
  0.25000000000000000       0.62500000000000000        0.0000000000000000     
   0.0000000000000000       0.68750000000000000        0.0000000000000000     
   6.2500000000000000E-002  0.68750000000000000        0.0000000000000000     
  0.12500000000000000       0.68750000000000000        0.0000000000000000     
  0.18750000000000000       0.68750000000000000        0.0000000000000000     
  0.25000000000000000       0.68750000000000000        0.0000000000000000     
   0.0000000000000000       0.75000000000000000        0.0000000000000000     
   6.2500000000000000E-002  0.75000000000000000        0.0000000000000000     
  0.12500000000000000       0.75000000000000000        0.0000000000000000     
  0.18750000000000000       0.75000000000000000        0.0000000000000000     
  0.25000000000000000       0.75000000000000000        0.0000000000000000     
  0.25000000000000000       0.50000000000000000        0.0000000000000000     
  0.31250000000000000       0.50000000000000000        0.0000000000000000     
  0.37500000000000000       0.50000000000000000        0.0000000000000000     
  0.43750000000000000       0.50000000000000000        0.0000000000000000     
  0.50000000000000000       0.50000000000000000        0.0000000000000000     
  0.25000000000000000       0.56250000000000000        0.0000000000000000     
  0.31250000000000000       0.56250000000000000        0.0000000000000000     
  0.37500000000000000       0.56250000000000000        0.0000000000000000     
  0.43750000000000000       0.56250000000000000        0.0000000000000000     
  0.50000000000000000       0.56250000000000000        0.0000000000000000     
  0.25000000000000000       0.62500000000000000        0.0000000000000000     
  0.31250000000000000       0.62500000000000000        0.0000000000000000     
  0.37500000000000000       0.62500000000000000        0.0000000000000000     
  0.43750000000000000       0.62500000000000000        0.0000000000000000     
  0.50000000000000000       0.62500000000000000        0.0000000000000000     
  0.25000000000000000       0.68750000000000000        0.0000000000000000     
  0.31250000000000000       0.68750000000000000        0.0000000000000000     
  0.37500000000000000       0.68750000000000000        0.0000000000000000     
  0.43750000000000000       0.68750000000000000        0.0000000000000000     
  0.50000000000000000       0.68750000000000000        0.0000000000000000     
  0.25000000000000000       0.75000000000000000        0.0000000000000000     
  0.31250000000000000       0.75000000000000000        0.0000000000000000     
  0.37500000000000000       0.75000000000000000        0.0000000000000000     
  0.43750000000000000       0.75000000000000000        0.0000000000000000     
  0.50000000000000000       0.75000000000000000        0.0000000000000000     
  0.50000000000000000       0.50000000000000000        0.0000000000000000     
  0.56250000000000000       0.50000000000000000        0.0000000000000000     
  0.62500000000000000       0.50000000000000000        0.0000000000000000     
  0.68750000000000000       0.50000000000000000        0.0000000000000000     
  0.75000000000000000       0.50000000000000000        0.0000000000000000     
  0.50000000000000000       0.56250000000000000        0.0000000000000000     
  0.56250000000000000       0.56250000000000000        0.0000000000000000     
  0.62500000000000000       0.56250000000000000        0.0000000000000000     
  0.68750000000000000       0.56250000000000000        0.0000000000000000     
  0.75000000000000000       0.56250000000000000        0.0000000000000000     
  0.50000000000000000       0.62500000000000000        0.0000000000000000     
  0.56250000000000000       0.62500000000000000        0.0000000000000000     
  0.62500000000000000       0.62500000000000000        0.0000000000000000     
  0.68750000000000000       0.62500000000000000        0.0000000000000000     
  0.75000000000000000       0.62500000000000000        0.0000000000000000     
  0.50000000000000000       0.68750000000000000        0.0000000000000000     
  0.56250000000000000       0.68750000000000000        0.0000000000000000     
  0.62500000000000000       0.68750000000000000        0.0000000000000000     
  0.68750000000000000       0.68750000000000000        0.0000000000000000     
  0.75000000000000000       0.68750000000000000        0.0000000000000000     
  0.50000000000000000       0.75000000000000000        0.0000000000000000     
  0.56250000000000000       0.75000000000000000        0.0000000000000000     
  0.62500000000000000       0.75000000000000000        0.0000000000000000     
  0.68750000000000000       0.75000000000000000        0.0000000000000000     
  0.75000000000000000       0.75000000000000000        0.0000000000000000     
  0.75000000000000000       0.50000000000000000        0.0000000000000000     
  0.81250000000000000       0.50000000000000000        0.0000000000000000     
  0.87500000000000000       0.50000000000000000        0.0000000000000000     
  0.93750000000000000       0.50000000000000000        0.0000000000000000     
   1.0000000000000000       0.50000000000000000        0.0000000000000000     
  0.75000000000000000       0.56250000000000000        0.0000000000000000     
  0.81250000000000000       0.56250000000000000        0.0000000000000000     
  0.87500000000000000       0.56250000000000000        0.0000000000000000     
  0.93750000000000000       0.56250000000000000        0.0000000000000000     
   1.0000000000000000       0.56250000000000000        0.0000000000000000     
  0.75000000000000000       0.62500000000000000        0.0000000000000000     
  0.81250000000000000       0.62500000000000000        0.0000000000000000     
  0.87500000000000000       0.62500000000000000        0.0000000000000000     
  0.93750000000000000       0.62500000000000000        0.0000000000000000     
   1.0000000000000000       0.62500000000000000        0.0000000000000000     
  0.75000000000000000       0.68750000000000000        0.0000000000000000     
  0.81250000000000000       0.68750000000000000        0.0000000000000000     
  0.87500000000000000       0.68750000000000000        0.0000000000000000     
  0.93750000000000000       0.68750000000000000        0.0000000000000000     
   1.0000000000000000       0.68750000000000000        0.0000000000000000     
  0.75000000000000000       0.75000000000000000        0.0000000000000000     
  0.81250000000000000       0.75000000000000000        0.0000000000000000     
  0.87500000000000000       0.75000000000000000        0.0000000000000000     
  0.93750000000000000       0.75000000000000000        0.0000000000000000     
   1.0000000000000000       0.75000000000000000        0.0000000000000000     
   0.0000000000000000       0.75000000000000000        0.0000000000000000     
   6.2500000000000000E-002  0.75000000000000000        0.0000000000000000     
  0.12500000000000000       0.75000000000000000        0.0000000000000000     
  0.18750000000000000       0.75000000000000000        0.0000000000000000     
  0.25000000000000000       0.75000000000000000        0.0000000000000000     
   0.0000000000000000       0.81250000000000000        0.0000000000000000     
   6.2500000000000000E-002  0.81250000000000000        0.0000000000000000     
  0.12500000000000000       0.81250000000000000        0.0000000000000000     
  0.18750000000000000       0.81250000000000000        0.0000000000000000     
  0.25000000000000000       0.81250000000000000        0.0000000000000000     
   0.0000000000000000       0.87500000000000000        0.0000000000000000     
   6.2500000000000000E-002  0.87500000000000000        0.0000000000000000     
  0.12500000000000000       0.87500000000000000        0.0000000000000000     
  0.18750000000000000       0.87500000000000000        0.0000000000000000     
  0.25000000000000000       0.87500000000000000        0.0000000000000000     
   0.0000000000000000       0.93750000000000000        0.0000000000000000     
   6.2500000000000000E-002  0.93750000000000000        0.0000000000000000     
  0.12500000000000000       0.93750000000000000        0.0000000000000000     
  0.18750000000000000       0.93750000000000000        0.0000000000000000     
  0.25000000000000000       0.93750000000000000        0.0000000000000000     
   0.0000000000000000        1.0000000000000000        0.0000000000000000     
   6.2500000000000000E-002   1.0000000000000000        0.0000000000000000     
  0.12500000000000000        1.0000000000000000        0.0000000000000000     
  0.18750000000000000        1.0000000000000000        0.0000000000000000     
  0.25000000000000000        1.0000000000000000        0.0000000000000000     
  0.25000000000000000       0.75000000000000000        0.0000000000000000     
  0.31250000000000000       0.75000000000000000        0.0000000000000000     
  0.37500000000000000       0.75000000000000000        0.0000000000000000     
  0.43750000000000000       0.75000000000000000        0.0000000000000000     
  0.50000000000000000       0.75000000000000000        0.0000000000000000     
  0.25000000000000000       0.81250000000000000        0.0000000000000000     
  0.31250000000000000       0.81250000000000000        0.0000000000000000     
  0.37500000000000000       0.81250000000000000        0.0000000000000000     
  0.43750000000000000       0.81250000000000000        0.0000000000000000     
  0.50000000000000000       0.81250000000000000        0.0000000000000000     
  0.25000000000000000       0.87500000000000000        0.0000000000000000     
  0.31250000000000000       0.87500000000000000        0.0000000000000000     
  0.37500000000000000       0.87500000000000000        0.0000000000000000     
  0.43750000000000000       0.87500000000000000        0.0000000000000000     
  0.50000000000000000       0.87500000000000000        0.0000000000000000     
  0.25000000000000000       0.93750000000000000        0.0000000000000000     
  0.31250000000000000       0.93750000000000000        0.0000000000000000     
  0.37500000000000000       0.93750000000000000        0.0000000000000000     
  0.43750000000000000       0.93750000000000000        0.0000000000000000     
  0.50000000000000000       0.93750000000000000        0.0000000000000000     
  0.25000000000000000        1.0000000000000000        0.0000000000000000     
  0.31250000000000000        1.0000000000000000        0.0000000000000000     
  0.37500000000000000        1.0000000000000000        0.0000000000000000     
  0.43750000000000000        1.0000000000000000        0.0000000000000000     
  0.50000000000000000        1.0000000000000000        0.0000000000000000     
  0.50000000000000000       0.75000000000000000        0.0000000000000000     
  0.56250000000000000       0.75000000000000000        0.0000000000000000     
  0.62500000000000000       0.75000000000000000        0.0000000000000000     
  0.68750000000000000       0.75000000000000000        0.0000000000000000     
  0.75000000000000000       0.75000000000000000        0.0000000000000000     
  0.50000000000000000       0.81250000000000000        0.0000000000000000     
  0.56250000000000000       0.81250000000000000        0.0000000000000000     
  0.62500000000000000       0.81250000000000000        0.0000000000000000     
  0.68750000000000000       0.81250000000000000        0.0000000000000000     
  0.75000000000000000       0.81250000000000000        0.0000000000000000     
  0.50000000000000000       0.87500000000000000        0.0000000000000000     
  0.56250000000000000       0.87500000000000000        0.0000000000000000     
  0.62500000000000000       0.87500000000000000        0.0000000000000000     
  0.68750000000000000       0.87500000000000000        0.0000000000000000     
  0.75000000000000000       0.87500000000000000        0.0000000000000000     
  0.50000000000000000       0.93750000000000000        0.0000000000000000     
  0.56250000000000000       0.93750000000000000        0.0000000000000000     
  0.62500000000000000       0.93750000000000000        0.0000000000000000     
  0.68750000000000000       0.93750000000000000        0.0000000000000000     
  0.75000000000000000       0.93750000000000000        0.0000000000000000     
  0.50000000000000000        1.0000000000000000        0.0000000000000000     
  0.56250000000000000        1.0000000000000000        0.0000000000000000     
  0.62500000000000000        1.0000000000000000        0.0000000000000000     
  0.68750000000000000        1.0000000000000000        0.0000000000000000     
  0.75000000000000000        1.0000000000000000        0.0000000000000000     
  0.75000000000000000       0.75000000000000000        0.0000000000000000     
  0.81250000000000000       0.75000000000000000        0.0000000000000000     
  0.87500000000000000       0.75000000000000000        0.0000000000000000     
  0.93750000000000000       0.75000000000000000        0.0000000000000000     
   1.0000000000000000       0.75000000000000000        0.0000000000000000     
  0.75000000000000000       0.81250000000000000        0.0000000000000000     
  0.81250000000000000       0.81250000000000000        0.0000000000000000     
  0.87500000000000000       0.81250000000000000        0.0000000000000000     
  0.93750000000000000       0.81250000000000000        0.0000000000000000     
   1.0000000000000000       0.81250000000000000        0.0000000000000000     
  0.75000000000000000       0.87500000000000000        0.0000000000000000     
  0.81250000000000000       0.87500000000000000        0.0000000000000000     
  0.87500000000000000       0.87500000000000000        0.0000000000000000     
  0.93750000000000000       0.87500000000000000        0.0000000000000000     
   1.0000000000000000       0.87500000000000000        0.0000000000000000     
  0.75000000000000000       0.93750000000000000        0.0000000000000000     
  0.81250000000000000       0.93750000000000000        0.0000000000000000     
  0.87500000000000000       0.93750000000000000        0.0000000000000000     
  0.93750000000000000       0.93750000000000000        0.0000000000000000     
   1.0000000000000000       0.93750000000000000        0.0000000000000000     
  0.75000000000000000        1.0000000000000000        0.0000000000000000     
  0.81250000000000000        1.0000000000000000        0.0000000000000000     
  0.87500000000000000        1.0000000000000000        0.0000000000000000     
  0.93750000000000000        1.0000000000000000        0.0000000000000000     
   1.0000000000000000        1.0000000000000000        0.0000000000000000     
 </DataArray>
 </Points>
 <Cells>
 <DataArray  type="Int32"  Name="connectivity"  format="ascii">
           0           1           6           5
           1           2           7           6
           2           3           8           7
           3           4           9           8
           5           6          11          10
           6           7          12          11
           7           8          13          12
           8           9          14          13
          10          11          16          15
          11          12          17          16
          12          13          18          17
          13          14          19          18
          15          16          21          20
          16          17          22          21
          17          18          23          22
          18          19          24          23
          25          26          31          30
          26          27          32          31
          27          28          33          32
          28          29          34          33
          30          31          36          35
          31          32          37          36
          32          33          38          37
          33          34          39          38
          35          36          41          40
          36          37          42          41
          37          38          43          42
          38          39          44          43
          40          41          46          45
          41          42          47          46
          42          43          48          47
          43          44          49          48
          50          51          56          55
          51          52          57          56
          52          53          58          57
          53          54          59          58
          55          56          61          60
          56          57          62          61
          57          58          63          62
          58          59          64          63
          60          61          66          65
          61          62          67          66
          62          63          68          67
          63          64          69          68
          65          66          71          70
          66          67          72          71
          67          68          73          72
          68          69          74          73
          75          76          81          80
          76          77          82          81
          77          78          83          82
          78          79          84          83
          80          81          86          85
          81          82          87          86
          82          83          88          87
          83          84          89          88
          85          86          91          90
          86          87          92          91
          87          88          93          92
          88          89          94          93
          90          91          96          95
          91          92          97          96
          92          93          98          97
          93          94          99          98
         100         101         106         105
         101         102         107         106
         102         103         108         107
         103         104         109         108
         105         106         111         110
         106         107         112         111
         107         108         113         112
         108         109         114         113
         110         111         116         115
         111         112         117         116
         112         113         118         117
         113         114         119         118
         115         116         121         120
         116         117         122         121
         117         118         123         122
         118         119         124         123
         125         126         131         130
         126         127         132         131
         127         128         133         132
         128         129         134         133
         130         131         136         135
         131         132         137         136
         132         133         138         137
         133         134         139         138
         135         136         141         140
         136         137         142         141
         137         138         143         142
         138         139         144         143
         140         141         146         145
         141         142         147         146
         142         143         148         147
         143         144         149         148
         150         151         156         155
         151         152         157         156
         152         153         158         157
         153         154         159         158
         155         156         161         160
         156         157         162         161
         157         158         163         162
         158         159         164         163
         160         161         166         165
         161         162         167         166
         162         163         168         167
         163         164         169         168
         165         166         171         170
         166         167         172         171
         167         168         173         172
         168         169         174         173
         175         176         181         180
         176         177         182         181
         177         178         183         182
         178         179         184         183
         180         181         186         185
         181         182         187         186
         182         183         188         187
         183         184         189         188
         185         186         191         190
         186         187         192         191
         187         188         193         192
         188         189         194         193
         190         191         196         195
         191         192         197         196
         192         193         198         197
         193         194         199         198
         200         201         206         205
         201         202         207         206
         202         203         208         207
         203         204         209         208
         205         206         211         210
         206         207         212         211
         207         208         213         212
         208         209         214         213
         210         211         216         215
         211         212         217         216
         212         213         218         217
         213         214         219         218
         215         216         221         220
         216         217         222         221
         217         218         223         222
         218         219         224         223
         225         226         231         230
         226         227         232         231
         227         228         233         232
         228         229         234         233
         230         231         236         235
         231         232         237         236
         232         233         238         237
         233         234         239         238
         235         236         241         240
         236         237         242         241
         237         238         243         242
         238         239         244         243
         240         241         246         245
         241         242         247         246
         242         243         248         247
         243         244         249         248
         250         251         256         255
         251         252         257         256
         252         253         258         257
         253         254         259         258
         255         256         261         260
         256         257         262         261
         257         258         263         262
         258         259         264         263
         260         261         266         265
         261         262         267         266
         262         263         268         267
         263         264         269         268
         265         266         271         270
         266         267         272         271
         267         268         273         272
         268         269         274         273
         275         276         281         280
         276         277         282         281
         277         278         283         282
         278         279         284         283
         280         281         286         285
         281         282         287         286
         282         283         288         287
         283         284         289         288
         285         286         291         290
         286         287         292         291
         287         288         293         292
         288         289         294         293
         290         291         296         295
         291         292         297         296
         292         293         298         297
         293         294         299         298
         300         301         306         305
         301         302         307         306
         302         303         308         307
         303         304         309         308
         305         306         311         310
         306         307         312         311
         307         308         313         312
         308         309         314         313
         310         311         316         315
         311         312         317         316
         312         313         318         317
         313         314         319         318
         315         316         321         320
         316         317         322         321
         317         318         323         322
         318         319         324         323
         325         326         331         330
         326         327         332         331
         327         328         333         332
         328         329         334         333
         330         331         336         335
         331         332         337         336
         332         333         338         337
         333         334         339         338
         335         336         341         340
         336         337         342         341
         337         338         343         342
         338         339         344         343
         340         341         346         345
         341         342         347         346
         342         343         348         347
         343         344         349         348
         350         351         356         355
         351         352         357         356
         352         353         358         357
         353         354         359         358
         355         356         361         360
         356         357         362         361
         357         358         363         362
         358         359         364         363
         360         361         366         365
         361         362         367         366
         362         363         368         367
         363         364         369         368
         365         366         371         370
         366         367         372         371
         367         368         373         372
         368         369         374         373
         375         376         381         380
         376         377         382         381
         377         378         383         382
         378         379         384         383
         380         381         386         385
         381         382         387         386
         382         383         388         387
         383         384         389         388
         385         386         391         390
         386         387         392         391
         387         388         393         392
         388         389         394         393
         390         391         396         395
         391         392         397         396
         392         393         398         397
         393         394         399         398
 </DataArray>
 <DataArray  type="Int32"  Name="offsets"  format="ascii"> 
           4
           8
          12
          16
          20
          24
          28
          32
          36
          40
          44
          48
          52
          56
          60
          64
          68
          72
          76
          80
          84
          88
          92
          96
         100
         104
         108
         112
         116
         120
         124
         128
         132
         136
         140
         144
         148
         152
         156
         160
         164
         168
         172
         176
         180
         184
         188
         192
         196
         200
         204
         208
         212
         216
         220
         224
         228
         232
         236
         240
         244
         248
         252
         256
         260
         264
         268
         272
         276
         280
         284
         288
         292
         296
         300
         304
         308
         312
         316
         320
         324
         328
         332
         336
         340
         344
         348
         352
         356
         360
         364
         368
         372
         376
         380
         384
         388
         392
         396
         400
         404
         408
         412
         416
         420
         424
         428
         432
         436
         440
         444
         448
         452
         456
         460
         464
         468
         472
         476
         480
         484
         488
         492
         496
         500
         504
         508
         512
         516
         520
         524
         528
         532
         536
         540
         544
         548
         552
         556
         560
         564
         568
         572
         576
         580
         584
         588
         592
         596
         600
         604
         608
         612
         616
         620
         624
         628
         632
         636
         640
         644
         648
         652
         656
         660
         664
         668
         672
         676
         680
         684
         688
         692
         696
         700
         704
         708
         712
         716
         720
         724
         728
         732
         736
         740
         744
         748
         752
         756
         760
         764
         768
         772
         776
         780
         784
         788
         792
         796
         800
         804
         808
         812
         816
         820
         824
         828
         832
         836
         840
         844
         848
         852
         856
         860
         864
         868
         872
         876
         880
         884
         888
         892
         896
         900
         904
         908
         912
         916
         920
         924
         928
         932
         936
         940
         944
         948
         952
         956
         960
         964
         968
         972
         976
         980
         984
         988
         992
         996
        1000
        1004
        1008
        1012
        1016
        1020
        1024
 </DataArray>
 <DataArray  type="UInt8"  Name="types"  format="ascii">
 9
 9
 9
 9
 9
 9
 9
 9
 9
 9
 9
 9
 9
 9
 9
 9
 9
 9
 9
 9
 9
 9
 9
 9
 9
 9
 9
 9
 9
 9
 9
 9
 9
 9
 9
 9
 9
 9
 9
 9
 9
 9
 9
 9
 9
 9
 9
 9
 9
 9
 9
 9
 9
 9
 9
 9
 9
 9
 9
 9
 9
 9
 9
 9
 9
 9
 9
 9
 9
 9
 9
 9
 9
 9
 9
 9
 9
 9
 9
 9
 9
 9
 9
 9
 9
 9
 9
 9
 9
 9
 9
 9
 9
 9
 9
 9
 9
 9
 9
 9
 9
 9
 9
 9
 9
 9
 9
 9
 9
 9
 9
 9
 9
 9
 9
 9
 9
 9
 9
 9
 9
 9
 9
 9
 9
 9
 9
 9
 9
 9
 9
 9
 9
 9
 9
 9
 9
 9
 9
 9
 9
 9
 9
 9
 9
 9
 9
 9
 9
 9
 9
 9
 9
 9
 9
 9
 9
 9
 9
 9
 9
 9
 9
 9
 9
 9
 9
 9
 9
 9
 9
 9
 9
 9
 9
 9
 9
 9
 9
 9
 9
 9
 9
 9
 9
 9
 9
 9
 9
 9
 9
 9
 9
 9
 9
 9
 9
 9
 9
 9
 9
 9
 9
 9
 9
 9
 9
 9
 9
 9
 9
 9
 9
 9
 9
 9
 9
 9
 9
 9
 9
 9
 9
 9
 9
 9
 9
 9
 9
 9
 9
 9
 9
 9
 9
 9
 9
 9
 9
 9
 9
 9
 9
 9
 9
 9
 9
 9
 9
 9
 9
 9
 9
 9
 9
 9
 </DataArray>
 </Cells> 
 <PointData>
 <DataArray  type="Float64" Name="disp" NumberOfComponents="3" format="ascii">
   0.0000000000000000        0.0000000000000000        0.0000000000000000     
   1.0688880202429987E-002   6.3749250392653861E-003   0.0000000000000000     
   2.0497851347310442E-002   1.2964809175578358E-002   0.0000000000000000     
   2.9426913434641370E-002   1.9769652408938916E-002   0.0000000000000000     
   3.7476066464422766E-002   2.6789454739347057E-002   0.0000000000000000     
   0.0000000000000000        0.0000000000000000        0.0000000000000000     
   8.1733601241161889E-003   5.0329974852101993E-003   0.0000000000000000     
   1.5978282777584674E-002   1.0769950647491804E-002   0.0000000000000000     
   2.3414767960405453E-002   1.7210859486844809E-002   0.0000000000000000     
   3.0482815672578524E-002   2.4355724003269220E-002   0.0000000000000000     
   0.0000000000000000        0.0000000000000000        0.0000000000000000     
   6.1367880234553356E-003   4.0155757597762293E-003   0.0000000000000000     
   1.2243527387502978E-002   9.0854659339228289E-003   0.0000000000000000     
   1.8320218092142935E-002   1.5209670522439798E-002   0.0000000000000000     
   2.4366860137375195E-002   2.2388189525327139E-002   0.0000000000000000     
   0.0000000000000000        0.0000000000000000        0.0000000000000000     
   4.5791639004474282E-003   3.3226598629634762E-003   0.0000000000000000     
   9.2935851770653659E-003   7.9113550348714357E-003   0.0000000000000000     
   1.4143263829853814E-002   1.3766085515723878E-002   0.0000000000000000     
   1.9128199858812776E-002   2.0886851305520805E-002   0.0000000000000000     
   0.0000000000000000        0.0000000000000000        0.0000000000000000     
   3.5004877550924639E-003   2.9542497947719400E-003   0.0000000000000000     
   7.1284561462718297E-003   7.2476179503376233E-003   0.0000000000000000     
   1.0883905173538096E-002   1.2880104466697049E-002   0.0000000000000000     
   1.4766834836891268E-002   1.9851709343850221E-002   0.0000000000000000     
   3.7476066464422766E-002   2.6789454739347057E-002   0.0000000000000000     
   4.4916173872160139E-002   3.4365023293535413E-002   0.0000000000000000     
   5.2018099093358999E-002   4.2837165198236632E-002   0.0000000000000000     
   5.8781842128019360E-002   5.2205880453450683E-002   0.0000000000000000     
   6.5207402976141207E-002   6.2471169059177600E-002   0.0000000000000000     
   3.0482815672578524E-002   2.4355724003269220E-002   0.0000000000000000     
   3.7181412056171641E-002   3.2254756833537644E-002   0.0000000000000000     
   4.3509543253252549E-002   4.0958170614422695E-002   0.0000000000000000     
   4.9467209263821248E-002   5.0465965345924374E-002   0.0000000000000000     
   5.5054410087877745E-002   6.0778141028042666E-002   0.0000000000000000     
   2.4366860137375195E-002   2.2388189525327139E-002   0.0000000000000000     
   3.0218915405355047E-002   3.0473854240997262E-002   0.0000000000000000     
   3.5711845778237779E-002   3.9319495967862592E-002   0.0000000000000000     
   4.0845651256023387E-002   4.8925114705923131E-002   0.0000000000000000     
   4.5620331838711878E-002   5.9290710455178877E-002   0.0000000000000000     
   1.9128199858812776E-002   2.0886851305520805E-002   0.0000000000000000     
   2.4028683919710365E-002   2.9022315515914266E-002   0.0000000000000000     
   2.8625006668314711E-002   3.7921141258556314E-002   0.0000000000000000     
   3.2917168104625791E-002   4.7583328533446975E-002   0.0000000000000000     
   3.6905168228643620E-002   5.8008877340586212E-002   0.0000000000000000     
   1.4766834836891268E-002   1.9851709343850221E-002   0.0000000000000000     
   1.8610717599237592E-002   2.7900140658288653E-002   0.0000000000000000     
   2.2249025923483309E-002   3.6763106486503876E-002   0.0000000000000000     
   2.5681759809628439E-002   4.6440606828495878E-002   0.0000000000000000     
   2.8908919257672968E-002   5.6932641684264693E-002   0.0000000000000000     
   6.5207402976141207E-002   6.2471169059177600E-002   0.0000000000000000     
   7.1280639716789648E-002   7.3500605382846876E-002   0.0000000000000000     
   7.6987410429029776E-002   8.5161763791888029E-002   0.0000000000000000     
   8.2327715112861619E-002   9.7454644286301031E-002   0.0000000000000000     
   8.7301553768285134E-002  0.11037924686608591        0.0000000000000000     
   5.5054410087877745E-002   6.0778141028042666E-002   0.0000000000000000     
   6.0303266254442114E-002   7.1831622406353601E-002   0.0000000000000000     
   6.5245898292534465E-002   8.3563334226433209E-002   0.0000000000000000     
   6.9882306202154812E-002   9.5973276488281481E-002   0.0000000000000000     
   7.4212489983303126E-002  0.10906144919189842        0.0000000000000000     
   4.5620331838711878E-002   5.9290710455178877E-002   0.0000000000000000     
   5.0086990892005044E-002   7.0389337596188678E-002   0.0000000000000000     
   5.4296731781604698E-002   8.2194050509511382E-002   0.0000000000000000     
   5.8249554507510834E-002   9.4704849195147031E-002   0.0000000000000000     
   6.1945459069723458E-002  0.10792173365309563        0.0000000000000000     
   3.6905168228643620E-002   5.8008877340586212E-002   0.0000000000000000     
   4.0631813629478424E-002   6.9173750952352078E-002   0.0000000000000000     
   4.4139910896240461E-002   8.1053912641122577E-002   0.0000000000000000     
   4.7429460028929699E-002   9.3649362406897724E-002   0.0000000000000000     
   5.0500461027546149E-002  0.10696010024967753        0.0000000000000000     
   2.8908919257672968E-002   5.6932641684264693E-002   0.0000000000000000     
   3.1937734466862280E-002   6.8184862474843788E-002   0.0000000000000000     
   3.4775435636441754E-002   8.0142920621266739E-002   0.0000000000000000     
   3.7422022766411399E-002   9.2806816123533517E-002   0.0000000000000000     
   3.9877495856771202E-002  0.10617654898164414        0.0000000000000000     
   8.7301553768285134E-002  0.11037924686608591        0.0000000000000000     
   9.1893809568207752E-002  0.12389449226190768        0.0000000000000000     
   9.6089365685536832E-002  0.13795930120443134        0.0000000000000000     
   9.9888222120272388E-002  0.15257367369365690        0.0000000000000000     
  0.10329037887241441       0.16773760972958435        0.0000000000000000     
   7.4212489983303126E-002  0.10906144919189842        0.0000000000000000     
   7.8187838008662164E-002  0.12273753763791152        0.0000000000000000     
   8.1759738650914696E-002  0.13691122712694831        0.0000000000000000     
   8.4928191910060680E-002  0.15158251765900882        0.0000000000000000     
   8.7693197786100172E-002  0.16675140923409293        0.0000000000000000     
   6.1945459069723458E-002  0.10792173365309563        0.0000000000000000     
   6.5324520831570324E-002  0.12172501630183226        0.0000000000000000     
   6.8326815156379256E-002  0.13599500955983213        0.0000000000000000     
   7.0952342044150185E-002  0.15073171342709518        0.0000000000000000     
   7.3201101494883125E-002  0.16593512790362144        0.0000000000000000     
   5.0500461027546149E-002  0.10696010024967753        0.0000000000000000     
   5.3303858036932265E-002  0.12085692825366989        0.0000000000000000     
   5.5790595201930478E-002  0.13521064850308273        0.0000000000000000     
   5.7960672522540835E-002  0.15002126099791602        0.0000000000000000     
   5.9814089998763274E-002  0.16528876573816981        0.0000000000000000     
   3.9877495856771202E-002  0.10617654898164414        0.0000000000000000     
   4.2125849624747955E-002  0.12013327349342440        0.0000000000000000     
   4.4151078787568444E-002  0.13455814395670015        0.0000000000000000     
   4.5953183345232670E-002  0.14945116037147138        0.0000000000000000     
   4.7532163297740619E-002  0.16481232273773808        0.0000000000000000     
   0.0000000000000000        0.0000000000000000        0.0000000000000000     
   3.5004877550924639E-003   2.9542497947719400E-003   0.0000000000000000     
   7.1284561462718297E-003   7.2476179503376233E-003   0.0000000000000000     
   1.0883905173538096E-002   1.2880104466697049E-002   0.0000000000000000     
   1.4766834836891268E-002   1.9851709343850221E-002   0.0000000000000000     
   0.0000000000000000        0.0000000000000000        0.0000000000000000     
   2.6523056530032120E-003   2.7738622851258129E-003   0.0000000000000000     
   5.3533858064020948E-003   6.8901365452214390E-003   0.0000000000000000     
   8.1032404601966493E-003   1.2348822780286879E-002   0.0000000000000000     
   1.0901869614386873E-002   1.9149920990322134E-002   0.0000000000000000     
   0.0000000000000000        0.0000000000000000        0.0000000000000000     
   1.7861636597924393E-003   2.6450140639492871E-003   0.0000000000000000     
   3.5736196687358849E-003   6.6347926844229329E-003   0.0000000000000000     
   5.3623680268303376E-003   1.1969335861420937E-002   0.0000000000000000     
   7.1524087340757965E-003   1.8648643594943299E-002   0.0000000000000000     
   0.0000000000000000        0.0000000000000000        0.0000000000000000     
   9.0206177546014587E-004   2.5677051312423638E-003   0.0000000000000000     
   1.7891577332732008E-003   6.4815863679421031E-003   0.0000000000000000     
   2.6612878734391643E-003   1.1741643710099217E-002   0.0000000000000000     
   3.5184521959580367E-003   1.8347877157713712E-002   0.0000000000000000     
   0.0000000000000000        0.0000000000000000        0.0000000000000000     
   6.3318491075325944E-015   2.5419354870050408E-003   0.0000000000000000     
   1.4041285495425271E-014   6.4305175957789507E-003   0.0000000000000000     
   2.3129501786067763E-014   1.1665746326321728E-002   0.0000000000000000     
   3.3594546415549598E-014   1.8247621678633374E-002   0.0000000000000000     
   1.4766834836891268E-002   1.9851709343850221E-002   0.0000000000000000     
   1.8610717599237592E-002   2.7900140658288653E-002   0.0000000000000000     
   2.2249025923483309E-002   3.6763106486503876E-002   0.0000000000000000     
   2.5681759809628439E-002   4.6440606828495878E-002   0.0000000000000000     
   2.8908919257672968E-002   5.6932641684264693E-002   0.0000000000000000     
   1.0901869614386873E-002   1.9149920990322134E-002   0.0000000000000000     
   1.3673672445872951E-002   2.7062334349878203E-002   0.0000000000000000     
   1.6343048131555061E-002   3.5854966033506096E-002   0.0000000000000000     
   1.8909996671433206E-002   4.5527816041205794E-002   0.0000000000000000     
   2.1374518065507383E-002   5.6080884372977320E-002   0.0000000000000000     
   7.1524087340757965E-003   1.8648643594943299E-002   0.0000000000000000     
   8.9262044615526764E-003   2.6463901272440696E-002   0.0000000000000000     
   1.0666217880341392E-002   3.5206294281363792E-002   0.0000000000000000     
   1.2372448990441945E-002   4.4875822621712601E-002   0.0000000000000000     
   1.4044897791854333E-002   5.5472486293487111E-002   0.0000000000000000     
   3.5184521959580367E-003   1.8347877157713712E-002   0.0000000000000000     
   4.3683136462767695E-003   2.6104841425976123E-002   0.0000000000000000     
   5.2185351698423085E-003   3.4817091230076987E-002   0.0000000000000000     
   6.0691167666546584E-003   4.4484626570016297E-002   0.0000000000000000     
   6.9200584367138159E-003   5.5107447445794072E-002   0.0000000000000000     
   3.3594546415549598E-014   1.8247621678633374E-002   0.0000000000000000     
   4.5225108380453349E-014   2.5985154810484488E-002   0.0000000000000000     
   5.7808982210569293E-014   3.4687356879645664E-002   0.0000000000000000     
   7.1345320872950174E-014   4.4354227886116905E-002   0.0000000000000000     
   8.5833683910463421E-014   5.4985767829898211E-002   0.0000000000000000     
   2.8908919257672968E-002   5.6932641684264693E-002   0.0000000000000000     
   3.1937734466862280E-002   6.8184862474843788E-002   0.0000000000000000     
   3.4775435636441754E-002   8.0142920621266739E-002   0.0000000000000000     
   3.7422022766411399E-002   9.2806816123533517E-002   0.0000000000000000     
   3.9877495856771202E-002  0.10617654898164414        0.0000000000000000     
   2.1374518065507383E-002   5.6080884372977320E-002   0.0000000000000000     
   2.3706478478194043E-002   6.7418765504793310E-002   0.0000000000000000     
   2.5875744073909628E-002   7.9446053912626421E-002   0.0000000000000000     
   2.7882314852654140E-002   9.2162749596476662E-002   0.0000000000000000     
   2.9726190814427577E-002  0.10556885255634402        0.0000000000000000     
   1.4044897791854333E-002   5.5472486293487111E-002   0.0000000000000000     
   1.5639770737511181E-002   6.6871553383330049E-002   0.0000000000000000     
   1.7113274280345116E-002   7.8948291977884125E-002   0.0000000000000000     
   1.8465408420356131E-002   9.1702702077149381E-002   0.0000000000000000     
   1.9696173157544232E-002  0.10513478368112573        0.0000000000000000     
   6.9200584367138159E-003   5.5107447445794072E-002   0.0000000000000000     
   7.7376112448136981E-003   6.6543226110454032E-002   0.0000000000000000     
   8.4880262557482187E-003   7.8649634817039876E-002   0.0000000000000000     
   9.1713034695173751E-003   9.1426673565551647E-002   0.0000000000000000     
   9.7874428861211699E-003  0.10487434235598930        0.0000000000000000     
   8.5833683910463421E-014   5.4985767829898211E-002   0.0000000000000000     
   1.0159473089188520E-013   6.6433783686165260E-002   0.0000000000000000     
   1.1893752042274608E-013   7.8550082430093676E-002   0.0000000000000000     
   1.3787010270417677E-013   9.1334664061683501E-002   0.0000000000000000     
   1.5838979433580036E-013  0.10478752858093471        0.0000000000000000     
   3.9877495856771202E-002  0.10617654898164414        0.0000000000000000     
   4.2125849624747955E-002  0.12013327349342440        0.0000000000000000     
   4.4151078787568444E-002  0.13455814395670015        0.0000000000000000     
   4.5953183345232670E-002  0.14945116037147138        0.0000000000000000     
   4.7532163297740619E-002  0.16481232273773808        0.0000000000000000     
   2.9726190814427577E-002  0.10556885255634402        0.0000000000000000     
   3.1425473107494765E-002  0.11956326514167000        0.0000000000000000     
   3.2998262880120553E-002  0.13404488970189612        0.0000000000000000     
   3.4444560132304916E-002  0.14901372623702241        0.0000000000000000     
   3.5764364864047875E-002  0.16446977474704888        0.0000000000000000     
   1.9696173157544232E-002  0.10513478368112573        0.0000000000000000     
   2.0837705997650061E-002  0.11915611631898088        0.0000000000000000     
   2.1922144446414261E-002  0.13367827951988245        0.0000000000000000     
   2.2949488503836830E-002  0.14870127328383043        0.0000000000000000     
   2.3919738169917767E-002  0.16422509761082488        0.0000000000000000     
   9.7874428861211699E-003  0.10487434235598930        0.0000000000000000     
   1.0362548295213825E-002  0.11891182702535703        0.0000000000000000     
   1.0922723486449569E-002  0.13345831341065909        0.0000000000000000     
   1.1467968459828389E-002  0.14851380151189544        0.0000000000000000     
   1.1998283215350302E-002  0.16407829132906601        0.0000000000000000     
   1.5838979433580036E-013  0.10478752858093471        0.0000000000000000     
   1.8606730739501032E-013  0.11883039726079851        0.0000000000000000     
   2.2647313711876560E-013  0.13338499137422605        0.0000000000000000     
   2.7961004822260604E-013  0.14845131092121730        0.0000000000000000     
   3.4547538441120906E-013  0.16402935590177237        0.0000000000000000     
   0.0000000000000000        0.0000000000000000        0.0000000000000000     
   6.3318491075325944E-015   2.5419354870050408E-003   0.0000000000000000     
   1.4041285495425271E-014   6.4305175957789507E-003   0.0000000000000000     
   2.3129501786067763E-014   1.1665746326321728E-002   0.0000000000000000     
   3.3594546415549598E-014   1.8247621678633374E-002   0.0000000000000000     
   0.0000000000000000        0.0000000000000000        0.0000000000000000     
  -9.0206177544827960E-004   2.5677051312377290E-003   0.0000000000000000     
  -1.7891577332467894E-003   6.4815863679342396E-003   0.0000000000000000     
  -2.6612878733955291E-003   1.1741643710089532E-002   0.0000000000000000     
  -3.5184521958944977E-003   1.8347877157703602E-002   0.0000000000000000     
   0.0000000000000000        0.0000000000000000        0.0000000000000000     
  -1.7861636597829649E-003   2.6450140639408342E-003   0.0000000000000000     
  -3.5736196687144875E-003   6.6347926844087333E-003   0.0000000000000000     
  -5.3623680267945693E-003   1.1969335861403698E-002   0.0000000000000000     
  -7.1524087340232093E-003   1.8648643594925726E-002   0.0000000000000000     
   0.0000000000000000        0.0000000000000000        0.0000000000000000     
  -2.6523056529977238E-003   2.7738622851143585E-003   0.0000000000000000     
  -5.3533858063890549E-003   6.8901365452024342E-003   0.0000000000000000     
  -8.1032404601739938E-003   1.2348822780264229E-002   0.0000000000000000     
  -1.0901869614352536E-002   1.9149920990299739E-002   0.0000000000000000     
   0.0000000000000000        0.0000000000000000        0.0000000000000000     
  -3.5004877550925571E-003   2.9542497947582999E-003   0.0000000000000000     
  -7.1284561462704888E-003   7.2476179503153416E-003   0.0000000000000000     
  -1.0883905173533798E-002   1.2880104466671122E-002   0.0000000000000000     
  -1.4766834836882483E-002   1.9851709343825644E-002   0.0000000000000000     
   3.3594546415549598E-014   1.8247621678633374E-002   0.0000000000000000     
   4.5225108380453349E-014   2.5985154810484488E-002   0.0000000000000000     
   5.7808982210569293E-014   3.4687356879645664E-002   0.0000000000000000     
   7.1345320872950174E-014   4.4354227886116905E-002   0.0000000000000000     
   8.5833683910463421E-014   5.4985767829898211E-002   0.0000000000000000     
  -3.5184521958944977E-003   1.8347877157703602E-002   0.0000000000000000     
  -4.3683136461912207E-003   2.6104841425967355E-002   0.0000000000000000     
  -5.2185351697332221E-003   3.4817091230071678E-002   0.0000000000000000     
  -6.0691167665205001E-003   4.4484626570016575E-002   0.0000000000000000     
  -6.9200584365530530E-003   5.5107447445802031E-002   0.0000000000000000     
  -7.1524087340232093E-003   1.8648643594925726E-002   0.0000000000000000     
  -8.9262044614818389E-003   2.6463901272426295E-002   0.0000000000000000     
  -1.0666217880251900E-002   3.5206294281356874E-002   0.0000000000000000     
  -1.2372448990333381E-002   4.4875822621717458E-002   0.0000000000000000     
  -1.4044897791726293E-002   5.5472486293508053E-002   0.0000000000000000     
  -1.0901869614352536E-002   1.9149920990299739E-002   0.0000000000000000     
  -1.3673672445826630E-002   2.7062334349861300E-002   0.0000000000000000     
  -1.6343048131498221E-002   3.5854966033501245E-002   0.0000000000000000     
  -1.8909996671367304E-002   4.5527816041219575E-002   0.0000000000000000     
  -2.1374518065433879E-002   5.6080884373016268E-002   0.0000000000000000     
  -1.4766834836882483E-002   1.9851709343825644E-002   0.0000000000000000     
  -1.8610717599225592E-002   2.7900140658272371E-002   0.0000000000000000     
  -2.2249025923472190E-002   3.6763106486504792E-002   0.0000000000000000     
  -2.5681759809622257E-002   4.6440606828522892E-002   0.0000000000000000     
  -2.8908919257675809E-002   5.6932641684326685E-002   0.0000000000000000     
   8.5833683910463421E-014   5.4985767829898211E-002   0.0000000000000000     
   1.0159473089188520E-013   6.6433783686165260E-002   0.0000000000000000     
   1.1893752042274608E-013   7.8550082430093676E-002   0.0000000000000000     
   1.3787010270417677E-013   9.1334664061683501E-002   0.0000000000000000     
   1.5838979433580036E-013  0.10478752858093471        0.0000000000000000     
  -6.9200584365530530E-003   5.5107447445802031E-002   0.0000000000000000     
  -7.7376112446242906E-003   6.6543226110466605E-002   0.0000000000000000     
  -8.4880262555276052E-003   7.8649634817048827E-002   0.0000000000000000     
  -9.1713034692630056E-003   9.1426673565548677E-002   0.0000000000000000     
  -9.7874428858304857E-003  0.10487434235596618        0.0000000000000000     
  -1.4044897791726293E-002   5.5472486293508053E-002   0.0000000000000000     
  -1.5639770737363102E-002   6.6871553383360996E-002   0.0000000000000000     
  -1.7113274280176304E-002   7.8948291977908619E-002   0.0000000000000000     
  -1.8465408420165873E-002   9.1702702077150908E-002   0.0000000000000000     
  -1.9696173157331829E-002  0.10513478368108789        0.0000000000000000     
  -2.1374518065433879E-002   5.6080884373016268E-002   0.0000000000000000     
  -2.3706478478114856E-002   6.7418765504848419E-002   0.0000000000000000     
  -2.5875744073827138E-002   7.9446053912673051E-002   0.0000000000000000     
  -2.7882314852570735E-002   9.2162749596490193E-002   0.0000000000000000     
  -2.9726190814345636E-002  0.10556885255629983        0.0000000000000000     
  -2.8908919257675809E-002   5.6932641684326685E-002   0.0000000000000000     
  -3.1937734466879537E-002   6.8184862474928859E-002   0.0000000000000000     
  -3.4775435636480133E-002   8.0142920621342151E-002   0.0000000000000000     
  -3.7422022766477589E-002   9.2806816123566560E-002   0.0000000000000000     
  -3.9877495856871920E-002  0.10617654898160205        0.0000000000000000     
   1.5838979433580036E-013  0.10478752858093471        0.0000000000000000     
   1.8606730739501032E-013  0.11883039726079851        0.0000000000000000     
   2.2647313711876560E-013  0.13338499137422605        0.0000000000000000     
   2.7961004822260604E-013  0.14845131092121730        0.0000000000000000     
   3.4547538441120906E-013  0.16402935590177237        0.0000000000000000     
  -9.7874428858304857E-003  0.10487434235596618        0.0000000000000000     
  -1.0362548294873054E-002  0.11891182702530821        0.0000000000000000     
  -1.0922723486033728E-002  0.13345831341058170        0.0000000000000000     
  -1.1467968459312498E-002  0.14851380151178664        0.0000000000000000     
  -1.1998283214709372E-002  0.16407829132892299        0.0000000000000000     
  -1.9696173157331829E-002  0.10513478368108789        0.0000000000000000     
  -2.0837705997403373E-002  0.11915611631888919        0.0000000000000000     
  -2.1922144446109737E-002  0.13367827951972444        0.0000000000000000     
  -2.2949488503450910E-002  0.14870127328359373        0.0000000000000000     
  -2.3919738169426906E-002  0.16422509761049692        0.0000000000000000     
  -2.9726190814345636E-002  0.10556885255629983        0.0000000000000000     
  -3.1425473107404900E-002  0.11956326514154142        0.0000000000000000     
  -3.2998262880001565E-002  0.13404488970165435        0.0000000000000000     
  -3.4444560132135642E-002  0.14901372623663861        0.0000000000000000     
  -3.5764364863807116E-002  0.16446977474649430        0.0000000000000000     
  -3.9877495856871920E-002  0.10617654898160205        0.0000000000000000     
  -4.2125849624877615E-002  0.12013327349326489        0.0000000000000000     
  -4.4151078787709200E-002  0.13455814395637133        0.0000000000000000     
  -4.5953183345366660E-002  0.14945116037092132        0.0000000000000000     
  -4.7532163297850011E-002  0.16481232273691493        0.0000000000000000     
   0.0000000000000000        0.0000000000000000        0.0000000000000000     
  -3.5004877550925571E-003   2.9542497947582999E-003   0.0000000000000000     
  -7.1284561462704888E-003   7.2476179503153416E-003   0.0000000000000000     
  -1.0883905173533798E-002   1.2880104466671122E-002   0.0000000000000000     
  -1.4766834836882483E-002   1.9851709343825644E-002   0.0000000000000000     
   0.0000000000000000        0.0000000000000000        0.0000000000000000     
  -4.5791639004530227E-003   3.3226598629487658E-003   0.0000000000000000     
  -9.2935851770760379E-003   7.9113550348478504E-003   0.0000000000000000     
  -1.4143263829869041E-002   1.3766085515697253E-002   0.0000000000000000     
  -1.9128199858832035E-002   2.0886851305496973E-002   0.0000000000000000     
   0.0000000000000000        0.0000000000000000        0.0000000000000000     
  -6.1367880234646796E-003   4.0155757597618580E-003   0.0000000000000000     
  -1.2243527387522940E-002   9.0854659339003573E-003   0.0000000000000000     
  -1.8320218092174781E-002   1.5209670522415500E-002   0.0000000000000000     
  -2.4366860137420201E-002   2.2388189525307283E-002   0.0000000000000000     
   0.0000000000000000        0.0000000000000000        0.0000000000000000     
  -8.1733601241275287E-003   5.0329974851975783E-003   0.0000000000000000     
  -1.5978282777611198E-002   1.0769950647472867E-002   0.0000000000000000     
  -2.3414767960451013E-002   1.7210859486825859E-002   0.0000000000000000     
  -3.0482815672646969E-002   2.4355724003256567E-002   0.0000000000000000     
   0.0000000000000000        0.0000000000000000        0.0000000000000000     
  -1.0688880202441568E-002   6.3749250392559258E-003   0.0000000000000000     
  -2.0497851347340813E-002   1.2964809175565372E-002   0.0000000000000000     
  -2.9426913434697742E-002   1.9769652408928334E-002   0.0000000000000000     
  -3.7476066464512348E-002   2.6789454739344819E-002   0.0000000000000000     
  -1.4766834836882483E-002   1.9851709343825644E-002   0.0000000000000000     
  -1.8610717599225592E-002   2.7900140658272371E-002   0.0000000000000000     
  -2.2249025923472190E-002   3.6763106486504792E-002   0.0000000000000000     
  -2.5681759809622257E-002   4.6440606828522892E-002   0.0000000000000000     
  -2.8908919257675809E-002   5.6932641684326685E-002   0.0000000000000000     
  -1.9128199858832035E-002   2.0886851305496973E-002   0.0000000000000000     
  -2.4028683919736345E-002   2.9022315515901610E-002   0.0000000000000000     
  -2.8625006668353294E-002   3.7921141258565737E-002   0.0000000000000000     
  -3.2917168104682877E-002   4.7583328533489379E-002   0.0000000000000000     
  -3.6905168228725090E-002   5.8008877340672518E-002   0.0000000000000000     
  -2.4366860137420201E-002   2.2388189525307283E-002   0.0000000000000000     
  -3.0218915405416515E-002   3.0473854240991093E-002   0.0000000000000000     
  -3.5711845778321032E-002   3.9319495967882319E-002   0.0000000000000000     
  -4.0845651256133771E-002   4.8925114705980946E-002   0.0000000000000000     
  -4.5620331838854694E-002   5.9290710455286978E-002   0.0000000000000000     
  -3.0482815672646969E-002   2.4355724003256567E-002   0.0000000000000000     
  -3.7181412056266107E-002   3.2254756833540843E-002   0.0000000000000000     
  -4.3509543253375423E-002   4.0958170614454503E-002   0.0000000000000000     
  -4.9467209263974944E-002   5.0465965345997593E-002   0.0000000000000000     
  -5.5054410088064637E-002   6.0778141028170099E-002   0.0000000000000000     
  -3.7476066464512348E-002   2.6789454739344819E-002   0.0000000000000000     
  -4.4916173872285095E-002   3.4365023293550817E-002   0.0000000000000000     
  -5.2018099093516443E-002   4.2837165198282318E-002   0.0000000000000000     
  -5.8781842128206384E-002   5.2205880453539327E-002   0.0000000000000000     
  -6.5207402976354925E-002   6.2471169059321832E-002   0.0000000000000000     
  -2.8908919257675809E-002   5.6932641684326685E-002   0.0000000000000000     
  -3.1937734466879537E-002   6.8184862474928859E-002   0.0000000000000000     
  -3.4775435636480133E-002   8.0142920621342151E-002   0.0000000000000000     
  -3.7422022766477589E-002   9.2806816123566560E-002   0.0000000000000000     
  -3.9877495856871920E-002  0.10617654898160205        0.0000000000000000     
  -3.6905168228725090E-002   5.8008877340672518E-002   0.0000000000000000     
  -4.0631813629591652E-002   6.9173750952467777E-002   0.0000000000000000     
  -4.4139910896394310E-002   8.1053912641227799E-002   0.0000000000000000     
  -4.7429460029133036E-002   9.3649362406952583E-002   0.0000000000000000     
  -5.0500461027807843E-002  0.10696010024964211        0.0000000000000000     
  -4.5620331838854694E-002   5.9290710455286978E-002   0.0000000000000000     
  -5.0086990892185719E-002   7.0389337596330578E-002   0.0000000000000000     
  -5.4296731781828707E-002   8.2194050509641889E-002   0.0000000000000000     
  -5.8249554507783678E-002   9.4704849195220903E-002   0.0000000000000000     
  -6.1945459070050612E-002  0.10792173365306765        0.0000000000000000     
  -5.5054410088064637E-002   6.0778141028170099E-002   0.0000000000000000     
  -6.0303266254661717E-002   7.1831622406517276E-002   0.0000000000000000     
  -6.5245898292783336E-002   8.3563334226584421E-002   0.0000000000000000     
  -6.9882306202429509E-002   9.5973276488371534E-002   0.0000000000000000     
  -7.4212489983600222E-002  0.10906144919187861        0.0000000000000000     
  -6.5207402976354925E-002   6.2471169059321832E-002   0.0000000000000000     
  -7.1280639717019659E-002   7.3500605383027856E-002   0.0000000000000000     
  -7.6987410429258205E-002   8.5161763792055409E-002   0.0000000000000000     
  -8.2327715113070521E-002   9.7454644286404477E-002   0.0000000000000000     
  -8.7301553768456636E-002  0.11037924686607506        0.0000000000000000     
  -3.9877495856871920E-002  0.10617654898160205        0.0000000000000000     
  -4.2125849624877615E-002  0.12013327349326489        0.0000000000000000     
  -4.4151078787709200E-002  0.13455814395637133        0.0000000000000000     
  -4.5953183345366660E-002  0.14945116037092132        0.0000000000000000     
  -4.7532163297850011E-002  0.16481232273691493        0.0000000000000000     
  -5.0500461027807843E-002  0.10696010024964211        0.0000000000000000     
  -5.3303858037249671E-002  0.12085692825348507        0.0000000000000000     
  -5.5790595202289441E-002  0.13521064850267017        0.0000000000000000     
  -5.7960672522927151E-002  0.15002126099719734        0.0000000000000000     
  -5.9814089999162802E-002  0.16528876573706663        0.0000000000000000     
  -6.1945459070050612E-002  0.10792173365306765        0.0000000000000000     
  -6.5324520831949187E-002  0.12172501630162744        0.0000000000000000     
  -6.8326815156799059E-002  0.13599500955934557        0.0000000000000000     
  -7.0952342044600228E-002  0.15073171342622216        0.0000000000000000     
  -7.3201101495352694E-002  0.16593512790225712        0.0000000000000000     
  -7.4212489983600222E-002  0.10906144919187861        0.0000000000000000     
  -7.8187838008976163E-002  0.12273753763769188        0.0000000000000000     
  -8.1759738651238062E-002  0.13691122712639761        0.0000000000000000     
  -8.4928191910385906E-002  0.15158251765799574        0.0000000000000000     
  -8.7693197786419708E-002  0.16675140923248633        0.0000000000000000     
  -8.7301553768456636E-002  0.11037924686607506        0.0000000000000000     
  -9.1893809568330612E-002  0.12389449226167852        0.0000000000000000     
  -9.6089365685606443E-002  0.13795930120382621        0.0000000000000000     
  -9.9888222120284198E-002  0.15257367369251815        0.0000000000000000     
 -0.10329037887236381       0.16773760972775428        0.0000000000000000     
 </DataArray>
 <DataArray  type="Float64" Name="stress" NumberOfComponents="3" format="ascii">
   11740309166.985233        3522092750.0955696        2314133719.6584344     
   10336005133.867762        1656788290.5291650        1376274653.7780588     
   9108398753.9362679        380476008.24934912        659220378.56822932     
   8057490027.1907501       -306844096.74387884        162970894.02894676     
   7183278953.6312094       -405172024.45051861       -112473799.83978885     
   8816786489.0796032        2645035946.7238812        1728376484.9259679     
   8054757623.0705547        1283939632.7663710        1147912332.6493206     
   7425549818.2642307        365580189.48461533        724345484.64501178     
   6929163074.6606321       -110042383.12138653        457675940.91304290     
   6565597392.2597618       -142928085.05163240        347903701.45341396     
   6489824020.9151812        1946947206.2745543        1288031465.5720778     
   6187477503.7339582        1035281192.4417603        1013772869.5853665     
   5974075455.7722130        420096742.67388749        832504091.47278643     
   5849617877.0299435        101393856.97093558        744225131.23433971     
   5814104767.5071487        79172535.332904577        748935988.87002480     
   4759421762.4919615        1427826528.7475884        993098661.59676349     
   4734164775.8579750        910812969.55533385        973856264.58619630     
   4753975666.4602165        544025667.81716609        983696199.05155420     
   4818854434.2986813        327464623.53308511        1022618464.9928368     
   4928801079.3733749        261129836.70309162        1090623062.4100449     
   3625579713.8099475        1087673914.1429844        843578073.00002515     
   3694819439.4426055        910534964.10709095        1028162517.6518105     
   3765250450.3282394        737366964.91445076        1177921807.3813138     
   3836872746.4668493        568169916.56506360        1292855942.1885343     
   3909686327.8584352        402943819.05893028        1372964922.0734725     
   7183278953.6312094       -405172024.45051861       -112473799.83978885     
   6950539037.9078836       -98788746.605038643       -35829847.063261829     
   6681059617.2631454        85129514.835733652        20840698.081967808     
   6374840691.6969948        146582759.87179542        57537835.595906384     
   6031882261.2094326        85570988.503149986        74261565.478547573     
   6565597392.2597618       -142928085.05163240        347903701.45341396     
   6255495489.1846561        8887501.5370833874        351727042.03354764     
   5923778341.2065392        88652271.782424212        351684036.41824538     
   5570445948.3254099        96366225.684396267        347774684.60750777     
   5195498310.5412683        32029363.242988348        339998986.60133344     
   5814104767.5071487        79172535.332904577        748935988.87002480     
   5472661052.6112900        90226483.324164391        697583687.27523327     
   5124726352.8308191        79643815.033385515        658472100.92086518     
   4770300668.1657372        47424530.460567474        631601229.80692065     
   4409383998.6160440       -6431370.3942847252        616971073.93339694     
   4928801079.3733749        261129836.70309162        1090623062.4100449     
   4602035728.1877871        145228198.75620484        1001740088.6617961     
   4283903652.1359854        58104144.588611841        941204891.58982837     
   3974404851.2179742       -242325.79968547821        909017471.19414175     
   3673539325.4337540       -29811212.408682346        905177827.47473752     
   3909686327.8584352        402943819.05893028        1372964922.0734725     
   3643619515.9141421        173892647.83320081        1264196246.1932342     
   3401310239.1220393        24033260.448103428        1199882408.4251351     
   3182758497.4821243       -46634343.096364379        1180023408.7691767     
   2987964290.9943995       -38110162.800199509        1204619247.2253575     
   6031882261.2094326        85570988.503149986        74261565.478547573     
   5649551587.0386572       -16173301.159531832       -4661592.3498638524     
   5284891728.6536360       -59014871.536358595       -59322645.249601729     
   4937902686.0543814       -42953722.627301931       -89721593.220655799     
   4608584459.2408867        32010145.567616701       -95858436.263035044     
   5195498310.5412683        32029363.242988348        339998986.60133344     
   4883397557.0950031       -28389270.467432499        293823576.66571039     
   4583064244.2196245       -49583102.274884939        267872387.90820768     
   4294498371.9151392       -31552132.179368734        262145420.32881683     
   4017699940.1815486        25703639.819127083        276642673.92754221     
   4409383998.6160440       -6431370.3942847252        616971073.93339694     
   4155976355.1783872       -28985391.367223263        596656140.80655587     
   3908432777.0967546       -31992527.820082426        592527545.10726798     
   3666753264.3711452       -15452779.752859592        604585286.83552861     
   3430937817.0015602        20633852.834441900        632829365.99133849     
   3673539325.4337540       -29811212.408682346        905177827.47473752     
   3467287981.2888141       -17961663.858897924        903836100.07266390     
   3260997327.2850266       -6243148.1719336510        914642826.34757781     
   3054667363.4223995        5344334.6522264481        937598006.29947793     
   2848298089.7009254        16800784.613563180        972701639.92836690     
   2987964290.9943995       -38110162.800199509        1204619247.2253575     
   2817332435.4262786        4681912.0575366020        1215363454.4640379     
   2640757894.7844462        27665036.669564724        1234218231.6291413     
   2458240669.0689011        30839211.035884142        1261183578.7206705     
   2269780758.2796416        14204435.156491399        1296259495.7386205     
   4608584459.2408867        32010145.567616701       -95858436.263035044     
   4246316917.7031741        93890658.074535608       -124531045.51375553     
   3864269618.8825154        89838646.304971457       -161866371.24586743     
   3462442562.7789140        19854110.258943796       -207864413.45936814     
   3040835749.3923736       -116062950.06357718       -262525172.15425131     
   4017699940.1815486        25703639.819127083        276642673.92754221     
   3637664639.7831788        49950931.098755836        236398005.86076683     
   3244518544.8890142        30495574.059073210        199833136.97347412     
   2838261655.4990597       -32662431.299911737        166948067.26567674     
   2418893971.6133184       -139523084.97819161        137742796.73736548     
   3430937817.0015602        20633852.834441900        632829365.99133849     
   3068399088.2021737        17827222.024664760        588793095.69352448     
   2699418527.6941509       -6452181.1472399235        560779140.23606896     
   2323996135.4774861       -52204356.681277871        548787499.61897886     
   1942131911.5521808       -119429304.57745087        552818173.84225059     
   2848298089.7009254        16800784.613563180        972701639.92836690     
   2538520262.9601688       -2480469.1477189064        932654223.98452151     
   2228969567.2979198       -21004619.313966870        920971638.54191279     
   1919646002.7141900       -38771665.885163307        937653883.60054064     
   1610549569.2089677       -55781608.861322582        982700959.16040373     
   2269780758.2796416        14204435.156491399        1296259495.7386205     
   2048028164.0571544       -10972142.418410182        1267981390.7337530     
   1833171663.7003317       -13161740.441094756        1280410631.8910015     
   1625211257.2091744        7635641.0884376168        1333547219.2103610     
   1424146944.5836792        51420002.170183003        1427391152.6918311     
   3625579713.8099475        1087673914.1429844        843578073.00002515     
   3694819439.4426055        910534964.10709095        1028162517.6518105     
   3765250450.3282394        737366964.91445076        1177921807.3813138     
   3836872746.4668493        568169916.56506360        1292855942.1885343     
   3909686327.8584352        402943819.05893028        1372964922.0734725     
   2772309523.8386393        831692857.15159178        776365402.20587289     
   2774829936.0819159        684015830.02970147        955534606.13933790     
   2778243812.2649822        539317016.04044366        1111407510.9461763     
   2782551152.3878388        397596415.18381739        1243984116.6263885     
   2787751956.4504843        258854027.45982397        1353264423.1799731     
   1883622841.5475368        565086852.46426105        728356351.63831687     
   1852363528.3890200        456753624.65265024        901762856.65474474     
   1821699857.8571062        350405872.26305056        1063401918.3402010     
   1791631829.9517961        246043595.29546177        1213273536.6946857     
   1762159444.6730890        143666793.74988419        1351377711.7181993     
   959519666.93664157        287855900.08099246        699550921.29735696     
   927420216.36391759        228748347.97593704        866847269.19802988     
   895618587.10461020        170633533.58227158        1033905029.5633866     
   864114779.15872002        113511456.89999580        1200724202.3934278     
   832908792.52624691        57382117.929110020        1367304787.6881530     
   5.9528847053201472E-003   1.7858654115960441E-003   689949111.18299329     
   6.6083699867580913E-003  -4.3815683682012869E-004   850787843.76919413     
   7.4947088370578676E-003  -1.8932743422467859E-003   1022916844.6157343     
   8.6116124533550682E-003  -2.5793655787261331E-003   1206336113.7226138     
   9.9591008516898023E-003  -2.4968408750803721E-003   1401045651.0898328     
   3909686327.8584352        402943819.05893028        1372964922.0734725     
   3643619515.9141421        173892647.83320081        1264196246.1932342     
   3401310239.1220393        24033260.448103428        1199882408.4251351     
   3182758497.4821243       -46634343.096364379        1180023408.7691767     
   2987964290.9943995       -38110162.800199509        1204619247.2253575     
   2787751956.4504843        258854027.45982397        1353264423.1799731     
   2642799139.2072787        103444836.55516255        1296098197.9382851     
   2515664473.3282967        7429483.5312486887        1270647442.7419701     
   2406347958.8135386       -29192031.611917734        1276912157.5910280     
   2314849595.6630054       -6419708.8743362427        1314892342.4854569     
   1762159444.6730890        143666793.74988419        1351377711.7181993     
   1701922427.6544902        50980124.823347330        1338884656.0291035     
   1653564178.2121513       -2110652.1823248863        1345367702.3186133     
   1617084696.3460708       -15605537.267134249        1370826850.5867274     
   1592483982.0562496        10495469.568921745        1415262100.8334463     
   832908792.52624691        57382117.929110020        1367304787.6881530     
   820989381.25577676        16498512.637754291        1392555620.4656899     
   815009353.77360094       -4587146.6926205754        1424043187.1550648     
   814968710.07971954       -5874860.0620148778        1461767487.7562759     
   820867450.17413080        12635372.529568672        1505728522.2693236     
   9.9591008516898023E-003  -2.4968408750803721E-003   1401045651.0898328     
   1.1137971268725290E-002  -1.6165697443674457E-003   1457111091.2480435     
   1.2646317143666192E-002   3.6273353826105168E-004   1506673897.2513237     
   1.4482361338094399E-002   3.4346681291221970E-003   1549734069.0996730     
   1.6649136282086186E-002   7.6076507730811621E-003   1586291606.7930918     
   2987964290.9943995       -38110162.800199509        1204619247.2253575     
   2817332435.4262786        4681912.0575366020        1215363454.4640379     
   2640757894.7844462        27665036.669564724        1234218231.6291413     
   2458240669.0689011        30839211.035884142        1261183578.7206705     
   2269780758.2796416        14204435.156491399        1296259495.7386205     
   2314849595.6630054       -6419708.8743362427        1314892342.4854569     
   2166452719.6209855        19547451.959695697        1304714918.8242478     
   2013598829.7733526        30657900.108352423        1307413428.1083159     
   1856287926.1201081        26911635.571637630        1322987870.3376603     
   1694520008.6612484        8308658.3495399952        1351438245.5122843     
   1592483982.0562496        10495469.568921745        1415262100.8334463     
   1479937408.4513395        23722313.252551496        1385896329.4184639     
   1364419492.3089180        27044681.811139703        1374171853.9676125     
   1245930233.6289842        20462575.244691849        1380088674.4808927     
   1124469632.4115388        3975993.5532012582        1403646790.9583039     
   820867450.17413080        12635372.529568672        1505728522.2693236     
   757786501.91734254        17206495.936099917        1458907686.2466865     
   693219882.39114285        16825381.777926445        1434493509.2070353     
   627167591.59553123        11492030.055048108        1432485991.1503656     
   559629629.53050792        1206440.7674624324        1452885132.0766857     
   1.6649136282086186E-002   7.6076507730811621E-003   1586291606.7930918     
   1.8993277646621315E-002   1.0344266652042675E-002   1523748989.3089159     
   2.0024824289597554E-002   8.7048729030841619E-003   1488378393.8265791     
   1.9748534309691868E-002   2.7061972168668292E-003   1480179820.3460824     
   1.8158826091148585E-002  -7.6701923201139615E-003   1499153268.8674226     
   2269780758.2796416        14204435.156491399        1296259495.7386205     
   2048028164.0571544       -10972142.418410182        1267981390.7337530     
   1833171663.7003317       -13161740.441094756        1280410631.8910015     
   1625211257.2091744        7635641.0884376168        1333547219.2103610     
   1424146944.5836792        51420002.170183003        1427391152.6918311     
   1694520008.6612484        8308658.3495399952        1351438245.5122843     
   1571301053.2008381        2354872.2273653150        1326995726.4838591     
   1453254168.1396973        13641320.769419789        1333204939.2366009     
   1340379353.4778256        42168003.975704551        1370065883.7705035     
   1232676609.2152209        87934921.846220851        1437578560.0855720     
   1124469632.4115388        3975993.5532012582        1403646790.9583039     
   1071053988.9104921        8625900.8429293036        1381028497.1955280     
   1021086392.3423214        24769297.908910453        1379006320.8329690     
   974566842.70702469        52406184.751135796        1397580261.8706200     
   931495340.00459945        91536561.369609594        1436750320.3084927     
   559629629.53050792        1206440.7674624324        1452885132.0766857     
   547286971.18611789        7840943.4282903075        1430079702.8687623     
   536668336.30820465        20222190.977376312        1417814776.6801057     
   527773724.89677280        38350183.414731756        1416090353.5107169     
   520603136.95181924        62224920.740350768        1424906433.3605926     
   1.8158826091148585E-002  -7.6701923201139615E-003   1499153268.8674226     
   2.7710160173769930E-002  -1.6567882596987250E-002   1474149343.5035601     
   3.7347963549655361E-002  -2.5175260228142440E-002   1449630306.7780147     
   4.7068976463701645E-002  -3.3504231898009176E-002   1425596158.6907854     
   5.6873919493352666E-002  -4.1557599852202469E-002   1402046899.2418771     
   5.9528847053201472E-003   1.7858654115960441E-003   689949111.18299329     
   6.6083699867580913E-003  -4.3815683682012869E-004   850787843.76919413     
   7.4947088370578676E-003  -1.8932743422467859E-003   1022916844.6157343     
   8.6116124533550682E-003  -2.5793655787261331E-003   1206336113.7226138     
   9.9591008516898023E-003  -2.4968408750803721E-003   1401045651.0898328     
  -959519666.92553627       -287855900.07766086        699550921.29538620     
  -927420216.35132384       -228748347.97621647        866847269.19598949     
  -895618587.09009957       -170633533.58473372        1033905029.5612197     
  -864114779.14186454       -113511456.90321377        1200724202.3910775     
  -832908792.50661778       -57382117.931655824        1367304787.6855617     
  -1883622841.5388334       -565086852.46165001        728356351.63469613     
  -1852363528.3788126       -456753624.65286160        901762856.65094554     
  -1821699857.8450000       -350405872.26476622        1063401918.3361102     
  -1791631829.9373949       -246043595.29736412        1213273536.6901903     
  -1762159444.6559982       -143666793.75065541        1351377711.7131855     
  -2772309523.8339381       -831692857.15018141        776365402.20092285     
  -2774829936.0758581       -684015830.03037393        955534606.13406324     
  -2778243812.2572060       -539317016.04199028        1111407510.9404063     
  -2782551152.3779802       -397596415.18503124        1243984116.6199527     
  -2787751956.4381828       -258854027.45949614        1353264423.1727014     
  -3625579713.8108506       -1087673914.1432552        843578072.99406672     
  -3694819439.4424601       -910534964.10875309        1028162517.6453419     
  -3765250450.3267179       -737366964.91640604        1177921807.3741078     
  -3836872746.4636207       -568169916.56621432        1292855942.1803644     
  -3909686327.8531699       -402943819.05817795        1372964922.0641119     
   9.9591008516898023E-003  -2.4968408750803721E-003   1401045651.0898328     
   1.1137971268725290E-002  -1.6165697443674457E-003   1457111091.2480435     
   1.2646317143666192E-002   3.6273353826105168E-004   1506673897.2513237     
   1.4482361338094399E-002   3.4346681291221970E-003   1549734069.0996730     
   1.6649136282086186E-002   7.6076507730811621E-003   1586291606.7930918     
  -832908792.50661778       -57382117.931655824        1367304787.6855617     
  -820989381.23403025       -16498512.638142616        1392555620.4629550     
  -815009353.74905467        4587146.6966629624        1424043187.1519089     
  -814968710.05169249        5874860.0727583170        1461767487.7524233     
  -820867450.14194441       -12635372.509860426        1505728522.2644989     
  -1762159444.6559982       -143666793.75065541        1351377711.7131855     
  -1701922427.6363113       -50980124.821800768        1338884656.0238273     
  -1653564178.1921792        2110652.1885372400        1345367702.3125226     
  -1617084696.3236024        15605537.280356467        1370826850.5792708     
  -1592483982.0305810       -10495469.546342194        1415262100.8240697     
  -2787751956.4381828       -258854027.45949614        1353264423.1727014     
  -2642799139.1957054       -103444836.55259371        1296098197.9306612     
  -2515664473.3167267       -7429483.5240157843        1270647442.7331650     
  -2406347958.8012447        29192031.626236320        1276912157.5802124     
  -2314849595.6492605        6419708.8981635571        1314892342.4718037     
  -3909686327.8531699       -402943819.05817795        1372964922.0641119     
  -3643619515.9122138       -173892647.83052015        1264196246.1834559     
  -3401310239.1226969       -24033260.440994978        1199882408.4138355     
  -3182758497.4846206        46634343.110397220        1180023408.7552509     
  -2987964290.9979839        38110162.823656201        1204619247.2077010     
   1.6649136282086186E-002   7.6076507730811621E-003   1586291606.7930918     
   1.8993277646621315E-002   1.0344266652042675E-002   1523748989.3089159     
   2.0024824289597554E-002   8.7048729030841619E-003   1488378393.8265791     
   1.9748534309691868E-002   2.7061972168668292E-003   1480179820.3460824     
   1.8158826091148585E-002  -7.6701923201139615E-003   1499153268.8674226     
  -820867450.14194441       -12635372.509860426        1505728522.2644989     
  -757786501.88087630       -17206495.910306185        1458907686.2366920     
  -693219882.35300326       -16825381.754734546        1434493509.1914144     
  -627167591.55832314       -11492030.043139786        1432485991.1286666     
  -559629629.49683905       -1206440.7755309939        1452885132.0484474     
  -1592483982.0305810       -10495469.546342194        1415262100.8240697     
  -1479937408.4231024       -23722313.223663628        1385896329.3987684     
  -1364419492.2807009       -27044681.784576535        1374171853.9366863     
  -1245930233.6033762       -20462575.229079247        1380088674.4378240     
  -1124469632.3911300       -3975993.5571772456        1403646790.9021802     
  -2314849595.6492605        6419708.8981635571        1314892342.4718037     
  -2166452719.6076837       -19547451.929726720        1304714918.7951424     
  -2013598829.7630677       -30657900.080818415        1307413428.0623920     
  -1856287926.1154125       -26911635.555113792        1322987870.2735515     
  -1694520008.6647177       -8308658.3526136875        1351438245.4286220     
  -2987964290.9979839        38110162.823656201        1204619247.2077010     
  -2817332435.4346218       -4681912.0284973383        1215363454.4258173     
  -2640757894.8001046       -27665036.643462539        1234218231.5685337     
  -2458240669.0944295       -30839211.021241069        1261183578.6358516     
  -2269780758.3176017       -14204435.161839128        1296259495.6277680     
   1.8158826091148585E-002  -7.6701923201139615E-003   1499153268.8674226     
   2.7710160173769930E-002  -1.6567882596987250E-002   1474149343.5035601     
   3.7347963549655361E-002  -2.5175260228142440E-002   1449630306.7780147     
   4.7068976463701645E-002  -3.3504231898009176E-002   1425596158.6907854     
   5.6873919493352666E-002  -4.1557599852202469E-002   1402046899.2418771     
  -559629629.49683905       -1206440.7755309939        1452885132.0484474     
  -547286971.13461351       -7840943.4568567276        1430079702.8355837     
  -536668336.24083507       -20222191.033004016        1417814776.6416361     
  -527773724.81550521       -38350183.503984794        1416090353.4666021     
  -520603136.85862452       -62224920.869789749        1424906433.3104851     
  -1124469632.3911300       -3975993.5571772456        1403646790.9021802     
  -1071053988.8745242       -8625900.8704212904        1381028497.1270282     
  -1021086392.2948992       -24769297.973601937        1379006320.7513893     
  -974566842.65225220       -52406184.866712093        1397580261.7752638     
  -931495339.94658959       -91536561.549761921        1436750320.1986477     
  -1694520008.6647177       -8308658.3526136875        1351438245.4286220     
  -1571301053.1920242       -2354872.2572661638        1326995726.3778939     
  -1453254168.1248431       -13641320.846957982        1333204939.1072772     
  -1340379353.4631746       -42168004.121694565        1370065883.6167705     
  -1232676609.2070189       -87934922.081473351        1437578559.9063754     
  -2269780758.3176017       -14204435.161839128        1296259495.6277680     
  -2048028164.0871119        10972142.382616162        1267981390.5881784     
  -1833171663.7306693        13161740.346916199        1280410631.7092957     
  -1625211257.2482688       -7635641.2689265609        1333547218.9911222     
  -1424146944.6399150       -51420002.464924812        1427391152.4336529     
  -3625579713.8108506       -1087673914.1432552        843578072.99406672     
  -3694819439.4424601       -910534964.10875309        1028162517.6453419     
  -3765250450.3267179       -737366964.91640604        1177921807.3741078     
  -3836872746.4636207       -568169916.56621432        1292855942.1803644     
  -3909686327.8531699       -402943819.05817795        1372964922.0641119     
  -4759421762.4981375       -1427826528.7494414        993098661.59025466     
  -4734164775.8637209       -910812969.55740857        973856264.58013415     
  -4753975666.4653254       -544025667.81878924        983696199.04542232     
  -4818854434.3029585       -327464623.53358555        1022618464.9861187     
  -4928801079.3766117       -261129836.70179605        1090623062.4022231     
  -6489824020.9243660       -1946947206.2773097        1288031465.5656137     
  -6187477503.7441559       -1035281192.4438167        1013772869.5801574     
  -5974075455.7833471       -420096742.67499638        832504091.46802688     
  -5849617877.0419416       -101393856.97085166        744225131.22922218     
  -5814104767.5199375       -79172535.331378222        748935988.86374307     
  -8816786489.0895367       -2645035946.7268610        1728376484.9201446     
  -8054757623.0837679       -1283939632.7679777        1147912332.6454110     
  -7425549818.2807808       -365580189.48502779        724345484.64192140     
  -6929163074.6805735        110042383.12198925        457675940.90967476     
  -6565597392.2831469        142928085.05307388        347903701.44867080     
  -11740309166.993647       -3522092750.0980940        2314133719.6538463     
  -10336005133.882557       -1656788290.5298924        1376274653.7758951     
  -9108398753.9576283       -380476008.24888277        659220378.56710541     
  -8057490027.2188568        306844096.74493361        162970894.02747661     
  -7183278953.6662407        405172024.45155907       -112473799.84299205     
  -3909686327.8531699       -402943819.05817795        1372964922.0641119     
  -3643619515.9122138       -173892647.83052015        1264196246.1834559     
  -3401310239.1226969       -24033260.440994978        1199882408.4138355     
  -3182758497.4846206        46634343.110397220        1180023408.7552509     
  -2987964290.9979839        38110162.823656201        1204619247.2077010     
  -4928801079.3766117       -261129836.70179605        1090623062.4022231     
  -4602035728.1963806       -145228198.75392914        1001740088.6543707     
  -4283903652.1494150       -58104144.583614588        941204891.58256912     
  -3974404851.2357159        242325.80914711952        909017471.18681824     
  -3673539325.4552808        29811212.424359560        905177827.46711838     
  -5814104767.5199375       -79172535.331378222        748935988.86374307     
  -5472661052.6289597       -90226483.321862936        697583687.26989758     
  -5124726352.8530741       -79643815.029316425        658472100.91711831     
  -4770300668.1922789       -47424530.453741074        631601229.80540502     
  -4409383998.6465740        6431370.4048638344        616971073.93475688     
  -6565597392.2831469        142928085.05307388        347903701.44867080     
  -6255495489.2099495       -8887501.5343167782        351727042.03003561     
  -5923778341.2336712       -88652271.778100014        351684036.41748208     
  -5570445948.3543062       -96366225.678267479        347774684.61101025     
  -5195498310.5718613       -32029363.234828711        339998986.61061829     
  -7183278953.6662407        405172024.45155907       -112473799.84299205     
  -6950539037.9393539        98788746.608701229       -35829847.065212913     
  -6681059617.2912083       -85129514.829965115        20840698.083661325     
  -6374840691.7218046       -146582759.86443686        57537835.603633150     
  -6031882261.2311449       -85570988.494724035        74261565.494701311     
  -2987964290.9979839        38110162.823656201        1204619247.2077010     
  -2817332435.4346218       -4681912.0284973383        1215363454.4258173     
  -2640757894.8001046       -27665036.643462539        1234218231.5685337     
  -2458240669.0944295       -30839211.021241069        1261183578.6358516     
  -2269780758.3176017       -14204435.161839128        1296259495.6277680     
  -3673539325.4552808        29811212.424359560        905177827.46711838     
  -3467287981.3179979        17961663.877423525        903836100.04598904     
  -3260997327.3238459        6243148.1867206097        914642826.30207121     
  -3054667363.4728270       -5344334.6477557421        937598006.23536539     
  -2848298089.7649355       -16800784.625999928        972701639.84587026     
  -4409383998.6465740        6431370.4048638344        616971073.93475688     
  -4155976355.2136269        28985391.379668236        596656140.79104841     
  -3908432777.1380944        31992527.829752922        592527545.07716215     
  -3666753264.4199791        15452779.755109787        604585286.79309821     
  -3430937817.0592866       -20633852.844264269        632829365.93885481     
  -5195498310.5718613       -32029363.234828711        339998986.61061829     
  -4883397557.1215010        28389270.478244305        293823576.66099465     
  -4583064244.2428455        49583102.285633564        267872387.89380476     
  -4294498371.9358935        31552132.187347651        262145420.30904725     
  -4017699940.2006488       -25703639.816629410        276642673.90672344     
  -6031882261.2311449       -85570988.494724035        74261565.494701311     
  -5649551587.0416298        16173301.173135757       -4661592.3441700097     
  -5284891728.6381035        59014871.554362535       -59322645.247998364     
  -4937902686.0205698        42953722.648948431       -89721593.216784015     
  -4608584459.1890287       -32010145.543106794       -95858436.250523895     
  -2269780758.3176017       -14204435.161839128        1296259495.6277680     
  -2048028164.0871119        10972142.382616162        1267981390.5881784     
  -1833171663.7306693        13161740.346916199        1280410631.7092957     
  -1625211257.2482688       -7635641.2689265609        1333547218.9911222     
  -1424146944.6399150       -51420002.464924812        1427391152.4336529     
  -2848298089.7649355       -16800784.625999928        972701639.84587026     
  -2538520263.0186381        2480469.1084169149        932654223.86888790     
  -2228969567.3592257        21004619.219883084        920971638.39182973     
  -1919646002.7867033        38771665.708382845        937653883.41469145     
  -1610549569.3010700        55781608.573922992        982700958.93747985     
  -3430937817.0592866       -20633852.844264269        632829365.93885481     
  -3068399088.2565651       -17827222.057702065        588793095.60949922     
  -2699418527.7535686        6452181.0631040335        560779140.11928093     
  -2323996135.5503063        52204356.518144131        548787499.46819949     
  -1942131911.6467702        119429304.30741394        552818173.65626025     
  -4017699940.2006488       -25703639.816629410        276642673.90672344     
  -3637664639.8008885       -49950931.115731955        236398005.81001350     
  -3244518544.9137039       -30495574.123414040        199833136.89165333     
  -2838261655.5390849        32662431.160339832        166948067.15164959     
  -2418893971.6770391        139523084.73552763        137742796.58999556     
  -4608584459.1890287       -32010145.543106794       -95858436.250523895     
  -4246316917.6516151       -93890658.065690756       -124531045.52957621     
  -3864269618.8396177       -89838646.339659214       -161866371.29105356     
  -3462442562.7530303       -19854110.364996195       -207864413.53497142     
  -3040835749.3918581        116062949.85828280       -262525172.26131439     
 </DataArray>
 <DataArray  type="Float64" Name="VM" NumberOfComponents="1" format="ascii">
   11178335452.702007     
   9906350138.0795937     
   8996992674.0371990     
   8220059040.1956911     
   7396761158.6332283     
   8388866298.6251173     
   7754927915.3812475     
   7357433942.0925770     
   7029673794.6911669     
   6665509490.9313087     
   6184670538.4074373     
   6002842011.2216206     
   5952777366.2353649     
   5941111667.1060686     
   5918824247.1828718     
   4566605994.6626329     
   4666384658.9027004     
   4817980740.2990541     
   4988770626.1433077     
   5161645846.3780651     
   3538260338.3696318     
   3779928149.2353458     
   4013346365.6724472     
   4228338127.4675026     
   4419018555.6324444     
   7396761158.6332283     
   7000731283.7690954     
   6639002356.0776014     
   6303615662.0824099     
   5990936172.2407036     
   6665509490.9313087     
   6280672162.5484343     
   5911420949.1433353     
   5555645179.0057774     
   5212927968.5221119     
   5918824247.1828718     
   5560957638.4033766     
   5211695222.6702185     
   4871195810.2635574     
   4540157145.9249821     
   5161645846.3780651     
   4852002507.1624689     
   4556741596.6952610     
   4275019926.2400150     
   4007908836.6717334     
   4419018555.6324444     
   4179375507.3059669     
   3975788946.5698352     
   3802356901.0213695     
   3660133520.3370194     
   5990936172.2407036     
   5657661336.7048225     
   5315638068.3622885     
   4961953159.2345943     
   4595663219.5346193     
   5212927968.5221119     
   4924023824.8795443     
   4631354633.6293488     
   4334209622.0533342     
   4033472137.1771436     
   4540157145.9249821     
   4296677538.5137796     
   4056498196.0315590     
   3820804879.5973530     
   3591989088.7079673     
   4007908836.6717334     
   3812537988.6847072     
   3628252462.8709288     
   3457161576.0157542     
   3302071482.0238652     
   3660133520.3370194     
   3515041742.0915856     
   3386915245.3202825     
   3277169525.5105829     
   3187590240.9048457     
   4595663219.5346193     
   4205693435.7297034     
   3830416698.5709810     
   3471279564.2210865     
   3133662302.9511752     
   4033472137.1771436     
   3636075692.6649876     
   3247874221.7783303     
   2869340613.6810999     
   2502983324.0480886     
   3591989088.7079673     
   3225014987.7370305     
   2871887687.2197886     
   2535450495.4676843     
   2221465953.8796391     
   3302071482.0238652     
   3009970050.3374114     
   2749569322.6743779     
   2529536777.2658753     
   2363032812.7836204     
   3187590240.9048457     
   3006716053.6230931     
   2881522769.0242906     
   2822056867.1294308     
   2840764933.2103848     
   3538260338.3696318     
   3779928149.2353458     
   4013346365.6724472     
   4228338127.4675026     
   4419018555.6324444     
   2807121798.0416055     
   3001444715.2291236     
   3196377219.2403355     
   3381838391.9139481     
   3551185626.5018501     
   2096295919.5169311     
   2287647155.5070448     
   2489078391.5995884     
   2691795042.8155007     
   2889869792.5288663     
   1481705128.4051504     
   1718883587.2151811     
   1971117632.8570070     
   2233093841.6324916     
   2501560081.4038954     
   1195026915.2059326     
   1473607771.8702164     
   1771743946.7924905     
   2089435439.9727542     
   2426682251.4110084     
   4419018555.6324444     
   4179375507.3059669     
   3975788946.5698352     
   3802356901.0213695     
   3660133520.3370194     
   3551185626.5018501     
   3429477484.3258333     
   3339695738.0960712     
   3279195455.2740521     
   3249654772.5375257     
   2889869792.5288663     
   2861854481.1938620     
   2857938384.3054795     
   2877141061.2466636     
   2920325660.4325886     
   2501560081.4038954     
   2545267005.5700712     
   2598402750.2993307     
   2660693312.7101049     
   2732263934.1194830     
   2426682251.4110084     
   2523790442.3137417     
   2609635740.4771028     
   2684218145.9010911     
   2747537658.5857067     
   3660133520.3370194     
   3515041742.0915856     
   3386915245.3202825     
   3277169525.5105829     
   3187590240.9048457     
   3249654772.5375257     
   3123842812.4633975     
   3020227981.1822147     
   2940657081.6377745     
   2887307378.8632941     
   2920325660.4325886     
   2813857823.3395128     
   2736880802.5726542     
   2690947820.2284846     
   2677806904.9193726     
   2732263934.1194830     
   2635665476.9894128     
   2577302483.8983154     
   2557794395.6495981     
   2577816370.2592354     
   2747537658.5857067     
   2639210667.4647684     
   2577946998.9953947     
   2563746653.1775875     
   2596609630.0113416     
   3187590240.9048457     
   3006716053.6230931     
   2881522769.0242906     
   2822056867.1294308     
   2840764933.2103848     
   2887307378.8632941     
   2783531085.9269261     
   2724814798.5863652     
   2715348119.0260072     
   2760203833.2968364     
   2677806904.9193726     
   2619105071.9700189     
   2592858392.6614156     
   2600220254.9407091     
   2642640928.8591380     
   2577816370.2592354     
   2535877980.6440668     
   2511606150.1622386     
   2505136980.2919784     
   2516660507.4042916     
   2596609630.0113416     
   2553301560.8924718     
   2510833343.5311794     
   2469204977.9274640     
   2428416464.0813336     
   1195026915.2059326     
   1473607771.8702164     
   1771743946.7924905     
   2089435439.9727542     
   2426682251.4110084     
   1481705128.3966777     
   1718883587.2060990     
   1971117632.8472860     
   2233093841.6221471     
   2501560081.3929701     
   2096295919.5069788     
   2287647155.4952626     
   2489078391.5859509     
   2691795042.8000360     
   2889869792.5116391     
   2807121798.0338302     
   3001444715.2190180     
   3196377219.2278023     
   3381838391.8989573     
   3551185626.4844332     
   3538260338.3661013     
   3779928149.2295303     
   4013346365.6642561     
   4228338127.4569283     
   4419018555.6195660     
   2426682251.4110084     
   2523790442.3137417     
   2609635740.4771028     
   2684218145.9010911     
   2747537658.5857067     
   2501560081.3929701     
   2545267005.5585785     
   2598402750.2870617     
   2660693312.6968083     
   2732263934.1047807     
   2889869792.5116391     
   2861854481.1762404     
   2857938384.2871165     
   2877141061.2271037     
   2920325660.4110804     
   3551185626.4844332     
   3429477484.3093576     
   3339695738.0800261     
   3279195455.2577219     
   3249654772.5196815     
   4419018555.6195660     
   4179375507.2965093     
   3975788946.5631623     
   3802356901.0165548     
   3660133520.3323498     
   2747537658.5857067     
   2639210667.4647684     
   2577946998.9953947     
   2563746653.1775875     
   2596609630.0113416     
   2732263934.1047807     
   2635665476.9659905     
   2577302483.8650661     
   2557794395.6055074     
   2577816370.2033157     
   2920325660.4110804     
   2813857823.3030324     
   2736880802.5185018     
   2690947820.1539555     
   2677806904.8217325     
   3249654772.5196815     
   3123842812.4279494     
   3020227981.1246696     
   2940657081.5533686     
   2887307378.7469544     
   3660133520.3323498     
   3515041742.0702205     
   3386915245.2761321     
   3277169525.4370413     
   3187590240.7946739     
   2596609630.0113416     
   2553301560.8924718     
   2510833343.5311794     
   2469204977.9274640     
   2428416464.0813336     
   2577816370.2033157     
   2535877980.5739050     
   2511606150.0774703     
   2505136980.1926327     
   2516660507.2908669     
   2677806904.8217325     
   2619105071.8414812     
   2592858392.5006828     
   2600220254.7476449     
   2642640928.6350236     
   2887307378.7469544     
   2783531085.7619896     
   2724814798.3683634     
   2715348118.7524195     
   2760203832.9682789     
   3187590240.7946739     
   3006716053.4470582     
   2881522768.7710485     
   2822056866.7896090     
   2840764932.7803440     
   3538260338.3661013     
   3779928149.2295303     
   4013346365.6642561     
   4228338127.4569283     
   4419018555.6195660     
   4566605994.6634722     
   4666384658.9035263     
   4817980740.2994328     
   4988770626.1429586     
   5161645846.3766689     
   6184670538.4110126     
   6002842011.2279081     
   5952777366.2436714     
   5941111667.1158962     
   5918824247.1936941     
   8388866298.6297655     
   7754927915.3915730     
   7357433942.1077690     
   7029673794.7106276     
   6665509490.9545918     
   11178335452.706137     
   9906350138.0926342     
   8996992674.0583401     
   8220059040.2242355     
   7396761158.6689157     
   4419018555.6195660     
   4179375507.2965093     
   3975788946.5631623     
   3802356901.0165548     
   3660133520.3323498     
   5161645846.3766689     
   4852002507.1669035     
   4556741596.7055883     
   4275019926.2562366     
   4007908836.6936831     
   5918824247.1936941     
   5560957638.4197092     
   5211695222.6924496     
   4871195810.2921066     
   4540157145.9603615     
   6665509490.9545918     
   6280672162.5743914     
   5911420949.1722860     
   5555645179.0381241     
   5212927968.5583401     
   7396761158.6689157     
   7000731283.8024616     
   6639002356.1085062     
   6303615662.1109734     
   5990936172.2671318     
   3660133520.3323498     
   3515041742.0702205     
   3386915245.2761321     
   3277169525.4370413     
   3187590240.7946739     
   4007908836.6936831     
   3812537988.7008567     
   3628252462.8781075     
   3457161576.0100770     
   3302071482.0007119     
   4540157145.9603615     
   4296677538.5476265     
   4056498196.0630956     
   3820804879.6252632     
   3591989088.7305655     
   5212927968.5583401     
   4924023824.9104786     
   4631354633.6553869     
   4334209622.0743990     
   4033472137.1930528     
   5990936172.2671318     
   5657661336.7146120     
   5315638068.3558550     
   4961953159.2115479     
   4595663219.4941311     
   3187590240.7946739     
   3006716053.4470582     
   2881522768.7710485     
   2822056866.7896090     
   2840764932.7803440     
   3302071482.0007119     
   3009970050.2626524     
   2749569322.5346451     
   2529536777.0450001     
   2363032812.4646378     
   3591989088.7305655     
   3225014987.7270746     
   2871887687.1675606     
   2535450495.3591514     
   2221465953.6934662     
   4033472137.1930528     
   3636075692.6644258     
   3247874221.7562432     
   2869340613.6303973     
   2502983323.9563322     
   4595663219.4941311     
   4205693435.6838951     
   3830416698.5172515     
   3471279564.1566401     
   3133662302.8703632     
 </DataArray>
 <DataArray  type="Float64" Name="strain" NumberOfComponents="3" format="ascii">
  0.17806135569927603        0.0000000000000000       0.10027912785186549     
  0.16398281077848353       -2.4066887493852725E-002   5.9638568330382544E-002
  0.14990426585769107       -3.9200726965525526E-002   2.8566216404623271E-002
  0.13582572093689857       -4.5401518415018396E-002   7.0620720745876928E-003
  0.12174717601610609       -4.2669261842331357E-002  -4.8738646597241836E-003
  0.13372126175104065        0.0000000000000000        7.4896314346791948E-002
  0.12782626222067739       -1.8874794235913255E-002   4.9742867748137222E-002
  0.12193126269031410       -3.1034745933244227E-002   3.1388304334617180E-002
  0.11603626315995080       -3.6479855091992940E-002   1.9832624106231860E-002
  0.11014126362958754       -3.5210121712159349E-002   1.5075827062981273E-002
   9.8428997650546912E-002   0.0000000000000000        5.5814696841456707E-002
   9.7948219100023826E-002  -1.3682700977973784E-002   4.3930157682032546E-002
   9.7467440549500781E-002  -2.2868764900962939E-002   3.6075177297154079E-002
   9.6986661998977722E-002  -2.7558191768967462E-002   3.2249755686821389E-002
   9.6505883448454635E-002  -2.7750981581987341E-002   3.2453892851034408E-002
   7.2184563397794749E-002   0.0000000000000000        4.3034275335859754E-002
   7.4348681416522927E-002  -8.4906077200343159E-003   4.2200438132068509E-002
   7.6512799435251105E-002  -1.4702783868681646E-002   4.2626835292234017E-002
   7.8676917453979270E-002  -1.8636528445941988E-002   4.4313466816356263E-002
   8.0841035472707462E-002  -2.0291841451815347E-002   4.7260332704435276E-002
   5.4987958992784206E-002   0.0000000000000000        3.6555049830001088E-002
   5.7027649170174638E-002  -3.2985144620948457E-003   4.4553709098245124E-002
   5.9067339347565070E-002  -6.5368028364003513E-003   5.1043278319856930E-002
   6.1107029524955503E-002  -9.7148651229165186E-003   5.6023757494836485E-002
   6.3146719702345935E-002  -1.2832701321643337E-002   5.9495146623183809E-002
  0.12174717601610609       -4.2669261842331357E-002  -4.8738646597241836E-003
  0.11633626103148993       -3.6399174299623402E-002  -1.5526267060746793E-003
  0.11092534604687376       -3.1986472839053502E-002   9.0309691688527163E-004
  0.10551443106225761       -2.9431157460621721E-002   2.4933062091559433E-003
  0.10010351607764145       -2.8733228164327995E-002   3.2180011707370615E-003
  0.11014126362958754       -3.5210121712159349E-002   1.5075827062981273E-002
  0.10421382064539220       -3.1129352420305231E-002   1.5241505154787064E-002
   9.8286377661196855E-002  -2.8141353842992288E-002   1.5239641578123967E-002
   9.2358934677001528E-002  -2.6246125980220449E-002   1.5070236332992003E-002
   8.6431491692806200E-002  -2.5443668831989869E-002   1.4733289419391116E-002
   9.6505883448454635E-002  -2.7750981581987341E-002   3.2453892851034408E-002
   9.0759885126900683E-002  -2.5859530540987045E-002   3.0228626448593442E-002
   8.5013886805346731E-002  -2.4296234846931008E-002   2.8533791039904156E-002
   7.9267888483792792E-002  -2.3061094499819232E-002   2.7369386624966560E-002
   7.3521890162238812E-002  -2.2154109499651631E-002   2.6735413203780534E-002
   8.0841035472707462E-002  -2.0291841451815347E-002   4.7260332704435276E-002
   7.5974454476015418E-002  -2.0589708661668853E-002   4.3408737175344499E-002
   7.1107873479323375E-002  -2.0451115850869735E-002   4.0785545302225897E-002
   6.6241292482631331E-002  -1.9876063019417960E-002   3.9390757085079477E-002
   6.1374711485939315E-002  -1.8864550167313476E-002   3.9224372523905295E-002
   6.3146719702345935E-002  -1.2832701321643337E-002   5.9495146623183809E-002
   5.9857528692736361E-002  -1.5319886782350696E-002   5.4781837335040148E-002
   5.6568337683126801E-002  -1.6605996854808472E-002   5.1994904365089190E-002
   5.3279146673517228E-002  -1.6691031539016694E-002   5.1134347713330988E-002
   4.9989955663907654E-002  -1.5574990834975322E-002   5.2200167379765489E-002
  0.10010351607764145       -2.8733228164327995E-002   3.2180011707370615E-003
   9.4240059623108607E-002  -2.8517312954518814E-002  -2.0200233516076693E-004
   8.8376603168575735E-002  -2.7408039835540826E-002  -2.5706479608160748E-003
   8.2513146714042862E-002  -2.5405408807393608E-002  -3.8879357062284181E-003
   7.6649690259510017E-002  -2.2509419870077485E-002  -4.1538655713981854E-003
   8.6431491692806200E-002  -2.5443668831989869E-002   1.4733289419391116E-002
   8.1531905637253876E-002  -2.4890142293265555E-002   1.2732354988847450E-002
   7.6632319581701511E-002  -2.3741706259012875E-002   1.1607803476022333E-002
   7.1732733526149173E-002  -2.1998360729231843E-002   1.1359634880915397E-002
   6.6833147470596849E-002  -1.9660105703922293E-002   1.1987849203526829E-002
   7.3521890162238812E-002  -2.2154109499651631E-002   2.6735413203780534E-002
   6.9411199543142565E-002  -2.1262971632012323E-002   2.5855099434950755E-002
   6.5300508924046319E-002  -2.0075372682485146E-002   2.5676193621314944E-002
   6.1189818304950058E-002  -1.8591312651070054E-002   2.6198695762872905E-002
   5.7079127685853798E-002  -1.6810791537767100E-002   2.7422605859624666E-002
   6.1374711485939315E-002  -1.8864550167313476E-002   3.9224372523905295E-002
   5.7877941340774723E-002  -1.7635800970759036E-002   3.9166231003148769E-002
   5.4381171195610117E-002  -1.6409039105957361E-002   3.9634522475061704E-002
   5.0884401050445525E-002  -1.5184264572908222E-002   4.0629246939644044E-002
   4.7387630905280941E-002  -1.3961477371611908E-002   4.2150404396895901E-002
   4.9989955663907654E-002  -1.5574990834975322E-002   5.2200167379765489E-002
   4.6932131030150294E-002  -1.4008630309505783E-002   5.2665749693441642E-002
   4.3874306396392948E-002  -1.2742705529429486E-002   5.3482790037262792E-002
   4.0816481762635602E-002  -1.1777216494746437E-002   5.4651288411229050E-002
   3.7758657128878242E-002  -1.1112163205456688E-002   5.6171244815340221E-002
   7.6649690259510017E-002  -2.2509419870077485E-002  -4.1538655713981854E-003
   7.0302495338013554E-002  -1.9666740287273610E-002  -5.3963453055960731E-003
   6.3955300416517064E-002  -1.7824037322663050E-002  -7.0142094206542549E-003
   5.7608105495020517E-002  -1.6981310976245508E-002  -9.0074579165726198E-003
   5.1260910573524110E-002  -1.7138561248021489E-002  -1.1376090793350890E-002
   6.6833147470596849E-002  -1.9660105703922293E-002   1.1987849203526829E-002
   6.0377989340892529E-002  -1.7355807680603297E-002   1.0243913587299897E-002
   5.3922831211188210E-002  -1.5714333156793853E-002   8.6594359355172124E-003
   4.7467673081483891E-002  -1.4735682132493828E-002   7.2344162481793248E-003
   4.1012514951779599E-002  -1.4419854607703120E-002   5.9688545252858383E-003
   5.7079127685853798E-002  -1.6810791537767100E-002   2.7422605859624666E-002
   5.1050848693246241E-002  -1.5044875073933123E-002   2.5514367480052730E-002
   4.5022569700638712E-002  -1.3604628990924753E-002   2.4300429410229654E-002
   3.8994290708031155E-002  -1.2490053288742062E-002   2.3780791650155751E-002
   3.2966011715423599E-002  -1.1701147967385084E-002   2.3955454199830861E-002
   4.7387630905280941E-002  -1.3961477371611908E-002   4.2150404396895901E-002
   4.2321073395074738E-002  -1.2733942467262824E-002   4.0415016372662600E-002
   3.7254515884868500E-002  -1.1494924825055715E-002   3.9908771003482890E-002
   3.2187958374662318E-002  -1.0244424444990340E-002   4.0631668289356764E-002
   2.7121400864456073E-002  -8.9824413270668813E-003   4.2583708230284165E-002
   3.7758657128878242E-002  -1.1112163205456688E-002   5.6171244815340221E-002
   3.4188663446377957E-002  -1.0423009860592608E-002   5.4945860265129293E-002
   3.0618669763877671E-002  -9.3852206591865731E-003   5.5484460715276726E-002
   2.7048676081377385E-002  -7.9987956012385775E-003   5.7787046165782306E-002
   2.3478682398877071E-002  -6.2637346867486787E-003   6.1853616616646012E-002
   5.4987958992784206E-002   0.0000000000000000        3.6555049830001088E-002
   5.7027649170174638E-002  -3.2985144620948457E-003   4.4553709098245124E-002
   5.9067339347565070E-002  -6.5368028364003513E-003   5.1043278319856930E-002
   6.1107029524955503E-002  -9.7148651229165186E-003   5.6023757494836485E-002
   6.3146719702345935E-002  -1.2832701321643337E-002   5.9495146623183809E-002
   4.2046694444886026E-002   0.0000000000000000        3.3642500762254494E-002
   4.2827086451216759E-002  -2.4738858465812212E-003   4.1406499599371309E-002
   4.3607478457547491E-002  -4.9026021273175201E-003   4.8160992141000974E-002
   4.4387870463878223E-002  -7.2861488422089025E-003   5.3905978387143505E-002
   4.5168262470208956E-002  -9.6245259912553557E-003   5.8641458337798831E-002
   2.8568279763470976E-002   0.0000000000000000        3.1562108570993730E-002
   2.8588957349887079E-002  -1.6492572310675951E-003   3.9076390455038940E-002
   2.8609634936303186E-002  -3.2684014182346897E-003   4.6080749794742047E-002
   2.8630312522719293E-002  -4.8574325615012839E-003   5.2575186590103053E-002
   2.8650990109135396E-002  -6.4163506608673751E-003   5.8559700841121970E-002
   1.4552714948539065E-002   0.0000000000000000        3.0313873256218801E-002
   1.4313261866185607E-002  -8.2462861555396977E-004   3.7563381665247961E-002
   1.4073808783832147E-002  -1.6342007091518589E-003   4.4802551281080086E-002
   1.3834355701478687E-002  -2.4287162807936700E-003   5.2031382103715204E-002
   1.3594902619125233E-002  -3.2081753304794010E-003   5.9249874133153295E-002
   9.0285418030688902E-014   0.0000000000000000        2.9897794817929708E-002
   1.1233028396340217E-013  -4.0344463880792603E-014   3.6867473229998414E-002
   1.3437818566219839E-013  -6.9028116556069108E-014   4.4326396600015153E-002
   1.5642370211621515E-013  -8.6047488578877562E-014   5.2274564927979932E-002
   1.7846921857023190E-013  -9.1409518843121873E-014   6.0711978213892751E-002
   6.3146719702345935E-002  -1.2832701321643337E-002   5.9495146623183809E-002
   5.9857528692736361E-002  -1.5319886782350696E-002   5.4781837335040148E-002
   5.6568337683126801E-002  -1.6605996854808472E-002   5.1994904365089190E-002
   5.3279146673517228E-002  -1.6691031539016694E-002   5.1134347713330988E-002
   4.9989955663907654E-002  -1.5574990834975322E-002   5.2200167379765489E-002
   4.5168262470208956E-002  -9.6245259912553557E-003   5.8641458337798831E-002
   4.3529428137345498E-002  -1.1489915086783684E-002   5.6164255243992357E-002
   4.1890593804482033E-002  -1.2454497641120672E-002   5.5061389185485365E-002
   4.0251759471618569E-002  -1.2518273654266323E-002   5.5332860162277876E-002
   3.8612925138755111E-002  -1.1681243126220632E-002   5.6978668174369800E-002
   2.8650990109135396E-002  -6.4163506608673751E-003   5.8559700841121970E-002
   2.8110473170124769E-002  -7.6599433912166622E-003   5.8018335094594489E-002
   2.7569956231114145E-002  -8.3029984274328381E-003   5.8299267100473243E-002
   2.7029439292103517E-002  -8.3455157695159245E-003   5.9402496858758189E-002
   2.6488922353092886E-002  -7.7874954174658867E-003   6.1328024369449334E-002
   1.3594902619125233E-002  -3.2081753304794010E-003   5.9249874133153295E-002
   1.3600663791074174E-002  -3.8299716956496452E-003   6.0344076886846565E-002
   1.3606424963023118E-002  -4.1514992137450142E-003   6.1708538110052807E-002
   1.3612186134972067E-002  -4.1727578847655118E-003   6.3343257802771960E-002
   1.3617947306921003E-002  -3.8937477087111760E-003   6.5248235965004023E-002
   1.7846921857023190E-013  -9.1409518843121873E-014   6.0711978213892751E-002
   1.9371570320059206E-013  -8.2632685416417218E-014   6.3141480620748550E-002
   2.0895828470313127E-013  -5.7186026747313434E-014   6.5289202214224032E-002
   2.2419934832262900E-013  -1.5167337871768716E-014   6.7155142994319170E-002
   2.3944735083603064E-013   4.3548498140921765E-014   6.8739302961033977E-002
   4.9989955663907654E-002  -1.5574990834975322E-002   5.2200167379765489E-002
   4.6932131030150294E-002  -1.4008630309505783E-002   5.2665749693441642E-002
   4.3874306396392948E-002  -1.2742705529429486E-002   5.3482790037262792E-002
   4.0816481762635602E-002  -1.1777216494746437E-002   5.4651288411229050E-002
   3.7758657128878242E-002  -1.1112163205456688E-002   5.6171244815340221E-002
   3.8612925138755111E-002  -1.1681243126220632E-002   5.6978668174369800E-002
   3.6009808067217951E-002  -1.0506472732110000E-002   5.6537646482384074E-002
   3.3406690995680777E-002  -9.5570291470608876E-003   5.6654581884693689E-002
   3.0803573924143617E-002  -8.8329123710732468E-003   5.7329474381298616E-002
   2.8200456852606443E-002  -8.3341224041472428E-003   5.8562323972198987E-002
   2.6488922353092886E-002  -7.7874954174658867E-003   6.1328024369449334E-002
   2.4547011907926235E-002  -7.0043151547141726E-003   6.0055507608133440E-002
   2.2605101462759600E-002  -6.3713527646922612E-003   5.9547447005263210E-002
   2.0663191017592945E-002  -5.8886082474000579E-003   5.9803842560838684E-002
   1.8721280572426308E-002  -5.5560816028376731E-003   6.0824694274859835E-002
   1.3617947306921003E-002  -3.8937477087111760E-003   6.5248235965004023E-002
   1.2543742552275210E-002  -3.5021575773183811E-003   6.3219333070689748E-002
   1.1469537797629416E-002  -3.1856763823236069E-003   6.2161385398971529E-002
   1.0395333042983615E-002  -2.9443041237268547E-003   6.2074392949849178E-002
   9.3211282883378203E-003  -2.7780408015281657E-003   6.2958355723323048E-002
   2.3944735083603064E-013   4.3548498140921765E-014   6.8739302961033977E-002
   2.6483329418347523E-013   7.7438055967604669E-014   6.6029122870053025E-002
   2.9022270697787178E-013   4.4957093603414933E-014   6.4496397065818431E-002
   3.1561125241053034E-013  -5.3639384600678852E-014   6.4141125548330236E-002
   3.4099806311971292E-013  -2.1863066912430895E-013   6.4963308317588314E-002
   3.7758657128878242E-002  -1.1112163205456688E-002   5.6171244815340221E-002
   3.4188663446377957E-002  -1.0423009860592608E-002   5.4945860265129293E-002
   3.0618669763877671E-002  -9.3852206591865731E-003   5.5484460715276726E-002
   2.7048676081377385E-002  -7.9987956012385775E-003   5.7787046165782306E-002
   2.3478682398877071E-002  -6.2637346867486787E-003   6.1853616616646012E-002
   2.8200456852606443E-002  -8.3341224041472428E-003   5.8562323972198987E-002
   2.6176576525543810E-002  -7.8172573955481023E-003   5.7503148147633895E-002
   2.4152696198481191E-002  -7.0389154945414908E-003   5.7772214033586039E-002
   2.2128815871418572E-002  -5.9990967011273860E-003   5.9369521630055148E-002
   2.0104935544355912E-002  -4.6978010153057581E-003   6.2295070937041452E-002
   1.8721280572426308E-002  -5.5560816028376731E-003   6.0824694274859835E-002
   1.7807770310960220E-002  -5.2115049305036382E-003   5.9844568211806219E-002
   1.6894260049494139E-002  -4.6926103298964329E-003   5.9756940569428652E-002
   1.5980749788028065E-002  -3.9993978010161935E-003   6.0561811347726868E-002
   1.5067239526561943E-002  -3.1318673438628375E-003   6.2259180546701348E-002
   9.3211282883378203E-003  -2.7780408015281657E-003   6.2958355723323048E-002
   9.0822448026271797E-003  -2.6057524654590838E-003   6.1970120457646369E-002
   8.8433613169165304E-003  -2.3463051652514184E-003   6.1438640322804584E-002
   8.6044778312058881E-003  -1.9996989009050015E-003   6.1363915318797736E-002
   8.3655943454952336E-003  -1.5659336724199169E-003   6.1745945445625679E-002
   3.4099806311971292E-013  -2.1863066912430895E-013   6.4963308317588314E-002
   5.4467541588110180E-013  -4.1468217748530378E-013   6.3879804885154268E-002
   7.4834236030163481E-013  -6.0632748821731752E-013   6.2817313293713969E-002
   9.5200410055173990E-013  -7.9374874728532774E-013   6.1775833543267371E-002
   1.1556866574835567E-012  -9.7699626167013776E-013   6.0755365633814673E-002
   9.0285418030688902E-014   0.0000000000000000        2.9897794817929708E-002
   1.1233028396340217E-013  -4.0344463880792603E-014   3.6867473229998414E-002
   1.3437818566219839E-013  -6.9028116556069108E-014   4.4326396600015153E-002
   1.5642370211621515E-013  -8.6047488578877562E-014   5.2274564927979932E-002
   1.7846921857023190E-013  -9.1409518843121873E-014   6.0711978213892751E-002
  -1.4552714948370633E-002   0.0000000000000000        3.0313873256133404E-002
  -1.4313261865974316E-002   8.2462861548634504E-004   3.7563381665159545E-002
  -1.4073808783577991E-002   1.6342007090382688E-003   4.4802551280986189E-002
  -1.3834355701181673E-002   2.4287162806557600E-003   5.2031382103613355E-002
  -1.3594902618785350E-002   3.2081753303388255E-003   5.9249874133041010E-002
  -2.8568279763338974E-002   0.0000000000000000        3.1562108570836835E-002
  -2.8588957349715900E-002   1.6492572310130372E-003   3.9076390454874307E-002
  -2.8609634936092837E-002   3.2684014181455640E-003   4.6080749794564779E-002
  -2.8630312522469763E-002   4.8574325613975735E-003   5.2575186589908250E-002
  -2.8650990108846693E-002   6.4163506607690674E-003   5.8559700840904706E-002
  -4.2046694444814729E-002   0.0000000000000000        3.3642500762039992E-002
  -4.2827086451112439E-002   2.4738858465397275E-003   4.1406499599142742E-002
  -4.3607478457410143E-002   4.9026021272528565E-003   4.8160992140750945E-002
  -4.4387870463707846E-002   7.2861488421393800E-003   5.3905978386864617E-002
  -4.5168262470005570E-002   9.6245259911993120E-003   5.8641458337483722E-002
  -5.4987958992797903E-002   0.0000000000000000        3.6555049829742892E-002
  -5.7027649170163910E-002   3.2985144620664188E-003   4.4553709097964814E-002
  -5.9067339347529932E-002   6.5368028363601560E-003   5.1043278319544673E-002
  -6.1107029524895939E-002   9.7148651228811961E-003   5.6023757494482455E-002
  -6.3146719702261947E-002   1.2832701321629551E-002   5.9495146622778182E-002
   1.7846921857023190E-013  -9.1409518843121873E-014   6.0711978213892751E-002
   1.9371570320059206E-013  -8.2632685416417218E-014   6.3141480620748550E-002
   2.0895828470313127E-013  -5.7186026747313434E-014   6.5289202214224032E-002
   2.2419934832262900E-013  -1.5167337871768716E-014   6.7155142994319170E-002
   2.3944735083603064E-013   4.3548498140921765E-014   6.8739302961033977E-002
  -1.3594902618785350E-002   3.2081753303388255E-003   5.9249874133041010E-002
  -1.3600663790709790E-002   3.8299716955344410E-003   6.0344076886728056E-002
  -1.3606424962634225E-002   4.1514992136896557E-003   6.1708538109916056E-002
  -1.3612186134558666E-002   4.1727578848044346E-003   6.3343257802605010E-002
  -1.3617947306483106E-002   3.8937477088787156E-003   6.5248235964794954E-002
  -2.8650990108846693E-002   6.4163506607690674E-003   5.8559700840904706E-002
  -2.8110473169829515E-002   7.6599433911515424E-003   5.8018335094365853E-002
  -2.7569956230812338E-002   8.3029984274365174E-003   5.8299267100209315E-002
  -2.7029439291795156E-002   8.3455157696239526E-003   5.9402496858435072E-002
  -2.6488922352777975E-002   7.7874954177138689E-003   6.1328024369043020E-002
  -4.5168262470005570E-002   9.6245259911993120E-003   5.8641458337483722E-002
  -4.3529428137165455E-002   1.1489915086768632E-002   5.6164255243661983E-002
  -4.1890593804325367E-002   1.2454497641183370E-002   5.5061389185103823E-002
  -4.0251759471485259E-002   1.2518273654443496E-002   5.5332860161809203E-002
  -3.8612925138645157E-002   1.1681243126549029E-002   5.6978668173778155E-002
  -6.3146719702261947E-002   1.2832701321629551E-002   5.9495146622778182E-002
  -5.9857528692717633E-002   1.5319886782385734E-002   5.4781837334616425E-002
  -5.6568337683173306E-002   1.6605996854930236E-002   5.1994904364599540E-002
  -5.3279146673628999E-002   1.6691031539263060E-002   5.1134347712727540E-002
  -4.9989955664084679E-002   1.5574990835384189E-002   5.2200167379000378E-002
   2.3944735083603064E-013   4.3548498140921765E-014   6.8739302961033977E-002
   2.6483329418347523E-013   7.7438055967604669E-014   6.6029122870053025E-002
   2.9022270697787178E-013   4.4957093603414933E-014   6.4496397065818431E-002
   3.1561125241053034E-013  -5.3639384600678852E-014   6.4141125548330236E-002
   3.4099806311971292E-013  -2.1863066912430895E-013   6.4963308317588314E-002
  -1.3617947306483106E-002   3.8937477088787156E-003   6.5248235964794954E-002
  -1.2543742551796407E-002   3.5021575775659453E-003   6.3219333070256650E-002
  -1.1469537797109713E-002   3.1856763825194399E-003   6.2161385398294619E-002
  -1.0395333042423021E-002   2.9443041237392866E-003   6.2074392948908888E-002
  -9.3211282877363293E-003   2.7780408012253455E-003   6.2958355722099388E-002
  -2.6488922352777975E-002   7.7874954177138689E-003   6.1328024369043020E-002
  -2.4547011907600058E-002   7.0043151550544525E-003   6.0055507607279963E-002
  -2.2605101462422131E-002   6.3713527649938949E-003   5.9547447003923074E-002
  -2.0663191017244207E-002   5.8886082475322265E-003   5.9803842558972378E-002
  -1.8721280572066283E-002   5.5560816026693632E-003   6.0824694272427808E-002
  -3.8612925138645157E-002   1.1681243126549029E-002   5.6978668173778155E-002
  -3.6009808067146098E-002   1.0506472732542974E-002   5.6537646481122840E-002
  -3.3406690995647033E-002   9.5570291474683638E-003   5.6654581882703656E-002
  -3.0803573924147974E-002   8.8329123713251669E-003   5.7329474378520567E-002
  -2.8200456852648895E-002   8.3341224041133602E-003   5.8562323968573617E-002
  -4.9989955664084679E-002   1.5574990835384189E-002   5.2200167379000378E-002
  -4.6932131030434546E-002   1.4008630310031488E-002   5.2665749691785411E-002
  -4.3874306396784427E-002   1.2742705529942812E-002   5.3482790034636463E-002
  -4.0816481763134287E-002   1.1777216495118129E-002   5.4651288407553573E-002
  -3.7758657129484167E-002   1.1112163205557357E-002   5.6171244810536619E-002
   3.4099806311971292E-013  -2.1863066912430895E-013   6.4963308317588314E-002
   5.4467541588110180E-013  -4.1468217748530378E-013   6.3879804885154268E-002
   7.4834236030163481E-013  -6.0632748821731752E-013   6.2817313293713969E-002
   9.5200410055173990E-013  -7.9374874728532774E-013   6.1775833543267371E-002
   1.1556866574835567E-012  -9.7699626167013776E-013   6.0755365633814673E-002
  -9.3211282877363293E-003   2.7780408012253455E-003   6.2958355722099388E-002
  -9.0822448016259424E-003   2.6057524647254554E-003   6.1970120456208630E-002
  -8.8433613155155643E-003   2.3463051639874416E-003   6.1438640321137571E-002
  -8.6044778294051636E-003   1.9996988990111132E-003   6.1363915316886092E-002
  -8.3655943432947924E-003   1.5659336697966264E-003   6.1745945443454353E-002
  -1.8721280572066283E-002   5.5560816026693632E-003   6.0824694272427808E-002
  -1.7807770310223299E-002   5.2115049298655999E-003   5.9844568208837892E-002
  -1.6894260048380311E-002   4.6926103285811309E-003   5.9756940565893535E-002
  -1.5980749786537310E-002   3.9993977988160593E-003   6.0561811343594764E-002
  -1.5067239524694350E-002   3.1318673405702491E-003   6.2259180541941406E-002
  -2.8200456852648895E-002   8.3341224041133602E-003   5.8562323968573617E-002
  -2.6176576525247408E-002   7.8172573950056855E-003   5.7503148143042068E-002
  -2.4152696197845928E-002   7.0389154931749156E-003   5.7772214027982008E-002
  -2.2128815870444438E-002   5.9990966986209638E-003   5.9369521623393394E-002
  -2.0104935543042948E-002   4.6978010113438717E-003   6.2295070929276268E-002
  -3.7758657129484167E-002   1.1112163205557357E-002   5.6171244810536619E-002
  -3.4188663446698277E-002   1.0423009860145827E-002   5.4945860258821061E-002
  -3.0618669763912403E-002   9.3852206577686170E-003   5.5484460707402816E-002
  -2.7048676081126516E-002   7.9987955984259021E-003   5.7787046156281968E-002
  -2.3478682398340625E-002   6.2637346821174944E-003   6.1853616605458295E-002
  -5.4987958992797903E-002   0.0000000000000000        3.6555049829742892E-002
  -5.7027649170163910E-002   3.2985144620664188E-003   4.4553709097964814E-002
  -5.9067339347529932E-002   6.5368028363601560E-003   5.1043278319544673E-002
  -6.1107029524895939E-002   9.7148651228811961E-003   5.6023757494482455E-002
  -6.3146719702261947E-002   1.2832701321629551E-002   5.9495146622778182E-002
  -7.2184563397888424E-002   0.0000000000000000        4.3034275335577701E-002
  -7.4348681416608303E-002   8.4906077200284612E-003   4.2200438131805816E-002
  -7.6512799435328141E-002   1.4702783868680139E-002   4.2626835291968299E-002
  -7.8676917454048034E-002   1.8636528445955029E-002   4.4313466816065142E-002
  -8.0841035472767886E-002   2.0291841451853126E-002   4.7260332704096339E-002
  -9.8428997650686217E-002   0.0000000000000000        5.5814696841176598E-002
  -9.7948219100183517E-002   1.3682700977990500E-002   4.3930157681806824E-002
  -9.7467440549680803E-002   2.2868764901000128E-002   3.6075177296947834E-002
  -9.6986661999178103E-002   2.7558191769028847E-002   3.2249755686599629E-002
  -9.6505883448675403E-002   2.7750981582076718E-002   3.2453892850762202E-002
 -0.13372126175119131        0.0000000000000000        7.4896314346539594E-002
 -0.12782626222088958        1.8874794235952543E-002   4.9742867747967809E-002
 -0.12193126269058788        3.1034745933320104E-002   3.1388304334483259E-002
 -0.11603626316028617        3.6479855092102692E-002   1.9832624106085908E-002
 -0.11014126362998448        3.5210121712300299E-002   1.5075827062775736E-002
 -0.17806135569940365        0.0000000000000000       0.10027912785166666     
 -0.16398281077872651        2.4066887493914585E-002   5.9638568330288785E-002
 -0.14990426585804939        3.9200726965640101E-002   2.8566216404574567E-002
 -0.13582572093737227        4.5401518415176506E-002   7.0620720745239868E-003
 -0.12174717601669514        4.2669261842523856E-002  -4.8738646598629892E-003
  -6.3146719702261947E-002   1.2832701321629551E-002   5.9495146622778182E-002
  -5.9857528692717633E-002   1.5319886782385734E-002   5.4781837334616425E-002
  -5.6568337683173306E-002   1.6605996854930236E-002   5.1994904364599540E-002
  -5.3279146673628999E-002   1.6691031539263060E-002   5.1134347712727540E-002
  -4.9989955664084679E-002   1.5574990835384189E-002   5.2200167379000378E-002
  -8.0841035472767886E-002   2.0291841451853126E-002   4.7260332704096339E-002
  -7.5974454476170031E-002   2.0589708661749750E-002   4.3408737175022728E-002
  -7.1107873479572176E-002   2.0451115851020163E-002   4.0785545301911329E-002
  -6.6241292482974334E-002   1.9876063019664363E-002   3.9390757084762126E-002
  -6.1374711486376479E-002   1.8864550167682397E-002   3.9224372523575128E-002
  -9.6505883448675403E-002   2.7750981582076718E-002   3.2453892850762202E-002
  -9.0759885127206688E-002   2.5859530541113750E-002   3.0228626448362231E-002
  -8.5013886805737987E-002   2.4296234847110097E-002   2.8533791039741793E-002
  -7.9267888484269272E-002   2.3061094500065708E-002   2.7369386624900887E-002
  -7.3521890162800557E-002   2.2154109499980604E-002   2.6735413203839466E-002
 -0.11014126362998448        3.5210121712300299E-002   1.5075827062775736E-002
 -0.10421382064582757        3.1129352420477801E-002   1.5241505154634877E-002
  -9.8286377661670685E-002   2.8141353843200021E-002   1.5239641578090889E-002
  -9.2358934677513771E-002   2.6246125980467074E-002   1.5070236333143777E-002
  -8.6431491693356871E-002   2.5443668832278825E-002   1.4733289419793459E-002
 -0.12174717601669514        4.2669261842523856E-002  -4.8738646598629892E-003
 -0.11633626103203273        3.6399174299841790E-002  -1.5526267061592262E-003
 -0.11092534604737031        3.1986472839289959E-002   9.0309691695865738E-004
 -0.10551443106270790        2.9431157460868412E-002   2.4933062094907700E-003
 -0.10010351607804546        2.8733228164576990E-002   3.2180011714370571E-003
  -4.9989955664084679E-002   1.5574990835384189E-002   5.2200167379000378E-002
  -4.6932131030434546E-002   1.4008630310031488E-002   5.2665749691785411E-002
  -4.3874306396784427E-002   1.2742705529942812E-002   5.3482790034636463E-002
  -4.0816481763134287E-002   1.1777216495118129E-002   5.4651288407553573E-002
  -3.7758657129484167E-002   1.1112163205557357E-002   5.6171244810536619E-002
  -6.1374711486376479E-002   1.8864550167682397E-002   3.9224372523575128E-002
  -5.7877941341353753E-002   1.7635800971213717E-002   3.9166231001992860E-002
  -5.4381171196331034E-002   1.6409039106397905E-002   3.9634522473089753E-002
  -5.0884401051308335E-002   1.5184264573234872E-002   4.0629246936865836E-002
  -4.7387630906285595E-002   1.3961477371724679E-002   4.2150404393321045E-002
  -7.3521890162800557E-002   2.2154109499980604E-002   2.6735413203839466E-002
  -6.9411199543792129E-002   2.1262971632395943E-002   2.5855099434278765E-002
  -6.5300508924783673E-002   2.0075372682853022E-002   2.5676193620010359E-002
  -6.1189818305775204E-002   1.8591312651351725E-002   2.6198695761034257E-002
  -5.7079127686766790E-002   1.6810791537892028E-002   2.7422605857350374E-002
  -8.6431491693356871E-002   2.5443668832278825E-002   1.4733289419793459E-002
  -8.1531905637749577E-002   2.4890142293578242E-002   1.2732354988643103E-002
  -7.6632319582142269E-002   2.3741706259308125E-002   1.1607803475398207E-002
  -7.1732733526534961E-002   2.1998360729468595E-002   1.1359634880058714E-002
  -6.6833147470927667E-002   1.9660105704059419E-002   1.1987849202624683E-002
 -0.10010351607804546        2.8733228164576990E-002   3.2180011714370571E-003
  -9.4240059623226180E-002   2.8517312954760413E-002  -2.0200233491403374E-004
  -8.8376603168406870E-002   2.7408039835763225E-002  -2.5706479607465957E-003
  -8.2513146713587573E-002   2.5405408807585322E-002  -3.8879357060606409E-003
  -7.6649690258768277E-002   2.2509419870226699E-002  -4.1538655708560357E-003
  -3.7758657129484167E-002   1.1112163205557357E-002   5.6171244810536619E-002
  -3.4188663446698277E-002   1.0423009860145827E-002   5.4945860258821061E-002
  -3.0618669763912403E-002   9.3852206577686170E-003   5.5484460707402816E-002
  -2.7048676081126516E-002   7.9987955984259021E-003   5.7787046156281968E-002
  -2.3478682398340625E-002   6.2637346821174944E-003   6.1853616605458295E-002
  -4.7387630906285595E-002   1.3961477371724679E-002   4.2150404393321045E-002
  -4.2321073395852726E-002   1.2733942466900142E-002   4.0415016367651810E-002
  -3.7254515885419850E-002   1.1494924823794182E-002   3.9908770996979287E-002
  -3.2187958374986968E-002   1.0244424442406563E-002   4.0631668281303296E-002
  -2.7121400864554113E-002   8.9824413227374000E-003   4.2583708220624128E-002
  -5.7079127686766790E-002   1.6810791537892028E-002   2.7422605857350374E-002
  -5.1050848693987572E-002   1.5044875073654457E-002   2.5514367476411635E-002
  -4.5022569701208340E-002   1.3604628989819581E-002   2.4300429405168841E-002
  -3.8994290708429157E-002   1.2490053286387266E-002   2.3780791643621978E-002
  -3.2966011715649904E-002   1.1701147963357417E-002   2.3955454191771280E-002
  -6.6833147470927667E-002   1.9660105704059419E-002   1.1987849202624683E-002
  -6.0377989341102820E-002   1.7355807680408911E-002   1.0243913585100585E-002
  -5.3922831211277993E-002   1.5714333155844952E-002   8.6594359319716440E-003
  -4.7467673081453110E-002   1.4735682130367753E-002   7.2344162432381488E-003
  -4.1012514951628290E-002   1.4419854603977322E-002   5.9688545188998077E-003
  -7.6649690258768277E-002   2.2509419870226699E-002  -4.1538655708560357E-003
  -7.0302495337198456E-002   1.9666740287163226E-002  -5.3963453062816358E-003
  -6.3955300415628663E-002   1.7824037321870434E-002  -7.0142094226123206E-003
  -5.7608105494058856E-002   1.6981310974348546E-002  -9.0074579198487614E-003
  -5.1260910572489049E-002   1.7138561244597339E-002  -1.1376090797990290E-002
 </DataArray>
 </PointData>
 </Piece>
 <Piece  NumberOfPoints="           400 "  NumberOfCells="          256 ">
 <Points>
 <DataArray  type="Float64" NumberOfComponents="3"  format="ascii" >
  0.50000000000000000        0.0000000000000000        0.0000000000000000     
  0.56250000000000000        0.0000000000000000        0.0000000000000000     
  0.62500000000000000        0.0000000000000000        0.0000000000000000     
  0.68750000000000000        0.0000000000000000        0.0000000000000000     
  0.75000000000000000        0.0000000000000000        0.0000000000000000     
  0.50000000000000000        6.2500000000000000E-002   0.0000000000000000     
  0.56250000000000000        6.2500000000000000E-002   0.0000000000000000     
  0.62500000000000000        6.2500000000000000E-002   0.0000000000000000     
  0.68750000000000000        6.2500000000000000E-002   0.0000000000000000     
  0.75000000000000000        6.2500000000000000E-002   0.0000000000000000     
  0.50000000000000000       0.12500000000000000        0.0000000000000000     
  0.56250000000000000       0.12500000000000000        0.0000000000000000     
  0.62500000000000000       0.12500000000000000        0.0000000000000000     
  0.68750000000000000       0.12500000000000000        0.0000000000000000     
  0.75000000000000000       0.12500000000000000        0.0000000000000000     
  0.50000000000000000       0.18750000000000000        0.0000000000000000     
  0.56250000000000000       0.18750000000000000        0.0000000000000000     
  0.62500000000000000       0.18750000000000000        0.0000000000000000     
  0.68750000000000000       0.18750000000000000        0.0000000000000000     
  0.75000000000000000       0.18750000000000000        0.0000000000000000     
  0.50000000000000000       0.25000000000000000        0.0000000000000000     
  0.56250000000000000       0.25000000000000000        0.0000000000000000     
  0.62500000000000000       0.25000000000000000        0.0000000000000000     
  0.68750000000000000       0.25000000000000000        0.0000000000000000     
  0.75000000000000000       0.25000000000000000        0.0000000000000000     
  0.75000000000000000        0.0000000000000000        0.0000000000000000     
  0.81250000000000000        0.0000000000000000        0.0000000000000000     
  0.87500000000000000        0.0000000000000000        0.0000000000000000     
  0.93750000000000000        0.0000000000000000        0.0000000000000000     
   1.0000000000000000        0.0000000000000000        0.0000000000000000     
  0.75000000000000000        6.2500000000000000E-002   0.0000000000000000     
  0.81250000000000000        6.2500000000000000E-002   0.0000000000000000     
  0.87500000000000000        6.2500000000000000E-002   0.0000000000000000     
  0.93750000000000000        6.2500000000000000E-002   0.0000000000000000     
   1.0000000000000000        6.2500000000000000E-002   0.0000000000000000     
  0.75000000000000000       0.12500000000000000        0.0000000000000000     
  0.81250000000000000       0.12500000000000000        0.0000000000000000     
  0.87500000000000000       0.12500000000000000        0.0000000000000000     
  0.93750000000000000       0.12500000000000000        0.0000000000000000     
   1.0000000000000000       0.12500000000000000        0.0000000000000000     
  0.75000000000000000       0.18750000000000000        0.0000000000000000     
  0.81250000000000000       0.18750000000000000        0.0000000000000000     
  0.87500000000000000       0.18750000000000000        0.0000000000000000     
  0.93750000000000000       0.18750000000000000        0.0000000000000000     
   1.0000000000000000       0.18750000000000000        0.0000000000000000     
  0.75000000000000000       0.25000000000000000        0.0000000000000000     
  0.81250000000000000       0.25000000000000000        0.0000000000000000     
  0.87500000000000000       0.25000000000000000        0.0000000000000000     
  0.93750000000000000       0.25000000000000000        0.0000000000000000     
   1.0000000000000000       0.25000000000000000        0.0000000000000000     
   1.0000000000000000        0.0000000000000000        0.0000000000000000     
   1.0625000000000000        0.0000000000000000        0.0000000000000000     
   1.1250000000000000        0.0000000000000000        0.0000000000000000     
   1.1875000000000000        0.0000000000000000        0.0000000000000000     
   1.2500000000000000        0.0000000000000000        0.0000000000000000     
   1.0000000000000000        6.2500000000000000E-002   0.0000000000000000     
   1.0625000000000000        6.2500000000000000E-002   0.0000000000000000     
   1.1250000000000000        6.2500000000000000E-002   0.0000000000000000     
   1.1875000000000000        6.2500000000000000E-002   0.0000000000000000     
   1.2500000000000000        6.2500000000000000E-002   0.0000000000000000     
   1.0000000000000000       0.12500000000000000        0.0000000000000000     
   1.0625000000000000       0.12500000000000000        0.0000000000000000     
   1.1250000000000000       0.12500000000000000        0.0000000000000000     
   1.1875000000000000       0.12500000000000000        0.0000000000000000     
   1.2500000000000000       0.12500000000000000        0.0000000000000000     
   1.0000000000000000       0.18750000000000000        0.0000000000000000     
   1.0625000000000000       0.18750000000000000        0.0000000000000000     
   1.1250000000000000       0.18750000000000000        0.0000000000000000     
   1.1875000000000000       0.18750000000000000        0.0000000000000000     
   1.2500000000000000       0.18750000000000000        0.0000000000000000     
   1.0000000000000000       0.25000000000000000        0.0000000000000000     
   1.0625000000000000       0.25000000000000000        0.0000000000000000     
   1.1250000000000000       0.25000000000000000        0.0000000000000000     
   1.1875000000000000       0.25000000000000000        0.0000000000000000     
   1.2500000000000000       0.25000000000000000        0.0000000000000000     
   1.2500000000000000        0.0000000000000000        0.0000000000000000     
   1.3125000000000000        0.0000000000000000        0.0000000000000000     
   1.3750000000000000        0.0000000000000000        0.0000000000000000     
   1.4375000000000000        0.0000000000000000        0.0000000000000000     
   1.5000000000000000        0.0000000000000000        0.0000000000000000     
   1.2500000000000000        6.2500000000000000E-002   0.0000000000000000     
   1.3125000000000000        6.2500000000000000E-002   0.0000000000000000     
   1.3750000000000000        6.2500000000000000E-002   0.0000000000000000     
   1.4375000000000000        6.2500000000000000E-002   0.0000000000000000     
   1.5000000000000000        6.2500000000000000E-002   0.0000000000000000     
   1.2500000000000000       0.12500000000000000        0.0000000000000000     
   1.3125000000000000       0.12500000000000000        0.0000000000000000     
   1.3750000000000000       0.12500000000000000        0.0000000000000000     
   1.4375000000000000       0.12500000000000000        0.0000000000000000     
   1.5000000000000000       0.12500000000000000        0.0000000000000000     
   1.2500000000000000       0.18750000000000000        0.0000000000000000     
   1.3125000000000000       0.18750000000000000        0.0000000000000000     
   1.3750000000000000       0.18750000000000000        0.0000000000000000     
   1.4375000000000000       0.18750000000000000        0.0000000000000000     
   1.5000000000000000       0.18750000000000000        0.0000000000000000     
   1.2500000000000000       0.25000000000000000        0.0000000000000000     
   1.3125000000000000       0.25000000000000000        0.0000000000000000     
   1.3750000000000000       0.25000000000000000        0.0000000000000000     
   1.4375000000000000       0.25000000000000000        0.0000000000000000     
   1.5000000000000000       0.25000000000000000        0.0000000000000000     
  0.50000000000000000       0.25000000000000000        0.0000000000000000     
  0.56250000000000000       0.25000000000000000        0.0000000000000000     
  0.62500000000000000       0.25000000000000000        0.0000000000000000     
  0.68750000000000000       0.25000000000000000        0.0000000000000000     
  0.75000000000000000       0.25000000000000000        0.0000000000000000     
  0.50000000000000000       0.31250000000000000        0.0000000000000000     
  0.56250000000000000       0.31250000000000000        0.0000000000000000     
  0.62500000000000000       0.31250000000000000        0.0000000000000000     
  0.68750000000000000       0.31250000000000000        0.0000000000000000     
  0.75000000000000000       0.31250000000000000        0.0000000000000000     
  0.50000000000000000       0.37500000000000000        0.0000000000000000     
  0.56250000000000000       0.37500000000000000        0.0000000000000000     
  0.62500000000000000       0.37500000000000000        0.0000000000000000     
  0.68750000000000000       0.37500000000000000        0.0000000000000000     
  0.75000000000000000       0.37500000000000000        0.0000000000000000     
  0.50000000000000000       0.43750000000000000        0.0000000000000000     
  0.56250000000000000       0.43750000000000000        0.0000000000000000     
  0.62500000000000000       0.43750000000000000        0.0000000000000000     
  0.68750000000000000       0.43750000000000000        0.0000000000000000     
  0.75000000000000000       0.43750000000000000        0.0000000000000000     
  0.50000000000000000       0.50000000000000000        0.0000000000000000     
  0.56250000000000000       0.50000000000000000        0.0000000000000000     
  0.62500000000000000       0.50000000000000000        0.0000000000000000     
  0.68750000000000000       0.50000000000000000        0.0000000000000000     
  0.75000000000000000       0.50000000000000000        0.0000000000000000     
  0.75000000000000000       0.25000000000000000        0.0000000000000000     
  0.81250000000000000       0.25000000000000000        0.0000000000000000     
  0.87500000000000000       0.25000000000000000        0.0000000000000000     
  0.93750000000000000       0.25000000000000000        0.0000000000000000     
   1.0000000000000000       0.25000000000000000        0.0000000000000000     
  0.75000000000000000       0.31250000000000000        0.0000000000000000     
  0.81250000000000000       0.31250000000000000        0.0000000000000000     
  0.87500000000000000       0.31250000000000000        0.0000000000000000     
  0.93750000000000000       0.31250000000000000        0.0000000000000000     
   1.0000000000000000       0.31250000000000000        0.0000000000000000     
  0.75000000000000000       0.37500000000000000        0.0000000000000000     
  0.81250000000000000       0.37500000000000000        0.0000000000000000     
  0.87500000000000000       0.37500000000000000        0.0000000000000000     
  0.93750000000000000       0.37500000000000000        0.0000000000000000     
   1.0000000000000000       0.37500000000000000        0.0000000000000000     
  0.75000000000000000       0.43750000000000000        0.0000000000000000     
  0.81250000000000000       0.43750000000000000        0.0000000000000000     
  0.87500000000000000       0.43750000000000000        0.0000000000000000     
  0.93750000000000000       0.43750000000000000        0.0000000000000000     
   1.0000000000000000       0.43750000000000000        0.0000000000000000     
  0.75000000000000000       0.50000000000000000        0.0000000000000000     
  0.81250000000000000       0.50000000000000000        0.0000000000000000     
  0.87500000000000000       0.50000000000000000        0.0000000000000000     
  0.93750000000000000       0.50000000000000000        0.0000000000000000     
   1.0000000000000000       0.50000000000000000        0.0000000000000000     
   1.0000000000000000       0.25000000000000000        0.0000000000000000     
   1.0625000000000000       0.25000000000000000        0.0000000000000000     
   1.1250000000000000       0.25000000000000000        0.0000000000000000     
   1.1875000000000000       0.25000000000000000        0.0000000000000000     
   1.2500000000000000       0.25000000000000000        0.0000000000000000     
   1.0000000000000000       0.31250000000000000        0.0000000000000000     
   1.0625000000000000       0.31250000000000000        0.0000000000000000     
   1.1250000000000000       0.31250000000000000        0.0000000000000000     
   1.1875000000000000       0.31250000000000000        0.0000000000000000     
   1.2500000000000000       0.31250000000000000        0.0000000000000000     
   1.0000000000000000       0.37500000000000000        0.0000000000000000     
   1.0625000000000000       0.37500000000000000        0.0000000000000000     
   1.1250000000000000       0.37500000000000000        0.0000000000000000     
   1.1875000000000000       0.37500000000000000        0.0000000000000000     
   1.2500000000000000       0.37500000000000000        0.0000000000000000     
   1.0000000000000000       0.43750000000000000        0.0000000000000000     
   1.0625000000000000       0.43750000000000000        0.0000000000000000     
   1.1250000000000000       0.43750000000000000        0.0000000000000000     
   1.1875000000000000       0.43750000000000000        0.0000000000000000     
   1.2500000000000000       0.43750000000000000        0.0000000000000000     
   1.0000000000000000       0.50000000000000000        0.0000000000000000     
   1.0625000000000000       0.50000000000000000        0.0000000000000000     
   1.1250000000000000       0.50000000000000000        0.0000000000000000     
   1.1875000000000000       0.50000000000000000        0.0000000000000000     
   1.2500000000000000       0.50000000000000000        0.0000000000000000     
   1.2500000000000000       0.25000000000000000        0.0000000000000000     
   1.3125000000000000       0.25000000000000000        0.0000000000000000     
   1.3750000000000000       0.25000000000000000        0.0000000000000000     
   1.4375000000000000       0.25000000000000000        0.0000000000000000     
   1.5000000000000000       0.25000000000000000        0.0000000000000000     
   1.2500000000000000       0.31250000000000000        0.0000000000000000     
   1.3125000000000000       0.31250000000000000        0.0000000000000000     
   1.3750000000000000       0.31250000000000000        0.0000000000000000     
   1.4375000000000000       0.31250000000000000        0.0000000000000000     
   1.5000000000000000       0.31250000000000000        0.0000000000000000     
   1.2500000000000000       0.37500000000000000        0.0000000000000000     
   1.3125000000000000       0.37500000000000000        0.0000000000000000     
   1.3750000000000000       0.37500000000000000        0.0000000000000000     
   1.4375000000000000       0.37500000000000000        0.0000000000000000     
   1.5000000000000000       0.37500000000000000        0.0000000000000000     
   1.2500000000000000       0.43750000000000000        0.0000000000000000     
   1.3125000000000000       0.43750000000000000        0.0000000000000000     
   1.3750000000000000       0.43750000000000000        0.0000000000000000     
   1.4375000000000000       0.43750000000000000        0.0000000000000000     
   1.5000000000000000       0.43750000000000000        0.0000000000000000     
   1.2500000000000000       0.50000000000000000        0.0000000000000000     
   1.3125000000000000       0.50000000000000000        0.0000000000000000     
   1.3750000000000000       0.50000000000000000        0.0000000000000000     
   1.4375000000000000       0.50000000000000000        0.0000000000000000     
   1.5000000000000000       0.50000000000000000        0.0000000000000000     
  0.50000000000000000       0.50000000000000000        0.0000000000000000     
  0.56250000000000000       0.50000000000000000        0.0000000000000000     
  0.62500000000000000       0.50000000000000000        0.0000000000000000     
  0.68750000000000000       0.50000000000000000        0.0000000000000000     
  0.75000000000000000       0.50000000000000000        0.0000000000000000     
  0.50000000000000000       0.56250000000000000        0.0000000000000000     
  0.56250000000000000       0.56250000000000000        0.0000000000000000     
  0.62500000000000000       0.56250000000000000        0.0000000000000000     
  0.68750000000000000       0.56250000000000000        0.0000000000000000     
  0.75000000000000000       0.56250000000000000        0.0000000000000000     
  0.50000000000000000       0.62500000000000000        0.0000000000000000     
  0.56250000000000000       0.62500000000000000        0.0000000000000000     
  0.62500000000000000       0.62500000000000000        0.0000000000000000     
  0.68750000000000000       0.62500000000000000        0.0000000000000000     
  0.75000000000000000       0.62500000000000000        0.0000000000000000     
  0.50000000000000000       0.68750000000000000        0.0000000000000000     
  0.56250000000000000       0.68750000000000000        0.0000000000000000     
  0.62500000000000000       0.68750000000000000        0.0000000000000000     
  0.68750000000000000       0.68750000000000000        0.0000000000000000     
  0.75000000000000000       0.68750000000000000        0.0000000000000000     
  0.50000000000000000       0.75000000000000000        0.0000000000000000     
  0.56250000000000000       0.75000000000000000        0.0000000000000000     
  0.62500000000000000       0.75000000000000000        0.0000000000000000     
  0.68750000000000000       0.75000000000000000        0.0000000000000000     
  0.75000000000000000       0.75000000000000000        0.0000000000000000     
  0.75000000000000000       0.50000000000000000        0.0000000000000000     
  0.81250000000000000       0.50000000000000000        0.0000000000000000     
  0.87500000000000000       0.50000000000000000        0.0000000000000000     
  0.93750000000000000       0.50000000000000000        0.0000000000000000     
   1.0000000000000000       0.50000000000000000        0.0000000000000000     
  0.75000000000000000       0.56250000000000000        0.0000000000000000     
  0.81250000000000000       0.56250000000000000        0.0000000000000000     
  0.87500000000000000       0.56250000000000000        0.0000000000000000     
  0.93750000000000000       0.56250000000000000        0.0000000000000000     
   1.0000000000000000       0.56250000000000000        0.0000000000000000     
  0.75000000000000000       0.62500000000000000        0.0000000000000000     
  0.81250000000000000       0.62500000000000000        0.0000000000000000     
  0.87500000000000000       0.62500000000000000        0.0000000000000000     
  0.93750000000000000       0.62500000000000000        0.0000000000000000     
   1.0000000000000000       0.62500000000000000        0.0000000000000000     
  0.75000000000000000       0.68750000000000000        0.0000000000000000     
  0.81250000000000000       0.68750000000000000        0.0000000000000000     
  0.87500000000000000       0.68750000000000000        0.0000000000000000     
  0.93750000000000000       0.68750000000000000        0.0000000000000000     
   1.0000000000000000       0.68750000000000000        0.0000000000000000     
  0.75000000000000000       0.75000000000000000        0.0000000000000000     
  0.81250000000000000       0.75000000000000000        0.0000000000000000     
  0.87500000000000000       0.75000000000000000        0.0000000000000000     
  0.93750000000000000       0.75000000000000000        0.0000000000000000     
   1.0000000000000000       0.75000000000000000        0.0000000000000000     
   1.0000000000000000       0.50000000000000000        0.0000000000000000     
   1.0625000000000000       0.50000000000000000        0.0000000000000000     
   1.1250000000000000       0.50000000000000000        0.0000000000000000     
   1.1875000000000000       0.50000000000000000        0.0000000000000000     
   1.2500000000000000       0.50000000000000000        0.0000000000000000     
   1.0000000000000000       0.56250000000000000        0.0000000000000000     
   1.0625000000000000       0.56250000000000000        0.0000000000000000     
   1.1250000000000000       0.56250000000000000        0.0000000000000000     
   1.1875000000000000       0.56250000000000000        0.0000000000000000     
   1.2500000000000000       0.56250000000000000        0.0000000000000000     
   1.0000000000000000       0.62500000000000000        0.0000000000000000     
   1.0625000000000000       0.62500000000000000        0.0000000000000000     
   1.1250000000000000       0.62500000000000000        0.0000000000000000     
   1.1875000000000000       0.62500000000000000        0.0000000000000000     
   1.2500000000000000       0.62500000000000000        0.0000000000000000     
   1.0000000000000000       0.68750000000000000        0.0000000000000000     
   1.0625000000000000       0.68750000000000000        0.0000000000000000     
   1.1250000000000000       0.68750000000000000        0.0000000000000000     
   1.1875000000000000       0.68750000000000000        0.0000000000000000     
   1.2500000000000000       0.68750000000000000        0.0000000000000000     
   1.0000000000000000       0.75000000000000000        0.0000000000000000     
   1.0625000000000000       0.75000000000000000        0.0000000000000000     
   1.1250000000000000       0.75000000000000000        0.0000000000000000     
   1.1875000000000000       0.75000000000000000        0.0000000000000000     
   1.2500000000000000       0.75000000000000000        0.0000000000000000     
   1.2500000000000000       0.50000000000000000        0.0000000000000000     
   1.3125000000000000       0.50000000000000000        0.0000000000000000     
   1.3750000000000000       0.50000000000000000        0.0000000000000000     
   1.4375000000000000       0.50000000000000000        0.0000000000000000     
   1.5000000000000000       0.50000000000000000        0.0000000000000000     
   1.2500000000000000       0.56250000000000000        0.0000000000000000     
   1.3125000000000000       0.56250000000000000        0.0000000000000000     
   1.3750000000000000       0.56250000000000000        0.0000000000000000     
   1.4375000000000000       0.56250000000000000        0.0000000000000000     
   1.5000000000000000       0.56250000000000000        0.0000000000000000     
   1.2500000000000000       0.62500000000000000        0.0000000000000000     
   1.3125000000000000       0.62500000000000000        0.0000000000000000     
   1.3750000000000000       0.62500000000000000        0.0000000000000000     
   1.4375000000000000       0.62500000000000000        0.0000000000000000     
   1.5000000000000000       0.62500000000000000        0.0000000000000000     
   1.2500000000000000       0.68750000000000000        0.0000000000000000     
   1.3125000000000000       0.68750000000000000        0.0000000000000000     
   1.3750000000000000       0.68750000000000000        0.0000000000000000     
   1.4375000000000000       0.68750000000000000        0.0000000000000000     
   1.5000000000000000       0.68750000000000000        0.0000000000000000     
   1.2500000000000000       0.75000000000000000        0.0000000000000000     
   1.3125000000000000       0.75000000000000000        0.0000000000000000     
   1.3750000000000000       0.75000000000000000        0.0000000000000000     
   1.4375000000000000       0.75000000000000000        0.0000000000000000     
   1.5000000000000000       0.75000000000000000        0.0000000000000000     
  0.50000000000000000       0.75000000000000000        0.0000000000000000     
  0.56250000000000000       0.75000000000000000        0.0000000000000000     
  0.62500000000000000       0.75000000000000000        0.0000000000000000     
  0.68750000000000000       0.75000000000000000        0.0000000000000000     
  0.75000000000000000       0.75000000000000000        0.0000000000000000     
  0.50000000000000000       0.81250000000000000        0.0000000000000000     
  0.56250000000000000       0.81250000000000000        0.0000000000000000     
  0.62500000000000000       0.81250000000000000        0.0000000000000000     
  0.68750000000000000       0.81250000000000000        0.0000000000000000     
  0.75000000000000000       0.81250000000000000        0.0000000000000000     
  0.50000000000000000       0.87500000000000000        0.0000000000000000     
  0.56250000000000000       0.87500000000000000        0.0000000000000000     
  0.62500000000000000       0.87500000000000000        0.0000000000000000     
  0.68750000000000000       0.87500000000000000        0.0000000000000000     
  0.75000000000000000       0.87500000000000000        0.0000000000000000     
  0.50000000000000000       0.93750000000000000        0.0000000000000000     
  0.56250000000000000       0.93750000000000000        0.0000000000000000     
  0.62500000000000000       0.93750000000000000        0.0000000000000000     
  0.68750000000000000       0.93750000000000000        0.0000000000000000     
  0.75000000000000000       0.93750000000000000        0.0000000000000000     
  0.50000000000000000        1.0000000000000000        0.0000000000000000     
  0.56250000000000000        1.0000000000000000        0.0000000000000000     
  0.62500000000000000        1.0000000000000000        0.0000000000000000     
  0.68750000000000000        1.0000000000000000        0.0000000000000000     
  0.75000000000000000        1.0000000000000000        0.0000000000000000     
  0.75000000000000000       0.75000000000000000        0.0000000000000000     
  0.81250000000000000       0.75000000000000000        0.0000000000000000     
  0.87500000000000000       0.75000000000000000        0.0000000000000000     
  0.93750000000000000       0.75000000000000000        0.0000000000000000     
   1.0000000000000000       0.75000000000000000        0.0000000000000000     
  0.75000000000000000       0.81250000000000000        0.0000000000000000     
  0.81250000000000000       0.81250000000000000        0.0000000000000000     
  0.87500000000000000       0.81250000000000000        0.0000000000000000     
  0.93750000000000000       0.81250000000000000        0.0000000000000000     
   1.0000000000000000       0.81250000000000000        0.0000000000000000     
  0.75000000000000000       0.87500000000000000        0.0000000000000000     
  0.81250000000000000       0.87500000000000000        0.0000000000000000     
  0.87500000000000000       0.87500000000000000        0.0000000000000000     
  0.93750000000000000       0.87500000000000000        0.0000000000000000     
   1.0000000000000000       0.87500000000000000        0.0000000000000000     
  0.75000000000000000       0.93750000000000000        0.0000000000000000     
  0.81250000000000000       0.93750000000000000        0.0000000000000000     
  0.87500000000000000       0.93750000000000000        0.0000000000000000     
  0.93750000000000000       0.93750000000000000        0.0000000000000000     
   1.0000000000000000       0.93750000000000000        0.0000000000000000     
  0.75000000000000000        1.0000000000000000        0.0000000000000000     
  0.81250000000000000        1.0000000000000000        0.0000000000000000     
  0.87500000000000000        1.0000000000000000        0.0000000000000000     
  0.93750000000000000        1.0000000000000000        0.0000000000000000     
   1.0000000000000000        1.0000000000000000        0.0000000000000000     
   1.0000000000000000       0.75000000000000000        0.0000000000000000     
   1.0625000000000000       0.75000000000000000        0.0000000000000000     
   1.1250000000000000       0.75000000000000000        0.0000000000000000     
   1.1875000000000000       0.75000000000000000        0.0000000000000000     
   1.2500000000000000       0.75000000000000000        0.0000000000000000     
   1.0000000000000000       0.81250000000000000        0.0000000000000000     
   1.0625000000000000       0.81250000000000000        0.0000000000000000     
   1.1250000000000000       0.81250000000000000        0.0000000000000000     
   1.1875000000000000       0.81250000000000000        0.0000000000000000     
   1.2500000000000000       0.81250000000000000        0.0000000000000000     
   1.0000000000000000       0.87500000000000000        0.0000000000000000     
   1.0625000000000000       0.87500000000000000        0.0000000000000000     
   1.1250000000000000       0.87500000000000000        0.0000000000000000     
   1.1875000000000000       0.87500000000000000        0.0000000000000000     
   1.2500000000000000       0.87500000000000000        0.0000000000000000     
   1.0000000000000000       0.93750000000000000        0.0000000000000000     
   1.0625000000000000       0.93750000000000000        0.0000000000000000     
   1.1250000000000000       0.93750000000000000        0.0000000000000000     
   1.1875000000000000       0.93750000000000000        0.0000000000000000     
   1.2500000000000000       0.93750000000000000        0.0000000000000000     
   1.0000000000000000        1.0000000000000000        0.0000000000000000     
   1.0625000000000000        1.0000000000000000        0.0000000000000000     
   1.1250000000000000        1.0000000000000000        0.0000000000000000     
   1.1875000000000000        1.0000000000000000        0.0000000000000000     
   1.2500000000000000        1.0000000000000000        0.0000000000000000     
   1.2500000000000000       0.75000000000000000        0.0000000000000000     
   1.3125000000000000       0.75000000000000000        0.0000000000000000     
   1.3750000000000000       0.75000000000000000        0.0000000000000000     
   1.4375000000000000       0.75000000000000000        0.0000000000000000     
   1.5000000000000000       0.75000000000000000        0.0000000000000000     
   1.2500000000000000       0.81250000000000000        0.0000000000000000     
   1.3125000000000000       0.81250000000000000        0.0000000000000000     
   1.3750000000000000       0.81250000000000000        0.0000000000000000     
   1.4375000000000000       0.81250000000000000        0.0000000000000000     
   1.5000000000000000       0.81250000000000000        0.0000000000000000     
   1.2500000000000000       0.87500000000000000        0.0000000000000000     
   1.3125000000000000       0.87500000000000000        0.0000000000000000     
   1.3750000000000000       0.87500000000000000        0.0000000000000000     
   1.4375000000000000       0.87500000000000000        0.0000000000000000     
   1.5000000000000000       0.87500000000000000        0.0000000000000000     
   1.2500000000000000       0.93750000000000000        0.0000000000000000     
   1.3125000000000000       0.93750000000000000        0.0000000000000000     
   1.3750000000000000       0.93750000000000000        0.0000000000000000     
   1.4375000000000000       0.93750000000000000        0.0000000000000000     
   1.5000000000000000       0.93750000000000000        0.0000000000000000     
   1.2500000000000000        1.0000000000000000        0.0000000000000000     
   1.3125000000000000        1.0000000000000000        0.0000000000000000     
   1.3750000000000000        1.0000000000000000        0.0000000000000000     
   1.4375000000000000        1.0000000000000000        0.0000000000000000     
   1.5000000000000000        1.0000000000000000        0.0000000000000000     
 </DataArray>
 </Points>
 <Cells>
 <DataArray  type="Int32"  Name="connectivity"  format="ascii">
           0           1           6           5
           1           2           7           6
           2           3           8           7
           3           4           9           8
           5           6          11          10
           6           7          12          11
           7           8          13          12
           8           9          14          13
          10          11          16          15
          11          12          17          16
          12          13          18          17
          13          14          19          18
          15          16          21          20
          16          17          22          21
          17          18          23          22
          18          19          24          23
          25          26          31          30
          26          27          32          31
          27          28          33          32
          28          29          34          33
          30          31          36          35
          31          32          37          36
          32          33          38          37
          33          34          39          38
          35          36          41          40
          36          37          42          41
          37          38          43          42
          38          39          44          43
          40          41          46          45
          41          42          47          46
          42          43          48          47
          43          44          49          48
          50          51          56          55
          51          52          57          56
          52          53          58          57
          53          54          59          58
          55          56          61          60
          56          57          62          61
          57          58          63          62
          58          59          64          63
          60          61          66          65
          61          62          67          66
          62          63          68          67
          63          64          69          68
          65          66          71          70
          66          67          72          71
          67          68          73          72
          68          69          74          73
          75          76          81          80
          76          77          82          81
          77          78          83          82
          78          79          84          83
          80          81          86          85
          81          82          87          86
          82          83          88          87
          83          84          89          88
          85          86          91          90
          86          87          92          91
          87          88          93          92
          88          89          94          93
          90          91          96          95
          91          92          97          96
          92          93          98          97
          93          94          99          98
         100         101         106         105
         101         102         107         106
         102         103         108         107
         103         104         109         108
         105         106         111         110
         106         107         112         111
         107         108         113         112
         108         109         114         113
         110         111         116         115
         111         112         117         116
         112         113         118         117
         113         114         119         118
         115         116         121         120
         116         117         122         121
         117         118         123         122
         118         119         124         123
         125         126         131         130
         126         127         132         131
         127         128         133         132
         128         129         134         133
         130         131         136         135
         131         132         137         136
         132         133         138         137
         133         134         139         138
         135         136         141         140
         136         137         142         141
         137         138         143         142
         138         139         144         143
         140         141         146         145
         141         142         147         146
         142         143         148         147
         143         144         149         148
         150         151         156         155
         151         152         157         156
         152         153         158         157
         153         154         159         158
         155         156         161         160
         156         157         162         161
         157         158         163         162
         158         159         164         163
         160         161         166         165
         161         162         167         166
         162         163         168         167
         163         164         169         168
         165         166         171         170
         166         167         172         171
         167         168         173         172
         168         169         174         173
         175         176         181         180
         176         177         182         181
         177         178         183         182
         178         179         184         183
         180         181         186         185
         181         182         187         186
         182         183         188         187
         183         184         189         188
         185         186         191         190
         186         187         192         191
         187         188         193         192
         188         189         194         193
         190         191         196         195
         191         192         197         196
         192         193         198         197
         193         194         199         198
         200         201         206         205
         201         202         207         206
         202         203         208         207
         203         204         209         208
         205         206         211         210
         206         207         212         211
         207         208         213         212
         208         209         214         213
         210         211         216         215
         211         212         217         216
         212         213         218         217
         213         214         219         218
         215         216         221         220
         216         217         222         221
         217         218         223         222
         218         219         224         223
         225         226         231         230
         226         227         232         231
         227         228         233         232
         228         229         234         233
         230         231         236         235
         231         232         237         236
         232         233         238         237
         233         234         239         238
         235         236         241         240
         236         237         242         241
         237         238         243         242
         238         239         244         243
         240         241         246         245
         241         242         247         246
         242         243         248         247
         243         244         249         248
         250         251         256         255
         251         252         257         256
         252         253         258         257
         253         254         259         258
         255         256         261         260
         256         257         262         261
         257         258         263         262
         258         259         264         263
         260         261         266         265
         261         262         267         266
         262         263         268         267
         263         264         269         268
         265         266         271         270
         266         267         272         271
         267         268         273         272
         268         269         274         273
         275         276         281         280
         276         277         282         281
         277         278         283         282
         278         279         284         283
         280         281         286         285
         281         282         287         286
         282         283         288         287
         283         284         289         288
         285         286         291         290
         286         287         292         291
         287         288         293         292
         288         289         294         293
         290         291         296         295
         291         292         297         296
         292         293         298         297
         293         294         299         298
         300         301         306         305
         301         302         307         306
         302         303         308         307
         303         304         309         308
         305         306         311         310
         306         307         312         311
         307         308         313         312
         308         309         314         313
         310         311         316         315
         311         312         317         316
         312         313         318         317
         313         314         319         318
         315         316         321         320
         316         317         322         321
         317         318         323         322
         318         319         324         323
         325         326         331         330
         326         327         332         331
         327         328         333         332
         328         329         334         333
         330         331         336         335
         331         332         337         336
         332         333         338         337
         333         334         339         338
         335         336         341         340
         336         337         342         341
         337         338         343         342
         338         339         344         343
         340         341         346         345
         341         342         347         346
         342         343         348         347
         343         344         349         348
         350         351         356         355
         351         352         357         356
         352         353         358         357
         353         354         359         358
         355         356         361         360
         356         357         362         361
         357         358         363         362
         358         359         364         363
         360         361         366         365
         361         362         367         366
         362         363         368         367
         363         364         369         368
         365         366         371         370
         366         367         372         371
         367         368         373         372
         368         369         374         373
         375         376         381         380
         376         377         382         381
         377         378         383         382
         378         379         384         383
         380         381         386         385
         381         382         387         386
         382         383         388         387
         383         384         389         388
         385         386         391         390
         386         387         392         391
         387         388         393         392
         388         389         394         393
         390         391         396         395
         391         392         397         396
         392         393         398         397
         393         394         399         398
 </DataArray>
 <DataArray  type="Int32"  Name="offsets"  format="ascii"> 
           4
           8
          12
          16
          20
          24
          28
          32
          36
          40
          44
          48
          52
          56
          60
          64
          68
          72
          76
          80
          84
          88
          92
          96
         100
         104
         108
         112
         116
         120
         124
         128
         132
         136
         140
         144
         148
         152
         156
         160
         164
         168
         172
         176
         180
         184
         188
         192
         196
         200
         204
         208
         212
         216
         220
         224
         228
         232
         236
         240
         244
         248
         252
         256
         260
         264
         268
         272
         276
         280
         284
         288
         292
         296
         300
         304
         308
         312
         316
         320
         324
         328
         332
         336
         340
         344
         348
         352
         356
         360
         364
         368
         372
         376
         380
         384
         388
         392
         396
         400
         404
         408
         412
         416
         420
         424
         428
         432
         436
         440
         444
         448
         452
         456
         460
         464
         468
         472
         476
         480
         484
         488
         492
         496
         500
         504
         508
         512
         516
         520
         524
         528
         532
         536
         540
         544
         548
         552
         556
         560
         564
         568
         572
         576
         580
         584
         588
         592
         596
         600
         604
         608
         612
         616
         620
         624
         628
         632
         636
         640
         644
         648
         652
         656
         660
         664
         668
         672
         676
         680
         684
         688
         692
         696
         700
         704
         708
         712
         716
         720
         724
         728
         732
         736
         740
         744
         748
         752
         756
         760
         764
         768
         772
         776
         780
         784
         788
         792
         796
         800
         804
         808
         812
         816
         820
         824
         828
         832
         836
         840
         844
         848
         852
         856
         860
         864
         868
         872
         876
         880
         884
         888
         892
         896
         900
         904
         908
         912
         916
         920
         924
         928
         932
         936
         940
         944
         948
         952
         956
         960
         964
         968
         972
         976
         980
         984
         988
         992
         996
        1000
        1004
        1008
        1012
        1016
        1020
        1024
 </DataArray>
 <DataArray  type="UInt8"  Name="types"  format="ascii">
 9
 9
 9
 9
 9
 9
 9
 9
 9
 9
 9
 9
 9
 9
 9
 9
 9
 9
 9
 9
 9
 9
 9
 9
 9
 9
 9
 9
 9
 9
 9
 9
 9
 9
 9
 9
 9
 9
 9
 9
 9
 9
 9
 9
 9
 9
 9
 9
 9
 9
 9
 9
 9
 9
 9
 9
 9
 9
 9
 9
 9
 9
 9
 9
 9
 9
 9
 9
 9
 9
 9
 9
 9
 9
 9
 9
 9
 9
 9
 9
 9
 9
 9
 9
 9
 9
 9
 9
 9
 9
 9
 9
 9
 9
 9
 9
 9
 9
 9
 9
 9
 9
 9
 9
 9
 9
 9
 9
 9
 9
 9
 9
 9
 9
 9
 9
 9
 9
 9
 9
 9
 9
 9
 9
 9
 9
 9
 9
 9
 9
 9
 9
 9
 9
 9
 9
 9
 9
 9
 9
 9
 9
 9
 9
 9
 9
 9
 9
 9
 9
 9
 9
 9
 9
 9
 9
 9
 9
 9
 9
 9
 9
 9
 9
 9
 9
 9
 9
 9
 9
 9
 9
 9
 9
 9
 9
 9
 9
 9
 9
 9
 9
 9
 9
 9
 9
 9
 9
 9
 9
 9
 9
 9
 9
 9
 9
 9
 9
 9
 9
 9
 9
 9
 9
 9
 9
 9
 9
 9
 9
 9
 9
 9
 9
 9
 9
 9
 9
 9
 9
 9
 9
 9
 9
 9
 9
 9
 9
 9
 9
 9
 9
 9
 9
 9
 9
 9
 9
 9
 9
 9
 9
 9
 9
 9
 9
 9
 9
 9
 9
 9
 9
 9
 9
 9
 9
 </DataArray>
 </Cells> 
 <PointData>
 <DataArray  type="Float64" Name="disp" NumberOfComponents="3" format="ascii">
   6.3870182884466914E-002   6.2593736477060929E-002   0.0000000000000000     
   7.0349876922524993E-002   7.3488450857530738E-002   0.0000000000000000     
   7.6330884455484055E-002   8.5084274049192971E-002   0.0000000000000000     
   8.1813205483344129E-002   9.7381206052047656E-002   0.0000000000000000     
   8.6796840006105172E-002  0.11037924686609477        0.0000000000000000     
   5.5116597326267384E-002   6.0823048253413940E-002   0.0000000000000000     
   6.0464791154478170E-002   7.1827052128402777E-002   0.0000000000000000     
   6.5443826391759802E-002   8.3534786909814238E-002   0.0000000000000000     
   7.0053703038112314E-002   9.5946252597648315E-002   0.0000000000000000     
   7.4294421093535679E-002  0.10906144919190500        0.0000000000000000     
   4.6376989814356624E-002   5.9286529727637448E-002   0.0000000000000000     
   5.0780298857611289E-002   7.0389566630178355E-002   0.0000000000000000     
   5.4904071510194698E-002   8.2196446251935798E-002   0.0000000000000000     
   5.8748307772106871E-002   9.4707168592909743E-002   0.0000000000000000     
   6.2313007643347795E-002  0.10792173365310020        0.0000000000000000     
   3.7651360348734633E-002   5.7984180899731438E-002   0.0000000000000000     
   4.1296400031924363E-002   6.9175994362857471E-002   0.0000000000000000     
   4.4711619810788757E-002   8.1069252075557652E-002   0.0000000000000000     
   4.7897019685327814E-002   9.3663954037831954E-002   0.0000000000000000     
   5.0852599655541543E-002  0.10696010024968038        0.0000000000000000     
   2.8939708929401415E-002   5.6916001769695926E-002   0.0000000000000000     
   3.2013094677417406E-002   6.8186335326440126E-002   0.0000000000000000     
   3.4866471293541992E-002   8.0153204380679799E-002   0.0000000000000000     
   3.7499838777775150E-002   9.2816608932414918E-002   0.0000000000000000     
   3.9913197130116901E-002  0.10617654898164551        0.0000000000000000     
   8.6796840006105172E-002  0.11037924686609477        0.0000000000000000     
   9.1336033789010312E-002  0.12396793049617770        0.0000000000000000     
   9.5485032597302663E-002  0.13803679094713983        0.0000000000000000     
   9.9243836430982224E-002  0.15258582821898115        0.0000000000000000     
  0.10261244529004897       0.16761504231170171        0.0000000000000000     
   7.4294421093535679E-002  0.10906144919190500        0.0000000000000000     
   7.8189618389889318E-002  0.12276456152855678        0.0000000000000000     
   8.1762932759032653E-002  0.13693977444357613        0.0000000000000000     
   8.5014364200965656E-002  0.15158708793696304        0.0000000000000000     
   8.7943912715688355E-002  0.16670650200871753        0.0000000000000000     
   6.2313007643347795E-002  0.10792173365310020        0.0000000000000000     
   6.5605521685475982E-002  0.12172269690407764        0.0000000000000000     
   6.8633200460049892E-002  0.13599261381741251        0.0000000000000000     
   7.1396043967069542E-002  0.15073148439310494        0.0000000000000000     
   7.3894052206534930E-002  0.16593930863115475        0.0000000000000000     
   5.0852599655541543E-002  0.10696010024968038        0.0000000000000000     
   5.3583743675770269E-002  0.12084233662274028        0.0000000000000000     
   5.6095835700354389E-002  0.13519530906864916        0.0000000000000000     
   5.8388875729293861E-002  0.15001901758740685        0.0000000000000000     
   6.0462863762588727E-002  0.16531346217901341        0.0000000000000000     
   3.9913197130116901E-002  0.10617654898164551        0.0000000000000000     
   4.2124284360772229E-002  0.12012348068454473        0.0000000000000000     
   4.4150838479946150E-002  0.13454786019728582        0.0000000000000000     
   4.5992859487638656E-002  0.14944968751986873        0.0000000000000000     
   4.7650347383849732E-002  0.16482896265229346        0.0000000000000000     
  0.10261244529004897       0.16761504231170171        0.0000000000000000     
  0.10563870602721755       0.18303716439449846        0.0000000000000000     
  0.10837046549520257       0.19876492563656847        0.0000000000000000     
  0.11080772369400406       0.21479832603791180        0.0000000000000000     
  0.11295048062362198       0.23113736559852838        0.0000000000000000     
   8.7943912715688355E-002  0.16670650200871753        0.0000000000000000     
   9.0552651298037592E-002  0.18222420510381876        0.0000000000000000     
   9.2841652942850225E-002  0.19806638566724594        0.0000000000000000     
   9.4810917650126281E-002  0.21423304369899904        0.0000000000000000     
   9.6460445419865731E-002  0.23072417919907806        0.0000000000000000     
   7.3894052206534930E-002  0.16593930863115475        0.0000000000000000     
   7.6098514550304475E-002  0.18154904106590555        0.0000000000000000     
   7.7980720370236567E-002  0.19749363623170069        0.0000000000000000     
   7.9540669666331221E-002  0.21377309412854029        0.0000000000000000     
   8.0778362438588436E-002  0.23038741475642421        0.0000000000000000     
   6.0462863762588727E-002  0.16531346217901341        0.0000000000000000     
   6.2276295784018207E-002  0.18101167228075879        0.0000000000000000     
   6.3787667777361598E-002  0.19704667732993281        0.0000000000000000     
   6.4996979742618893E-002  0.21341847732653549        0.0000000000000000     
   6.5904231679790065E-002  0.23012707227056678        0.0000000000000000     
   4.7650347383849732E-002  0.16482896265229346        0.0000000000000000     
   4.9085994999178817E-002  0.18061209874837852        0.0000000000000000     
   5.0262495164225332E-002  0.19672550896194221        0.0000000000000000     
   5.1179847878989278E-002  0.21316919329298467        0.0000000000000000     
   5.1838053143470661E-002  0.22994315174150587        0.0000000000000000     
  0.11295048062362198       0.23113736559852838        0.0000000000000000     
  0.11476334849540976       0.24801136647458377        0.0000000000000000     
  0.11621093952072079       0.26564965082224351        0.0000000000000000     
  0.11729325369955504       0.28405221864150770        0.0000000000000000     
  0.11801029103191255       0.30321906993237618        0.0000000000000000     
   9.6460445419865731E-002  0.23072417919907806        0.0000000000000000     
   9.7806344776937462E-002  0.24769082270393222        0.0000000000000000     
   9.8864724246210359E-002  0.26528400475001085        0.0000000000000000     
   9.9635583827684351E-002  0.28350372533731383        0.0000000000000000     
  0.10011892352135951       0.30234998446584127        0.0000000000000000     
   8.0778362438588436E-002  0.23038741475642421        0.0000000000000000     
   8.1746951206967719E-002  0.24740561830542587        0.0000000000000000     
   8.2499588491428535E-002  0.26489672496561856        0.0000000000000000     
   8.3036274291970941E-002  0.28286073473700224        0.0000000000000000     
   8.3357008608594907E-002  0.30129764761957700        0.0000000000000000     
   6.5904231679790065E-002  0.23012707227056678        0.0000000000000000     
   6.6585167785500457E-002  0.24715575327906458        0.0000000000000000     
   6.7115532256375371E-002  0.26448781146906658        0.0000000000000000     
   6.7495325092414765E-002  0.28212324684057283        0.0000000000000000     
   6.7724546293618695E-002  0.30006205939358344        0.0000000000000000     
   5.1838053143470661E-002  0.22994315174150587        0.0000000000000000     
   5.2320994512535739E-002  0.24694122762484841        0.0000000000000000     
   5.2712555541050810E-002  0.26405726426035503        0.0000000000000000     
   5.3012736229015867E-002  0.28129126164802576        0.0000000000000000     
   5.3221536576430903E-002  0.29864321978786057        0.0000000000000000     
   2.8939708929401415E-002   5.6916001769695926E-002   0.0000000000000000     
   3.2013094677417406E-002   6.8186335326440126E-002   0.0000000000000000     
   3.4866471293541992E-002   8.0153204380679799E-002   0.0000000000000000     
   3.7499838777775150E-002   9.2816608932414918E-002   0.0000000000000000     
   3.9913197130116901E-002  0.10617654898164551        0.0000000000000000     
   2.0602480324148267E-002   5.6083794273726367E-002   0.0000000000000000     
   2.3125019795872070E-002   6.7418345708089480E-002   0.0000000000000000     
   2.5433694143055192E-002   7.9444039233313515E-002   0.0000000000000000     
   2.7528503365697631E-002   9.2160874849398458E-002   0.0000000000000000     
   2.9409447463799403E-002  0.10556885255634429        0.0000000000000000     
   1.3000119300766493E-002   5.5489360348018241E-002   0.0000000000000000     
   1.4826812389069997E-002   6.6869781694968711E-002   0.0000000000000000     
   1.6478356543929179E-002   7.8937492699470049E-002   0.0000000000000000     
   1.7954751765344033E-002   9.1692493361522298E-002   0.0000000000000000     
   1.9255998053314557E-002  0.10513478368112542        0.0000000000000000     
   6.1326258592560969E-003   5.5132699992571560E-002   0.0000000000000000     
   7.1184724570112039E-003   6.6540643287077816E-002   0.0000000000000000     
   8.0004584961639539E-003   7.8633564779149442E-002   0.0000000000000000     
   8.7785839767143443E-003   9.1411464468786480E-002   0.0000000000000000     
   9.4528488986623770E-003  0.10487434235598886        0.0000000000000000     
  -3.8292459481059637E-013   5.5013813207386297E-002   0.0000000000000000     
  -3.0431776890105233E-013   6.6430930484416784E-002   0.0000000000000000     
  -2.4048493231509926E-013   7.8532255472351681E-002   0.0000000000000000     
  -1.9142982555023225E-013   9.1317788171190961E-002   0.0000000000000000     
  -1.5714686496526298E-013  0.10478752858093464        0.0000000000000000     
   3.9913197130116901E-002  0.10617654898164551        0.0000000000000000     
   4.2124284360772229E-002  0.12012348068454473        0.0000000000000000     
   4.4150838479946150E-002  0.13454786019728582        0.0000000000000000     
   4.5992859487638656E-002  0.14944968751986873        0.0000000000000000     
   4.7650347383849732E-002  0.16482896265229346        0.0000000000000000     
   2.9409447463799403E-002  0.10556885255634429        0.0000000000000000     
   3.1107791612482557E-002  0.11956513988874790        0.0000000000000000     
   3.2654800986869167E-002  0.13404690438120601        0.0000000000000000     
   3.4050475586959221E-002  0.14901414603371871        0.0000000000000000     
   3.5294815412752728E-002  0.16446686484628595        0.0000000000000000     
   1.9255998053314557E-002  0.10513478368112542        0.0000000000000000     
   2.0414913302901953E-002  0.11916632503460664        0.0000000000000000     
   2.1464315409167413E-002  0.13368907879829309        0.0000000000000000     
   2.2404204372110922E-002  0.14870304497218484        0.0000000000000000     
   2.3234580191732496E-002  0.16420822355628187        0.0000000000000000     
   9.4528488986623770E-003  0.10487434235598886        0.0000000000000000     
   1.0045649432030431E-002  0.11892703612212095        0.0000000000000000     
   1.0579381746840895E-002  0.13347438344854703        0.0000000000000000     
   1.1054045843093762E-002  0.14851638433526709        0.0000000000000000     
   1.1469641720789035E-002  0.16405303878228120        0.0000000000000000     
  -1.5714686496526298E-013  0.10478752858093464        0.0000000000000000     
  -1.3200985443662105E-013  0.11884727315129089        0.0000000000000000     
  -1.1038240634031471E-013  0.13340281833196788        0.0000000000000000     
  -9.2267827492970023E-014  0.14845416412296558        0.0000000000000000     
  -7.7661835296005677E-014  0.16400131052428402        0.0000000000000000     
   4.7650347383849732E-002  0.16482896265229346        0.0000000000000000     
   4.9085994999178817E-002  0.18061209874837852        0.0000000000000000     
   5.0262495164225332E-002  0.19672550896194221        0.0000000000000000     
   5.1179847878989278E-002  0.21316919329298467        0.0000000000000000     
   5.1838053143470661E-002  0.22994315174150587        0.0000000000000000     
   3.5294815412752728E-002  0.16446686484628595        0.0000000000000000     
   3.6362363966139066E-002  0.18032275733063119        0.0000000000000000     
   3.7227664749007613E-002  0.19649951999847784        0.0000000000000000     
   3.7890717761358356E-002  0.21299715284982587        0.0000000000000000     
   3.8351523003191307E-002  0.22981565588467531        0.0000000000000000     
   2.3234580191732496E-002  0.16420822355628187        0.0000000000000000     
   2.3940154455251737E-002  0.18011608488938333        0.0000000000000000     
   2.4505638749888262E-002  0.19633809931028837        0.0000000000000000     
   2.4931033075642067E-002  0.21287426681899704        0.0000000000000000     
   2.5216337432513145E-002  0.22972458741550925        0.0000000000000000     
   1.1469641720789035E-002  0.16405303878228120        0.0000000000000000     
   1.1819366466516833E-002  0.17999208142463494        0.0000000000000000     
   1.2096417166867291E-002  0.19624124689737391        0.0000000000000000     
   1.2300793821840404E-002  0.21280053520049810        0.0000000000000000     
   1.2432496431436176E-002  0.22966994633400753        0.0000000000000000     
  -7.7661835296005677E-014  0.16400131052428402        0.0000000000000000     
  -6.5645839458783328E-014  0.17995074693638599        0.0000000000000000     
  -5.5297129722409188E-014  0.19620896275973437        0.0000000000000000     
  -4.6615326616122887E-014  0.21277595799432913        0.0000000000000000     
  -3.9604604318288494E-014  0.22965173264017028        0.0000000000000000     
   5.1838053143470661E-002  0.22994315174150587        0.0000000000000000     
   5.2320994512535739E-002  0.24694122762484841        0.0000000000000000     
   5.2712555541050810E-002  0.26405726426035503        0.0000000000000000     
   5.3012736229015867E-002  0.28129126164802576        0.0000000000000000     
   5.3221536576430903E-002  0.29864321978786057        0.0000000000000000     
   3.8351523003191307E-002  0.22981565588467531        0.0000000000000000     
   3.8689406206465042E-002  0.24676897865272193        0.0000000000000000     
   3.8983693103138158E-002  0.26367107070366153        0.0000000000000000     
   3.9234383693210632E-002  0.28052193203749404        0.0000000000000000     
   3.9441477976682487E-002  0.29732156265421938        0.0000000000000000     
   2.5216337432513145E-002  0.22972458741550925        0.0000000000000000     
   2.5425377685679894E-002  0.24664594367262985        0.0000000000000000     
   2.5621979700320690E-002  0.26339521816316364        0.0000000000000000     
   2.5806143476435534E-002  0.27997241088711056        0.0000000000000000     
   2.5977869014024421E-002  0.29637752184447069        0.0000000000000000     
   1.2432496431436176E-002  0.22966994633400753        0.0000000000000000     
   1.2528908950180285E-002  0.24657212268457201        0.0000000000000000     
   1.2627415332598407E-002  0.26322970663886136        0.0000000000000000     
   1.2728015578690544E-002  0.27964269819687559        0.0000000000000000     
   1.2830709688456695E-002  0.29581109735861477        0.0000000000000000     
  -3.9604604318288494E-014  0.22965173264017028        0.0000000000000000     
  -3.3786341779862283E-014  0.24654751568854857        0.0000000000000000     
  -2.8695145218304852E-014  0.26317453613075492        0.0000000000000000     
  -2.4327382556338373E-014  0.27953279396678921        0.0000000000000000     
  -2.0684842727547448E-014  0.29562228919665140        0.0000000000000000     
  -3.8292459481059637E-013   5.5013813207386297E-002   0.0000000000000000     
  -3.0431776890105233E-013   6.6430930484416784E-002   0.0000000000000000     
  -2.4048493231509926E-013   7.8532255472351681E-002   0.0000000000000000     
  -1.9142982555023225E-013   9.1317788171190961E-002   0.0000000000000000     
  -1.5714686496526298E-013  0.10478752858093464        0.0000000000000000     
  -6.1326258599709825E-003   5.5132699992439402E-002   0.0000000000000000     
  -7.1184724575756170E-003   6.6540643286974635E-002   0.0000000000000000     
  -8.0004584966069572E-003   7.8633564779074225E-002   0.0000000000000000     
  -8.7785839770649961E-003   9.1411464468738171E-002   0.0000000000000000     
  -9.4528488989497408E-003  0.10487434235596645        0.0000000000000000     
  -1.3000119301328486E-002   5.5489360347707802E-002   0.0000000000000000     
  -1.4826812389501743E-002   6.6869781694740366E-002   0.0000000000000000     
  -1.6478356544258270E-002   7.8937492699314590E-002   0.0000000000000000     
  -1.7954751765598066E-002   9.1692493361430469E-002   0.0000000000000000     
  -1.9255998053521125E-002  0.10513478368108801        0.0000000000000000     
  -2.0602480324455434E-002   5.6083794273191497E-002   0.0000000000000000     
  -2.3125019796082696E-002   6.7418345707713975E-002   0.0000000000000000     
  -2.5433694143194432E-002   7.9444039233072763E-002   0.0000000000000000     
  -2.7528503365790637E-002   9.2160874849267910E-002   0.0000000000000000     
  -2.9409447463871301E-002  0.10556885255629936        0.0000000000000000     
  -2.8939708929351833E-002   5.6916001768890487E-002   0.0000000000000000     
  -3.2013094677318485E-002   6.8186335325895478E-002   0.0000000000000000     
  -3.4866471293415441E-002   8.0153204380348786E-002   0.0000000000000000     
  -3.7499838777642694E-002   9.2816608932250452E-002   0.0000000000000000     
  -3.9913197130000265E-002  0.10617654898160045        0.0000000000000000     
  -1.5714686496526298E-013  0.10478752858093464        0.0000000000000000     
  -1.3200985443662105E-013  0.11884727315129089        0.0000000000000000     
  -1.1038240634031471E-013  0.13340281833196788        0.0000000000000000     
  -9.2267827492970023E-014  0.14845416412296558        0.0000000000000000     
  -7.7661835296005677E-014  0.16400131052428402        0.0000000000000000     
  -9.4528488989497408E-003  0.10487434235596645        0.0000000000000000     
  -1.0045649432272215E-002  0.11892703612211968        0.0000000000000000     
  -1.0579381747043455E-002  0.13347438344855841        0.0000000000000000     
  -1.1054045843263458E-002  0.14851638433528266        0.0000000000000000     
  -1.1469641720932221E-002  0.16405303878229244        0.0000000000000000     
  -1.9255998053521125E-002  0.10513478368108801        0.0000000000000000     
  -2.0414913303077032E-002  0.11916632503461060        0.0000000000000000     
  -2.1464315409315357E-002  0.13368907879832159        0.0000000000000000     
  -2.2404204372236107E-002  0.14870304497222098        0.0000000000000000     
  -2.3234580191839285E-002  0.16420822355630876        0.0000000000000000     
  -2.9409447463871301E-002  0.10556885255629936        0.0000000000000000     
  -3.1107791612546440E-002  0.11956513988876366        0.0000000000000000     
  -3.2654800986926094E-002  0.13404690438125738        0.0000000000000000     
  -3.4050475587010229E-002  0.14901414603378046        0.0000000000000000     
  -3.5294815412798844E-002  0.16446686484633291        0.0000000000000000     
  -3.9913197130000265E-002  0.10617654898160045        0.0000000000000000     
  -4.2124284360680470E-002  0.12012348068457884        0.0000000000000000     
  -4.4150838479875651E-002  0.13454786019736573        0.0000000000000000     
  -4.5992859487585795E-002  0.14944968751996110        0.0000000000000000     
  -4.7650347383810916E-002  0.16482896265236496        0.0000000000000000     
  -7.7661835296005677E-014  0.16400131052428402        0.0000000000000000     
  -6.5645839458783328E-014  0.17995074693638599        0.0000000000000000     
  -5.5297129722409188E-014  0.19620896275973437        0.0000000000000000     
  -4.6615326616122887E-014  0.21277595799432913        0.0000000000000000     
  -3.9604604318288494E-014  0.22965173264017028        0.0000000000000000     
  -1.1469641720932221E-002  0.16405303878229244        0.0000000000000000     
  -1.1819366466638136E-002  0.17999208142463843        0.0000000000000000     
  -1.2096417166969582E-002  0.19624124689737146        0.0000000000000000     
  -1.2300793821926568E-002  0.21280053520049141        0.0000000000000000     
  -1.2432496431509087E-002  0.22966994633399843        0.0000000000000000     
  -2.3234580191839285E-002  0.16420822355630876        0.0000000000000000     
  -2.3940154455343070E-002  0.18011608488939426        0.0000000000000000     
  -2.4505638749965641E-002  0.19633809931028681        0.0000000000000000     
  -2.4931033075707005E-002  0.21287426681898636        0.0000000000000000     
  -2.5216337432567161E-002  0.22972458741549295        0.0000000000000000     
  -3.5294815412798844E-002  0.16446686484633291        0.0000000000000000     
  -3.6362363966180443E-002  0.18032275733065339        0.0000000000000000     
  -3.7227664749043474E-002  0.19649951999848037        0.0000000000000000     
  -3.7890717761387929E-002  0.21299715284981385        0.0000000000000000     
  -3.8351523003213830E-002  0.22981565588465391        0.0000000000000000     
  -4.7650347383810916E-002  0.16482896265236496        0.0000000000000000     
  -4.9085994999150270E-002  0.18061209874841583        0.0000000000000000     
  -5.0262495164203079E-002  0.19672550896195215        0.0000000000000000     
  -5.1179847878969356E-002  0.21316919329297399        0.0000000000000000     
  -5.1838053143449095E-002  0.22994315174148131        0.0000000000000000     
  -3.9604604318288494E-014  0.22965173264017028        0.0000000000000000     
  -3.3786341779862283E-014  0.24654751568854857        0.0000000000000000     
  -2.8695145218304852E-014  0.26317453613075492        0.0000000000000000     
  -2.4327382556338373E-014  0.27953279396678921        0.0000000000000000     
  -2.0684842727547448E-014  0.29562228919665140        0.0000000000000000     
  -1.2432496431509087E-002  0.22966994633399843        0.0000000000000000     
  -1.2528908950242066E-002  0.24657212268456030        0.0000000000000000     
  -1.2627415332650421E-002  0.26322970663884510        0.0000000000000000     
  -1.2728015578734157E-002  0.27964269819685261        0.0000000000000000     
  -1.2830709688493265E-002  0.29581109735858313        0.0000000000000000     
  -2.5216337432567161E-002  0.22972458741549295        0.0000000000000000     
  -2.5425377685724292E-002  0.24664594367260806        0.0000000000000000     
  -2.5621979700356574E-002  0.26339521816313294        0.0000000000000000     
  -2.5806143476464007E-002  0.27997241088706759        0.0000000000000000     
  -2.5977869014046591E-002  0.29637752184441224        0.0000000000000000     
  -3.8351523003213830E-002  0.22981565588465391        0.0000000000000000     
  -3.8689406206480467E-002  0.24676897865269173        0.0000000000000000     
  -3.8983693103147164E-002  0.26367107070361845        0.0000000000000000     
  -3.9234383693213887E-002  0.28052193203743425        0.0000000000000000     
  -3.9441477976680669E-002  0.29732156265413889        0.0000000000000000     
  -5.1838053143449095E-002  0.22994315174148131        0.0000000000000000     
  -5.2320994512510613E-002  0.24694122762481141        0.0000000000000000     
  -5.2712555541022173E-002  0.26405726426030179        0.0000000000000000     
  -5.3012736228983802E-002  0.28129126164795226        0.0000000000000000     
  -5.3221536576395494E-002  0.29864321978776298        0.0000000000000000     
  -2.8939708929351833E-002   5.6916001768890487E-002   0.0000000000000000     
  -3.2013094677318485E-002   6.8186335325895478E-002   0.0000000000000000     
  -3.4866471293415441E-002   8.0153204380348786E-002   0.0000000000000000     
  -3.7499838777642694E-002   9.2816608932250452E-002   0.0000000000000000     
  -3.9913197130000265E-002  0.10617654898160045        0.0000000000000000     
  -3.7651360348386821E-002   5.7984180898641144E-002   0.0000000000000000     
  -4.1296400031566129E-002   6.9175994362139406E-002   0.0000000000000000     
  -4.4711619810437850E-002   8.1069252075138459E-002   0.0000000000000000     
  -4.7897019685001992E-002   9.3663954037638358E-002   0.0000000000000000     
  -5.0852599655258561E-002  0.10696010024963903        0.0000000000000000     
  -4.6376989813929556E-002   5.9286529726279853E-002   0.0000000000000000     
  -5.0780298857182660E-002   7.0389566629300321E-002   0.0000000000000000     
  -5.4904071509778218E-002   8.2196446251437669E-002   0.0000000000000000     
  -5.8748307771716232E-002   9.4707168592691862E-002   0.0000000000000000     
  -6.2313007642996701E-002  0.10792173365306294        0.0000000000000000     
  -5.5116597325980010E-002   6.0823048251806587E-002   0.0000000000000000     
  -6.0464791154168085E-002   7.1827052127378235E-002   0.0000000000000000     
  -6.5443826391436546E-002   8.3534786909246359E-002   0.0000000000000000     
  -7.0053703037785436E-002   9.5946252597411005E-002   0.0000000000000000     
  -7.4294421093214713E-002  0.10906144919187211        0.0000000000000000     
  -6.3870182884538204E-002   6.2593736475221359E-002   0.0000000000000000     
  -7.0349876922522384E-002   7.3488450856373122E-002   0.0000000000000000     
  -7.6330884455412834E-002   8.5084274048564584E-002   0.0000000000000000     
  -8.1813205483209570E-002   9.7381206051795732E-002   0.0000000000000000     
  -8.6796840005912562E-002  0.11037924686606657        0.0000000000000000     
  -3.9913197130000265E-002  0.10617654898160045        0.0000000000000000     
  -4.2124284360680470E-002  0.12012348068457884        0.0000000000000000     
  -4.4150838479875651E-002  0.13454786019736573        0.0000000000000000     
  -4.5992859487585795E-002  0.14944968751996110        0.0000000000000000     
  -4.7650347383810916E-002  0.16482896265236496        0.0000000000000000     
  -5.0852599655258561E-002  0.10696010024963903        0.0000000000000000     
  -5.3583743675535901E-002  0.12084233662279430        0.0000000000000000     
  -5.6095835700162390E-002  0.13519530906875785        0.0000000000000000     
  -5.8388875729138021E-002  0.15001901758752972        0.0000000000000000     
  -6.0462863762462772E-002  0.16531346217910992        0.0000000000000000     
  -6.2313007642996701E-002  0.10792173365306294        0.0000000000000000     
  -6.5605521685169546E-002  0.12172269690414816        0.0000000000000000     
  -6.8633200459784660E-002  0.13599261381754488        0.0000000000000000     
  -7.1396043966842043E-002  0.15073148439325312        0.0000000000000000     
  -7.3894052206341709E-002  0.16593930863127274        0.0000000000000000     
  -7.4294421093214713E-002  0.10906144919187211        0.0000000000000000     
  -7.8189618389581383E-002  0.12276456152864047        0.0000000000000000     
  -8.1762932758742440E-002  0.13693977444372685        0.0000000000000000     
  -8.5014364200697898E-002  0.15158708793713119        0.0000000000000000     
  -8.7943912715447728E-002  0.16670650200885354        0.0000000000000000     
  -8.6796840005912562E-002  0.11037924686606657        0.0000000000000000     
  -9.1336033788771420E-002  0.12396793049627117        0.0000000000000000     
  -9.5485032597035779E-002  0.13803679094730367        0.0000000000000000     
  -9.9243836430705556E-002  0.15258582821916400        0.0000000000000000     
 -0.10261244528978081       0.16761504231185223        0.0000000000000000     
  -4.7650347383810916E-002  0.16482896265236496        0.0000000000000000     
  -4.9085994999150270E-002  0.18061209874841583        0.0000000000000000     
  -5.0262495164203079E-002  0.19672550896195215        0.0000000000000000     
  -5.1179847878969356E-002  0.21316919329297399        0.0000000000000000     
  -5.1838053143449095E-002  0.22994315174148131        0.0000000000000000     
  -6.0462863762462772E-002  0.16531346217910992        0.0000000000000000     
  -6.2276295783915858E-002  0.18101167228081258        0.0000000000000000     
  -6.3787667777276388E-002  0.19704667732995199        0.0000000000000000     
  -6.4996979742544383E-002  0.21341847732652819        0.0000000000000000     
  -6.5904231679719844E-002  0.23012707227054111        0.0000000000000000     
  -7.3894052206341709E-002  0.16593930863127274        0.0000000000000000     
  -7.6098514550140522E-002  0.18154904106597472        0.0000000000000000     
  -7.7980720370095347E-002  0.19749363623172986        0.0000000000000000     
  -7.9540669666206154E-002  0.21377309412853809        0.0000000000000000     
  -8.0778362438472986E-002  0.23038741475639946        0.0000000000000000     
  -8.7943912715447728E-002  0.16670650200885354        0.0000000000000000     
  -9.0552651297824305E-002  0.18222420510390219        0.0000000000000000     
  -9.2841652942659947E-002  0.19806638566728560        0.0000000000000000     
  -9.4810917649954696E-002  0.21423304369900362        0.0000000000000000     
  -9.6460445419708496E-002  0.23072417919905638        0.0000000000000000     
 -0.10261244528978081       0.16761504231185223        0.0000000000000000     
 -0.10563870602696714       0.18303716439459508        0.0000000000000000     
 -0.10837046549497019       0.19876492563661927        0.0000000000000000     
 -0.11080772369378994       0.21479832603792487        0.0000000000000000     
 -0.11295048062342641       0.23113736559851178        0.0000000000000000     
  -5.1838053143449095E-002  0.22994315174148131        0.0000000000000000     
  -5.2320994512510613E-002  0.24694122762481141        0.0000000000000000     
  -5.2712555541022173E-002  0.26405726426030179        0.0000000000000000     
  -5.3012736228983802E-002  0.28129126164795226        0.0000000000000000     
  -5.3221536576395494E-002  0.29864321978776298        0.0000000000000000     
  -6.5904231679719844E-002  0.23012707227054111        0.0000000000000000     
  -6.6585167785430888E-002  0.24715575327902284        0.0000000000000000     
  -6.7115532256305621E-002  0.26448781146900546        0.0000000000000000     
  -6.7495325092344072E-002  0.28212324684048906        0.0000000000000000     
  -6.7724546293546212E-002  0.30006205939347358        0.0000000000000000     
  -8.0778362438472986E-002  0.23038741475639946        0.0000000000000000     
  -8.1746951206857529E-002  0.24740561830538171        0.0000000000000000     
  -8.2499588491321538E-002  0.26489672496555244        0.0000000000000000     
  -8.3036274291864998E-002  0.28286073473691176        0.0000000000000000     
  -8.3357008608487923E-002  0.30129764761945960        0.0000000000000000     
  -9.6460445419708496E-002  0.23072417919905638        0.0000000000000000     
  -9.7806344776790538E-002  0.24769082270388795        0.0000000000000000     
  -9.8864724246069902E-002  0.26528400474994257        0.0000000000000000     
  -9.9635583827546600E-002  0.28350372533722035        0.0000000000000000     
 -0.10011892352122066       0.30234998446572109        0.0000000000000000     
 -0.11295048062342641       0.23113736559851178        0.0000000000000000     
 -0.11476334849522990       0.24801136647454164        0.0000000000000000     
 -0.11621093952055073       0.26564965082217601        0.0000000000000000     
 -0.11729325369938888       0.28405221864141478        0.0000000000000000     
 -0.11801029103174442       0.30321906993225806        0.0000000000000000     
 </DataArray>
 <DataArray  type="Float64" Name="stress" NumberOfComponents="3" format="ascii">
   6501315553.9336271        138132516.50114679        658554606.84172475     
   6011440016.3178787        101010874.09882617        465188781.20463276     
   5522791560.1275387        67979503.114520311        327015855.67555106     
   5035370185.3626032        39038403.548237801        244035830.25448239     
   4549175892.0230656        14187575.399948835        216248704.94142538     
   5313433436.0564251        6570791.0936563015        703584696.63596070     
   4956956728.2391424       -377410.65739774704        580091186.12059939     
   4600912638.8344564       -5883551.0331151485        497056158.26882774     
   4245301167.8423743       -9947630.0334920883        454479613.08064675     
   3890122315.2628927       -12569647.658528090        452361550.55605614     
   4343469505.6224079       -59615478.080878735        745291219.99985731     
   4078293292.0480800       -49019739.847321272        690743151.09129989     
   3812755233.8735518       -39630150.281097412        661919147.40190899     
   3546855331.0988245       -31446709.382210255        658819208.93167698     
   3280593583.7238965       -24469417.150654078        681443335.68060815     
   3591423762.6315680       -60426291.022461653        783674176.93342769     
   3375449707.7446985       -44916113.470940351        797144676.11673748     
   3158319345.2448282       -33260294.629431963        821604823.07478344     
   2940032675.1319566       -25458834.497924447        857054617.80756986     
   2720589697.4060845       -21511733.076422095        903494060.31509042     
   3057296207.0839086        4138352.2689105272        818733567.43666637     
   2848425975.3289995        11933468.471740246        899295761.19690657     
   2637604972.9482861        13226015.921891451        976113185.28746045     
   2424833199.9417672        8015994.6193636656        1049185839.7083259     
   2210110656.3094482       -3696595.4358391762        1118513724.4595029     
   4549175892.0230656        14187575.399948835        216248704.94142538     
   4176379731.5247822        20157625.833281994        148134385.49453861     
   3800247548.1038923        15007599.857939482        107322555.13406166     
   3420779341.7603960       -1262502.5260946751        93813213.859990999     
   3037975112.4943066       -28652681.318781376        107606361.67233337     
   3890122315.2628927       -12569647.658528090        452361550.55605614     
   3584145013.3803678       -2468620.1939263344        396519350.42525470     
   3276391739.1603427        1712499.4790041447        363820480.82833642     
   2966862492.6028080       -26288.639755725861        354264941.76530486     
   2655557273.7077727       -7684984.5501980782        367852733.23615354     
   3280593583.7238965       -24469417.150654078        681443335.68060815     
   3029551830.3070655       -13802405.699793696        639693313.88184404     
   2778294155.1378260       -3855133.4236173630        616927464.06443620     
   2526820558.2161813        5372399.6778681278        613145786.22838593     
   2275131039.5421290        13880193.604662776        628348280.37369943     
   2720589697.4060845       -21511733.076422095        903494060.31509042     
   2512600182.3048697       -13843730.684326053        877656275.86431086     
   2305954796.0363460       -1695298.8499332666        866643504.84236026     
   2100653538.6005161        14933562.426778913        870455747.24924624     
   1896696409.9973762        36042853.145789146        889093003.08495939     
   2210110656.3094482       -3696595.4358391762        1118513724.4595029     
   2033290069.3737798       -2592595.1475327015        1110408236.3726547     
   1859373661.8559000        8192003.2000683546        1112968603.1621103     
   1688361433.7558141        28657199.606981874        1126194824.8278749     
   1520253385.0735152        58802994.073186159        1150086901.3699477     
   3037975112.4943066       -28652681.318781376        107606361.67233337     
   2758104292.7028661       -19151352.569559097        63850317.241846807     
   2485533112.1194377        14682106.873044848        6582749.3482982181     
   2220261570.7440224        72847697.009023905       -64196342.008323923     
   1962289668.5766234        155345417.83838534       -148486956.82800552     
   2655557273.7077727       -7684984.5501980782        367852733.23615354     
   2347940164.5278273       -9917148.3662524223        335943171.99051893     
   2044947444.7270453        3265319.0815726519        298909563.73186374     
   1746579114.3054373        31862417.793308854        256751908.46017680     
   1452835173.2629869        75874147.768904269        209470206.17546734     
   2275131039.5421290        13880193.604662776        628348280.37369943     
   1963731859.4023643        7103802.7519255877        605164077.51259840     
   1654281818.8129106        6824543.7335641384        585243304.08850801     
   1346780917.7737823        13042416.549626291        568585960.10143507     
   1041229156.2849795        25757421.200095236        555192045.55137658     
   1896696409.9973762        36042853.145789146        889093003.08495939     
   1605479377.3264709        31911500.784961641        871513033.80807173     
   1313536234.3770349        25359780.829040110        865583970.41824007     
   1020866981.1490793        16387693.278052628        871305812.91545546     
   727471617.64259696        4995238.1319753230        888678561.29972887     
   1520253385.0735152        58802994.073186159        1150086901.3699477     
   1273182718.3001547        64505945.732881010        1134990040.8769524     
   1022710691.4194227        58871030.368005216        1139931562.7210476     
   768837304.43131995        41898247.978559554        1164911466.9022431     
   511562557.33584529        13587598.564541340        1209929753.4205222     
   1962289668.5766234        155345417.83838534       -148486956.82800552     
   1612763511.0669160        159144134.86497557       -55261359.088972695     
   1222157894.2172668        26011320.758442342        67817002.739891574     
   790472818.02768052       -244053024.48124230        220748128.65859690     
   317708282.49815887       -651048900.85400581        403532018.66712725     
   1452835173.2629869        75874147.768904269        209470206.17546734     
   1172336373.9414041        60941790.986642957        284940602.30598092     
   845729034.07089031       -107685700.95872700        387978757.67803860     
   473013153.65145707       -430008328.06714296        518584672.29162157     
   54188732.683098853       -906026090.33866405        676758346.14675176     
   1041229156.2849795        25757421.200095236        555192045.55137658     
   823229129.87066805       -9864584.9752851725        607039978.66289258     
   554091481.69844222       -215945330.34370533        684170666.16764843     
   233816211.76830572       -592484814.90516567        786584108.06564009     
  -137596679.91974619       -1139483038.6596711        914280304.35687196     
   727471617.64259696        4995238.1319753230        888678561.29972887     
   565441778.85470831       -53274993.020766258        911036769.98175669     
   347245237.09991747       -298767567.39650631        956392728.20872819     
   72881992.378222197       -731482484.99525928        1024746435.9806299     
  -257647955.31036648       -1351419745.8170042        1116097893.2974794     
   511562557.33584529        13587598.564541340        1209929753.4205222     
   398974320.89353085       -69289433.149804354        1196930976.2625761     
   225190300.27532357       -356152412.11712044        1204644943.8012688     
  -9789504.5187812448       -847001338.33742559        1233071656.0366066     
  -305965093.48876655       -1541836211.8106711        1282211112.9685838     
   3057296207.0839086        4138352.2689105272        818733567.43666637     
   2848425975.3289995        11933468.471740246        899295761.19690657     
   2637604972.9482861        13226015.921891451        976113185.28746045     
   2424833199.9417672        8015994.6193636656        1049185839.7083259     
   2210110656.3094482       -3696595.4358391762        1118513724.4595029     
   2548194272.4316359        79670399.324205160        1114776212.1656129     
   2339998802.3554277        70053897.600347519        1139808493.1519511     
   2130340254.3099699        55560469.312321186        1173122656.9285216     
   1919218628.2952569        36190114.460118175        1214718703.4953232     
   1706633924.3112957        11942833.043748260        1264596632.8523571     
   1868944259.7124696        104158022.95942998        1403759736.2691481     
   1695785415.4861636        87438462.560247004        1373831079.2475622     
   1521651185.9471548        67467617.785396636        1364210957.4761262     
   1346541571.0954475        44245488.634882390        1374899370.9548433     
   1170456570.9310422        17772075.108704269        1405896319.6837111     
   1019546168.9264108        77601223.174587458        1685684139.7472713     
   915785814.72120202        64087163.351435602        1601363519.4837379     
   811537767.85984409        48947461.341123134        1549378086.9302750     
   706802028.34234035        32182117.143655896        1529727842.0868843     
   601578596.16868937        13791130.759030968        1542412784.9535651     
   7.3458089428118753E-002  -3.0322356347423696E-002   1960549422.5999830     
   6.0546714162481440E-002  -2.6081426395885777E-002   1822405813.8604820     
   4.8037947246433468E-002  -2.0495693054821816E-002   1728624045.2909691     
   3.5934670989750311E-002  -1.3557630293151433E-002   1679204116.8914466     
   2.4236382131994978E-002  -5.2723850926165248E-003   1674146028.6619151     
   2210110656.3094482       -3696595.4358391762        1118513724.4595029     
   2033290069.3737798       -2592595.1475327015        1110408236.3726547     
   1859373661.8559000        8192003.2000683546        1112968603.1621103     
   1688361433.7558141        28657199.606981874        1126194824.8278749     
   1520253385.0735152        58802994.073186159        1150086901.3699477     
   1706633924.3112957        11942833.043748260        1264596632.8523571     
   1560372832.3982394        8677137.7491800189        1249602603.1368809     
   1416289875.0481830        12671890.997947931        1248458413.6969998     
   1274385052.2611382        23927092.790085196        1261164064.5327144     
   1134658364.0370936        42442743.125558376        1287719555.6440229     
   1170456570.9310422        17772075.108704269        1405896319.6837111     
   1063852075.1814178        12865814.573501229        1383166696.0090246     
   958699669.14001274        12799853.065694690        1377470898.0092225     
   854999352.80682909        17574190.585291713        1388808925.6843040     
   752751126.18186355        27188827.132286429        1417180779.0342686     
   601578596.16868937        13791130.759030968        1542412784.9535651     
   543727797.72332168        9973435.3254436255        1511100514.9890859     
   486603044.13138866        8575889.4033053815        1500006056.0987780     
   430204335.39289081        9598492.9926162362        1509129408.2826431     
   374531671.50782585        13041246.093373060        1538470571.5406783     
   2.4236382131994978E-002  -5.2723850926165248E-003   1674146028.6619151     
   2.3948334158243333E-002   5.0029120040845669E-003   1633404060.0770614     
   2.2309718175414706E-002   1.0776315737195737E-002   1616063887.9656668     
   1.9320419806137065E-002   1.2047791793505375E-002   1622125512.3277309     
   1.4980782182526532E-002   8.8174431126483190E-003   1651588933.1632590     
   1520253385.0735152        58802994.073186159        1150086901.3699477     
   1273182718.3001547        64505945.732881010        1134990040.8769524     
   1022710691.4194227        58871030.368005216        1139931562.7210476     
   768837304.43131995        41898247.978559554        1164911466.9022431     
   511562557.33584529        13587598.564541340        1209929753.4205222     
   1134658364.0370936        42442743.125558376        1287719555.6440229     
   941034819.45828247        44223793.519799739        1271411927.6796510     
   744860254.79901242        37501443.645846218        1277084142.4352503     
   546134670.05928469        22275693.503702193        1304736199.9108267     
   344858065.23909688       -1453456.9066466540        1354368100.1063714     
   752751126.18186355        27188827.132286429        1417180779.0342686     
   618121733.46297455        26712085.160692722        1400654446.9632490     
   481791660.69053990        20566409.677278608        1408049417.9950829     
   343760907.86455804        8751800.6820407510        1439365692.1297691     
   204029474.98502612       -8731741.8250296712        1494603269.3673077     
   374531671.50782585        13041246.093373060        1538470571.5406783     
   304443460.31423140        11970820.655555949        1522717598.7277436     
   233504909.09399945        8065928.4622822553        1532827389.4005425     
   161716017.84713227        1326569.5135578737        1568799943.5590734     
   89076786.573631525       -8247256.1906106845        1630635261.2033346     
   1.4980782182526532E-002   8.8174431126483190E-003   1651588933.1632590     
   1.2050067903209021E-002   4.3844049270279394E-003   1637601382.9731381     
   9.3952775962066592E-003   8.7180720518178568E-004   1651418056.6516328     
   7.0195909524622289E-003  -1.7114858065568539E-003   1693038954.1987386     
   4.9154819408953358E-003  -3.3881322655895849E-003   1762464075.6144574     
   511562557.33584529        13587598.564541340        1209929753.4205222     
   398974320.89353085       -69289433.149804354        1196930976.2625761     
   225190300.27532357       -356152412.11712044        1204644943.8012688     
  -9789504.5187812448       -847001338.33742559        1233071656.0366066     
  -305965093.48876655       -1541836211.8106711        1282211112.9685838     
   344858065.23909688       -1453456.9066466540        1354368100.1063714     
   286726108.63188338       -55718464.475344405        1284885783.1625216     
   182697313.89265665       -262972932.48408765        1229977392.7461951     
   32771681.021423548       -623216860.93285477        1189642928.8573852     
  -163050789.98182780       -1136450249.8216760        1163882391.4960985     
   204029474.98502612       -8731741.8250296712        1494603269.3673077     
   182814317.72970656       -39646569.393044092        1386486183.0220866     
   131001268.38626018       -172554370.58815071        1286804205.0352597     
   48590326.954676181       -407455145.41038138        1195557335.4068329     
  -64418506.565037876       -744348893.85971212        1112745574.1367953     
   89076786.573631525       -8247256.1906106845        1630635261.2033346     
   87238948.187000975       -21073747.902895320        1501732175.8412685     
   70102163.756118760       -84896726.429352075        1375125380.6684723     
   37666433.280977800       -199716191.76999742        1250814875.6849515     
  -10068243.238409653       -365532143.92480671        1128800660.8907001     
   4.9154819408953358E-003  -3.3881322655895849E-003   1762464075.6144574     
   3.7600874794715571E-003  -4.9204687943163860E-003   1630623761.6200643     
   2.2392801898466329E-003  -7.6715419731040613E-003   1494940919.6458237     
   3.3848839482235760E-004  -1.1688189335803985E-002   1355415549.6917241     
  -1.9328860856193796E-003  -1.6940112316562120E-002   1212047651.7577887     
   7.3458089428118753E-002  -3.0322356347423696E-002   1960549422.5999830     
   6.0546714162481440E-002  -2.6081426395885777E-002   1822405813.8604820     
   4.8037947246433468E-002  -2.0495693054821816E-002   1728624045.2909691     
   3.5934670989750311E-002  -1.3557630293151433E-002   1679204116.8914466     
   2.4236382131994978E-002  -5.2723850926165248E-003   1674146028.6619151     
  -1019546168.8014660       -77601223.286116153        1685684139.7957933     
  -915785814.61392343       -64087163.428856879        1601363519.5269036     
  -811537767.77169418       -48947461.389307529        1549378086.9684443     
  -706802028.27477527       -32182117.167462885        1529727842.1204190     
  -601578596.12317097       -13791130.763328969        1542412784.9828243     
  -1868944259.6242375       -104158023.12626410        1403759736.3764324     
  -1695785415.4064076       -87438462.667036057        1373831079.3414831     
  -1521651185.8796046       -67467617.844571114        1364210957.5574100     
  -1346541571.0438316       -44245488.658870339        1374899371.0242097     
  -1170456570.8990879       -17772075.109935105        1405896319.7418833     
  -2548194272.3948560       -79670399.550767064        1114776212.3418987     
  -2339998802.3169017       -70053897.740617752        1139808493.3042231     
  -2130340254.2756944       -55560469.386291862        1173122657.0578635     
  -1919218628.2712309       -36190114.487780809        1214718703.6028194     
  -1706633924.3035159       -11942833.045094609        1264596632.9390910     
  -3057296207.1133218       -4138352.5596225262        818733567.69219398     
  -2848425975.3454103       -11933468.649601817        899295761.41512108     
  -2637604972.9599624       -13226016.014462471        976113185.46980572     
  -2424833199.9569769       -8015994.6541960239        1049185839.8562480     
  -2210110656.3364553        3696595.4311891794        1118513724.5744481     
   2.4236382131994978E-002  -5.2723850926165248E-003   1674146028.6619151     
   2.3948334158243333E-002   5.0029120040845669E-003   1633404060.0770614     
   2.2309718175414706E-002   1.0776315737195737E-002   1616063887.9656668     
   1.9320419806137065E-002   1.2047791793505375E-002   1622125512.3277309     
   1.4980782182526532E-002   8.8174431126483190E-003   1651588933.1632590     
  -601578596.12317097       -13791130.763328969        1542412784.9828243     
  -543727797.67795944       -9973435.3099187911        1511100515.0117445     
  -486603044.08885515       -8575889.3768661916        1500006056.1153269     
  -430204335.35585815       -9598492.9641694427        1509129408.2935715     
  -374531671.47896183       -13041246.071811646        1538470571.5464809     
  -1170456570.8990879       -17772075.109935105        1405896319.7418833     
  -1063852075.1478029       -12865814.555232882        1383166696.0540295     
  -958699669.10737538       -12799853.036722004        1377470898.0420418     
  -854999352.77780795       -17574190.554413080        1388808925.7059190     
  -752751126.15909934       -27188827.108299255        1417180779.0456607     
  -1706633924.3035159       -11942833.045094609        1264596632.9390910     
  -1560372832.3855751       -8677137.7309164405        1249602603.2039196     
  -1416289875.0332470       -12671890.968781412        1248458413.7458141     
  -1274385052.2465343       -23927092.758695543        1261164064.5647767     
  -1134658364.0254316       -42442743.100646913        1287719555.6608086     
  -2210110656.3364553        3696595.4311891794        1118513724.5744481     
  -2033290069.3912807        2592595.1630132198        1110408236.4614096     
  -1859373661.8664711       -8192003.1730458736        1112968603.2266419     
  -1688361433.7620304       -28657199.577000260        1126194824.8701458     
  -1520253385.0779574       -58802994.048849285        1150086901.3919184     
   1.4980782182526532E-002   8.8174431126483190E-003   1651588933.1632590     
   1.2050067903209021E-002   4.3844049270279394E-003   1637601382.9731381     
   9.3952775962066592E-003   8.7180720518178568E-004   1651418056.6516328     
   7.0195909524622289E-003  -1.7114858065568539E-003   1693038954.1987386     
   4.9154819408953358E-003  -3.3881322655895849E-003   1762464075.6144574     
  -374531671.47896183       -13041246.071811646        1538470571.5464809     
  -304443460.29092741       -11970820.643313959        1522717598.7326021     
  -233504909.07571515       -8065928.4575584531        1532827389.4047966     
  -161716017.83332208       -1326569.5145333260        1568799943.5630603     
  -89076786.563746631        8247256.1857649013        1630635261.2073927     
  -752751126.15909934       -27188827.108299255        1417180779.0456607     
  -618121733.44450963       -26712085.146197081        1400654446.9727492     
  -481791660.67583507       -20566409.670481563        1408049418.0033629     
  -343760907.85307997       -8751800.6811633855        1439365692.1375046     
  -204029474.97624010        8731741.8217685372        1494603269.3751709     
  -1134658364.0254316       -42442743.100646913        1287719555.6608086     
  -941034819.44869614       -44223793.504266500        1271411927.6935811     
  -744860254.79096818       -37501443.637910277        1277084142.4473367     
  -546134670.05225873       -22275693.501616329        1304736199.9220750     
  -344858065.23256654        1453456.9046206176        1354368100.1177931     
  -1520253385.0779574       -58802994.048849285        1150086901.3919184     
  -1273182718.3034821       -64505945.717502356        1134990040.8950932     
  -1022710691.4211155       -58871030.359847426        1139931562.7367108     
  -768837304.43086362       -41898247.975911558        1164911466.9167650     
  -511562557.33272225       -13587598.565676123        1209929753.4352617     
   4.9154819408953358E-003  -3.3881322655895849E-003   1762464075.6144574     
   3.7600874794715571E-003  -4.9204687943163860E-003   1630623761.6200643     
   2.2392801898466329E-003  -7.6715419731040613E-003   1494940919.6458237     
   3.3848839482235760E-004  -1.1688189335803985E-002   1355415549.6917241     
  -1.9328860856193796E-003  -1.6940112316562120E-002   1212047651.7577887     
  -89076786.563746631        8247256.1857649013        1630635261.2073927     
  -87238948.179435864        21073747.894678656        1501732175.8442075     
  -70102163.751391515        84896726.416039735        1375125380.6703598     
  -37666433.279628068        199716191.74979198        1250814875.6858425     
   10068243.235863492        365532143.89597535        1128800660.8906753     
  -204029474.97624010        8731741.8217685372        1494603269.3751709     
  -182814317.72307181        39646569.386152454        1386486183.0279763     
  -131001268.38207664        172554370.57662475        1286804205.0393054     
  -48590326.953258127        407455145.39316982        1195557335.4091518     
   64418506.563384652        744348893.83580160        1112745574.1375308     
  -344858065.23256654        1453456.9046206176        1354368100.1177931     
  -286726108.62714744        55718464.469496012        1284885783.1713705     
  -182697313.88981193        262972932.47409964        1229977392.7526557     
  -32771681.020549655        623216860.91845739        1189642928.8616478     
   163050789.98063472        1136450249.8025498        1163882391.4983559     
  -511562557.33272225       -13587598.565676123        1209929753.4352617     
  -398974320.89167011        69289433.144692093        1196930976.2743897     
  -225190300.27459723        356152412.10846382        1204644943.8104122     
   9789504.5184974074        847001338.32563782        1233071656.0433307     
   305965093.48761159        1541836211.7962162        1282211112.9731443     
  -3057296207.1133218       -4138352.5596225262        818733567.69219398     
  -2848425975.3454103       -11933468.649601817        899295761.41512108     
  -2637604972.9599624       -13226016.014462471        976113185.46980572     
  -2424833199.9569769       -8015994.6541960239        1049185839.8562480     
  -2210110656.3364553        3696595.4311891794        1118513724.5744481     
  -3591423762.6985703        60426290.737319708        783674177.15408921     
  -3375449707.7958179        44916113.295582533        797144676.30150485     
  -3158319345.2883725        33260294.536146522        821604823.22513831     
  -2940032675.1762371        25458834.459012866        857054617.92499244     
  -2720589697.4594135        21511733.064172029        903494060.40106428     
  -4343469505.6953669        59615477.810798168        745291220.18416572     
  -4078293292.1021657        49019739.683988094        690743151.24108350     
  -3812755233.9171205        39630150.196652174        661919147.51867878     
  -3546855331.1402330        31446709.348799467        658819209.01695597     
  -3280593583.7715020        24469417.140420675        681443335.73591197     
  -5313433436.1037073       -6570791.3391885757        703584696.78242767     
  -4956956728.2644539        377410.51561260223        580091186.23385608     
  -4600912638.8462105        5883550.9670603275        497056158.35042351     
  -4245301167.8489690        9947630.0151569843        454479613.13213688     
  -3890122315.2727289        12569647.659925461        452361550.57898915     
  -6501315553.9235926       -138132516.71263456        658554606.94887245     
  -6011440016.2826920       -101010874.20955300        465188781.27982706     
  -5522791560.0756378       -67979503.152638912        327015855.72037995     
  -5035370185.3024387       -39038403.541891336        244035830.27054054     
  -4549175891.9630871       -14187575.377312422        216248704.93029711     
  -2210110656.3364553        3696595.4311891794        1118513724.5744481     
  -2033290069.3912807        2592595.1630132198        1110408236.4614096     
  -1859373661.8664711       -8192003.1730458736        1112968603.2266419     
  -1688361433.7620304       -28657199.577000260        1126194824.8701458     
  -1520253385.0779574       -58802994.048849285        1150086901.3919184     
  -2720589697.4594135        21511733.064172029        903494060.40106428     
  -2512600182.3470945        13843730.689148664        877656275.93164515     
  -2305954796.0694652        1695298.8651584387        866643504.89103067     
  -2100653538.6265309       -14933562.407813072        870455747.27922249     
  -1896696410.0182848       -36042853.129741073        889093003.09621966     
  -3280593583.7715020        24469417.140420675        681443335.73591197     
  -3029551830.3476582        13802405.701860428        639693313.92673433     
  -2778294155.1728268        3855133.4332543612        616927464.09689522     
  -2526820558.2470126       -5372399.6654069424        613145786.24639654     
  -2275131039.5702119       -13880193.594119430        628348280.37523699     
  -3890122315.2727289        12569647.659925461        452361550.57898915     
  -3584145013.3929706        2468620.2011451721        396519350.44667530     
  -3276391739.1765499       -1712499.4687547684        363820480.84423375     
  -2966862492.6234746        26288.650194883347        354264941.77166820     
  -2655557273.7337322        7684984.5580308437        367852733.22897428     
  -4549175891.9630871       -14187575.377312422        216248704.93029711     
  -4176379731.4830327       -20157625.812995195        148134385.49146768     
  -3800247548.0806379       -15007599.840869188        107322555.13304453     
  -3420779341.7559137        1262502.5390155315        93813213.855035350     
  -3037975112.5088525        28652681.326694489        107606361.65742862     
  -1520253385.0779574       -58802994.048849285        1150086901.3919184     
  -1273182718.3034821       -64505945.717502356        1134990040.8950932     
  -1022710691.4211155       -58871030.359847426        1139931562.7367108     
  -768837304.43086362       -41898247.975911558        1164911466.9167650     
  -511562557.33272225       -13587598.565676123        1209929753.4352617     
  -1896696410.0182848       -36042853.129741073        889093003.09621966     
  -1605479377.3429041       -31911500.774587214        871513033.81880581     
  -1313536234.3886883       -25359780.823310256        865583970.42892325     
  -1020866981.1556367       -16387693.275910616        871305812.92657447     
  -727471617.64374745       -4995238.1323920786        888678561.31175566     
  -2275131039.5702119       -13880193.594119430        628348280.37523699     
  -1963731859.4250894       -7103802.7445026636        605164077.51667464     
  -1654281818.8301878       -6824543.7289471626        585243304.09473431     
  -1346780917.7855000       -13042416.547439992        568585960.10941660     
  -1041229156.2910304       -25757421.199993730        555192045.56072330     
  -2655557273.7337322        7684984.5580308437        367852733.22897428     
  -2347940164.5500402        9917148.3727494478        335943171.98869860     
  -2044947444.7456143       -3265319.0767591000        298909563.73413694     
  -1746579114.3204575       -31862417.790495872        256751908.46529257     
  -1452835173.2745686       -75874147.768456042        209470206.18216160     
  -3037975112.5088525        28652681.326694489        107606361.65742862     
  -2758104292.7177477        19151352.577175021        63850317.234879941     
  -2485533112.1349735       -14682106.866764188        6582749.3471340854     
  -2220261570.7605047       -72847697.005064845       -64196342.005800538     
  -1962289668.5943711       -155345417.83781445       -148486956.82392675     
  -511562557.33272225       -13587598.565676123        1209929753.4352617     
  -398974320.89167011        69289433.144692093        1196930976.2743897     
  -225190300.27459723        356152412.10846382        1204644943.8104122     
   9789504.5184974074        847001338.32563782        1233071656.0433307     
   305965093.48761159        1541836211.7962162        1282211112.9731443     
  -727471617.64374745       -4995238.1323920786        888678561.31175566     
  -565441778.85611117        53274993.016889036        911036769.99091661     
  -347245237.10134959        298767567.38992369        956392728.21542382     
  -72881992.379467726        731482484.98670113        1024746435.9852697     
   257647955.30954927        1351419745.8072400        1116097893.3004572     
  -1041229156.2910304       -25757421.199993730        555192045.56072330     
  -823229129.87553036        9864584.9725941420        607039978.66953826     
  -554091481.70180571        215945330.33927196        684170666.17214501     
  -233816211.76985449        592484814.90003622        786584108.06854177     
   137596679.92033258        1139483038.6549110        914280304.35872686     
  -1452835173.2745686       -75874147.768456042        209470206.18216160     
  -1172336373.9499292       -60941790.988185465        284940602.31025571     
  -845729034.07597101        107685700.95649105        387978757.68058592     
  -473013153.65266120        430008328.06566942        518584672.29315567     
  -54188732.680031061        906026090.33924127        676758346.14795852     
  -1962289668.5943711       -155345417.83781445       -148486956.82392675     
  -1612763511.0793195       -159144134.86548573       -55261359.086933941     
  -1222157894.2238328       -26011320.758368790        67817002.740747303     
  -790472818.02791405        244053024.48352492        220748128.65909907     
  -317708282.49155021        651048900.86022496        403532018.66814953     
 </DataArray>
 <DataArray  type="Float64" Name="VM" NumberOfComponents="1" format="ascii">
   6533699102.0767641     
   6015778857.4971008     
   5518263251.5119076     
   5033742598.3678627     
   4557515914.9530573     
   5448192257.0354071     
   5057945067.8132133     
   4683662659.0829306     
   4322564840.7563953     
   3974418197.4050565     
   4560109249.8352060     
   4273894510.7939844     
   4000522960.5936179     
   3740967363.4322195     
   3498036918.9130259     
   3868000522.7098970     
   3667916189.4508162     
   3479401876.9901347     
   3304983803.6075268     
   3147935864.4589777     
   3368293190.6911769     
   3241277516.8671112     
   3127401599.8791900     
   3027014309.9363399     
   2940406692.6750145     
   4557515914.9530573     
   4174230405.7516999     
   3797318587.2246213     
   3425267055.1026707     
   3058087193.0426230     
   3974418197.4050565     
   3650566017.6975307     
   3335600540.9456267     
   3029663676.4458919     
   2734666032.5528474     
   3498036918.9130259     
   3232307613.7406616     
   2978496677.3417358     
   2738451966.2864485     
   2515809875.9452162     
   3147935864.4589777     
   2942613923.1864882     
   2752190504.1932116     
   2579666196.1431427     
   2429372987.6649323     
   2940406692.6750145     
   2799743931.1379356     
   2675481800.2007899     
   2570592578.7402983     
   2488640660.7333684     
   3058087193.0426230     
   2769938280.9911199     
   2478250905.5143480     
   2187576466.8412485     
   1906836480.3530166     
   2734666032.5528474     
   2423794480.0297194     
   2107886166.2726038     
   1787083716.6289561     
   1462151701.4917815     
   2515809875.9452162     
   2222839175.0177436     
   1937249175.1897318     
   1663217859.8884044     
   1408089785.8556900     
   2429372987.6649323     
   2192248622.4845018     
   1985048210.0002778     
   1817478955.4730573     
   1701427274.0427141     
   2488640660.7333684     
   2325432126.4117665     
   2210775164.3825965     
   2152140679.6475153     
   2155625197.2153573     
   1906836480.3530166     
   1542346458.4863365     
   1215053086.8168280     
   1011689500.6511375     
   1104609036.0179386     
   1462151701.4917815     
   1245076559.0177372     
   1126725025.1701641     
   1191150027.5352604     
   1498973541.4527168     
   1408089785.8556900     
   1338438243.2877605     
   1370245133.2432756     
   1549317433.2313302     
   1915278252.2595153     
   1701427274.0427141     
   1686016170.0749640     
   1748613187.7881317     
   1934943432.1780822     
   2298162480.3858228     
   2155625197.2153573     
   2118857598.9493411     
   2147385760.0583215     
   2295781458.4314475     
   2632740301.7490458     
   3368293190.6911769     
   3241277516.8671112     
   3127401599.8791900     
   3027014309.9363399     
   2940406692.6750145     
   3166197052.7704883     
   3035468021.6224742     
   2924333114.6017518     
   2835820465.3348989     
   2773080213.4649830     
   3036570465.5181751     
   2897808187.8322873     
   2792942290.8505697     
   2725178584.4102964     
   2697983760.9036622     
   3080742015.7497048     
   2911559044.9874234     
   2796959788.3942938     
   2738258611.3854537     
   2736951251.1440434     
   3395771210.6929965     
   3156499461.6152649     
   2994064673.6292024     
   2908466846.7348137     
   2899705980.9320989     
   2940406692.6750145     
   2799743931.1379356     
   2675481800.2007899     
   2570592578.7402983     
   2488640660.7333684     
   2773080213.4649830     
   2665674229.1770449     
   2581479372.0384135     
   2523042177.7699814     
   2493142181.6670189     
   2697983760.9036622     
   2618722927.3760700     
   2568905584.3949485     
   2550034807.6211567     
   2563612909.8282428     
   2736951251.1440434     
   2672188401.4052687     
   2642486995.1517720     
   2648292525.5323415     
   2690025053.0161095     
   2899705980.9320989     
   2829138821.3427572     
   2799104762.2338324     
   2809603803.6053252     
   2860635945.4572434     
   2488640660.7333684     
   2325432126.4117665     
   2210775164.3825965     
   2152140679.6475153     
   2155625197.2153573     
   2493142181.6670189     
   2386493455.9587121     
   2328330204.9245791     
   2322413272.8506961     
   2371153577.0150766     
   2563612909.8282428     
   2500355041.1657023     
   2484038435.1684213     
   2516060495.2750564     
   2597114283.4092927     
   2690025053.0161095     
   2654277931.8371406     
   2664842506.5977273     
   2722010119.6374593     
   2825889487.4816794     
   2860635945.4572434     
   2836408797.8545341     
   2860339978.6572866     
   2932429487.8654923     
   3052677325.4791555     
   2155625197.2153573     
   2118857598.9493411     
   2147385760.0583215     
   2295781458.4314475     
   2632740301.7490458     
   2371153577.0150766     
   2248129616.9198365     
   2165435448.1522589     
   2157695065.9309506     
   2279621083.2348895     
   2597114283.4092927     
   2410243285.0023656     
   2244356560.5379648     
   2115715274.0539246     
   2055447229.6693838     
   2825889487.4816794     
   2602977482.1161456     
   2385578053.5157619     
   2177714736.5456152     
   1988116608.0764794     
   3052677325.4791555     
   2824323203.1550331     
   2589313627.1403089     
   2347648597.4349642     
   2099328114.0390391     
   3395771210.6929965     
   3156499461.6152649     
   2994064673.6292024     
   2908466846.7348137     
   2899705980.9320989     
   3080742015.7739325     
   2911559045.0156131     
   2796959788.4267735     
   2738258611.4218211     
   2736951251.1831698     
   3036570465.5685520     
   2897808187.8923755     
   2792942290.9190016     
   2725178584.4846640     
   2697983760.9805851     
   3166197052.8420849     
   3035468021.7139235     
   2924333114.7072301     
   2835820465.4479222     
   2773080213.5784621     
   3368293190.7726121     
   3241277516.9856367     
   3127401600.0211067     
   3027014310.0884571     
   2940406692.8247509     
   2899705980.9320989     
   2829138821.3427572     
   2799104762.2338324     
   2809603803.6053252     
   2860635945.4572434     
   2736951251.1831698     
   2672188401.4360847     
   2642486995.1745391     
   2648292525.5472832     
   2690025053.0235128     
   2697983760.9805851     
   2618722927.4374304     
   2568905584.4409056     
   2550034807.6518059     
   2563612909.8438396     
   2773080213.5784621     
   2665674229.2692165     
   2581479372.1089363     
   2523042177.8183837     
   2493142181.6930652     
   2940406692.8247509     
   2799743931.2618928     
   2675481800.2979603     
   2570592578.8094153     
   2488640660.7733483     
   2860635945.4572434     
   2836408797.8545341     
   2860339978.6572866     
   2932429487.8654923     
   3052677325.4791555     
   2690025053.0235128     
   2654277931.8435292     
   2664842506.6036863     
   2722010119.6435070     
   2825889487.4882879     
   2563612909.8438396     
   2500355041.1788387     
   2484038435.1803131     
   2516060495.2868409     
   2597114283.4220243     
   2493142181.6930652     
   2386493455.9800596     
   2328330204.9431000     
   2322413272.8682609     
   2371153577.0335484     
   2488640660.7733483     
   2325432126.4438882     
   2210775164.4092560     
   2152140679.6713591     
   2155625197.2393179     
   3052677325.4791555     
   2824323203.1550331     
   2589313627.1403089     
   2347648597.4349642     
   2099328114.0390391     
   2825889487.4882879     
   2602977482.1207438     
   2385578053.5181336     
   2177714736.5450373     
   1988116608.0714304     
   2597114283.4220243     
   2410243285.0115972     
   2244356560.5432959     
   2115715274.0541739     
   2055447229.6625419     
   2371153577.0335484     
   2248129616.9338284     
   2165435448.1612206     
   2157695065.9335938     
   2279621083.2297082     
   2155625197.2393179     
   2118857598.9683323     
   2147385760.0716832     
   2295781458.4380093     
   2632740301.7482877     
   3368293190.7726121     
   3241277516.9856367     
   3127401600.0211067     
   3027014310.0884571     
   2940406692.8247509     
   3868000522.7699218     
   3667916189.5358024     
   3479401877.0931501     
   3304983803.7208319     
   3147935864.5738983     
   4560109249.8633881     
   4273894510.8387265     
   4000522960.6522412     
   3740967363.5005894     
   3498036918.9852886     
   5448192257.0188017     
   5057945067.8075008     
   4683662659.0879345     
   4322564840.7700748     
   3974418197.4232183     
   6533699101.9985361     
   6015778857.4262152     
   5518263251.4496479     
   5033742598.3133736     
   4557515914.9029255     
   2940406692.8247509     
   2799743931.2618928     
   2675481800.2979603     
   2570592578.8094153     
   2488640660.7733483     
   3147935864.5738983     
   2942613923.2849727     
   2752190504.2733369     
   2579666196.2022085     
   2429372987.6994901     
   3498036918.9852886     
   3232307613.8064241     
   2978496677.3990831     
   2738451966.3326898     
   2515809875.9763966     
   3974418197.4232183     
   3650566017.7204370     
   3335600540.9717731     
   3029663676.4734735     
   2734666032.5790205     
   4557515914.9029255     
   4174230405.7197533     
   3797318587.2097831     
   3425267055.1042433     
   3058087193.0595732     
   2488640660.7733483     
   2325432126.4438882     
   2210775164.4092560     
   2152140679.6713591     
   2155625197.2393179     
   2429372987.6994901     
   2192248622.5128665     
   1985048210.0237126     
   1817478955.4932847     
   1701427274.0619619     
   2515809875.9763966     
   2222839175.0443673     
   1937249175.2120528     
   1663217859.9069004     
   1408089785.8712006     
   2734666032.5790205     
   2423794480.0536990     
   2107886166.2938986     
   1787083716.6470313     
   1462151701.5060654     
   3058087193.0595732     
   2769938281.0093522     
   2478250905.5329871     
   2187576466.8593583     
   1906836480.3698521     
   2155625197.2393179     
   2118857598.9683323     
   2147385760.0716832     
   2295781458.4380093     
   2632740301.7482877     
   1701427274.0619619     
   1686016170.0895329     
   1748613187.7977467     
   1934943432.1823394     
   2298162480.3851156     
   1408089785.8712006     
   1338438243.2989640     
   1370245133.2500412     
   1549317433.2339308     
   1915278252.2593784     
   1462151701.5060654     
   1245076559.0278401     
   1126725025.1757991     
   1191150027.5371351     
   1498973541.4536729     
   1906836480.3698521     
   1542346458.4982331     
   1215053086.8235409     
   1011689500.6531192     
   1104609036.0197704     
 </DataArray>
 <DataArray  type="Float64" Name="strain" NumberOfComponents="3" format="ascii">
  0.10766459664972139       -3.0204369161315692E-002   2.8537366296474742E-002
   9.9685612568137183E-002  -2.8373685513275626E-002   2.0158180518867419E-002
   9.1706628486553032E-002  -2.6480966082062352E-002   1.4170687079273880E-002
   8.3727644404968854E-002  -2.4526210867675716E-002   1.0574885977694237E-002
   7.5748660323384676E-002  -2.2509419870116176E-002   9.3707772141284340E-003
   8.8524369978805473E-002  -2.6457653995387853E-002   3.0488670187558298E-002
   8.2617832523939366E-002  -2.4791073818819009E-002   2.5137284731892640E-002
   7.6711295069073177E-002  -2.3102622378057533E-002   2.1539100191649202E-002
   7.0804757614207028E-002  -2.1392299673103406E-002   1.9694116566828027E-002
   6.4898220159340853E-002  -1.9660105703956599E-002   1.9602333857429100E-002
   7.2689235817444520E-002  -2.2710938829460015E-002   3.2295952866660482E-002
   6.8216653566704602E-002  -2.1208462124362421E-002   2.9932203213956329E-002
   6.3744071315964684E-002  -1.9724278674052714E-002   2.8683163054082722E-002
   5.9271489065224794E-002  -1.8258388478530958E-002   2.8548832387039334E-002
   5.4798906814484877E-002  -1.6810791537797048E-002   2.9529211212826353E-002
   6.0159194165638447E-002  -1.8964223663532204E-002   3.3959214333781865E-002
   5.6482075696433015E-002  -1.7625850429905832E-002   3.4542935965058627E-002
   5.2804957227227632E-002  -1.6345934970048007E-002   3.5602875666573948E-002
   4.9127838758022235E-002  -1.5124477283958524E-002   3.7139033438328029E-002
   4.5450720288816852E-002  -1.3961477371637457E-002   3.9151409280320584E-002
   5.0934245023387253E-002  -1.5217508497604365E-002   3.5478454588922209E-002
   4.7414098913124619E-002  -1.4043238735449326E-002   3.8969482985199283E-002
   4.3893952802861971E-002  -1.2967591266043237E-002   4.2298238029123289E-002
   4.0373806692599302E-002  -1.1990566089386109E-002   4.5464719720694123E-002
   3.6853660582336661E-002  -1.1112163205477893E-002   4.8468928059911792E-002
   7.5748660323384676E-002  -2.2509419870116176E-002   9.3707772141284340E-003
   6.9505540729579957E-002  -2.0545938227069210E-002   6.4191567047633402E-003
   6.3262421135775182E-002  -1.8751111076220475E-002   4.6506440558093387E-003
   5.7019301541970407E-002  -1.7124938417570224E-002   4.0652392672662768E-003
   5.0776181948165688E-002  -1.5667420251117892E-002   4.6629423391344460E-003
   6.4898220159340853E-002  -1.9660105703956599E-002   1.9602333857429100E-002
   5.9748093323975765E-002  -1.7961868736800612E-002   1.7182505185094371E-002
   5.4597966488610691E-002  -1.6353417037818313E-002   1.5765554169227911E-002
   4.9447839653245583E-002  -1.4834750607009971E-002   1.5351480809829877E-002
   4.4297712817880530E-002  -1.3405869444375496E-002   1.5940285106899987E-002
   5.4798906814484877E-002  -1.6810791537797048E-002   2.9529211212826353E-002
   5.0561542533616728E-002  -1.5377799246531890E-002   2.7720043601546576E-002
   4.6324178252748524E-002  -1.3955722999416088E-002   2.6733523442792236E-002
   4.2086813971880348E-002  -1.2544562796449771E-002   2.6569650736563390E-002
   3.7849449691012171E-002  -1.1144318637632933E-002   2.7228425482860308E-002
   4.5450720288816852E-002  -1.3961477371637457E-002   3.9151409280320584E-002
   4.1945888358502798E-002  -1.2793729756263118E-002   3.8031771954120136E-002
   3.8441056428188763E-002  -1.1558028961013950E-002   3.7554551876502279E-002
   3.4936224497874709E-002  -1.0254374985889599E-002   3.7719749047467339E-002
   3.1431392567560661E-002  -8.8827678308903979E-003   3.8527363467014908E-002
   3.6853660582336661E-002  -1.1112163205477893E-002   4.8468928059911792E-002
   3.3901130798633994E-002  -1.0209660265994444E-002   4.8117690242815037E-002
   3.0948601014931326E-002  -9.1603349226116945E-003   4.8228639470358117E-002
   2.7996071231228659E-002  -7.9641871753293719E-003   4.8801775742541249E-002
   2.5043541447525991E-002  -6.6212170241478074E-003   4.9837099059364398E-002
   5.0776181948165688E-002  -1.5667420251117892E-002   4.6629423391344460E-003
   4.6064161641228896E-002  -1.4109710673006981E-002   2.7668470804800283E-003
   4.1352141334292075E-002  -1.2182963779379774E-002   2.8525247175958945E-004
   3.6640121027355255E-002  -9.8871795702363818E-003  -2.7818414870273700E-003
   3.1928100720418462E-002  -7.2223580455766934E-003  -6.4344347958802395E-003
   4.4297712817880530E-002  -1.3405869444375496E-002   1.5940285106899987E-002
   3.9181921817295046E-002  -1.1904986628743341E-002   1.4557537452922487E-002
   3.4066130816709561E-002  -1.0170315238942351E-002   1.2952747761714095E-002
   2.8950339816124077E-002  -8.2018552749720391E-003   1.1125916033274327E-002
   2.3834548815538592E-002  -5.9996067368331962E-003   9.0770422676035856E-003
   3.7849449691012171E-002  -1.1144318637632933E-002   2.7228425482860308E-002
   3.2693345309613112E-002  -9.7002625844797297E-003   2.6223776692212597E-002
   2.7537240928214024E-002  -8.1576666985051505E-003   2.5360543177168682E-002
   2.2381136546814909E-002  -6.5165309797084736E-003   2.4638724937728854E-002
   1.7225032165415849E-002  -4.7768554280899767E-003   2.4058321973892988E-002
   3.1431392567560661E-002  -8.8827678308903979E-003   3.8527363467014908E-002
   2.6598432118183038E-002  -7.4955385402163260E-003   3.7765564798349777E-002
   2.1765471668805381E-002  -6.1450181580678387E-003   3.7508638718123738E-002
   1.6932511219427727E-002  -4.8312066844445195E-003   3.7756585226336403E-002
   1.2099550770050073E-002  -3.5541041193467293E-003   3.8509404322988251E-002
   2.5043541447525991E-002  -6.6212170241478074E-003   4.9837099059364398E-002
   2.0897182243004839E-002  -5.2908144959527559E-003   4.9182901771334608E-002
   1.6750823038483686E-002  -4.1323696176303604E-003   4.9397034384578736E-002
   1.2604463833962534E-002  -3.1458823891806070E-003   5.0479496899097198E-002
   8.4581046294413820E-003  -2.3313528106035375E-003   5.2430289314889300E-002
   3.1928100720418462E-002  -7.2223580455766934E-003  -6.4344347958802395E-003
   2.6083671176790391E-002  -5.4114153075849880E-003  -2.3946588938554836E-003
   2.0239241633162236E-002  -5.6772674584456284E-003   2.9387367853953017E-003
   1.4394812089534220E-002  -8.0199144981591072E-003   9.5657522418725327E-003
   8.5503825459060101E-003  -1.2439356426724224E-002   1.7486387475575516E-002
   2.3834548815538592E-002  -5.9996067368331962E-003   9.0770422676035856E-003
   1.9234230610756853E-002  -4.8459853532629715E-003   1.2347426099925840E-002
   1.4633912405975141E-002  -6.0234068529999019E-003   1.6812412832715007E-002
   1.0033594201193333E-002  -9.5318712360430019E-003   2.2472002465970267E-002
   5.4332759964116351E-003  -1.5371378502393229E-002   2.9326194999692579E-002
   1.7225032165415849E-002  -4.7768554280899767E-003   2.4058321973892988E-002
   1.3769808422720894E-002  -4.2805553989414269E-003   2.6305065742058681E-002
   1.0314584680025898E-002  -6.3695462475539671E-003   2.9647395533931434E-002
   6.8593609373309231E-003  -1.1043827973927622E-002   3.4085311349511073E-002
   3.4041371946359200E-003  -1.8303400578062456E-002   3.9618813188797786E-002
   1.2099550770050073E-002  -3.5541041193467293E-003   3.8509404322988251E-002
   9.6904046126823039E-003  -3.7151254446196463E-003   3.9478260032542789E-002
   7.2812584553144898E-003  -6.7156856421080255E-003   4.1443684889044888E-002
   4.8721122979466670E-003  -1.2555784711812101E-002   4.4405678892493965E-002
   2.4629661405789136E-003  -2.1235422653731573E-002   4.8364242042890776E-002
   8.4581046294413820E-003  -2.3313528106035375E-003   5.2430289314889300E-002
   6.9960191806412025E-003  -3.1496954902977270E-003   5.1867008971378303E-002
   5.5339337318409954E-003  -7.0618250366619589E-003   5.2201280898054980E-002
   4.0718482830407743E-003  -1.4067741449696521E-002   5.3433105094919622E-002
   2.6097628342405810E-003  -2.4167444729400689E-002   5.5562481561971966E-002
   5.0934245023387253E-002  -1.5217508497604365E-002   3.5478454588922209E-002
   4.7414098913124619E-002  -1.4043238735449326E-002   3.8969482985199283E-002
   4.3893952802861971E-002  -1.2967591266043237E-002   4.2298238029123289E-002
   4.0373806692599302E-002  -1.1990566089386109E-002   4.5464719720694123E-002
   3.6853660582336661E-002  -1.1112163205477893E-002   4.8468928059911792E-002
   4.2071552543906238E-002  -1.1413131373421426E-002   4.8306969193843224E-002
   3.8649710551255392E-002  -1.0532429051771347E-002   4.9391701369917884E-002
   3.5227868558604561E-002  -9.7256934496778302E-003   5.0835315133569273E-002
   3.1806026565953688E-002  -8.9929245671409794E-003   5.2637810484797341E-002
   2.8384184573302856E-002  -8.3341224041606765E-003   5.4799187423602139E-002
   3.0628280880410676E-002  -7.6087542492385141E-003   6.0829588571663089E-002
   2.7825897945301492E-002  -7.0216193680933681E-003   5.9532680100727695E-002
   2.5023515010192263E-002  -6.4837956333124967E-003   5.9115808157298805E-002
   2.2221132075083048E-002  -5.9952830448958645E-003   5.9578972741376544E-002
   1.9418749139973851E-002  -5.5560816028434740E-003   6.0922173852960816E-002
   1.6604430032900575E-002  -3.8043771250555955E-003   7.3046312722381754E-002
   1.4942661095262856E-002  -3.5108096844154169E-003   6.9392419177628645E-002
   1.3280892157625120E-002  -3.2418978169471684E-003   6.7139717100311913E-002
   1.1619123219987393E-002  -2.9976415226507700E-003   6.6288206490431656E-002
   9.9573542823496695E-003  -2.7780408015262645E-003   6.6837887347987818E-002
   1.3759132722057643E-012  -8.7266305293098867E-013   8.4957141645999268E-002
   1.1395190346874529E-012  -7.3742401074383679E-013   7.8970918600620887E-002
   9.0311091938133359E-013  -5.8178462047919766E-013   7.4907041962608667E-002
   6.6669933462826236E-013  -4.0563385983460876E-013   7.2765511731962690E-002
   4.3030162766299895E-013  -2.0905499553691698E-013   7.2546327908682984E-002
   3.6853660582336661E-002  -1.1112163205477893E-002   4.8468928059911792E-002
   3.3901130798633994E-002  -1.0209660265994444E-002   4.8117690242815037E-002
   3.0948601014931326E-002  -9.1603349226116945E-003   4.8228639470358117E-002
   2.7996071231228659E-002  -7.9641871753293719E-003   4.8801775742541249E-002
   2.5043541447525991E-002  -6.6212170241478074E-003   4.9837099059364398E-002
   2.8384184573302856E-002  -8.3341224041606765E-003   5.4799187423602139E-002
   2.5962828184558091E-002  -7.6572451995048640E-003   5.4149446135931506E-002
   2.3541471795813312E-002  -6.8702511919417827E-003   5.4099864593536655E-002
   2.1120115407068547E-002  -5.9731403814709382E-003   5.4650442796417620E-002
   1.8698759018323768E-002  -4.9659127680928283E-003   5.5801180744574325E-002
   1.9418749139973851E-002  -5.5560816028434740E-003   6.0922173852960816E-002
   1.7666538846822791E-002  -5.1048301330154019E-003   5.9937223493724399E-002
   1.5914328553671739E-002  -4.5801674612718189E-003   5.9690405580399647E-002
   1.4162118260520693E-002  -3.9820935876126165E-003   6.0181720112986503E-002
   1.2409907967369627E-002  -3.3106085120378770E-003   6.1411167091484975E-002
   9.9573542823496695E-003  -2.7780408015262645E-003   6.6837887347987818E-002
   9.0122627854281427E-003  -2.5524150665258809E-003   6.5481022316193724E-002
   8.0671712885066176E-003  -2.2900837306018534E-003   6.5000262430947045E-002
   7.1220797915850986E-003  -1.9910467937541833E-003   6.5395607692247865E-002
   6.1769882946635657E-003  -1.6553042559829118E-003   6.6667058100096058E-002
   4.3030162766299895E-013  -2.0905499553691698E-013   7.2546327908682984E-002
   3.7412434261696603E-013  -3.6359804056473877E-014   7.0780842603339333E-002
   3.1794705757093311E-013   6.8056671409522096E-014   7.0029435145178898E-002
   2.6176803780142421E-013   1.0419443086107094E-013   7.0292105534201677E-002
   2.0559248747886727E-013   7.2053474298172659E-014   7.1568853770407892E-002
   2.5043541447525991E-002  -6.6212170241478074E-003   4.9837099059364398E-002
   2.0897182243004839E-002  -5.2908144959527559E-003   4.9182901771334608E-002
   1.6750823038483686E-002  -4.1323696176303604E-003   4.9397034384578736E-002
   1.2604463833962534E-002  -3.1458823891806070E-003   5.0479496899097198E-002
   8.4581046294413820E-003  -2.3313528106035375E-003   5.2430289314889300E-002
   1.8698759018323768E-002  -4.9659127680928283E-003   5.5801180744574325E-002
   1.5462794690039042E-002  -3.9681108719614167E-003   5.5094516866118215E-002
   1.2226830361754308E-002  -3.0992772132309582E-003   5.5340312838860845E-002
   8.9908660334695675E-003  -2.3594117919013870E-003   5.6538568662802491E-002
   5.7549017051848478E-003  -1.7485146079729286E-003   5.8689284337942765E-002
   1.2409907967369627E-002  -3.3106085120378770E-003   6.1411167091484975E-002
   1.0168468465246112E-002  -2.6454072479699942E-003   6.0695026035074123E-002
   7.9270289631226051E-003  -2.0661848088313894E-003   6.1015474779786930E-002
   5.6855894609990978E-003  -1.5729411946221114E-003   6.2372513325623324E-002
   3.4441499588755836E-003  -1.1656764053422919E-003   6.4766141672583336E-002
   6.1769882946635657E-003  -1.6553042559829118E-003   6.6667058100096058E-002
   5.0142035686260768E-003  -1.3227036239785578E-003   6.5984429278202222E-002
   3.8514188425885793E-003  -1.0330924044319595E-003   6.6422520207356839E-002
   2.6886341165510818E-003  -7.8647059734303013E-004   6.7981330887559852E-002
   1.5258493905135791E-003  -5.8283820271166908E-004   7.0660861318811163E-002
   2.0559248747886727E-013   7.2053474298172659E-014   7.1568853770407892E-002
   1.7891244041834398E-013   1.2823075934420558E-014   7.0962726595502651E-002
   1.5222892391086873E-013  -3.2446267894670200E-014   7.1561449121570753E-002
   1.2555061157382141E-013  -6.3622718204925377E-014   7.3365021348612003E-002
   9.8865360342870190E-014  -8.1046280797636427E-014   7.6373443276626485E-002
   8.4581046294413820E-003  -2.3313528106035375E-003   5.2430289314889300E-002
   6.9960191806412025E-003  -3.1496954902977270E-003   5.1867008971378303E-002
   5.5339337318409954E-003  -7.0618250366619589E-003   5.2201280898054980E-002
   4.0718482830407743E-003  -1.4067741449696521E-002   5.3433105094919622E-002
   2.6097628342405810E-003  -2.4167444729400689E-002   5.5562481561971966E-002
   5.7549017051848478E-003  -1.7485146079729286E-003   5.8689284337942765E-002
   5.0573607995747782E-003  -2.3622716177484904E-003   5.5678383937042608E-002
   4.3598198939647156E-003  -5.2963687775314100E-003   5.3299020352335122E-002
   3.6622789883546669E-003  -1.0550806087321365E-002   5.1551193583820022E-002
   2.9647380827445835E-003  -1.8125583547118795E-002   5.0434903631497607E-002
   3.4441499588755836E-003  -1.1656764053422919E-003   6.4766141672583336E-002
   3.2451381424603298E-003  -1.5748477451992676E-003   6.0081067930957091E-002
   3.0461263260450899E-003  -3.5309125184004794E-003   5.5761515551527925E-002
   2.8471145096298431E-003  -7.0338707249464043E-003   5.1807484534296094E-002
   2.6481026932145962E-003  -1.2083722364836680E-002   4.8218974879261134E-002
   1.5258493905135791E-003  -5.8283820271166908E-004   7.0660861318811163E-002
   1.5593512092978261E-003  -7.8742387264992691E-004   6.5075060953121641E-002
   1.5928530280820731E-003  -1.7654562592697952E-003   5.9588766495633799E-002
   1.6263548468662837E-003  -3.5169353625715124E-003   5.4201977946347901E-002
   1.6598566656505394E-003  -6.0418611825547308E-003   4.8914695305263670E-002
   9.8865360342870190E-014  -8.1046280797636427E-014   7.6373443276626485E-002
   8.7270468629441211E-014  -1.0080825063596421E-013   7.0660363003536120E-002
   7.5679046362964186E-014  -1.3905543383430086E-013   6.4780773184652363E-002
   6.4082419926059231E-014  -1.9649559757084489E-013   5.8734673819974714E-002
   5.2485793489154275E-014  -2.7267077484793845E-013   5.2522064909504174E-002
   1.3759132722057643E-012  -8.7266305293098867E-013   8.4957141645999268E-002
   1.1395190346874529E-012  -7.3742401074383679E-013   7.8970918600620887E-002
   9.0311091938133359E-013  -5.8178462047919766E-013   7.4907041962608667E-002
   6.6669933462826236E-013  -4.0563385983460876E-013   7.2765511731962690E-002
   4.3030162766299895E-013  -2.0905499553691698E-013   7.2546327908682984E-002
  -1.6604430030260520E-002   3.8043771225720613E-003   7.3046312724484377E-002
  -1.4942661093087773E-002   3.5108096825886698E-003   6.9392419179499162E-002
  -1.3280892155915032E-002   3.2418978157033457E-003   6.7139717101965923E-002
  -1.1619123218742275E-002   2.9976415219161619E-003   6.6288206491884827E-002
  -9.9573542815695366E-003   2.7780408012270386E-003   6.6837887349255720E-002
  -3.0628280878105971E-002   7.6087542460167856E-003   6.0829588576312071E-002
  -2.7825897943438281E-002   7.0216193659147705E-003   5.9532680104797606E-002
  -2.5023515008770553E-002   6.4837956319885037E-003   5.9115808160821098E-002
  -2.2221132074102840E-002   5.9952830442379854E-003   5.9578972744382425E-002
  -1.9418749139435122E-002   5.5560816026631876E-003   6.0922173855481612E-002
  -4.2071552542160433E-002   1.1413131369461496E-002   4.8306969201482280E-002
  -3.8649710549911946E-002   1.0532429049240882E-002   4.9391701376516328E-002
  -3.5227868557663446E-002   9.7256934482736063E-003   5.0835315139174081E-002
  -3.1806026565414945E-002   8.9929245665598088E-003   5.2637810489455511E-002
  -2.8384184573166462E-002   8.3341224040993367E-003   5.4799187427360604E-002
  -5.0934245022423920E-002   1.5217508492906234E-002   3.5478454599995074E-002
  -4.7414098912508827E-002   1.4043238732567020E-002   3.8969482994655247E-002
  -4.3893952802593728E-002   1.2967591264558771E-002   4.2298238037024913E-002
  -4.0373806692678642E-002   1.1990566088881620E-002   4.5464719727104079E-002
  -3.6853660582763535E-002   1.1112163205535430E-002   4.8468928064892752E-002
   4.3030162766299895E-013  -2.0905499553691698E-013   7.2546327908682984E-002
   3.7412434261696603E-013  -3.6359804056473877E-014   7.0780842603339333E-002
   3.1794705757093311E-013   6.8056671409522096E-014   7.0029435145178898E-002
   2.6176803780142421E-013   1.0419443086107094E-013   7.0292105534201677E-002
   2.0559248747886727E-013   7.2053474298172659E-014   7.1568853770407892E-002
  -9.9573542815695366E-003   2.7780408012270386E-003   6.6837887349255720E-002
  -9.0122627847497288E-003   2.5524150665578171E-003   6.5481022317175591E-002
  -8.0671712879299209E-003   2.2900837308298394E-003   6.5000262431664166E-002
  -7.1220797911101218E-003   1.9910467940431331E-003   6.5395607692721430E-002
  -6.1769882942903052E-003   1.6553042561979481E-003   6.6667058100347509E-002
  -1.9418749139435122E-002   5.5560816026631876E-003   6.0922173855481612E-002
  -1.7666538846353885E-002   5.1048301331517998E-003   5.9937223495674610E-002
  -1.5914328553272648E-002   4.5801674615915111E-003   5.9690405581821815E-002
  -1.4162118260191401E-002   3.9820935879821551E-003   6.0181720113923157E-002
  -1.2409907967110161E-002   3.3106085123238427E-003   6.1411167091978636E-002
  -2.8384184573166462E-002   8.3341224040993367E-003   5.4799187427360604E-002
  -2.5962828184438336E-002   7.6572451997459351E-003   5.4149446138836516E-002
  -2.3541471795710207E-002   6.8702511923532106E-003   5.4099864595651942E-002
  -2.1120115406982096E-002   5.9731403819210799E-003   5.4650442797806988E-002
  -1.8698759018253960E-002   4.9659127684497095E-003   5.5801180745301708E-002
  -3.6853660582763535E-002   1.1112163205535430E-002   4.8468928064892752E-002
  -3.3901130799003081E-002   1.0209660266339959E-002   4.8117690246661085E-002
  -3.0948601015242622E-002   9.1603349231149239E-003   4.8228639473154478E-002
  -2.7996071231482171E-002   7.9641871758601469E-003   4.8801775744372985E-002
  -2.5043541447721709E-002   6.6212170245756319E-003   4.9837099060316470E-002
   2.0559248747886727E-013   7.2053474298172659E-014   7.1568853770407892E-002
   1.7891244041834398E-013   1.2823075934420558E-014   7.0962726595502651E-002
   1.5222892391086873E-013  -3.2446267894670200E-014   7.1561449121570753E-002
   1.2555061157382141E-013  -6.3622718204925377E-014   7.3365021348612003E-002
   9.8865360342870190E-014  -8.1046280797636427E-014   7.6373443276626485E-002
  -6.1769882942903052E-003   1.6553042561979481E-003   6.6667058100347509E-002
  -5.0142035682988872E-003   1.3227036240660711E-003   6.5984429278412762E-002
  -3.8514188423074604E-003   1.0330924044192683E-003   6.6422520207541191E-002
  -2.6886341163160346E-003   7.8647059725772163E-004   6.7981330887732616E-002
  -1.5258493903246018E-003   5.8283820258148156E-004   7.0660861318987023E-002
  -1.2409907967110161E-002   3.3106085123238427E-003   6.1411167091978636E-002
  -1.0168468465010842E-002   2.6454072481192636E-003   6.0695026035485801E-002
  -7.9270289629115101E-003   2.0661848088711493E-003   6.1015474780145726E-002
  -5.6855894608121831E-003   1.5729411945793435E-003   6.2372513325958535E-002
  -3.4441499587128440E-003   1.1656764052440094E-003   6.4766141672924077E-002
  -1.8698759018253960E-002   4.9659127684497095E-003   5.5801180745301708E-002
  -1.5462794689956937E-002   3.9681108721723729E-003   5.5094516866721850E-002
  -1.2226830361659918E-002   3.0992772133230026E-003   5.5340312839384592E-002
  -8.9908660333628959E-003   2.3594117919010209E-003   5.6538568663289920E-002
  -5.7549017050658787E-003   1.7485146079065095E-003   5.8689284338437703E-002
  -2.5043541447721709E-002   6.6212170245756319E-003   4.9837099060316470E-002
  -2.0897182243137191E-002   5.2908144962257042E-003   4.9182901772120702E-002
  -1.6750823038552687E-002   4.1323696177747865E-003   4.9397034385257471E-002
  -1.2604463833968169E-002   3.1458823892224590E-003   5.0479496899726486E-002
  -8.4581046293836573E-003   2.3313528105690096E-003   5.2430289315528011E-002
   9.8865360342870190E-014  -8.1046280797636427E-014   7.6373443276626485E-002
   8.7270468629441211E-014  -1.0080825063596421E-013   7.0660363003536120E-002
   7.5679046362964186E-014  -1.3905543383430086E-013   6.4780773184652363E-002
   6.4082419926059231E-014  -1.9649559757084489E-013   5.8734673819974714E-002
   5.2485793489154275E-014  -2.7267077484793845E-013   5.2522064909504174E-002
  -1.5258493903246018E-003   5.8283820258148156E-004   7.0660861318987023E-002
  -1.5593512091306577E-003   7.8742387247515699E-004   6.5075060953248998E-002
  -1.5928530279367241E-003   1.7654562590242867E-003   5.9588766495715595E-002
  -1.6263548467427610E-003   3.5169353622280068E-003   5.4201977946386509E-002
  -1.6598566655488187E-003   6.0418611820869383E-003   4.8914695305262601E-002
  -3.4441499587128440E-003   1.1656764052440094E-003   6.4766141672924077E-002
  -3.2451381423152922E-003   1.5748477450512333E-003   6.0081067931212304E-002
  -3.0461263259177343E-003   3.5309125181874623E-003   5.5761515551703236E-002
  -2.8471145095201509E-003   7.0338707246524537E-003   5.1807484534396583E-002
  -2.6481026931225969E-003   1.2083722364446436E-002   4.8218974879292997E-002
  -5.7549017050658787E-003   1.7485146079065095E-003   5.8689284338437703E-002
  -5.0573607994666044E-003   2.3622716176273373E-003   5.5678383937426051E-002
  -4.3598198938673647E-003   5.2963687773507212E-003   5.3299020352615085E-002
  -3.6622789882681151E-003   1.0550806087077039E-002   5.1551193584004742E-002
  -2.9647380826688377E-003   1.8125583546805990E-002   5.0434903631595418E-002
  -8.4581046293836573E-003   2.3313528105690096E-003   5.2430289315528011E-002
  -6.9960191805846297E-003   3.1496954902032193E-003   5.1867008971890227E-002
  -5.5339337317856056E-003   7.0618250365140495E-003   5.2201280898451191E-002
  -4.0718482829865659E-003   1.4067741449501476E-002   5.3433105095211000E-002
  -2.6097628341875539E-003   2.4167444729165544E-002   5.5562481562169586E-002
  -5.0934245022423920E-002   1.5217508492906234E-002   3.5478454599995074E-002
  -4.7414098912508827E-002   1.4043238732567020E-002   3.8969482994655247E-002
  -4.3893952802593728E-002   1.2967591264558771E-002   4.2298238037024913E-002
  -4.0373806692678642E-002   1.1990566088881620E-002   4.5464719727104079E-002
  -3.6853660582763535E-002   1.1112163205535430E-002   4.8468928064892752E-002
  -6.0159194165329444E-002   1.8964223659114848E-002   3.3959214343343869E-002
  -5.6482075696408215E-002   1.7625850427238798E-002   3.4542935973065209E-002
  -5.2804957227486946E-002   1.6345934968710972E-002   3.5602875673089326E-002
  -4.9127838758565689E-002   1.5124477283531402E-002   3.7139033443416340E-002
  -4.5450720289644420E-002   1.3961477371699935E-002   3.9151409284046118E-002
  -7.2689235817310113E-002   2.2710938825323476E-002   3.2295952874647184E-002
  -6.8216653566789368E-002   2.1208462121910632E-002   2.9932203220446950E-002
  -6.3744071316268608E-002   1.9724278672863142E-002   2.8683163059142747E-002
  -5.9271489065747876E-002   1.8258388478181155E-002   2.8548832390734760E-002
  -5.4798906815227137E-002   1.6810791537864522E-002   2.9529211215222853E-002
  -8.8524369978365838E-002   2.6457653991532055E-002   3.0488670193905200E-002
  -8.2617832523652290E-002   2.4791073816582479E-002   2.5137284736800429E-002
  -7.6711295068938812E-002   2.3102622377015394E-002   2.1539100195185019E-002
  -7.0804757614225278E-002   2.1392299672830798E-002   1.9694116569059266E-002
  -6.4898220159511771E-002   1.9660105704029068E-002   1.9602333858422864E-002
 -0.10766459664849670        3.0204369157740718E-002   2.8537366301117806E-002
  -9.9685612566997095E-002   2.8373685511254243E-002   2.0158180522125840E-002
  -9.1706628485497432E-002   2.6480966081167540E-002   1.4170687081216465E-002
  -8.3727644403997853E-002   2.4526210867480670E-002   1.0574885978390090E-002
  -7.5748660322498218E-002   2.2509419870193559E-002   9.3707772136462086E-003
  -3.6853660582763535E-002   1.1112163205535430E-002   4.8468928064892752E-002
  -3.3901130799003081E-002   1.0209660266339959E-002   4.8117690246661085E-002
  -3.0948601015242622E-002   9.1603349231149239E-003   4.8228639473154478E-002
  -2.7996071231482171E-002   7.9641871758601469E-003   4.8801775744372985E-002
  -2.5043541447721709E-002   6.6212170245756319E-003   4.9837099060316470E-002
  -4.5450720289644420E-002   1.3961477371699935E-002   3.9151409284046118E-002
  -4.1945888359230646E-002   1.2793729756554614E-002   3.8031771957037955E-002
  -3.8441056428816886E-002   1.1558028961433302E-002   3.7554551878611328E-002
  -3.4936224498403119E-002   1.0254374986335770E-002   3.7719749048766307E-002
  -3.1431392567989373E-002   8.8827678312624059E-003   3.8527363467502851E-002
  -5.4798906815227137E-002   1.6810791537864522E-002   2.9529211215222853E-002
  -5.0561542534303602E-002   1.5377799246769297E-002   2.7720043603491822E-002
  -4.6324178253380054E-002   1.3955722999751709E-002   2.6733523444198791E-002
  -4.2086813972456512E-002   1.2544562796811614E-002   2.6569650737343849E-002
  -3.7849449691532935E-002   1.1144318637949069E-002   2.7228425482926935E-002
  -6.4898220159511771E-002   1.9660105704029068E-002   1.9602333858422864E-002
  -5.9748093324221901E-002   1.7961868736983938E-002   1.7182505186022597E-002
  -5.4597966488932059E-002   1.6353417038070171E-002   1.5765554169916797E-002
  -4.9447839653642224E-002   1.4834750607287291E-002   1.5351480810105622E-002
  -4.4297712818352361E-002   1.3405869444635843E-002   1.5940285106588886E-002
  -7.5748660322498218E-002   2.2509419870193559E-002   9.3707772136462086E-003
  -6.9505540728985571E-002   2.0545938227198579E-002   6.4191567046302661E-003
  -6.3262421135472952E-002   1.8751111076388702E-002   4.6506440557652629E-003
  -5.7019301541960304E-002   1.7124938417763160E-002   4.0652392670515319E-003
  -5.0776181948447685E-002   1.5667420251322506E-002   4.6629423384885738E-003
  -2.5043541447721709E-002   6.6212170245756319E-003   4.9837099060316470E-002
  -2.0897182243137191E-002   5.2908144962257042E-003   4.9182901772120702E-002
  -1.6750823038552687E-002   4.1323696177747865E-003   4.9397034385257471E-002
  -1.2604463833968169E-002   3.1458823892224590E-003   5.0479496899726486E-002
  -8.4581046293836573E-003   2.3313528105690096E-003   5.2430289315528011E-002
  -3.1431392567989373E-002   8.8827678312624059E-003   3.8527363467502851E-002
  -2.6598432118508798E-002   7.4955385404713998E-003   3.7765564798814918E-002
  -2.1765471669028254E-002   6.1450181582216046E-003   3.7508638718586673E-002
  -1.6932511219547725E-002   4.8312066845130064E-003   3.7756585226818226E-002
  -1.2099550770067163E-002   3.5541041193455358E-003   3.8509404323509411E-002
  -3.7849449691532935E-002   1.1144318637949069E-002   2.7228425482926935E-002
  -3.2693345310028973E-002   9.7002625847170676E-003   2.6223776692389233E-002
  -2.7537240928525060E-002   8.1576666986684851E-003   2.5360543177438487E-002
  -2.2381136547021133E-002   6.5165309798035000E-003   2.4638724938074719E-002
  -1.7225032165517205E-002   4.7768554281219233E-003   2.4058321974298011E-002
  -4.4297712818352361E-002   1.3405869444635843E-002   1.5940285106588886E-002
  -3.9181921817697758E-002   1.1904986628962694E-002   1.4557537452843605E-002
  -3.4066130817043107E-002   1.0170315239115418E-002   1.2952747761812601E-002
  -2.8950339816388476E-002   8.2018552750940214E-003   1.1125916033496011E-002
  -2.3834548815733859E-002   5.9996067368985745E-003   9.0770422678936695E-003
  -5.0776181948447685E-002   1.5667420251322506E-002   4.6629423384885738E-003
  -4.6064161641515000E-002   1.4109710673208320E-002   2.7668470801781309E-003
  -4.1352141334582398E-002   1.2182963779562128E-002   2.8525247170914370E-004
  -3.6640121027649755E-002   9.8871795703847770E-003  -2.7818414869180234E-003
  -3.1928100720717112E-002   7.2223580456749481E-003  -6.4344347957034920E-003
  -8.4581046293836573E-003   2.3313528105690096E-003   5.2430289315528011E-002
  -6.9960191805846297E-003   3.1496954902032193E-003   5.1867008971890227E-002
  -5.5339337317856056E-003   7.0618250365140495E-003   5.2201280898451191E-002
  -4.0718482829865659E-003   1.4067741449501476E-002   5.3433105095211000E-002
  -2.6097628341875539E-003   2.4167444729165544E-002   5.5562481562169586E-002
  -1.2099550770067163E-002   3.5541041193455358E-003   3.8509404323509411E-002
  -9.6904046126862972E-003   3.7151254445620396E-003   3.9478260032939722E-002
  -7.2812584553054449E-003   6.7156856420054756E-003   4.1443684889335031E-002
  -4.8721122979246342E-003   1.2555784711675691E-002   4.4405678892695019E-002
  -2.4629661405437125E-003   2.1235422653572922E-002   4.8364242043019812E-002
  -1.7225032165517205E-002   4.7768554281219233E-003   2.4058321974298011E-002
  -1.3769808422788478E-002   4.2805553989208878E-003   2.6305065742346659E-002
  -1.0314584680059788E-002   6.3695462474968947E-003   2.9647395534126285E-002
  -6.8593609373310896E-003   1.1043827973849877E-002   3.4085311349636813E-002
  -3.4041371946023462E-003   1.8303400577980189E-002   3.9618813188878166E-002
  -2.3834548815733859E-002   5.9996067368985745E-003   9.0770422678936695E-003
  -1.9234230610891228E-002   4.8459853532798886E-003   1.2347426100111081E-002
  -1.4633912406048640E-002   6.0234068529880398E-003   1.6812412832825391E-002
  -1.0033594201206034E-002   9.5318712360244646E-003   2.2472002466036745E-002
  -5.4332759963633907E-003   1.5371378502387512E-002   2.9326194999744870E-002
  -3.1928100720717112E-002   7.2223580456749481E-003  -6.4344347957034920E-003
  -2.6083671176994561E-002   5.4114153076385008E-003  -2.3946588937671376E-003
  -2.0239241633272037E-002   5.6772674584796845E-003   2.9387367854323831E-003
  -1.4394812089549527E-002   8.0199144981983189E-003   9.5657522418942931E-003
  -8.5503825458269622E-003   1.2439356426794834E-002   1.7486387475619813E-002
 </DataArray>
 </PointData>
 </Piece>
 </UnstructuredGrid>
 </VTKFile>
