 <VTKFile type="UnstructuredGrid"  version="0.1"   >
 <UnstructuredGrid>
 <Piece  NumberOfPoints="           100 "  NumberOfCells="           64 ">
 <Points>
 <DataArray  type="Float64" NumberOfComponents="3"  format="ascii" >
   0.0000000000000000        0.0000000000000000        0.0000000000000000     
  0.12500000000000000        0.0000000000000000        0.0000000000000000     
  0.25000000000000000        0.0000000000000000        0.0000000000000000     
  0.37500000000000000        0.0000000000000000        0.0000000000000000     
  0.50000000000000000        0.0000000000000000        0.0000000000000000     
   0.0000000000000000       0.12500000000000000        0.0000000000000000     
  0.12500000000000000       0.12500000000000000        0.0000000000000000     
  0.25000000000000000       0.12500000000000000        0.0000000000000000     
  0.37500000000000000       0.12500000000000000        0.0000000000000000     
  0.50000000000000000       0.12500000000000000        0.0000000000000000     
   0.0000000000000000       0.25000000000000000        0.0000000000000000     
  0.12500000000000000       0.25000000000000000        0.0000000000000000     
  0.25000000000000000       0.25000000000000000        0.0000000000000000     
  0.37500000000000000       0.25000000000000000        0.0000000000000000     
  0.50000000000000000       0.25000000000000000        0.0000000000000000     
   0.0000000000000000       0.37500000000000000        0.0000000000000000     
  0.12500000000000000       0.37500000000000000        0.0000000000000000     
  0.25000000000000000       0.37500000000000000        0.0000000000000000     
  0.37500000000000000       0.37500000000000000        0.0000000000000000     
  0.50000000000000000       0.37500000000000000        0.0000000000000000     
   0.0000000000000000       0.50000000000000000        0.0000000000000000     
  0.12500000000000000       0.50000000000000000        0.0000000000000000     
  0.25000000000000000       0.50000000000000000        0.0000000000000000     
  0.37500000000000000       0.50000000000000000        0.0000000000000000     
  0.50000000000000000       0.50000000000000000        0.0000000000000000     
  0.50000000000000000        0.0000000000000000        0.0000000000000000     
  0.62500000000000000        0.0000000000000000        0.0000000000000000     
  0.75000000000000000        0.0000000000000000        0.0000000000000000     
  0.87500000000000000        0.0000000000000000        0.0000000000000000     
   1.0000000000000000        0.0000000000000000        0.0000000000000000     
  0.50000000000000000       0.12500000000000000        0.0000000000000000     
  0.62500000000000000       0.12500000000000000        0.0000000000000000     
  0.75000000000000000       0.12500000000000000        0.0000000000000000     
  0.87500000000000000       0.12500000000000000        0.0000000000000000     
   1.0000000000000000       0.12500000000000000        0.0000000000000000     
  0.50000000000000000       0.25000000000000000        0.0000000000000000     
  0.62500000000000000       0.25000000000000000        0.0000000000000000     
  0.75000000000000000       0.25000000000000000        0.0000000000000000     
  0.87500000000000000       0.25000000000000000        0.0000000000000000     
   1.0000000000000000       0.25000000000000000        0.0000000000000000     
  0.50000000000000000       0.37500000000000000        0.0000000000000000     
  0.62500000000000000       0.37500000000000000        0.0000000000000000     
  0.75000000000000000       0.37500000000000000        0.0000000000000000     
  0.87500000000000000       0.37500000000000000        0.0000000000000000     
   1.0000000000000000       0.37500000000000000        0.0000000000000000     
  0.50000000000000000       0.50000000000000000        0.0000000000000000     
  0.62500000000000000       0.50000000000000000        0.0000000000000000     
  0.75000000000000000       0.50000000000000000        0.0000000000000000     
  0.87500000000000000       0.50000000000000000        0.0000000000000000     
   1.0000000000000000       0.50000000000000000        0.0000000000000000     
   0.0000000000000000       0.50000000000000000        0.0000000000000000     
  0.12500000000000000       0.50000000000000000        0.0000000000000000     
  0.25000000000000000       0.50000000000000000        0.0000000000000000     
  0.37500000000000000       0.50000000000000000        0.0000000000000000     
  0.50000000000000000       0.50000000000000000        0.0000000000000000     
   0.0000000000000000       0.62500000000000000        0.0000000000000000     
  0.12500000000000000       0.62500000000000000        0.0000000000000000     
  0.25000000000000000       0.62500000000000000        0.0000000000000000     
  0.37500000000000000       0.62500000000000000        0.0000000000000000     
  0.50000000000000000       0.62500000000000000        0.0000000000000000     
   0.0000000000000000       0.75000000000000000        0.0000000000000000     
  0.12500000000000000       0.75000000000000000        0.0000000000000000     
  0.25000000000000000       0.75000000000000000        0.0000000000000000     
  0.37500000000000000       0.75000000000000000        0.0000000000000000     
  0.50000000000000000       0.75000000000000000        0.0000000000000000     
   0.0000000000000000       0.87500000000000000        0.0000000000000000     
  0.12500000000000000       0.87500000000000000        0.0000000000000000     
  0.25000000000000000       0.87500000000000000        0.0000000000000000     
  0.37500000000000000       0.87500000000000000        0.0000000000000000     
  0.50000000000000000       0.87500000000000000        0.0000000000000000     
   0.0000000000000000        1.0000000000000000        0.0000000000000000     
  0.12500000000000000        1.0000000000000000        0.0000000000000000     
  0.25000000000000000        1.0000000000000000        0.0000000000000000     
  0.37500000000000000        1.0000000000000000        0.0000000000000000     
  0.50000000000000000        1.0000000000000000        0.0000000000000000     
  0.50000000000000000       0.50000000000000000        0.0000000000000000     
  0.62500000000000000       0.50000000000000000        0.0000000000000000     
  0.75000000000000000       0.50000000000000000        0.0000000000000000     
  0.87500000000000000       0.50000000000000000        0.0000000000000000     
   1.0000000000000000       0.50000000000000000        0.0000000000000000     
  0.50000000000000000       0.62500000000000000        0.0000000000000000     
  0.62500000000000000       0.62500000000000000        0.0000000000000000     
  0.75000000000000000       0.62500000000000000        0.0000000000000000     
  0.87500000000000000       0.62500000000000000        0.0000000000000000     
   1.0000000000000000       0.62500000000000000        0.0000000000000000     
  0.50000000000000000       0.75000000000000000        0.0000000000000000     
  0.62500000000000000       0.75000000000000000        0.0000000000000000     
  0.75000000000000000       0.75000000000000000        0.0000000000000000     
  0.87500000000000000       0.75000000000000000        0.0000000000000000     
   1.0000000000000000       0.75000000000000000        0.0000000000000000     
  0.50000000000000000       0.87500000000000000        0.0000000000000000     
  0.62500000000000000       0.87500000000000000        0.0000000000000000     
  0.75000000000000000       0.87500000000000000        0.0000000000000000     
  0.87500000000000000       0.87500000000000000        0.0000000000000000     
   1.0000000000000000       0.87500000000000000        0.0000000000000000     
  0.50000000000000000        1.0000000000000000        0.0000000000000000     
  0.62500000000000000        1.0000000000000000        0.0000000000000000     
  0.75000000000000000        1.0000000000000000        0.0000000000000000     
  0.87500000000000000        1.0000000000000000        0.0000000000000000     
   1.0000000000000000        1.0000000000000000        0.0000000000000000     
 </DataArray>
 </Points>
 <Cells>
 <DataArray  type="Int32"  Name="connectivity"  format="ascii">
           0           1           6           5
           1           2           7           6
           2           3           8           7
           3           4           9           8
           5           6          11          10
           6           7          12          11
           7           8          13          12
           8           9          14          13
          10          11          16          15
          11          12          17          16
          12          13          18          17
          13          14          19          18
          15          16          21          20
          16          17          22          21
          17          18          23          22
          18          19          24          23
          25          26          31          30
          26          27          32          31
          27          28          33          32
          28          29          34          33
          30          31          36          35
          31          32          37          36
          32          33          38          37
          33          34          39          38
          35          36          41          40
          36          37          42          41
          37          38          43          42
          38          39          44          43
          40          41          46          45
          41          42          47          46
          42          43          48          47
          43          44          49          48
          50          51          56          55
          51          52          57          56
          52          53          58          57
          53          54          59          58
          55          56          61          60
          56          57          62          61
          57          58          63          62
          58          59          64          63
          60          61          66          65
          61          62          67          66
          62          63          68          67
          63          64          69          68
          65          66          71          70
          66          67          72          71
          67          68          73          72
          68          69          74          73
          75          76          81          80
          76          77          82          81
          77          78          83          82
          78          79          84          83
          80          81          86          85
          81          82          87          86
          82          83          88          87
          83          84          89          88
          85          86          91          90
          86          87          92          91
          87          88          93          92
          88          89          94          93
          90          91          96          95
          91          92          97          96
          92          93          98          97
          93          94          99          98
 </DataArray>
 <DataArray  type="Int32"  Name="offsets"  format="ascii"> 
           4
           8
          12
          16
          20
          24
          28
          32
          36
          40
          44
          48
          52
          56
          60
          64
          68
          72
          76
          80
          84
          88
          92
          96
         100
         104
         108
         112
         116
         120
         124
         128
         132
         136
         140
         144
         148
         152
         156
         160
         164
         168
         172
         176
         180
         184
         188
         192
         196
         200
         204
         208
         212
         216
         220
         224
         228
         232
         236
         240
         244
         248
         252
         256
 </DataArray>
 <DataArray  type="UInt8"  Name="types"  format="ascii">
 9
 9
 9
 9
 9
 9
 9
 9
 9
 9
 9
 9
 9
 9
 9
 9
 9
 9
 9
 9
 9
 9
 9
 9
 9
 9
 9
 9
 9
 9
 9
 9
 9
 9
 9
 9
 9
 9
 9
 9
 9
 9
 9
 9
 9
 9
 9
 9
 9
 9
 9
 9
 9
 9
 9
 9
 9
 9
 9
 9
 9
 9
 9
 9
 </DataArray>
 </Cells> 
 <PointData>
 <DataArray  type="Float64" Name="disp" NumberOfComponents="3" format="ascii">
   0.0000000000000000        0.0000000000000000        0.0000000000000000     
   1.9121015451970026E-002   1.1543925060438871E-002   0.0000000000000000     
   3.6297706705113751E-002   2.5706321492132908E-002   0.0000000000000000     
   5.1530073759431180E-002   4.2487189295082113E-002   0.0000000000000000     
   6.4818116614922303E-002   6.1886528469286488E-002   0.0000000000000000     
   0.0000000000000000        0.0000000000000000        0.0000000000000000     
   1.2700055181408822E-002   9.3218843110960733E-003   0.0000000000000000     
   2.4512864792156398E-002   2.2149175075222780E-002   0.0000000000000000     
   3.5438428832242720E-002   3.8481872292380120E-002   0.0000000000000000     
   4.5476747301667793E-002   5.8319975962568091E-002   0.0000000000000000     
   0.0000000000000000        0.0000000000000000        0.0000000000000000     
   7.3728991825598974E-003   7.7347123472799959E-003   0.0000000000000000     
   1.4534966370317936E-002   1.9608356206001386E-002   0.0000000000000000     
   2.1486201563274108E-002   3.5620931576164166E-002   0.0000000000000000     
   2.8226604761428426E-002   5.5772438457768345E-002   0.0000000000000000     
   0.0000000000000000        0.0000000000000000        0.0000000000000000     
   3.1395474554232489E-003   6.7824091689906389E-003   0.0000000000000000     
   6.3640114395983648E-003   1.8083864884468722E-002   0.0000000000000000     
   9.6733919525253433E-003   3.3904367146434265E-002   0.0000000000000000     
   1.3067688994204189E-002   5.4243915954887249E-002   0.0000000000000000     
   0.0000000000000000        0.0000000000000000        0.0000000000000000     
  -1.1206313654810174E-015   6.4649747762280003E-003   0.0000000000000000     
  -2.3128200743460781E-015   1.7575701110624797E-002   0.0000000000000000     
  -3.5774334883331704E-015   3.3332179003190389E-002   0.0000000000000000     
  -4.9118695222283293E-015   5.3734408453924784E-002   0.0000000000000000     
   6.4818116614922303E-002   6.1886528469286488E-002   0.0000000000000000     
   7.6543151693519912E-002   8.4007270882134874E-002   0.0000000000000000     
   8.7086495417156851E-002  0.10895234840101614        0.0000000000000000     
   9.6448147785833063E-002  0.13672176102593023        0.0000000000000000     
  0.10462810879954859       0.16731550875687720        0.0000000000000000     
   4.5476747301667793E-002   5.8319975962568091E-002   0.0000000000000000     
   5.4450250408459341E-002   8.1197344620786274E-002   0.0000000000000000     
   6.2181368360645084E-002  0.10664783680203425        0.0000000000000000     
   6.8670101158225028E-002  0.13467145250631204        0.0000000000000000     
   7.3916448801199172E-002  0.16526819173361962        0.0000000000000000     
   2.8226604761428426E-002   5.5772438457768345E-002   0.0000000000000000     
   3.4328758031184931E-002   7.9190254434106780E-002   0.0000000000000000     
   3.9365243438947685E-002  0.10500175708847236        0.0000000000000000     
   4.3336060984716686E-002  0.13320694642086506        0.0000000000000000     
   4.6241210668491940E-002  0.16380582243128489        0.0000000000000000     
   1.3067688994204189E-002   5.4243915954887249E-002   0.0000000000000000     
   1.6178674561696693E-002   7.7986000322096377E-002   0.0000000000000000     
   1.8638120652064643E-002  0.10401410926033039        0.0000000000000000     
   2.0446027265308055E-002  0.13232824276958929        0.0000000000000000     
   2.1602394401426910E-002  0.16292840084987306        0.0000000000000000     
  -4.9118695222283293E-015   5.3734408453924784E-002   0.0000000000000000     
  -5.3789438181350846E-015   7.7584582284755094E-002   0.0000000000000000     
  -4.0334489220805736E-015  0.10368489331760840        0.0000000000000000     
  -8.8476318285679589E-016  0.13203534155248473        0.0000000000000000     
   4.0766001685454967E-015  0.16263592698938412        0.0000000000000000     
   0.0000000000000000        0.0000000000000000        0.0000000000000000     
  -1.1206313654810174E-015   6.4649747762280003E-003   0.0000000000000000     
  -2.3128200743460781E-015   1.7575701110624797E-002   0.0000000000000000     
  -3.5774334883331704E-015   3.3332179003190389E-002   0.0000000000000000     
  -4.9118695222283293E-015   5.3734408453924784E-002   0.0000000000000000     
   0.0000000000000000        0.0000000000000000        0.0000000000000000     
  -3.1395474554251077E-003   6.7824091689918271E-003   0.0000000000000000     
  -6.3640114396021404E-003   1.8083864884469336E-002   0.0000000000000000     
  -9.6733919525310956E-003   3.3904367146432531E-002   0.0000000000000000     
  -1.3067688994211976E-002   5.4243915954881407E-002   0.0000000000000000     
   0.0000000000000000        0.0000000000000000        0.0000000000000000     
  -7.3728991825606043E-003   7.7347123472818668E-003   0.0000000000000000     
  -1.4534966370319159E-002   1.9608356206002077E-002   0.0000000000000000     
  -2.1486201563275662E-002   3.5620931576160635E-002   0.0000000000000000     
  -2.8226604761430109E-002   5.5772438457757534E-002   0.0000000000000000     
   0.0000000000000000        0.0000000000000000        0.0000000000000000     
  -1.2700055181407609E-002   9.3218843110981168E-003   0.0000000000000000     
  -2.4512864792153363E-002   2.2149175075223026E-002   0.0000000000000000     
  -3.5438428832237266E-002   3.8481872292374708E-002   0.0000000000000000     
  -4.5476747301659307E-002   5.8319975962553186E-002   0.0000000000000000     
   0.0000000000000000        0.0000000000000000        0.0000000000000000     
  -1.9121015451966126E-002   1.1543925060440583E-002   0.0000000000000000     
  -3.6297706705104765E-002   2.5706321492132166E-002   0.0000000000000000     
  -5.1530073759415915E-002   4.2487189295074758E-002   0.0000000000000000     
  -6.4818116614899571E-002   6.1886528469268350E-002   0.0000000000000000     
  -4.9118695222283293E-015   5.3734408453924784E-002   0.0000000000000000     
  -5.3789438181350846E-015   7.7584582284755094E-002   0.0000000000000000     
  -4.0334489220805736E-015  0.10368489331760840        0.0000000000000000     
  -8.8476318285679589E-016  0.13203534155248473        0.0000000000000000     
   4.0766001685454967E-015  0.16263592698938412        0.0000000000000000     
  -1.3067688994211976E-002   5.4243915954881407E-002   0.0000000000000000     
  -1.6178674561704832E-002   7.7986000322084026E-002   0.0000000000000000     
  -1.8638120652069691E-002  0.10401410926030843        0.0000000000000000     
  -2.0446027265306577E-002  0.13232824276955465        0.0000000000000000     
  -2.1602394401415474E-002  0.16292840084982269        0.0000000000000000     
  -2.8226604761430109E-002   5.5772438457757534E-002   0.0000000000000000     
  -3.4328758031185201E-002   7.9190254434084367E-002   0.0000000000000000     
  -3.9365243438943660E-002  0.10500175708843261        0.0000000000000000     
  -4.3336060984705473E-002  0.13320694642080236        0.0000000000000000     
  -4.6241210668470638E-002  0.16380582243119349        0.0000000000000000     
  -4.5476747301659307E-002   5.8319975962553186E-002   0.0000000000000000     
  -5.4450250408446525E-002   8.1197344620756062E-002   0.0000000000000000     
  -6.2181368360625967E-002  0.10664783680198091        0.0000000000000000     
  -6.8670101158197605E-002  0.13467145250622770        0.0000000000000000     
  -7.3916448801161425E-002  0.16526819173349652        0.0000000000000000     
  -6.4818116614899571E-002   6.1886528469268350E-002   0.0000000000000000     
  -7.6543151693488770E-002   8.4007270882099139E-002   0.0000000000000000     
  -8.7086495417116550E-002  0.10895234840095330        0.0000000000000000     
  -9.6448147785782923E-002  0.13672176102583086        0.0000000000000000     
 -0.10462810879948786       0.16731550875673179        0.0000000000000000     
 </DataArray>
 <DataArray  type="Float64" Name="stress" NumberOfComponents="3" format="ascii">
   10598599147.982334        3179579744.3947001        1889481115.3497758     
   9171170537.1033115        1532403092.9200387        1086516616.5506053     
   7904142116.8373938        419893743.48906112        513843407.77935153     
   6797513887.1845808       -157948303.89823341        171461489.03601432     
   5851285848.1448755       -201123049.24184108        59370860.320594028     
   6932929037.4010277        2079878711.2203083        1397387277.1533704     
   6163543115.1319742        934851883.38146257        960097735.92116809     
   5514457335.8227100        190825532.07524776        682822859.67583656     
   4985671699.4732342       -152200342.69833660        565562648.41737688     
   4577186206.0835485       -94225740.939290524        608317102.14578843     
   3944605809.2101073        1183381742.7630322        1045891678.4417170     
   3632472218.2908936        480267631.38196349        927493705.84761357     
   3400538722.6781526        44487171.022472382        898833773.19933569     
   3248805322.3718848       -123959638.31544137        959911880.49688447     
   3177272017.3720903       -25072796.631777525        1110728027.7402594     
   1633629463.4095736        490088839.02287209        834994319.21481490     
   1577957846.5800700        168650336.92154187        988704526.32994246     
   1562386277.4037232       -19121339.669264376        1161876148.3498502     
   1586914755.8805337       -73226190.749546468        1354509185.2745388     
   1651543282.0105016        6335783.6806957722        1566603637.1040070     
  -5.7234436970030392E-004  -1.7170331091009118E-004   764695199.47266471     
  -4.9590025309574799E-004   1.9725521582436930E-004   1143730197.3681540     
  -5.7833774399532710E-004   3.6955328906908112E-005   1471949985.1273782     
  -8.1981125185129865E-004  -6.5259725279387263E-004   1749354562.7503378     
  -1.2193314123954955E-003  -1.8710536782932437E-003   1975943930.2370322     
   5851285848.1448755       -201123049.24184108        59370860.320594028     
   5364810256.6218910        67997813.618660688        83871549.583597332     
   4832903622.1445370        185681866.63127494        75252359.626842737     
   4255565944.7128229        151929109.79601789        33513290.450335510     
   3632797224.3267488       -33260456.887112856       -41345657.945930965     
   4577186206.0835485       -94225740.939290524        608317102.14578843     
   4024487769.1170635        51262383.208376646        564320047.11980057     
   3437716049.9347396        83172899.969916105        531032852.98306996     
   2816871048.5365777        1505809.3453288078        508455519.73559636     
   2161952764.9225788       -193738888.66538537        496588047.37738013     
   3177272017.3720903       -25072796.631777525        1110728027.7402594     
   2683578563.8450012        34350937.467926741        1011483949.2868946     
   2167169588.8405972        18056266.643251657        966779471.83179939     
   1628045092.3588824       -73956809.105796099        976614595.37497318     
   1066205074.3998556       -241688289.77921361        1040989319.9164189     
   1651543282.0105016        6335783.6806957722        1566603637.1040070     
   1342082640.8057005        17263476.397302985        1425363256.0848782     
   1021264238.8621119       -9668033.3487136960        1382492216.1730325     
   689088076.17973793       -74458745.557352096        1437990517.3684688     
   345554152.75857508       -177108660.22861564        1591858159.6711879     
  -1.2193314123954955E-003  -1.8710536782932437E-003   1975943930.2370322     
  -8.3703648408088799E-004  -3.4911233702451883E-003   1805957967.5137525     
  -7.1674008303526573E-004  -5.9845214864270831E-003   1778171086.0067682     
  -8.5792894080158767E-004  -9.3478024085061496E-003   1892583285.7160800     
  -1.2599811304193739E-003  -1.3584097217042049E-002   2149194566.6416864     
  -5.7234436970030392E-004  -1.7170331091009118E-004   764695199.47266471     
  -4.9590025309574799E-004   1.9725521582436930E-004   1143730197.3681540     
  -5.7833774399532710E-004   3.6955328906908112E-005   1471949985.1273782     
  -8.1981125185129865E-004  -6.5259725279387263E-004   1749354562.7503378     
  -1.2193314123954955E-003  -1.8710536782932437E-003   1975943930.2370322     
  -1633629463.4105380       -490088839.02316135        834994319.21519732     
  -1577957846.5809178       -168650336.92134750        988704526.33014035     
  -1562386277.4046955        19121339.669138610        1161876148.3498948     
  -1586914755.8818722        73226190.748296797        1354509185.2744603     
  -1651543282.0124466       -6335783.6838730574        1566603637.1038373     
  -3944605809.2105293       -1183381742.7631588        1045891678.4423434     
  -3632472218.2911487       -480267631.38183427        927493705.84796071     
  -3400538722.6784043       -44487171.022637010        898833773.19946587     
  -3248805322.3722982        123959638.31443453        959911880.49685812     
  -3177272017.3728304        25072796.629378796        1110728027.7401373     
  -6932929037.4005470       -2079878711.2201641        1397387277.1541030     
  -6163543115.1311865       -934851883.38126409        960097735.92161548     
  -5514457335.8217030       -190825532.07528949        682822859.67609096     
  -4985671699.4720974        152200342.69776034        565562648.41753054     
  -4577186206.0823698        94225740.937883854        608317102.14593327     
  -10598599147.980591       -3179579744.3941770        1889481115.3504763     
  -9171170537.1010342       -1532403092.9196360        1086516616.5511038     
  -7904142116.8345947       -419893743.48882055        513843407.77977097     
  -6797513887.1812716        157948303.89827347        171461489.03647816     
  -5851285848.1410675        201123049.24163985        59370860.321224131     
  -1.2193314123954955E-003  -1.8710536782932437E-003   1975943930.2370322     
  -8.3703648408088799E-004  -3.4911233702451883E-003   1805957967.5137525     
  -7.1674008303526573E-004  -5.9845214864270831E-003   1778171086.0067682     
  -8.5792894080158767E-004  -9.3478024085061496E-003   1892583285.7160800     
  -1.2599811304193739E-003  -1.3584097217042049E-002   2149194566.6416864     
  -1651543282.0124466       -6335783.6838730574        1566603637.1038373     
  -1342082640.8067532       -17263476.403003097        1425363256.0843575     
  -1021264238.8627208        9668033.3389939070        1382492216.1720936     
  -689088076.18035161        74458745.542117685        1437990517.3670452     
  -345554152.75964332        177108660.20636439        1591858159.6692126     
  -3177272017.3728304        25072796.629378796        1110728027.7401373     
  -2683578563.8449097       -34350937.472187161        1011483949.2861571     
  -2167169588.8400521       -18056266.650627494        966779471.83031273     
  -1628045092.3582563        73956809.094057441        976614595.37260389     
  -1066205074.3995243        241688289.76186520        1040989319.9130312     
  -4577186206.0823698        94225740.937883854        608317102.14593327     
  -4024487769.1153069       -51262383.211042643        564320047.11915159     
  -3437716049.9327083       -83172899.974841833        531032852.98142624     
  -2816871048.5345745       -1505809.3535263538        508455519.73275697     
  -2161952764.9208984        193738888.65292132        496588047.37314421     
  -5851285848.1410675        201123049.24163985        59370860.321224131     
  -5364810256.6179504       -67997813.619572639        83871549.583341122     
  -4832903622.1406927       -185681866.63366079        75252359.625433370     
  -4255565944.7093010       -151929109.80063176        33513290.447504982     
  -3632797224.3237743        33260456.879518747       -41345657.950451069     
 </DataArray>
 <DataArray  type="Float64" Name="VM" NumberOfComponents="1" format="ascii">
   9972530107.0733128     
   8714714753.6330891     
   7754029834.8426838     
   6884257086.2108564     
   5955283343.9364567     
   6620409548.2669821     
   5988870918.1306887     
   5549062624.4595346     
   5157372539.2239866     
   4743516618.2265596     
   3946390889.3118601     
   3776464789.8835058     
   3719955486.3769655     
   3706361450.5710149     
   3725117376.3339806     
   2049379239.2092097     
   2277033311.2208943     
   2553656197.7815051     
   2853760613.4782443     
   3174887777.6855755     
   1324490937.7906725     
   1980998811.9924226     
   2549492160.4408722     
   3029970983.1360226     
   3422435280.0778732     
   5955283343.9364567     
   5333115481.1021824     
   4744580209.4192524     
   4182074729.1810689     
   3650243665.4038258     
   4743516618.2265596     
   4116818692.6571126     
   3519214717.9398041     
   2950610809.2130103     
   2422855321.1355972     
   3725117376.3339806     
   3190593956.4274635     
   2731630777.5886335     
   2374391218.0128269     
   2168841179.8972669     
   3174887777.6855755     
   2805939426.6033616     
   2605149115.9823608     
   2595215848.3214550     
   2795355609.6824961     
   3422435280.0778732     
   3128010956.0676432     
   3079882665.5136504     
   3278050408.4158955     
   3722514184.7743764     
   1324490937.7906725     
   1980998811.9924226     
   2549492160.4408722     
   3029970983.1360226     
   3422435280.0778732     
   2049379239.2102845     
   2277033311.2217612     
   2553656197.7821250     
   2853760613.4785142     
   3174887777.6855145     
   3946390889.3126917     
   3776464789.8840365     
   3719955486.3772154     
   3706361450.5708885     
   3725117376.3334656     
   6620409548.2670479     
   5988870918.1302261     
   5549062624.4586258     
   5157372539.2226267     
   4743516618.2247601     
   9972530107.0722485     
   8714714753.6312199     
   7754029834.8400993     
   6884257086.2076063     
   5955283343.9325647     
   3422435280.0778732     
   3128010956.0676432     
   3079882665.5136504     
   3278050408.4158955     
   3722514184.7743764     
   3174887777.6855145     
   2805939426.6017404     
   2605149115.9791646     
   2595215848.3168006     
   2795355609.6765027     
   3725117376.3334656     
   3190593956.4249401     
   2731630777.5837469     
   2374391218.0050745     
   2168841179.8860097     
   4743516618.2247601     
   4116818692.6538696     
   3519214717.9348106     
   2950610809.2057223     
   2422855321.1248684     
   5955283343.9325647     
   5333115481.0977850     
   4744580209.4142227     
   4182074729.1753011     
   3650243665.3971577     
 </DataArray>
 <DataArray  type="Float64" Name="strain" NumberOfComponents="3" format="ascii">
  0.16074542041106540        0.0000000000000000        8.1877514998490289E-002
  0.14519082682045500       -2.0315801136849249E-002   4.7082386717192899E-002
  0.12963623322984461       -3.2522481526035957E-002   2.2266547670438567E-002
  0.11408163963923418       -3.6620041167560125E-002   7.4299978582272868E-003
   9.8527046048623793E-002  -3.2608480061421731E-002   2.5727372805590745E-003
  0.10514942373391559        0.0000000000000000        6.0553448676646054E-002
   9.8051459168625593E-002  -1.5236850852635497E-002   4.1604235223250616E-002
   9.0953494603335586E-002  -2.4391861144526086E-002   2.9588990585952921E-002
   8.3855530038045592E-002  -2.7465030875671780E-002   2.4507714764752997E-002
   7.6757565472755585E-002  -2.4456360046072580E-002   2.6360407759650834E-002
   5.9826521439686628E-002   0.0000000000000000        4.5321972732474403E-002
   5.8139865481271744E-002  -1.0157900568421741E-002   4.0191393920063254E-002
   5.6453209522856852E-002  -1.6261240763016223E-002   3.8949463505304545E-002
   5.4766553564441954E-002  -1.8310020583783448E-002   4.1596181488198325E-002
   5.3079897606027063E-002  -1.6304240030723411E-002   4.8131547868744580E-002
   2.4776713528378534E-002   0.0000000000000000        3.6183087165975313E-002
   2.5456045758393459E-002  -5.0789502842079857E-003   4.2843862807630841E-002
   2.6135377988408377E-002  -8.1306203815063559E-003   5.0347966428493512E-002
   2.6814710218423295E-002  -9.1550102918951104E-003   5.8695398028563342E-002
   2.7494042448438213E-002  -8.1521200153742441E-003   6.7886157607840308E-002
  -8.6805562737879427E-015   0.0000000000000000        3.3136791977148805E-002
  -9.2512802973843122E-015   5.7670881958848952E-015   4.9561641885953342E-002
  -9.8237390444566586E-015   3.5076108684251039E-015   6.3784499355519719E-002
  -1.0400534600218947E-014  -6.7775646206413853E-015   7.5805364385847979E-002
  -1.0966921815125374E-014  -2.5087570909576584E-014   8.5624236976938065E-002
   9.8527046048623793E-002  -3.2608480061421731E-002   2.5727372805590745E-003
   8.9073515208938206E-002  -2.5690754389465106E-002   3.6344338152892175E-003
   7.9619984369252578E-002  -2.1069820333534772E-002   3.2609355838298520E-003
   7.0166453529566963E-002  -1.8745677893630484E-002   1.4522425861812054E-003
   6.0712922689881377E-002  -1.8718327069752294E-002  -1.7916451776570086E-003
   7.6757565472755585E-002  -2.4456360046072580E-002   2.6360407759650834E-002
   6.6818484235909179E-002  -1.9268065792112373E-002   2.4453868708524690E-002
   5.6879402999062745E-002  -1.5802365250175095E-002   2.3011423629266364E-002
   4.6940321762216318E-002  -1.4059258420260743E-002   2.2033072521875842E-002
   3.7001240525369905E-002  -1.4038745302369315E-002   2.1518815386353141E-002
   5.3079897606027063E-002  -1.6304240030723411E-002   4.8131547868744580E-002
   4.4554554710077049E-002  -1.2845377194759559E-002   4.3830971135765430E-002
   3.6029211814127028E-002  -1.0534910166815459E-002   4.1893777112711306E-002
   2.7503868918177021E-002  -9.3728389468910149E-003   4.2319965799582172E-002
   1.8978526022226994E-002  -9.3591635349861702E-003   4.5109537196378155E-002
   2.7494042448438213E-002  -8.1521200153742441E-003   6.7886157607840308E-002
   2.2281726631441828E-002  -6.4226885974067857E-003   6.1765741097011391E-002
   1.7069410814445435E-002  -5.2674550834557882E-003   5.9907996034164746E-002
   1.1857094997449059E-002  -4.6864194735212247E-003   6.2312922419300310E-002
   6.6447791804526632E-003  -4.6795817676031359E-003   6.8980520252418145E-002
  -1.0966921815125374E-014  -2.5087570909576584E-014   8.5624236976938065E-002
   3.5050087832111387E-015  -5.4000207083682028E-014   7.8258178592262612E-002
   1.7976939381547652E-014  -9.6158324358608382E-014   7.7054080393626628E-002
   3.2440196362504281E-014  -1.5150706210442788E-013   8.2011942381030128E-002
   4.6920800578220678E-014  -2.2010171463193728E-013   9.3131764554473084E-002
  -8.6805562737879427E-015   0.0000000000000000        3.3136791977148805E-002
  -9.2512802973843122E-015   5.7670881958848952E-015   4.9561641885953342E-002
  -9.8237390444566586E-015   3.5076108684251039E-015   6.3784499355519719E-002
  -1.0400534600218947E-014  -6.7775646206413853E-015   7.5805364385847979E-002
  -1.0966921815125374E-014  -2.5087570909576584E-014   8.5624236976938065E-002
  -2.4776713528393158E-002   0.0000000000000000        3.6183087165991883E-002
  -2.5456045758408562E-002   5.0789502842154650E-003   4.2843862807639417E-002
  -2.6135377988423952E-002   8.1306203815091210E-003   5.0347966428495441E-002
  -2.6814710218439355E-002   9.1550102918809759E-003   5.8695398028559949E-002
  -2.7494042448454749E-002   8.1521200153310165E-003   6.7886157607832953E-002
  -5.9826521439693026E-002   0.0000000000000000        4.5321972732501548E-002
  -5.8139865481276636E-002   1.0157900568425169E-002   4.0191393920078297E-002
  -5.6453209522860218E-002   1.6261240763014738E-002   3.8949463505310186E-002
  -5.4766553564443807E-002   1.8310020583768735E-002   4.1596181488197187E-002
  -5.3079897606027403E-002   1.6304240030687131E-002   4.8131547868739286E-002
 -0.10514942373390830        0.0000000000000000        6.0553448676677800E-002
  -9.8051459168613450E-002   1.5236850852634862E-002   4.1604235223270003E-002
  -9.0953494603318613E-002   2.4391861144520358E-002   2.9588990585963943E-002
  -8.3855530038023762E-002   2.7465030875656493E-002   2.4507714764759655E-002
  -7.6757565472728925E-002   2.4456360046043249E-002   2.6360407759657107E-002
 -0.16074542041103895        0.0000000000000000        8.1877514998520640E-002
 -0.14519082682041906        2.0315801136844572E-002   4.7082386717214500E-002
 -0.12963623322979914        3.2522481526025965E-002   2.2266547670456743E-002
 -0.11408163963917922        3.6620041167544241E-002   7.4299978582473870E-003
  -9.8527046048559330E-002   3.2608480061399339E-002   2.5727372805863791E-003
  -1.0966921815125374E-014  -2.5087570909576584E-014   8.5624236976938065E-002
   3.5050087832111387E-015  -5.4000207083682028E-014   7.8258178592262612E-002
   1.7976939381547652E-014  -9.6158324358608382E-014   7.7054080393626628E-002
   3.2440196362504281E-014  -1.5150706210442788E-013   8.2011942381030128E-002
   4.6920800578220678E-014  -2.2010171463193728E-013   9.3131764554473084E-002
  -2.7494042448454749E-002   8.1521200153310165E-003   6.7886157607832953E-002
  -2.2281726631430871E-002   6.4226885973170476E-003   6.1765741096988826E-002
  -1.7069410814406983E-002   5.2674550832968363E-003   5.9907996034124056E-002
  -1.1857094997383116E-002   4.6864194732703863E-003   6.2312922419238623E-002
  -6.6447791803592102E-003   4.6795817672376228E-003   6.8980520252332547E-002
  -5.3079897606027403E-002   1.6304240030687131E-002   4.8131547868739286E-002
  -4.4554554710054227E-002   1.2845377194688097E-002   4.3830971135733476E-002
  -3.6029211814081065E-002   1.0534910166689802E-002   4.1893777112646885E-002
  -2.7503868918107893E-002   9.3728389466922381E-003   4.2319965799479504E-002
  -1.8978526022134731E-002   9.3591635346953750E-003   4.5109537196231356E-002
  -7.6757565472728925E-002   2.4456360046043249E-002   2.6360407759657107E-002
  -6.6818484235866574E-002   1.9268065792059159E-002   2.4453868708496567E-002
  -5.6879402999004264E-002   1.5802365250082846E-002   2.3011423629195137E-002
  -4.6940321762141940E-002   1.4059258420114098E-002   2.2033072521752801E-002
  -3.7001240525279588E-002   1.4038745302153183E-002   2.1518815386169583E-002
  -9.8527046048559330E-002   3.2608480061399339E-002   2.5727372805863791E-003
  -8.9073515208867970E-002   2.5690754389430207E-002   3.6344338152781153E-003
  -7.9619984369176583E-002   2.1069820333475788E-002   3.2609355837687794E-003
  -7.0166453529485195E-002   1.8745677893535977E-002   1.4522425860585492E-003
  -6.0712922689793836E-002   1.8718327069610852E-002  -1.7916451778528797E-003
 </DataArray>
 </PointData>
 </Piece>
 <Piece  NumberOfPoints="           100 "  NumberOfCells="           64 ">
 <Points>
 <DataArray  type="Float64" NumberOfComponents="3"  format="ascii" >
  0.50000000000000000        0.0000000000000000        0.0000000000000000     
  0.62500000000000000        0.0000000000000000        0.0000000000000000     
  0.75000000000000000        0.0000000000000000        0.0000000000000000     
  0.87500000000000000        0.0000000000000000        0.0000000000000000     
   1.0000000000000000        0.0000000000000000        0.0000000000000000     
  0.50000000000000000       0.12500000000000000        0.0000000000000000     
  0.62500000000000000       0.12500000000000000        0.0000000000000000     
  0.75000000000000000       0.12500000000000000        0.0000000000000000     
  0.87500000000000000       0.12500000000000000        0.0000000000000000     
   1.0000000000000000       0.12500000000000000        0.0000000000000000     
  0.50000000000000000       0.25000000000000000        0.0000000000000000     
  0.62500000000000000       0.25000000000000000        0.0000000000000000     
  0.75000000000000000       0.25000000000000000        0.0000000000000000     
  0.87500000000000000       0.25000000000000000        0.0000000000000000     
   1.0000000000000000       0.25000000000000000        0.0000000000000000     
  0.50000000000000000       0.37500000000000000        0.0000000000000000     
  0.62500000000000000       0.37500000000000000        0.0000000000000000     
  0.75000000000000000       0.37500000000000000        0.0000000000000000     
  0.87500000000000000       0.37500000000000000        0.0000000000000000     
   1.0000000000000000       0.37500000000000000        0.0000000000000000     
  0.50000000000000000       0.50000000000000000        0.0000000000000000     
  0.62500000000000000       0.50000000000000000        0.0000000000000000     
  0.75000000000000000       0.50000000000000000        0.0000000000000000     
  0.87500000000000000       0.50000000000000000        0.0000000000000000     
   1.0000000000000000       0.50000000000000000        0.0000000000000000     
   1.0000000000000000        0.0000000000000000        0.0000000000000000     
   1.1250000000000000        0.0000000000000000        0.0000000000000000     
   1.2500000000000000        0.0000000000000000        0.0000000000000000     
   1.3750000000000000        0.0000000000000000        0.0000000000000000     
   1.5000000000000000        0.0000000000000000        0.0000000000000000     
   1.0000000000000000       0.12500000000000000        0.0000000000000000     
   1.1250000000000000       0.12500000000000000        0.0000000000000000     
   1.2500000000000000       0.12500000000000000        0.0000000000000000     
   1.3750000000000000       0.12500000000000000        0.0000000000000000     
   1.5000000000000000       0.12500000000000000        0.0000000000000000     
   1.0000000000000000       0.25000000000000000        0.0000000000000000     
   1.1250000000000000       0.25000000000000000        0.0000000000000000     
   1.2500000000000000       0.25000000000000000        0.0000000000000000     
   1.3750000000000000       0.25000000000000000        0.0000000000000000     
   1.5000000000000000       0.25000000000000000        0.0000000000000000     
   1.0000000000000000       0.37500000000000000        0.0000000000000000     
   1.1250000000000000       0.37500000000000000        0.0000000000000000     
   1.2500000000000000       0.37500000000000000        0.0000000000000000     
   1.3750000000000000       0.37500000000000000        0.0000000000000000     
   1.5000000000000000       0.37500000000000000        0.0000000000000000     
   1.0000000000000000       0.50000000000000000        0.0000000000000000     
   1.1250000000000000       0.50000000000000000        0.0000000000000000     
   1.2500000000000000       0.50000000000000000        0.0000000000000000     
   1.3750000000000000       0.50000000000000000        0.0000000000000000     
   1.5000000000000000       0.50000000000000000        0.0000000000000000     
  0.50000000000000000       0.50000000000000000        0.0000000000000000     
  0.62500000000000000       0.50000000000000000        0.0000000000000000     
  0.75000000000000000       0.50000000000000000        0.0000000000000000     
  0.87500000000000000       0.50000000000000000        0.0000000000000000     
   1.0000000000000000       0.50000000000000000        0.0000000000000000     
  0.50000000000000000       0.62500000000000000        0.0000000000000000     
  0.62500000000000000       0.62500000000000000        0.0000000000000000     
  0.75000000000000000       0.62500000000000000        0.0000000000000000     
  0.87500000000000000       0.62500000000000000        0.0000000000000000     
   1.0000000000000000       0.62500000000000000        0.0000000000000000     
  0.50000000000000000       0.75000000000000000        0.0000000000000000     
  0.62500000000000000       0.75000000000000000        0.0000000000000000     
  0.75000000000000000       0.75000000000000000        0.0000000000000000     
  0.87500000000000000       0.75000000000000000        0.0000000000000000     
   1.0000000000000000       0.75000000000000000        0.0000000000000000     
  0.50000000000000000       0.87500000000000000        0.0000000000000000     
  0.62500000000000000       0.87500000000000000        0.0000000000000000     
  0.75000000000000000       0.87500000000000000        0.0000000000000000     
  0.87500000000000000       0.87500000000000000        0.0000000000000000     
   1.0000000000000000       0.87500000000000000        0.0000000000000000     
  0.50000000000000000        1.0000000000000000        0.0000000000000000     
  0.62500000000000000        1.0000000000000000        0.0000000000000000     
  0.75000000000000000        1.0000000000000000        0.0000000000000000     
  0.87500000000000000        1.0000000000000000        0.0000000000000000     
   1.0000000000000000        1.0000000000000000        0.0000000000000000     
   1.0000000000000000       0.50000000000000000        0.0000000000000000     
   1.1250000000000000       0.50000000000000000        0.0000000000000000     
   1.2500000000000000       0.50000000000000000        0.0000000000000000     
   1.3750000000000000       0.50000000000000000        0.0000000000000000     
   1.5000000000000000       0.50000000000000000        0.0000000000000000     
   1.0000000000000000       0.62500000000000000        0.0000000000000000     
   1.1250000000000000       0.62500000000000000        0.0000000000000000     
   1.2500000000000000       0.62500000000000000        0.0000000000000000     
   1.3750000000000000       0.62500000000000000        0.0000000000000000     
   1.5000000000000000       0.62500000000000000        0.0000000000000000     
   1.0000000000000000       0.75000000000000000        0.0000000000000000     
   1.1250000000000000       0.75000000000000000        0.0000000000000000     
   1.2500000000000000       0.75000000000000000        0.0000000000000000     
   1.3750000000000000       0.75000000000000000        0.0000000000000000     
   1.5000000000000000       0.75000000000000000        0.0000000000000000     
   1.0000000000000000       0.87500000000000000        0.0000000000000000     
   1.1250000000000000       0.87500000000000000        0.0000000000000000     
   1.2500000000000000       0.87500000000000000        0.0000000000000000     
   1.3750000000000000       0.87500000000000000        0.0000000000000000     
   1.5000000000000000       0.87500000000000000        0.0000000000000000     
   1.0000000000000000        1.0000000000000000        0.0000000000000000     
   1.1250000000000000        1.0000000000000000        0.0000000000000000     
   1.2500000000000000        1.0000000000000000        0.0000000000000000     
   1.3750000000000000        1.0000000000000000        0.0000000000000000     
   1.5000000000000000        1.0000000000000000        0.0000000000000000     
 </DataArray>
 </Points>
 <Cells>
 <DataArray  type="Int32"  Name="connectivity"  format="ascii">
           0           1           6           5
           1           2           7           6
           2           3           8           7
           3           4           9           8
           5           6          11          10
           6           7          12          11
           7           8          13          12
           8           9          14          13
          10          11          16          15
          11          12          17          16
          12          13          18          17
          13          14          19          18
          15          16          21          20
          16          17          22          21
          17          18          23          22
          18          19          24          23
          25          26          31          30
          26          27          32          31
          27          28          33          32
          28          29          34          33
          30          31          36          35
          31          32          37          36
          32          33          38          37
          33          34          39          38
          35          36          41          40
          36          37          42          41
          37          38          43          42
          38          39          44          43
          40          41          46          45
          41          42          47          46
          42          43          48          47
          43          44          49          48
          50          51          56          55
          51          52          57          56
          52          53          58          57
          53          54          59          58
          55          56          61          60
          56          57          62          61
          57          58          63          62
          58          59          64          63
          60          61          66          65
          61          62          67          66
          62          63          68          67
          63          64          69          68
          65          66          71          70
          66          67          72          71
          67          68          73          72
          68          69          74          73
          75          76          81          80
          76          77          82          81
          77          78          83          82
          78          79          84          83
          80          81          86          85
          81          82          87          86
          82          83          88          87
          83          84          89          88
          85          86          91          90
          86          87          92          91
          87          88          93          92
          88          89          94          93
          90          91          96          95
          91          92          97          96
          92          93          98          97
          93          94          99          98
 </DataArray>
 <DataArray  type="Int32"  Name="offsets"  format="ascii"> 
           4
           8
          12
          16
          20
          24
          28
          32
          36
          40
          44
          48
          52
          56
          60
          64
          68
          72
          76
          80
          84
          88
          92
          96
         100
         104
         108
         112
         116
         120
         124
         128
         132
         136
         140
         144
         148
         152
         156
         160
         164
         168
         172
         176
         180
         184
         188
         192
         196
         200
         204
         208
         212
         216
         220
         224
         228
         232
         236
         240
         244
         248
         252
         256
 </DataArray>
 <DataArray  type="UInt8"  Name="types"  format="ascii">
 9
 9
 9
 9
 9
 9
 9
 9
 9
 9
 9
 9
 9
 9
 9
 9
 9
 9
 9
 9
 9
 9
 9
 9
 9
 9
 9
 9
 9
 9
 9
 9
 9
 9
 9
 9
 9
 9
 9
 9
 9
 9
 9
 9
 9
 9
 9
 9
 9
 9
 9
 9
 9
 9
 9
 9
 9
 9
 9
 9
 9
 9
 9
 9
 </DataArray>
 </Cells> 
 <PointData>
 <DataArray  type="Float64" Name="disp" NumberOfComponents="3" format="ascii">
   6.2208937596568065E-002   6.0633772884958775E-002   0.0000000000000000     
   7.4894782212526628E-002   8.4198294485166164E-002   0.0000000000000000     
   8.5754596291336166E-002  0.10962463173316719        0.0000000000000000     
   9.4788379832996705E-002  0.13691278462896186        0.0000000000000000     
  0.10199613283750823       0.16606275317255018        0.0000000000000000     
   4.5496896386280308E-002   5.7660116986370566E-002   0.0000000000000000     
   5.4587003331120959E-002   8.1297961724928688E-002   0.0000000000000000     
   6.2357246224157101E-002  0.10700194593295671        0.0000000000000000     
   6.8807625065388719E-002  0.13477206961045468        0.0000000000000000     
   7.3938139854815829E-002  0.16460833275742259        0.0000000000000000     
   2.9558059716756943E-002   5.5536077058815532E-002   0.0000000000000000     
   3.5335280001897777E-002   7.9226295467621680E-002   0.0000000000000000     
   4.0265696819874013E-002  0.10512859893280992        0.0000000000000000     
   4.4349310170685670E-002  0.13324298745438018        0.0000000000000000     
   4.7586120054332728E-002  0.16356946103233252        0.0000000000000000     
   1.4392427587997988E-002   5.4261653102293674E-002   0.0000000000000000     
   1.7139612224857069E-002   7.7983295713245207E-002   0.0000000000000000     
   1.9479948078486922E-002  0.10400459073272676        0.0000000000000000     
   2.1413435148887560E-002  0.13232553816073830        0.0000000000000000     
   2.2940073436058962E-002  0.16294613799727986        0.0000000000000000     
   3.4347524824340780E-015   5.3836845116805004E-002   0.0000000000000000     
  -1.1570605584765303E-015   7.7568962461799229E-002   0.0000000000000000     
  -4.1689741936412616E-015  0.10362992133270725        0.0000000000000000     
  -5.6171430354301499E-015  0.13201972172952908        0.0000000000000000     
  -5.4886650779906176E-015  0.16273836365226468        0.0000000000000000     
  0.10199613283750823       0.16606275317255018        0.0000000000000000     
  0.10761032276675157       0.19696536789154076        0.0000000000000000     
  0.11186341708260764       0.22951145931354228        0.0000000000000000     
  0.11475541578507632       0.26370102743855467        0.0000000000000000     
  0.11628631887415772       0.29953407226657797        0.0000000000000000     
   7.3938139854815829E-002  0.16460833275742259        0.0000000000000000     
   7.7899442224951099E-002  0.19606391166804193        0.0000000000000000     
   8.0842183808307225E-002  0.22869198263649421        0.0000000000000000     
   8.2766364604884235E-002  0.26249254566277935        0.0000000000000000     
   8.3671984614682074E-002  0.29746560074689743        0.0000000000000000     
   4.7586120054332728E-002  0.16356946103233252        0.0000000000000000     
   5.0060761583224908E-002  0.19542001436554310        0.0000000000000000     
   5.1857869869771880E-002  0.22810664215288828        0.0000000000000000     
   5.2977444913973645E-002  0.26162934439436791        0.0000000000000000     
   5.3419486715830231E-002  0.29598812108998218        0.0000000000000000     
   2.2940073436058962E-002  0.16294613799727986        0.0000000000000000     
   2.4094280841573008E-002  0.19503367598404431        0.0000000000000000     
   2.4910475267001554E-002  0.22775543786272451        0.0000000000000000     
   2.5388656712344609E-002  0.26111142363332046        0.0000000000000000     
   2.5528825177602160E-002  0.29510163329583222        0.0000000000000000     
  -5.4886650779906176E-015  0.16273836365226468        0.0000000000000000     
  -4.5926804026485968E-015  0.19490489652354548        0.0000000000000000     
  -3.7335586011710831E-015  0.22763836976600291        0.0000000000000000     
  -2.9092396894303540E-015  0.26093878337963694        0.0000000000000000     
  -2.1233015345956119E-015  0.29480613736444755        0.0000000000000000     
   3.4347524824340780E-015   5.3836845116805004E-002   0.0000000000000000     
  -1.1570605584765303E-015   7.7568962461799229E-002   0.0000000000000000     
  -4.1689741936412616E-015  0.10362992133270725        0.0000000000000000     
  -5.6171430354301499E-015  0.13201972172952908        0.0000000000000000     
  -5.4886650779906176E-015  0.16273836365226468        0.0000000000000000     
  -1.4392427587987639E-002   5.4261653102344806E-002   0.0000000000000000     
  -1.7139612224856021E-002   7.7983295713280429E-002   0.0000000000000000     
  -1.9479948078492158E-002  0.10400459073274924        0.0000000000000000     
  -2.1413435148896057E-002  0.13232553816075124        0.0000000000000000     
  -2.2940073436067701E-002  0.16294613799728638        0.0000000000000000     
  -2.9558059716736147E-002   5.5536077058908367E-002   0.0000000000000000     
  -3.5335280001886668E-002   7.9226295467685517E-002   0.0000000000000000     
  -4.0265696819869932E-002  0.10512859893285058        0.0000000000000000     
  -4.4349310170685961E-002  0.13324298745440355        0.0000000000000000     
  -4.7586120054334734E-002  0.16356946103234443        0.0000000000000000     
  -4.5496896386242103E-002   5.7660116986495709E-002   0.0000000000000000     
  -5.4587003331093065E-002   8.1297961725014481E-002   0.0000000000000000     
  -6.2357246224137484E-002  0.10700194593301124        0.0000000000000000     
  -6.8807625065375327E-002  0.13477206961048604        0.0000000000000000     
  -7.3938139854806587E-002  0.16460833275743883        0.0000000000000000     
  -6.2208937596505483E-002   6.0633772885106831E-002   0.0000000000000000     
  -7.4894782212475253E-002   8.4198294485267319E-002   0.0000000000000000     
  -8.5754596291294782E-002  0.10962463173323128        0.0000000000000000     
  -9.4788379832964162E-002  0.13691278462899867        0.0000000000000000     
 -0.10199613283748329       0.16606275317256952        0.0000000000000000     
  -5.4886650779906176E-015  0.16273836365226468        0.0000000000000000     
  -4.5926804026485968E-015  0.19490489652354548        0.0000000000000000     
  -3.7335586011710831E-015  0.22763836976600291        0.0000000000000000     
  -2.9092396894303540E-015  0.26093878337963694        0.0000000000000000     
  -2.1233015345956119E-015  0.29480613736444755        0.0000000000000000     
  -2.2940073436067701E-002  0.16294613799728638        0.0000000000000000     
  -2.4094280841580454E-002  0.19503367598404658        0.0000000000000000     
  -2.4910475267007667E-002  0.22775543786272368        0.0000000000000000     
  -2.5388656712349345E-002  0.26111142363331769        0.0000000000000000     
  -2.5528825177605484E-002  0.29510163329582861        0.0000000000000000     
  -4.7586120054334734E-002  0.16356946103234443        0.0000000000000000     
  -5.0060761583227115E-002  0.19542001436554751        0.0000000000000000     
  -5.1857869869773920E-002  0.22810664215288709        0.0000000000000000     
  -5.2977444913975151E-002  0.26162934439436319        0.0000000000000000     
  -5.3419486715830786E-002  0.29598812108997574        0.0000000000000000     
  -7.3938139854806587E-002  0.16460833275743883        0.0000000000000000     
  -7.7899442224944562E-002  0.19606391166804829        0.0000000000000000     
  -8.0842183808302465E-002  0.22869198263649318        0.0000000000000000     
  -8.2766364604880280E-002  0.26249254566277341        0.0000000000000000     
  -8.3671984614678049E-002  0.29746560074688899        0.0000000000000000     
 -0.10199613283748329       0.16606275317256952        0.0000000000000000     
 -0.10761032276673282       0.19696536789154889        0.0000000000000000     
 -0.11186341708259334       0.22951145931354183        0.0000000000000000     
 -0.11475541578506482       0.26370102743854834        0.0000000000000000     
 -0.11628631887414724       0.29953407226656836        0.0000000000000000     
 </DataArray>
 <DataArray  type="Float64" Name="stress" NumberOfComponents="3" format="ascii">
   6635246093.6975632        359311163.73896623        1021840669.9644202     
   5685325473.6913757        114557956.49009895        675622664.60442460     
   4772356351.7339897       -7023590.5961031914        425906708.91152847     
   3896338727.8253970       -5433477.5196578503        272692802.88572931     
   3057272601.9656043        119328295.71945775        215980946.52702773     
   4739543523.5981159        198416058.80505657        1159262042.5693998     
   4053296738.2716789        22709257.270828962        902984006.39605808     
   3394763576.4819088       -60618799.141175270        737096161.29820156     
   2763944038.2288055       -51568110.430960178        661598507.27583003     
   2160838123.5123649        49861323.401466489        676491044.32894444     
   3001768317.9489708        84899163.206238747        1298204581.1951962     
   2561732914.1833920       -26999968.549014688        1121088993.9443512     
   2140173259.4423478       -77313270.222488046        1028251739.1773822     
   1737089353.7258372       -66040741.814182043        1019692816.8942852     
   1352481197.0338595        6817616.6758987308        1095412227.0950620     
   1421920476.7501254        18760476.942509353        1438668285.8418033     
   1210634001.4265141       -34569720.969437182        1329937627.2493048     
   1008585400.6153023       -57107003.840047836        1299373442.5490668     
   815774674.31649423       -48851371.669316411        1346975731.7410920     
   632201822.53008509       -9802824.4572513402        1472744494.8253760     
   1.5808782854216073E-003   1.3871047168022088E-002   1580653156.5092263     
   1.0430301311292987E-003   9.5621770574909684E-003   1529529906.3109183     
   7.7399167661110235E-004   6.1493392795402202E-003   1550461271.4132583     
   7.7540423715582649E-004   3.6386987745229294E-003   1643447251.8162465     
   1.0442196557985401E-003   2.0194011298322713E-003   1808487847.5198853     
   3057272601.9656043        119328295.71945775        215980946.52702773     
   2439334373.9868369        237287183.87661636        198899552.98308906     
   1736219645.0276728        71324402.099115551        245194491.93674612     
   947928415.08810174       -378560049.61306441        354865763.38799471     
   74460684.168144524       -1112366171.2598839        527913367.33684164     
   2160838123.5123649        49861323.401466489        676491044.32894444     
   1698577027.4352822        138688261.99114680        603146648.81952798     
   1172433555.6229291        14573948.129928827        592900318.32938635     
   582407708.07529902       -322481618.18221807        645752052.85851371     
  -71500515.207603931       -872478436.94526291        761701852.40692031     
   1352481197.0338595        6817616.6758987308        1095412227.0950620     
   1045102182.9204001        66274090.716685891        990647975.73947966     
   695134918.31679571       -16230270.209681034        948703521.92484605     
   302579403.22303796       -240695466.10321575        969578865.65116584     
  -132564362.36086312       -607121496.96390867        1053274006.9184376     
   632201822.53008509       -9802824.4572513402        1472744494.8253760     
   478909840.44218957        20044670.053224564        1361403533.7429366     
   304323733.10927129       -21088252.919708386        1312604102.7231295     
   108443500.53132825       -133201593.37605479        1326346201.7659521     
  -108730857.29163444       -316295351.31580156        1402629830.8714063     
   1.0442196557985401E-003   2.0194011298322713E-003   1808487847.5198853     
   6.5117325451194451E-004   7.6614538888899195E-004   1715413322.8299055     
   3.5903057084117780E-004  -1.4937684788740943E-004   1684602060.7242367     
   1.7126295802772783E-004  -7.1732912650128411E-004   1716054061.2028744     
   8.5645776185369203E-005  -9.4686163671602649E-004   1809769324.2658248     
   1.5808782854216073E-003   1.3871047168022088E-002   1580653156.5092263     
   1.0430301311292987E-003   9.5621770574909684E-003   1529529906.3109183     
   7.7399167661110235E-004   6.1493392795402202E-003   1550461271.4132583     
   7.7540423715582649E-004   3.6386987745229294E-003   1643447251.8162465     
   1.0442196557985401E-003   2.0194011298322713E-003   1808487847.5198853     
  -1421920476.7484851       -18760476.919737518        1438668285.8398623     
  -1210634001.4255741        34569720.985037804        1329937627.2479026     
  -1008585400.6145997        57107003.850022674        1299373442.5481577     
  -815774674.31556654        48851371.675207078        1346975731.7406273     
  -632201822.52846861        9802824.4606039822        1472744494.8253155     
  -3001768317.9489202       -84899163.188456535        1298204581.1918705     
  -2561732914.1837959        26999968.561032772        1121088993.9420156     
  -2140173259.4428194        77313270.230037212        1028251739.1759436     
  -1737089353.7259872        66040741.818555117        1019692816.8936549     
  -1352481197.0332990       -6817616.6734087467        1095412227.0951483     
  -4739543523.5997238       -198416058.79228592        1159262042.5652492     
  -4053296738.2736273       -22709257.262456656        902984006.39325821     
  -3394763576.4838800        60618799.146199226        737096161.29661715     
  -2763944038.2304864        51568110.433683991        661598507.27532721     
  -2160838123.5134449       -49861323.400008321        676491044.32938504     
  -6635246093.7008991       -359311163.73122716        1021840669.9599978     
  -5685325473.6950588       -114557956.48542356        675622664.60162997     
  -4772356351.7377834        7023590.5985138416        425906708.91017848     
  -3896338727.8290687        5433477.5205812454        272692802.88564420     
  -3057272601.9689102       -119328295.71921384        215980946.52802724     
   1.0442196557985401E-003   2.0194011298322713E-003   1808487847.5198853     
   6.5117325451194451E-004   7.6614538888899195E-004   1715413322.8299055     
   3.5903057084117780E-004  -1.4937684788740943E-004   1684602060.7242367     
   1.7126295802772783E-004  -7.1732912650128411E-004   1716054061.2028744     
   8.5645776185369203E-005  -9.4686163671602649E-004   1809769324.2658248     
  -632201822.52846861        9802824.4606039822        1472744494.8253155     
  -478909840.44114804       -20044670.051853150        1361403533.7429023     
  -304323733.10865182        21088252.919610485        1312604102.7231627     
  -108443500.53097403        133201593.37500808        1326346201.7660947     
   108730857.29187852        316295351.31432599        1402629830.8716950     
  -1352481197.0332990       -6817616.6734087467        1095412227.0951483     
  -1045102182.9200869       -66274090.715617418        990647975.73955798     
  -695134918.31662059        16230270.209686220        948703521.92499995     
  -302579403.22290158        240695466.10249957        969578865.65147746     
   132564362.36106908        607121496.96281815        1053274006.9189910     
  -2160838123.5134449       -49861323.400008321        676491044.32938504     
  -1698577027.4361622       -138688261.99051452        603146648.81987190     
  -1172433555.6235516       -14573948.129926741        592900318.32975292     
  -582407708.07561541        322481618.18174481        645752052.85902953     
   71500515.207653463        872478436.94452846        761701852.40770686     
  -3057272601.9689102       -119328295.71921384        215980946.52802724     
  -2439334373.9893794       -237287183.87657070        198899552.98384389     
  -1736219645.0294418       -71324402.099230647        245194491.93741640     
  -947928415.08910251        378560049.61277485        354865763.38875109     
  -74460684.168361902        1112366171.2594588        527913367.33784211     
 </DataArray>
 <DataArray  type="Float64" Name="VM" NumberOfComponents="1" format="ascii">
   6701041135.9038324     
   5749273689.2353287     
   4832508989.1319876     
   3927561554.9286594     
   3022627860.5767255     
   5059041969.3862734     
   4334030819.9003878     
   3655654951.3587475     
   3016241873.9801311     
   2436572530.8869658     
   3717388692.0970521     
   3225351581.9295702     
   2814904551.3265138     
   2501175682.4345613     
   2328049615.3803582     
   2864408001.9157953     
   2610533146.2679877     
   2478551399.5423436     
   2480072045.9861560     
   2629239746.4630103     
   2737771576.2181005     
   2649223509.4265757     
   2685477697.2556024     
   2846534139.7051816     
   3132392836.7753181     
   3022627860.5767255     
   2355104606.6236000     
   1753873431.7643433     
   1333608994.1263535     
   1470308814.1089411     
   2436572530.8869658     
   1939119206.3147116     
   1553163938.1966555     
   1371858612.9575520     
   1563495258.9441044     
   2328049615.3803582     
   1992866745.7902002     
   1787420857.3888423     
   1744295738.4863555     
   1906264816.0927982     
   2629239746.4630103     
   2404249483.6011229     
   2295269896.1679478     
   2306844217.7928619     
   2445319081.6816692     
   3132392836.7753181     
   2971183031.1219487     
   2917816359.7096090     
   2972292822.5382900     
   3134612419.6080031     
   2737771576.2181005     
   2649223509.4265757     
   2685477697.2556024     
   2846534139.7051816     
   3132392836.7753181     
   2864408001.9175649     
   2610533146.2692266     
   2478551399.5428791     
   2480072045.9861693     
   2629239746.4629326     
   3717388692.1003008     
   3225351581.9323306     
   2814904551.3283792     
   2501175682.4355307     
   2328049615.3808713     
   5059041969.3903751     
   4334030819.9043255     
   3655654951.3620520     
   3016241873.9826493     
   2436572530.8888960     
   6701041135.9084396     
   5749273689.2401676     
   4832508989.1365728     
   3927561554.9327459     
   3022627860.5803318     
   3132392836.7753181     
   2971183031.1219487     
   2917816359.7096090     
   2972292822.5382900     
   3134612419.6080031     
   2629239746.4629326     
   2404249483.6009865     
   2295269896.1679120     
   2306844217.7929959     
   2445319081.6820035     
   2328049615.3808713     
   1992866745.7904024     
   1787420857.3890195     
   1744295738.4866812     
   1906264816.0933874     
   2436572530.8888960     
   1939119206.3160038     
   1553163938.1975429     
   1371858612.9582400     
   1563495258.9448493     
   3022627860.5803318     
   2355104606.6263156     
   1753873431.7662873     
   1333608994.1276255     
   1470308814.1097798     
 </DataArray>
 <DataArray  type="Float64" Name="strain" NumberOfComponents="3" format="ascii">
  0.10879087907626456       -2.7187711072838378E-002   4.4279762365124875E-002
   9.4182634779072433E-002  -2.6517328093621895E-002   2.9276982132858398E-002
   7.9574390481880336E-002  -2.3978841601938333E-002   1.8455957386166233E-002
   6.4966146184688239E-002  -1.9572251597787950E-002   1.1816688125048269E-002
   5.0357901887496115E-002  -1.3297558081170391E-002   9.3591743495045343E-003
   7.8000311765943325E-002  -2.0390783304572974E-002   5.0234688511340664E-002
   6.7441399351507170E-002  -1.9887996070177910E-002   3.9129306943829184E-002
   5.6882486937071028E-002  -1.7984131201429131E-002   3.1940833656255399E-002
   4.6323574522634893E-002  -1.4679188698326696E-002   2.8669268648619302E-002
   3.5764662108198744E-002  -9.9731685608707155E-003   2.9314611920920927E-002
   4.9604976149784985E-002  -1.3593855536307542E-002   5.6255531851791829E-002
   4.2830548412468271E-002  -1.3258664046733870E-002   4.8580523070921887E-002
   3.6056120675151571E-002  -1.1989420800919873E-002   4.4557575364353230E-002
   2.9281692937834863E-002  -9.7861257988655533E-003   4.4186688732085692E-002
   2.2507265200518163E-002  -6.6487790405709846E-003   4.7467863174119357E-002
   2.3604872227789543E-002  -6.7969277680421381E-003   6.2342292386478142E-002
   2.0350081961955757E-002  -6.6293320232898578E-003   5.7630630514136541E-002
   1.7095291696121943E-002  -5.9947104004106425E-003   5.6306182510459560E-002
   1.3840501430288152E-002  -4.8930628994044104E-003   5.8368948375447316E-002
   1.0585711164454342E-002  -3.3243895202712814E-003   6.3818928109099629E-002
  -4.3007264416417001E-014   2.2327972803992679E-013   6.8494970115399803E-002
  -3.0427049768633196E-014   1.5415446696920299E-013   6.6279629273473126E-002
  -1.7846835120849391E-014   9.8619029609281483E-014   6.7186655094574527E-002
  -5.2700899200175400E-015   5.6767958389603024E-014   7.1216047578704020E-002
   7.3066552808143115E-015   2.8435587218211822E-014   7.8367806725861702E-002
   5.0357901887496115E-002  -1.3297558081170391E-002   9.3591743495045343E-003
   3.9469136980397529E-002  -8.2418854719905760E-003   8.6189806292671922E-003
   2.8580372073298971E-002  -7.4923581901531061E-003   1.0625094650592332E-002
   1.7691607166200350E-002  -1.1048976235658248E-002   1.5377516413479772E-002
   6.8028422591018267E-003  -1.8911739608505451E-002   2.2876245917929805E-002
   3.5764662108198744E-002  -9.9731685608707155E-003   2.9314611920920927E-002
   2.7616175813965638E-002  -6.1814141039906317E-003   2.6136354782179544E-002
   1.9467689519732510E-002  -5.6192686426158323E-003   2.5692347127606742E-002
   1.1319203225499407E-002  -8.2867321767467958E-003   2.7982588957202261E-002
   3.1707169312662487E-003  -1.4183804706383030E-002   3.3007080270966549E-002
   2.2507265200518163E-002  -6.6487790405709846E-003   4.7467863174119357E-002
   1.7086999261756573E-002  -4.1209427359905695E-003   4.2928078948710785E-002
   1.1666733322995001E-002  -3.7461790950786625E-003   4.1110485950076665E-002
   6.2464673842333781E-003  -5.5244881178354525E-003   4.2015084178217185E-002
   8.2620144547182472E-004  -9.4558698042608302E-003   4.5641873633132296E-002
   1.0585711164454342E-002  -3.3243895202712814E-003   6.3818928109099629E-002
   7.8816073237703704E-003  -2.0604713679905386E-003   5.8994153128860589E-002
   5.1775034830863964E-003  -1.8730895475414962E-003   5.6879511118002275E-002
   2.4733996424024115E-003  -2.7622440589242210E-003   5.7475002076524589E-002
  -2.3070419828156649E-004  -4.7279349021385197E-003   6.0780626004427608E-002
   7.3066552808143115E-015   2.8435587218211822E-014   7.8367806725861702E-002
   7.0221606307541151E-015   9.5132235422568101E-015   7.4334577322629242E-002
   6.7307270867900115E-015  -4.2847669856627135E-015   7.2999422631383593E-002
   6.4410282663018847E-015  -1.2811800231826709E-014   7.4362342652124561E-002
   6.1617377866696188E-015  -1.6209256159527285E-014   7.8423337384852410E-002
  -4.3007264416417001E-014   2.2327972803992679E-013   6.8494970115399803E-002
  -3.0427049768633196E-014   1.5415446696920299E-013   6.6279629273473126E-002
  -1.7846835120849391E-014   9.8619029609281483E-014   6.7186655094574527E-002
  -5.2700899200175400E-015   5.6767958389603024E-014   7.1216047578704020E-002
   7.3066552808143115E-015   2.8435587218211822E-014   7.8367806725861702E-002
  -2.3604872227876064E-002   6.7969277684134660E-003   6.2342292386394035E-002
  -2.0350081962018089E-002   6.6293320235451675E-003   5.7630630514075777E-002
  -1.7095291696160107E-002   5.9947104005733769E-003   5.6306182510420168E-002
  -1.3840501430302146E-002   4.8930628994979511E-003   5.8368948375427179E-002
  -1.0585711164444164E-002   3.3243895203190765E-003   6.3818928109097006E-002
  -4.9604976149873053E-002   1.3593855536603659E-002   5.6255531851647722E-002
  -4.2830548412535099E-002   1.3258664046936194E-002   4.8580523070820683E-002
  -3.6056120675197173E-002   1.1989420801048050E-002   4.4557575364290891E-002
  -2.9281692937859229E-002   9.7861257989391888E-003   4.4186688732058381E-002
  -2.2507265200521275E-002   6.6487790406096828E-003   4.7467863174123090E-002
  -7.8000311766033975E-002   2.0390783304793856E-002   5.0234688511160801E-002
  -6.7441399351581499E-002   1.9887996070327190E-002   3.9129306943707858E-002
  -5.6882486937128995E-002   1.7984131201522723E-002   3.1940833656186746E-002
  -4.6323574522676526E-002   1.4679188698380497E-002   2.8669268648597514E-002
  -3.5764662108224037E-002   9.9731685609004174E-003   2.9314611920940020E-002
 -0.10879087907635884        2.7187711072984039E-002   4.4279762364933237E-002
  -9.4182634779157198E-002   2.6517328093718234E-002   2.9276982132737300E-002
  -7.9574390481955623E-002   2.3978841601997480E-002   1.8455957386107735E-002
  -6.4966146184754048E-002   1.9572251597821694E-002   1.1816688125044581E-002
  -5.0357901887552431E-002   1.3297558081190985E-002   9.3591743495478469E-003
   7.3066552808143115E-015   2.8435587218211822E-014   7.8367806725861702E-002
   7.0221606307541151E-015   9.5132235422568101E-015   7.4334577322629242E-002
   6.7307270867900115E-015  -4.2847669856627135E-015   7.2999422631383593E-002
   6.4410282663018847E-015  -1.2811800231826709E-014   7.4362342652124561E-002
   6.1617377866696188E-015  -1.6209256159527285E-014   7.8423337384852410E-002
  -1.0585711164444164E-002   3.3243895203190765E-003   6.3818928109097006E-002
  -7.8816073237598684E-003   2.0604713680081876E-003   5.8994153128859098E-002
  -5.1775034830755830E-003   1.8730895475367673E-003   5.6879511118003712E-002
  -2.4733996423912741E-003   2.7622440589050046E-003   5.7475002076530772E-002
   2.3070419829301220E-004   4.7279349021127071E-003   6.0780626004440119E-002
  -2.2507265200521275E-002   6.6487790406096828E-003   4.7467863174123090E-002
  -1.7086999261756691E-002   4.1209427360068100E-003   4.2928078948714178E-002
  -1.1666733322992107E-002   3.7461790950778732E-003   4.1110485950083334E-002
  -6.2464673842275251E-003   5.5244881178228341E-003   4.2015084178230688E-002
  -8.2620144546293947E-004   9.4558698042416234E-003   4.5641873633156277E-002
  -3.5764662108224037E-002   9.9731685609004174E-003   2.9314611920940020E-002
  -2.7616175813983464E-002   6.1814141040055694E-003   2.6136354782194449E-002
  -1.9467689519742894E-002   5.6192686426189799E-003   2.5692347127622625E-002
  -1.1319203225502316E-002   8.2867321767404918E-003   2.7982588957224615E-002
  -3.1707169312617514E-003   1.4183804706370540E-002   3.3007080271000633E-002
  -5.0357901887552431E-002   1.3297558081190985E-002   9.3591743495478469E-003
  -3.9469136980440134E-002   8.2418854720040513E-003   8.6189806292999022E-003
  -2.8580372073327878E-002   7.4923581901600311E-003   1.0625094650621378E-002
  -1.7691607166215581E-002   1.1048976235658425E-002   1.5377516413512548E-002
  -6.8028422591033255E-003   1.8911739608499456E-002   2.2876245917973159E-002
 </DataArray>
 </PointData>
 </Piece>
 </UnstructuredGrid>
 </VTKFile>
