 <VTKFile type="UnstructuredGrid"  version="0.1"   >
 <UnstructuredGrid>
 <Piece  NumberOfPoints="          1600 "  NumberOfCells="         1024 ">
 <Points>
 <DataArray  type="Float64" NumberOfComponents="3"  format="ascii" >
   0.0000000000000000        0.0000000000000000        0.0000000000000000     
   3.1250000000000000E-002   0.0000000000000000        0.0000000000000000     
   6.2500000000000000E-002   0.0000000000000000        0.0000000000000000     
   9.3750000000000000E-002   0.0000000000000000        0.0000000000000000     
  0.12500000000000000        0.0000000000000000        0.0000000000000000     
   0.0000000000000000        3.1250000000000000E-002   0.0000000000000000     
   3.1250000000000000E-002   3.1250000000000000E-002   0.0000000000000000     
   6.2500000000000000E-002   3.1250000000000000E-002   0.0000000000000000     
   9.3750000000000000E-002   3.1250000000000000E-002   0.0000000000000000     
  0.12500000000000000        3.1250000000000000E-002   0.0000000000000000     
   0.0000000000000000        6.2500000000000000E-002   0.0000000000000000     
   3.1250000000000000E-002   6.2500000000000000E-002   0.0000000000000000     
   6.2500000000000000E-002   6.2500000000000000E-002   0.0000000000000000     
   9.3750000000000000E-002   6.2500000000000000E-002   0.0000000000000000     
  0.12500000000000000        6.2500000000000000E-002   0.0000000000000000     
   0.0000000000000000        9.3750000000000000E-002   0.0000000000000000     
   3.1250000000000000E-002   9.3750000000000000E-002   0.0000000000000000     
   6.2500000000000000E-002   9.3750000000000000E-002   0.0000000000000000     
   9.3750000000000000E-002   9.3750000000000000E-002   0.0000000000000000     
  0.12500000000000000        9.3750000000000000E-002   0.0000000000000000     
   0.0000000000000000       0.12500000000000000        0.0000000000000000     
   3.1250000000000000E-002  0.12500000000000000        0.0000000000000000     
   6.2500000000000000E-002  0.12500000000000000        0.0000000000000000     
   9.3750000000000000E-002  0.12500000000000000        0.0000000000000000     
  0.12500000000000000       0.12500000000000000        0.0000000000000000     
  0.12500000000000000        0.0000000000000000        0.0000000000000000     
  0.15625000000000000        0.0000000000000000        0.0000000000000000     
  0.18750000000000000        0.0000000000000000        0.0000000000000000     
  0.21875000000000000        0.0000000000000000        0.0000000000000000     
  0.25000000000000000        0.0000000000000000        0.0000000000000000     
  0.12500000000000000        3.1250000000000000E-002   0.0000000000000000     
  0.15625000000000000        3.1250000000000000E-002   0.0000000000000000     
  0.18750000000000000        3.1250000000000000E-002   0.0000000000000000     
  0.21875000000000000        3.1250000000000000E-002   0.0000000000000000     
  0.25000000000000000        3.1250000000000000E-002   0.0000000000000000     
  0.12500000000000000        6.2500000000000000E-002   0.0000000000000000     
  0.15625000000000000        6.2500000000000000E-002   0.0000000000000000     
  0.18750000000000000        6.2500000000000000E-002   0.0000000000000000     
  0.21875000000000000        6.2500000000000000E-002   0.0000000000000000     
  0.25000000000000000        6.2500000000000000E-002   0.0000000000000000     
  0.12500000000000000        9.3750000000000000E-002   0.0000000000000000     
  0.15625000000000000        9.3750000000000000E-002   0.0000000000000000     
  0.18750000000000000        9.3750000000000000E-002   0.0000000000000000     
  0.21875000000000000        9.3750000000000000E-002   0.0000000000000000     
  0.25000000000000000        9.3750000000000000E-002   0.0000000000000000     
  0.12500000000000000       0.12500000000000000        0.0000000000000000     
  0.15625000000000000       0.12500000000000000        0.0000000000000000     
  0.18750000000000000       0.12500000000000000        0.0000000000000000     
  0.21875000000000000       0.12500000000000000        0.0000000000000000     
  0.25000000000000000       0.12500000000000000        0.0000000000000000     
  0.25000000000000000        0.0000000000000000        0.0000000000000000     
  0.28125000000000000        0.0000000000000000        0.0000000000000000     
  0.31250000000000000        0.0000000000000000        0.0000000000000000     
  0.34375000000000000        0.0000000000000000        0.0000000000000000     
  0.37500000000000000        0.0000000000000000        0.0000000000000000     
  0.25000000000000000        3.1250000000000000E-002   0.0000000000000000     
  0.28125000000000000        3.1250000000000000E-002   0.0000000000000000     
  0.31250000000000000        3.1250000000000000E-002   0.0000000000000000     
  0.34375000000000000        3.1250000000000000E-002   0.0000000000000000     
  0.37500000000000000        3.1250000000000000E-002   0.0000000000000000     
  0.25000000000000000        6.2500000000000000E-002   0.0000000000000000     
  0.28125000000000000        6.2500000000000000E-002   0.0000000000000000     
  0.31250000000000000        6.2500000000000000E-002   0.0000000000000000     
  0.34375000000000000        6.2500000000000000E-002   0.0000000000000000     
  0.37500000000000000        6.2500000000000000E-002   0.0000000000000000     
  0.25000000000000000        9.3750000000000000E-002   0.0000000000000000     
  0.28125000000000000        9.3750000000000000E-002   0.0000000000000000     
  0.31250000000000000        9.3750000000000000E-002   0.0000000000000000     
  0.34375000000000000        9.3750000000000000E-002   0.0000000000000000     
  0.37500000000000000        9.3750000000000000E-002   0.0000000000000000     
  0.25000000000000000       0.12500000000000000        0.0000000000000000     
  0.28125000000000000       0.12500000000000000        0.0000000000000000     
  0.31250000000000000       0.12500000000000000        0.0000000000000000     
  0.34375000000000000       0.12500000000000000        0.0000000000000000     
  0.37500000000000000       0.12500000000000000        0.0000000000000000     
  0.37500000000000000        0.0000000000000000        0.0000000000000000     
  0.40625000000000000        0.0000000000000000        0.0000000000000000     
  0.43750000000000000        0.0000000000000000        0.0000000000000000     
  0.46875000000000000        0.0000000000000000        0.0000000000000000     
  0.50000000000000000        0.0000000000000000        0.0000000000000000     
  0.37500000000000000        3.1250000000000000E-002   0.0000000000000000     
  0.40625000000000000        3.1250000000000000E-002   0.0000000000000000     
  0.43750000000000000        3.1250000000000000E-002   0.0000000000000000     
  0.46875000000000000        3.1250000000000000E-002   0.0000000000000000     
  0.50000000000000000        3.1250000000000000E-002   0.0000000000000000     
  0.37500000000000000        6.2500000000000000E-002   0.0000000000000000     
  0.40625000000000000        6.2500000000000000E-002   0.0000000000000000     
  0.43750000000000000        6.2500000000000000E-002   0.0000000000000000     
  0.46875000000000000        6.2500000000000000E-002   0.0000000000000000     
  0.50000000000000000        6.2500000000000000E-002   0.0000000000000000     
  0.37500000000000000        9.3750000000000000E-002   0.0000000000000000     
  0.40625000000000000        9.3750000000000000E-002   0.0000000000000000     
  0.43750000000000000        9.3750000000000000E-002   0.0000000000000000     
  0.46875000000000000        9.3750000000000000E-002   0.0000000000000000     
  0.50000000000000000        9.3750000000000000E-002   0.0000000000000000     
  0.37500000000000000       0.12500000000000000        0.0000000000000000     
  0.40625000000000000       0.12500000000000000        0.0000000000000000     
  0.43750000000000000       0.12500000000000000        0.0000000000000000     
  0.46875000000000000       0.12500000000000000        0.0000000000000000     
  0.50000000000000000       0.12500000000000000        0.0000000000000000     
  0.50000000000000000        0.0000000000000000        0.0000000000000000     
  0.53125000000000000        0.0000000000000000        0.0000000000000000     
  0.56250000000000000        0.0000000000000000        0.0000000000000000     
  0.59375000000000000        0.0000000000000000        0.0000000000000000     
  0.62500000000000000        0.0000000000000000        0.0000000000000000     
  0.50000000000000000        3.1250000000000000E-002   0.0000000000000000     
  0.53125000000000000        3.1250000000000000E-002   0.0000000000000000     
  0.56250000000000000        3.1250000000000000E-002   0.0000000000000000     
  0.59375000000000000        3.1250000000000000E-002   0.0000000000000000     
  0.62500000000000000        3.1250000000000000E-002   0.0000000000000000     
  0.50000000000000000        6.2500000000000000E-002   0.0000000000000000     
  0.53125000000000000        6.2500000000000000E-002   0.0000000000000000     
  0.56250000000000000        6.2500000000000000E-002   0.0000000000000000     
  0.59375000000000000        6.2500000000000000E-002   0.0000000000000000     
  0.62500000000000000        6.2500000000000000E-002   0.0000000000000000     
  0.50000000000000000        9.3750000000000000E-002   0.0000000000000000     
  0.53125000000000000        9.3750000000000000E-002   0.0000000000000000     
  0.56250000000000000        9.3750000000000000E-002   0.0000000000000000     
  0.59375000000000000        9.3750000000000000E-002   0.0000000000000000     
  0.62500000000000000        9.3750000000000000E-002   0.0000000000000000     
  0.50000000000000000       0.12500000000000000        0.0000000000000000     
  0.53125000000000000       0.12500000000000000        0.0000000000000000     
  0.56250000000000000       0.12500000000000000        0.0000000000000000     
  0.59375000000000000       0.12500000000000000        0.0000000000000000     
  0.62500000000000000       0.12500000000000000        0.0000000000000000     
  0.62500000000000000        0.0000000000000000        0.0000000000000000     
  0.65625000000000000        0.0000000000000000        0.0000000000000000     
  0.68750000000000000        0.0000000000000000        0.0000000000000000     
  0.71875000000000000        0.0000000000000000        0.0000000000000000     
  0.75000000000000000        0.0000000000000000        0.0000000000000000     
  0.62500000000000000        3.1250000000000000E-002   0.0000000000000000     
  0.65625000000000000        3.1250000000000000E-002   0.0000000000000000     
  0.68750000000000000        3.1250000000000000E-002   0.0000000000000000     
  0.71875000000000000        3.1250000000000000E-002   0.0000000000000000     
  0.75000000000000000        3.1250000000000000E-002   0.0000000000000000     
  0.62500000000000000        6.2500000000000000E-002   0.0000000000000000     
  0.65625000000000000        6.2500000000000000E-002   0.0000000000000000     
  0.68750000000000000        6.2500000000000000E-002   0.0000000000000000     
  0.71875000000000000        6.2500000000000000E-002   0.0000000000000000     
  0.75000000000000000        6.2500000000000000E-002   0.0000000000000000     
  0.62500000000000000        9.3750000000000000E-002   0.0000000000000000     
  0.65625000000000000        9.3750000000000000E-002   0.0000000000000000     
  0.68750000000000000        9.3750000000000000E-002   0.0000000000000000     
  0.71875000000000000        9.3750000000000000E-002   0.0000000000000000     
  0.75000000000000000        9.3750000000000000E-002   0.0000000000000000     
  0.62500000000000000       0.12500000000000000        0.0000000000000000     
  0.65625000000000000       0.12500000000000000        0.0000000000000000     
  0.68750000000000000       0.12500000000000000        0.0000000000000000     
  0.71875000000000000       0.12500000000000000        0.0000000000000000     
  0.75000000000000000       0.12500000000000000        0.0000000000000000     
  0.75000000000000000        0.0000000000000000        0.0000000000000000     
  0.78125000000000000        0.0000000000000000        0.0000000000000000     
  0.81250000000000000        0.0000000000000000        0.0000000000000000     
  0.84375000000000000        0.0000000000000000        0.0000000000000000     
  0.87500000000000000        0.0000000000000000        0.0000000000000000     
  0.75000000000000000        3.1250000000000000E-002   0.0000000000000000     
  0.78125000000000000        3.1250000000000000E-002   0.0000000000000000     
  0.81250000000000000        3.1250000000000000E-002   0.0000000000000000     
  0.84375000000000000        3.1250000000000000E-002   0.0000000000000000     
  0.87500000000000000        3.1250000000000000E-002   0.0000000000000000     
  0.75000000000000000        6.2500000000000000E-002   0.0000000000000000     
  0.78125000000000000        6.2500000000000000E-002   0.0000000000000000     
  0.81250000000000000        6.2500000000000000E-002   0.0000000000000000     
  0.84375000000000000        6.2500000000000000E-002   0.0000000000000000     
  0.87500000000000000        6.2500000000000000E-002   0.0000000000000000     
  0.75000000000000000        9.3750000000000000E-002   0.0000000000000000     
  0.78125000000000000        9.3750000000000000E-002   0.0000000000000000     
  0.81250000000000000        9.3750000000000000E-002   0.0000000000000000     
  0.84375000000000000        9.3750000000000000E-002   0.0000000000000000     
  0.87500000000000000        9.3750000000000000E-002   0.0000000000000000     
  0.75000000000000000       0.12500000000000000        0.0000000000000000     
  0.78125000000000000       0.12500000000000000        0.0000000000000000     
  0.81250000000000000       0.12500000000000000        0.0000000000000000     
  0.84375000000000000       0.12500000000000000        0.0000000000000000     
  0.87500000000000000       0.12500000000000000        0.0000000000000000     
  0.87500000000000000        0.0000000000000000        0.0000000000000000     
  0.90625000000000000        0.0000000000000000        0.0000000000000000     
  0.93750000000000000        0.0000000000000000        0.0000000000000000     
  0.96875000000000000        0.0000000000000000        0.0000000000000000     
   1.0000000000000000        0.0000000000000000        0.0000000000000000     
  0.87500000000000000        3.1250000000000000E-002   0.0000000000000000     
  0.90625000000000000        3.1250000000000000E-002   0.0000000000000000     
  0.93750000000000000        3.1250000000000000E-002   0.0000000000000000     
  0.96875000000000000        3.1250000000000000E-002   0.0000000000000000     
   1.0000000000000000        3.1250000000000000E-002   0.0000000000000000     
  0.87500000000000000        6.2500000000000000E-002   0.0000000000000000     
  0.90625000000000000        6.2500000000000000E-002   0.0000000000000000     
  0.93750000000000000        6.2500000000000000E-002   0.0000000000000000     
  0.96875000000000000        6.2500000000000000E-002   0.0000000000000000     
   1.0000000000000000        6.2500000000000000E-002   0.0000000000000000     
  0.87500000000000000        9.3750000000000000E-002   0.0000000000000000     
  0.90625000000000000        9.3750000000000000E-002   0.0000000000000000     
  0.93750000000000000        9.3750000000000000E-002   0.0000000000000000     
  0.96875000000000000        9.3750000000000000E-002   0.0000000000000000     
   1.0000000000000000        9.3750000000000000E-002   0.0000000000000000     
  0.87500000000000000       0.12500000000000000        0.0000000000000000     
  0.90625000000000000       0.12500000000000000        0.0000000000000000     
  0.93750000000000000       0.12500000000000000        0.0000000000000000     
  0.96875000000000000       0.12500000000000000        0.0000000000000000     
   1.0000000000000000       0.12500000000000000        0.0000000000000000     
   0.0000000000000000       0.12500000000000000        0.0000000000000000     
   3.1250000000000000E-002  0.12500000000000000        0.0000000000000000     
   6.2500000000000000E-002  0.12500000000000000        0.0000000000000000     
   9.3750000000000000E-002  0.12500000000000000        0.0000000000000000     
  0.12500000000000000       0.12500000000000000        0.0000000000000000     
   0.0000000000000000       0.15625000000000000        0.0000000000000000     
   3.1250000000000000E-002  0.15625000000000000        0.0000000000000000     
   6.2500000000000000E-002  0.15625000000000000        0.0000000000000000     
   9.3750000000000000E-002  0.15625000000000000        0.0000000000000000     
  0.12500000000000000       0.15625000000000000        0.0000000000000000     
   0.0000000000000000       0.18750000000000000        0.0000000000000000     
   3.1250000000000000E-002  0.18750000000000000        0.0000000000000000     
   6.2500000000000000E-002  0.18750000000000000        0.0000000000000000     
   9.3750000000000000E-002  0.18750000000000000        0.0000000000000000     
  0.12500000000000000       0.18750000000000000        0.0000000000000000     
   0.0000000000000000       0.21875000000000000        0.0000000000000000     
   3.1250000000000000E-002  0.21875000000000000        0.0000000000000000     
   6.2500000000000000E-002  0.21875000000000000        0.0000000000000000     
   9.3750000000000000E-002  0.21875000000000000        0.0000000000000000     
  0.12500000000000000       0.21875000000000000        0.0000000000000000     
   0.0000000000000000       0.25000000000000000        0.0000000000000000     
   3.1250000000000000E-002  0.25000000000000000        0.0000000000000000     
   6.2500000000000000E-002  0.25000000000000000        0.0000000000000000     
   9.3750000000000000E-002  0.25000000000000000        0.0000000000000000     
  0.12500000000000000       0.25000000000000000        0.0000000000000000     
  0.12500000000000000       0.12500000000000000        0.0000000000000000     
  0.15625000000000000       0.12500000000000000        0.0000000000000000     
  0.18750000000000000       0.12500000000000000        0.0000000000000000     
  0.21875000000000000       0.12500000000000000        0.0000000000000000     
  0.25000000000000000       0.12500000000000000        0.0000000000000000     
  0.12500000000000000       0.15625000000000000        0.0000000000000000     
  0.15625000000000000       0.15625000000000000        0.0000000000000000     
  0.18750000000000000       0.15625000000000000        0.0000000000000000     
  0.21875000000000000       0.15625000000000000        0.0000000000000000     
  0.25000000000000000       0.15625000000000000        0.0000000000000000     
  0.12500000000000000       0.18750000000000000        0.0000000000000000     
  0.15625000000000000       0.18750000000000000        0.0000000000000000     
  0.18750000000000000       0.18750000000000000        0.0000000000000000     
  0.21875000000000000       0.18750000000000000        0.0000000000000000     
  0.25000000000000000       0.18750000000000000        0.0000000000000000     
  0.12500000000000000       0.21875000000000000        0.0000000000000000     
  0.15625000000000000       0.21875000000000000        0.0000000000000000     
  0.18750000000000000       0.21875000000000000        0.0000000000000000     
  0.21875000000000000       0.21875000000000000        0.0000000000000000     
  0.25000000000000000       0.21875000000000000        0.0000000000000000     
  0.12500000000000000       0.25000000000000000        0.0000000000000000     
  0.15625000000000000       0.25000000000000000        0.0000000000000000     
  0.18750000000000000       0.25000000000000000        0.0000000000000000     
  0.21875000000000000       0.25000000000000000        0.0000000000000000     
  0.25000000000000000       0.25000000000000000        0.0000000000000000     
  0.25000000000000000       0.12500000000000000        0.0000000000000000     
  0.28125000000000000       0.12500000000000000        0.0000000000000000     
  0.31250000000000000       0.12500000000000000        0.0000000000000000     
  0.34375000000000000       0.12500000000000000        0.0000000000000000     
  0.37500000000000000       0.12500000000000000        0.0000000000000000     
  0.25000000000000000       0.15625000000000000        0.0000000000000000     
  0.28125000000000000       0.15625000000000000        0.0000000000000000     
  0.31250000000000000       0.15625000000000000        0.0000000000000000     
  0.34375000000000000       0.15625000000000000        0.0000000000000000     
  0.37500000000000000       0.15625000000000000        0.0000000000000000     
  0.25000000000000000       0.18750000000000000        0.0000000000000000     
  0.28125000000000000       0.18750000000000000        0.0000000000000000     
  0.31250000000000000       0.18750000000000000        0.0000000000000000     
  0.34375000000000000       0.18750000000000000        0.0000000000000000     
  0.37500000000000000       0.18750000000000000        0.0000000000000000     
  0.25000000000000000       0.21875000000000000        0.0000000000000000     
  0.28125000000000000       0.21875000000000000        0.0000000000000000     
  0.31250000000000000       0.21875000000000000        0.0000000000000000     
  0.34375000000000000       0.21875000000000000        0.0000000000000000     
  0.37500000000000000       0.21875000000000000        0.0000000000000000     
  0.25000000000000000       0.25000000000000000        0.0000000000000000     
  0.28125000000000000       0.25000000000000000        0.0000000000000000     
  0.31250000000000000       0.25000000000000000        0.0000000000000000     
  0.34375000000000000       0.25000000000000000        0.0000000000000000     
  0.37500000000000000       0.25000000000000000        0.0000000000000000     
  0.37500000000000000       0.12500000000000000        0.0000000000000000     
  0.40625000000000000       0.12500000000000000        0.0000000000000000     
  0.43750000000000000       0.12500000000000000        0.0000000000000000     
  0.46875000000000000       0.12500000000000000        0.0000000000000000     
  0.50000000000000000       0.12500000000000000        0.0000000000000000     
  0.37500000000000000       0.15625000000000000        0.0000000000000000     
  0.40625000000000000       0.15625000000000000        0.0000000000000000     
  0.43750000000000000       0.15625000000000000        0.0000000000000000     
  0.46875000000000000       0.15625000000000000        0.0000000000000000     
  0.50000000000000000       0.15625000000000000        0.0000000000000000     
  0.37500000000000000       0.18750000000000000        0.0000000000000000     
  0.40625000000000000       0.18750000000000000        0.0000000000000000     
  0.43750000000000000       0.18750000000000000        0.0000000000000000     
  0.46875000000000000       0.18750000000000000        0.0000000000000000     
  0.50000000000000000       0.18750000000000000        0.0000000000000000     
  0.37500000000000000       0.21875000000000000        0.0000000000000000     
  0.40625000000000000       0.21875000000000000        0.0000000000000000     
  0.43750000000000000       0.21875000000000000        0.0000000000000000     
  0.46875000000000000       0.21875000000000000        0.0000000000000000     
  0.50000000000000000       0.21875000000000000        0.0000000000000000     
  0.37500000000000000       0.25000000000000000        0.0000000000000000     
  0.40625000000000000       0.25000000000000000        0.0000000000000000     
  0.43750000000000000       0.25000000000000000        0.0000000000000000     
  0.46875000000000000       0.25000000000000000        0.0000000000000000     
  0.50000000000000000       0.25000000000000000        0.0000000000000000     
  0.50000000000000000       0.12500000000000000        0.0000000000000000     
  0.53125000000000000       0.12500000000000000        0.0000000000000000     
  0.56250000000000000       0.12500000000000000        0.0000000000000000     
  0.59375000000000000       0.12500000000000000        0.0000000000000000     
  0.62500000000000000       0.12500000000000000        0.0000000000000000     
  0.50000000000000000       0.15625000000000000        0.0000000000000000     
  0.53125000000000000       0.15625000000000000        0.0000000000000000     
  0.56250000000000000       0.15625000000000000        0.0000000000000000     
  0.59375000000000000       0.15625000000000000        0.0000000000000000     
  0.62500000000000000       0.15625000000000000        0.0000000000000000     
  0.50000000000000000       0.18750000000000000        0.0000000000000000     
  0.53125000000000000       0.18750000000000000        0.0000000000000000     
  0.56250000000000000       0.18750000000000000        0.0000000000000000     
  0.59375000000000000       0.18750000000000000        0.0000000000000000     
  0.62500000000000000       0.18750000000000000        0.0000000000000000     
  0.50000000000000000       0.21875000000000000        0.0000000000000000     
  0.53125000000000000       0.21875000000000000        0.0000000000000000     
  0.56250000000000000       0.21875000000000000        0.0000000000000000     
  0.59375000000000000       0.21875000000000000        0.0000000000000000     
  0.62500000000000000       0.21875000000000000        0.0000000000000000     
  0.50000000000000000       0.25000000000000000        0.0000000000000000     
  0.53125000000000000       0.25000000000000000        0.0000000000000000     
  0.56250000000000000       0.25000000000000000        0.0000000000000000     
  0.59375000000000000       0.25000000000000000        0.0000000000000000     
  0.62500000000000000       0.25000000000000000        0.0000000000000000     
  0.62500000000000000       0.12500000000000000        0.0000000000000000     
  0.65625000000000000       0.12500000000000000        0.0000000000000000     
  0.68750000000000000       0.12500000000000000        0.0000000000000000     
  0.71875000000000000       0.12500000000000000        0.0000000000000000     
  0.75000000000000000       0.12500000000000000        0.0000000000000000     
  0.62500000000000000       0.15625000000000000        0.0000000000000000     
  0.65625000000000000       0.15625000000000000        0.0000000000000000     
  0.68750000000000000       0.15625000000000000        0.0000000000000000     
  0.71875000000000000       0.15625000000000000        0.0000000000000000     
  0.75000000000000000       0.15625000000000000        0.0000000000000000     
  0.62500000000000000       0.18750000000000000        0.0000000000000000     
  0.65625000000000000       0.18750000000000000        0.0000000000000000     
  0.68750000000000000       0.18750000000000000        0.0000000000000000     
  0.71875000000000000       0.18750000000000000        0.0000000000000000     
  0.75000000000000000       0.18750000000000000        0.0000000000000000     
  0.62500000000000000       0.21875000000000000        0.0000000000000000     
  0.65625000000000000       0.21875000000000000        0.0000000000000000     
  0.68750000000000000       0.21875000000000000        0.0000000000000000     
  0.71875000000000000       0.21875000000000000        0.0000000000000000     
  0.75000000000000000       0.21875000000000000        0.0000000000000000     
  0.62500000000000000       0.25000000000000000        0.0000000000000000     
  0.65625000000000000       0.25000000000000000        0.0000000000000000     
  0.68750000000000000       0.25000000000000000        0.0000000000000000     
  0.71875000000000000       0.25000000000000000        0.0000000000000000     
  0.75000000000000000       0.25000000000000000        0.0000000000000000     
  0.75000000000000000       0.12500000000000000        0.0000000000000000     
  0.78125000000000000       0.12500000000000000        0.0000000000000000     
  0.81250000000000000       0.12500000000000000        0.0000000000000000     
  0.84375000000000000       0.12500000000000000        0.0000000000000000     
  0.87500000000000000       0.12500000000000000        0.0000000000000000     
  0.75000000000000000       0.15625000000000000        0.0000000000000000     
  0.78125000000000000       0.15625000000000000        0.0000000000000000     
  0.81250000000000000       0.15625000000000000        0.0000000000000000     
  0.84375000000000000       0.15625000000000000        0.0000000000000000     
  0.87500000000000000       0.15625000000000000        0.0000000000000000     
  0.75000000000000000       0.18750000000000000        0.0000000000000000     
  0.78125000000000000       0.18750000000000000        0.0000000000000000     
  0.81250000000000000       0.18750000000000000        0.0000000000000000     
  0.84375000000000000       0.18750000000000000        0.0000000000000000     
  0.87500000000000000       0.18750000000000000        0.0000000000000000     
  0.75000000000000000       0.21875000000000000        0.0000000000000000     
  0.78125000000000000       0.21875000000000000        0.0000000000000000     
  0.81250000000000000       0.21875000000000000        0.0000000000000000     
  0.84375000000000000       0.21875000000000000        0.0000000000000000     
  0.87500000000000000       0.21875000000000000        0.0000000000000000     
  0.75000000000000000       0.25000000000000000        0.0000000000000000     
  0.78125000000000000       0.25000000000000000        0.0000000000000000     
  0.81250000000000000       0.25000000000000000        0.0000000000000000     
  0.84375000000000000       0.25000000000000000        0.0000000000000000     
  0.87500000000000000       0.25000000000000000        0.0000000000000000     
  0.87500000000000000       0.12500000000000000        0.0000000000000000     
  0.90625000000000000       0.12500000000000000        0.0000000000000000     
  0.93750000000000000       0.12500000000000000        0.0000000000000000     
  0.96875000000000000       0.12500000000000000        0.0000000000000000     
   1.0000000000000000       0.12500000000000000        0.0000000000000000     
  0.87500000000000000       0.15625000000000000        0.0000000000000000     
  0.90625000000000000       0.15625000000000000        0.0000000000000000     
  0.93750000000000000       0.15625000000000000        0.0000000000000000     
  0.96875000000000000       0.15625000000000000        0.0000000000000000     
   1.0000000000000000       0.15625000000000000        0.0000000000000000     
  0.87500000000000000       0.18750000000000000        0.0000000000000000     
  0.90625000000000000       0.18750000000000000        0.0000000000000000     
  0.93750000000000000       0.18750000000000000        0.0000000000000000     
  0.96875000000000000       0.18750000000000000        0.0000000000000000     
   1.0000000000000000       0.18750000000000000        0.0000000000000000     
  0.87500000000000000       0.21875000000000000        0.0000000000000000     
  0.90625000000000000       0.21875000000000000        0.0000000000000000     
  0.93750000000000000       0.21875000000000000        0.0000000000000000     
  0.96875000000000000       0.21875000000000000        0.0000000000000000     
   1.0000000000000000       0.21875000000000000        0.0000000000000000     
  0.87500000000000000       0.25000000000000000        0.0000000000000000     
  0.90625000000000000       0.25000000000000000        0.0000000000000000     
  0.93750000000000000       0.25000000000000000        0.0000000000000000     
  0.96875000000000000       0.25000000000000000        0.0000000000000000     
   1.0000000000000000       0.25000000000000000        0.0000000000000000     
   0.0000000000000000       0.25000000000000000        0.0000000000000000     
   3.1250000000000000E-002  0.25000000000000000        0.0000000000000000     
   6.2500000000000000E-002  0.25000000000000000        0.0000000000000000     
   9.3750000000000000E-002  0.25000000000000000        0.0000000000000000     
  0.12500000000000000       0.25000000000000000        0.0000000000000000     
   0.0000000000000000       0.28125000000000000        0.0000000000000000     
   3.1250000000000000E-002  0.28125000000000000        0.0000000000000000     
   6.2500000000000000E-002  0.28125000000000000        0.0000000000000000     
   9.3750000000000000E-002  0.28125000000000000        0.0000000000000000     
  0.12500000000000000       0.28125000000000000        0.0000000000000000     
   0.0000000000000000       0.31250000000000000        0.0000000000000000     
   3.1250000000000000E-002  0.31250000000000000        0.0000000000000000     
   6.2500000000000000E-002  0.31250000000000000        0.0000000000000000     
   9.3750000000000000E-002  0.31250000000000000        0.0000000000000000     
  0.12500000000000000       0.31250000000000000        0.0000000000000000     
   0.0000000000000000       0.34375000000000000        0.0000000000000000     
   3.1250000000000000E-002  0.34375000000000000        0.0000000000000000     
   6.2500000000000000E-002  0.34375000000000000        0.0000000000000000     
   9.3750000000000000E-002  0.34375000000000000        0.0000000000000000     
  0.12500000000000000       0.34375000000000000        0.0000000000000000     
   0.0000000000000000       0.37500000000000000        0.0000000000000000     
   3.1250000000000000E-002  0.37500000000000000        0.0000000000000000     
   6.2500000000000000E-002  0.37500000000000000        0.0000000000000000     
   9.3750000000000000E-002  0.37500000000000000        0.0000000000000000     
  0.12500000000000000       0.37500000000000000        0.0000000000000000     
  0.12500000000000000       0.25000000000000000        0.0000000000000000     
  0.15625000000000000       0.25000000000000000        0.0000000000000000     
  0.18750000000000000       0.25000000000000000        0.0000000000000000     
  0.21875000000000000       0.25000000000000000        0.0000000000000000     
  0.25000000000000000       0.25000000000000000        0.0000000000000000     
  0.12500000000000000       0.28125000000000000        0.0000000000000000     
  0.15625000000000000       0.28125000000000000        0.0000000000000000     
  0.18750000000000000       0.28125000000000000        0.0000000000000000     
  0.21875000000000000       0.28125000000000000        0.0000000000000000     
  0.25000000000000000       0.28125000000000000        0.0000000000000000     
  0.12500000000000000       0.31250000000000000        0.0000000000000000     
  0.15625000000000000       0.31250000000000000        0.0000000000000000     
  0.18750000000000000       0.31250000000000000        0.0000000000000000     
  0.21875000000000000       0.31250000000000000        0.0000000000000000     
  0.25000000000000000       0.31250000000000000        0.0000000000000000     
  0.12500000000000000       0.34375000000000000        0.0000000000000000     
  0.15625000000000000       0.34375000000000000        0.0000000000000000     
  0.18750000000000000       0.34375000000000000        0.0000000000000000     
  0.21875000000000000       0.34375000000000000        0.0000000000000000     
  0.25000000000000000       0.34375000000000000        0.0000000000000000     
  0.12500000000000000       0.37500000000000000        0.0000000000000000     
  0.15625000000000000       0.37500000000000000        0.0000000000000000     
  0.18750000000000000       0.37500000000000000        0.0000000000000000     
  0.21875000000000000       0.37500000000000000        0.0000000000000000     
  0.25000000000000000       0.37500000000000000        0.0000000000000000     
  0.25000000000000000       0.25000000000000000        0.0000000000000000     
  0.28125000000000000       0.25000000000000000        0.0000000000000000     
  0.31250000000000000       0.25000000000000000        0.0000000000000000     
  0.34375000000000000       0.25000000000000000        0.0000000000000000     
  0.37500000000000000       0.25000000000000000        0.0000000000000000     
  0.25000000000000000       0.28125000000000000        0.0000000000000000     
  0.28125000000000000       0.28125000000000000        0.0000000000000000     
  0.31250000000000000       0.28125000000000000        0.0000000000000000     
  0.34375000000000000       0.28125000000000000        0.0000000000000000     
  0.37500000000000000       0.28125000000000000        0.0000000000000000     
  0.25000000000000000       0.31250000000000000        0.0000000000000000     
  0.28125000000000000       0.31250000000000000        0.0000000000000000     
  0.31250000000000000       0.31250000000000000        0.0000000000000000     
  0.34375000000000000       0.31250000000000000        0.0000000000000000     
  0.37500000000000000       0.31250000000000000        0.0000000000000000     
  0.25000000000000000       0.34375000000000000        0.0000000000000000     
  0.28125000000000000       0.34375000000000000        0.0000000000000000     
  0.31250000000000000       0.34375000000000000        0.0000000000000000     
  0.34375000000000000       0.34375000000000000        0.0000000000000000     
  0.37500000000000000       0.34375000000000000        0.0000000000000000     
  0.25000000000000000       0.37500000000000000        0.0000000000000000     
  0.28125000000000000       0.37500000000000000        0.0000000000000000     
  0.31250000000000000       0.37500000000000000        0.0000000000000000     
  0.34375000000000000       0.37500000000000000        0.0000000000000000     
  0.37500000000000000       0.37500000000000000        0.0000000000000000     
  0.37500000000000000       0.25000000000000000        0.0000000000000000     
  0.40625000000000000       0.25000000000000000        0.0000000000000000     
  0.43750000000000000       0.25000000000000000        0.0000000000000000     
  0.46875000000000000       0.25000000000000000        0.0000000000000000     
  0.50000000000000000       0.25000000000000000        0.0000000000000000     
  0.37500000000000000       0.28125000000000000        0.0000000000000000     
  0.40625000000000000       0.28125000000000000        0.0000000000000000     
  0.43750000000000000       0.28125000000000000        0.0000000000000000     
  0.46875000000000000       0.28125000000000000        0.0000000000000000     
  0.50000000000000000       0.28125000000000000        0.0000000000000000     
  0.37500000000000000       0.31250000000000000        0.0000000000000000     
  0.40625000000000000       0.31250000000000000        0.0000000000000000     
  0.43750000000000000       0.31250000000000000        0.0000000000000000     
  0.46875000000000000       0.31250000000000000        0.0000000000000000     
  0.50000000000000000       0.31250000000000000        0.0000000000000000     
  0.37500000000000000       0.34375000000000000        0.0000000000000000     
  0.40625000000000000       0.34375000000000000        0.0000000000000000     
  0.43750000000000000       0.34375000000000000        0.0000000000000000     
  0.46875000000000000       0.34375000000000000        0.0000000000000000     
  0.50000000000000000       0.34375000000000000        0.0000000000000000     
  0.37500000000000000       0.37500000000000000        0.0000000000000000     
  0.40625000000000000       0.37500000000000000        0.0000000000000000     
  0.43750000000000000       0.37500000000000000        0.0000000000000000     
  0.46875000000000000       0.37500000000000000        0.0000000000000000     
  0.50000000000000000       0.37500000000000000        0.0000000000000000     
  0.50000000000000000       0.25000000000000000        0.0000000000000000     
  0.53125000000000000       0.25000000000000000        0.0000000000000000     
  0.56250000000000000       0.25000000000000000        0.0000000000000000     
  0.59375000000000000       0.25000000000000000        0.0000000000000000     
  0.62500000000000000       0.25000000000000000        0.0000000000000000     
  0.50000000000000000       0.28125000000000000        0.0000000000000000     
  0.53125000000000000       0.28125000000000000        0.0000000000000000     
  0.56250000000000000       0.28125000000000000        0.0000000000000000     
  0.59375000000000000       0.28125000000000000        0.0000000000000000     
  0.62500000000000000       0.28125000000000000        0.0000000000000000     
  0.50000000000000000       0.31250000000000000        0.0000000000000000     
  0.53125000000000000       0.31250000000000000        0.0000000000000000     
  0.56250000000000000       0.31250000000000000        0.0000000000000000     
  0.59375000000000000       0.31250000000000000        0.0000000000000000     
  0.62500000000000000       0.31250000000000000        0.0000000000000000     
  0.50000000000000000       0.34375000000000000        0.0000000000000000     
  0.53125000000000000       0.34375000000000000        0.0000000000000000     
  0.56250000000000000       0.34375000000000000        0.0000000000000000     
  0.59375000000000000       0.34375000000000000        0.0000000000000000     
  0.62500000000000000       0.34375000000000000        0.0000000000000000     
  0.50000000000000000       0.37500000000000000        0.0000000000000000     
  0.53125000000000000       0.37500000000000000        0.0000000000000000     
  0.56250000000000000       0.37500000000000000        0.0000000000000000     
  0.59375000000000000       0.37500000000000000        0.0000000000000000     
  0.62500000000000000       0.37500000000000000        0.0000000000000000     
  0.62500000000000000       0.25000000000000000        0.0000000000000000     
  0.65625000000000000       0.25000000000000000        0.0000000000000000     
  0.68750000000000000       0.25000000000000000        0.0000000000000000     
  0.71875000000000000       0.25000000000000000        0.0000000000000000     
  0.75000000000000000       0.25000000000000000        0.0000000000000000     
  0.62500000000000000       0.28125000000000000        0.0000000000000000     
  0.65625000000000000       0.28125000000000000        0.0000000000000000     
  0.68750000000000000       0.28125000000000000        0.0000000000000000     
  0.71875000000000000       0.28125000000000000        0.0000000000000000     
  0.75000000000000000       0.28125000000000000        0.0000000000000000     
  0.62500000000000000       0.31250000000000000        0.0000000000000000     
  0.65625000000000000       0.31250000000000000        0.0000000000000000     
  0.68750000000000000       0.31250000000000000        0.0000000000000000     
  0.71875000000000000       0.31250000000000000        0.0000000000000000     
  0.75000000000000000       0.31250000000000000        0.0000000000000000     
  0.62500000000000000       0.34375000000000000        0.0000000000000000     
  0.65625000000000000       0.34375000000000000        0.0000000000000000     
  0.68750000000000000       0.34375000000000000        0.0000000000000000     
  0.71875000000000000       0.34375000000000000        0.0000000000000000     
  0.75000000000000000       0.34375000000000000        0.0000000000000000     
  0.62500000000000000       0.37500000000000000        0.0000000000000000     
  0.65625000000000000       0.37500000000000000        0.0000000000000000     
  0.68750000000000000       0.37500000000000000        0.0000000000000000     
  0.71875000000000000       0.37500000000000000        0.0000000000000000     
  0.75000000000000000       0.37500000000000000        0.0000000000000000     
  0.75000000000000000       0.25000000000000000        0.0000000000000000     
  0.78125000000000000       0.25000000000000000        0.0000000000000000     
  0.81250000000000000       0.25000000000000000        0.0000000000000000     
  0.84375000000000000       0.25000000000000000        0.0000000000000000     
  0.87500000000000000       0.25000000000000000        0.0000000000000000     
  0.75000000000000000       0.28125000000000000        0.0000000000000000     
  0.78125000000000000       0.28125000000000000        0.0000000000000000     
  0.81250000000000000       0.28125000000000000        0.0000000000000000     
  0.84375000000000000       0.28125000000000000        0.0000000000000000     
  0.87500000000000000       0.28125000000000000        0.0000000000000000     
  0.75000000000000000       0.31250000000000000        0.0000000000000000     
  0.78125000000000000       0.31250000000000000        0.0000000000000000     
  0.81250000000000000       0.31250000000000000        0.0000000000000000     
  0.84375000000000000       0.31250000000000000        0.0000000000000000     
  0.87500000000000000       0.31250000000000000        0.0000000000000000     
  0.75000000000000000       0.34375000000000000        0.0000000000000000     
  0.78125000000000000       0.34375000000000000        0.0000000000000000     
  0.81250000000000000       0.34375000000000000        0.0000000000000000     
  0.84375000000000000       0.34375000000000000        0.0000000000000000     
  0.87500000000000000       0.34375000000000000        0.0000000000000000     
  0.75000000000000000       0.37500000000000000        0.0000000000000000     
  0.78125000000000000       0.37500000000000000        0.0000000000000000     
  0.81250000000000000       0.37500000000000000        0.0000000000000000     
  0.84375000000000000       0.37500000000000000        0.0000000000000000     
  0.87500000000000000       0.37500000000000000        0.0000000000000000     
  0.87500000000000000       0.25000000000000000        0.0000000000000000     
  0.90625000000000000       0.25000000000000000        0.0000000000000000     
  0.93750000000000000       0.25000000000000000        0.0000000000000000     
  0.96875000000000000       0.25000000000000000        0.0000000000000000     
   1.0000000000000000       0.25000000000000000        0.0000000000000000     
  0.87500000000000000       0.28125000000000000        0.0000000000000000     
  0.90625000000000000       0.28125000000000000        0.0000000000000000     
  0.93750000000000000       0.28125000000000000        0.0000000000000000     
  0.96875000000000000       0.28125000000000000        0.0000000000000000     
   1.0000000000000000       0.28125000000000000        0.0000000000000000     
  0.87500000000000000       0.31250000000000000        0.0000000000000000     
  0.90625000000000000       0.31250000000000000        0.0000000000000000     
  0.93750000000000000       0.31250000000000000        0.0000000000000000     
  0.96875000000000000       0.31250000000000000        0.0000000000000000     
   1.0000000000000000       0.31250000000000000        0.0000000000000000     
  0.87500000000000000       0.34375000000000000        0.0000000000000000     
  0.90625000000000000       0.34375000000000000        0.0000000000000000     
  0.93750000000000000       0.34375000000000000        0.0000000000000000     
  0.96875000000000000       0.34375000000000000        0.0000000000000000     
   1.0000000000000000       0.34375000000000000        0.0000000000000000     
  0.87500000000000000       0.37500000000000000        0.0000000000000000     
  0.90625000000000000       0.37500000000000000        0.0000000000000000     
  0.93750000000000000       0.37500000000000000        0.0000000000000000     
  0.96875000000000000       0.37500000000000000        0.0000000000000000     
   1.0000000000000000       0.37500000000000000        0.0000000000000000     
   0.0000000000000000       0.37500000000000000        0.0000000000000000     
   3.1250000000000000E-002  0.37500000000000000        0.0000000000000000     
   6.2500000000000000E-002  0.37500000000000000        0.0000000000000000     
   9.3750000000000000E-002  0.37500000000000000        0.0000000000000000     
  0.12500000000000000       0.37500000000000000        0.0000000000000000     
   0.0000000000000000       0.40625000000000000        0.0000000000000000     
   3.1250000000000000E-002  0.40625000000000000        0.0000000000000000     
   6.2500000000000000E-002  0.40625000000000000        0.0000000000000000     
   9.3750000000000000E-002  0.40625000000000000        0.0000000000000000     
  0.12500000000000000       0.40625000000000000        0.0000000000000000     
   0.0000000000000000       0.43750000000000000        0.0000000000000000     
   3.1250000000000000E-002  0.43750000000000000        0.0000000000000000     
   6.2500000000000000E-002  0.43750000000000000        0.0000000000000000     
   9.3750000000000000E-002  0.43750000000000000        0.0000000000000000     
  0.12500000000000000       0.43750000000000000        0.0000000000000000     
   0.0000000000000000       0.46875000000000000        0.0000000000000000     
   3.1250000000000000E-002  0.46875000000000000        0.0000000000000000     
   6.2500000000000000E-002  0.46875000000000000        0.0000000000000000     
   9.3750000000000000E-002  0.46875000000000000        0.0000000000000000     
  0.12500000000000000       0.46875000000000000        0.0000000000000000     
   0.0000000000000000       0.50000000000000000        0.0000000000000000     
   3.1250000000000000E-002  0.50000000000000000        0.0000000000000000     
   6.2500000000000000E-002  0.50000000000000000        0.0000000000000000     
   9.3750000000000000E-002  0.50000000000000000        0.0000000000000000     
  0.12500000000000000       0.50000000000000000        0.0000000000000000     
  0.12500000000000000       0.37500000000000000        0.0000000000000000     
  0.15625000000000000       0.37500000000000000        0.0000000000000000     
  0.18750000000000000       0.37500000000000000        0.0000000000000000     
  0.21875000000000000       0.37500000000000000        0.0000000000000000     
  0.25000000000000000       0.37500000000000000        0.0000000000000000     
  0.12500000000000000       0.40625000000000000        0.0000000000000000     
  0.15625000000000000       0.40625000000000000        0.0000000000000000     
  0.18750000000000000       0.40625000000000000        0.0000000000000000     
  0.21875000000000000       0.40625000000000000        0.0000000000000000     
  0.25000000000000000       0.40625000000000000        0.0000000000000000     
  0.12500000000000000       0.43750000000000000        0.0000000000000000     
  0.15625000000000000       0.43750000000000000        0.0000000000000000     
  0.18750000000000000       0.43750000000000000        0.0000000000000000     
  0.21875000000000000       0.43750000000000000        0.0000000000000000     
  0.25000000000000000       0.43750000000000000        0.0000000000000000     
  0.12500000000000000       0.46875000000000000        0.0000000000000000     
  0.15625000000000000       0.46875000000000000        0.0000000000000000     
  0.18750000000000000       0.46875000000000000        0.0000000000000000     
  0.21875000000000000       0.46875000000000000        0.0000000000000000     
  0.25000000000000000       0.46875000000000000        0.0000000000000000     
  0.12500000000000000       0.50000000000000000        0.0000000000000000     
  0.15625000000000000       0.50000000000000000        0.0000000000000000     
  0.18750000000000000       0.50000000000000000        0.0000000000000000     
  0.21875000000000000       0.50000000000000000        0.0000000000000000     
  0.25000000000000000       0.50000000000000000        0.0000000000000000     
  0.25000000000000000       0.37500000000000000        0.0000000000000000     
  0.28125000000000000       0.37500000000000000        0.0000000000000000     
  0.31250000000000000       0.37500000000000000        0.0000000000000000     
  0.34375000000000000       0.37500000000000000        0.0000000000000000     
  0.37500000000000000       0.37500000000000000        0.0000000000000000     
  0.25000000000000000       0.40625000000000000        0.0000000000000000     
  0.28125000000000000       0.40625000000000000        0.0000000000000000     
  0.31250000000000000       0.40625000000000000        0.0000000000000000     
  0.34375000000000000       0.40625000000000000        0.0000000000000000     
  0.37500000000000000       0.40625000000000000        0.0000000000000000     
  0.25000000000000000       0.43750000000000000        0.0000000000000000     
  0.28125000000000000       0.43750000000000000        0.0000000000000000     
  0.31250000000000000       0.43750000000000000        0.0000000000000000     
  0.34375000000000000       0.43750000000000000        0.0000000000000000     
  0.37500000000000000       0.43750000000000000        0.0000000000000000     
  0.25000000000000000       0.46875000000000000        0.0000000000000000     
  0.28125000000000000       0.46875000000000000        0.0000000000000000     
  0.31250000000000000       0.46875000000000000        0.0000000000000000     
  0.34375000000000000       0.46875000000000000        0.0000000000000000     
  0.37500000000000000       0.46875000000000000        0.0000000000000000     
  0.25000000000000000       0.50000000000000000        0.0000000000000000     
  0.28125000000000000       0.50000000000000000        0.0000000000000000     
  0.31250000000000000       0.50000000000000000        0.0000000000000000     
  0.34375000000000000       0.50000000000000000        0.0000000000000000     
  0.37500000000000000       0.50000000000000000        0.0000000000000000     
  0.37500000000000000       0.37500000000000000        0.0000000000000000     
  0.40625000000000000       0.37500000000000000        0.0000000000000000     
  0.43750000000000000       0.37500000000000000        0.0000000000000000     
  0.46875000000000000       0.37500000000000000        0.0000000000000000     
  0.50000000000000000       0.37500000000000000        0.0000000000000000     
  0.37500000000000000       0.40625000000000000        0.0000000000000000     
  0.40625000000000000       0.40625000000000000        0.0000000000000000     
  0.43750000000000000       0.40625000000000000        0.0000000000000000     
  0.46875000000000000       0.40625000000000000        0.0000000000000000     
  0.50000000000000000       0.40625000000000000        0.0000000000000000     
  0.37500000000000000       0.43750000000000000        0.0000000000000000     
  0.40625000000000000       0.43750000000000000        0.0000000000000000     
  0.43750000000000000       0.43750000000000000        0.0000000000000000     
  0.46875000000000000       0.43750000000000000        0.0000000000000000     
  0.50000000000000000       0.43750000000000000        0.0000000000000000     
  0.37500000000000000       0.46875000000000000        0.0000000000000000     
  0.40625000000000000       0.46875000000000000        0.0000000000000000     
  0.43750000000000000       0.46875000000000000        0.0000000000000000     
  0.46875000000000000       0.46875000000000000        0.0000000000000000     
  0.50000000000000000       0.46875000000000000        0.0000000000000000     
  0.37500000000000000       0.50000000000000000        0.0000000000000000     
  0.40625000000000000       0.50000000000000000        0.0000000000000000     
  0.43750000000000000       0.50000000000000000        0.0000000000000000     
  0.46875000000000000       0.50000000000000000        0.0000000000000000     
  0.50000000000000000       0.50000000000000000        0.0000000000000000     
  0.50000000000000000       0.37500000000000000        0.0000000000000000     
  0.53125000000000000       0.37500000000000000        0.0000000000000000     
  0.56250000000000000       0.37500000000000000        0.0000000000000000     
  0.59375000000000000       0.37500000000000000        0.0000000000000000     
  0.62500000000000000       0.37500000000000000        0.0000000000000000     
  0.50000000000000000       0.40625000000000000        0.0000000000000000     
  0.53125000000000000       0.40625000000000000        0.0000000000000000     
  0.56250000000000000       0.40625000000000000        0.0000000000000000     
  0.59375000000000000       0.40625000000000000        0.0000000000000000     
  0.62500000000000000       0.40625000000000000        0.0000000000000000     
  0.50000000000000000       0.43750000000000000        0.0000000000000000     
  0.53125000000000000       0.43750000000000000        0.0000000000000000     
  0.56250000000000000       0.43750000000000000        0.0000000000000000     
  0.59375000000000000       0.43750000000000000        0.0000000000000000     
  0.62500000000000000       0.43750000000000000        0.0000000000000000     
  0.50000000000000000       0.46875000000000000        0.0000000000000000     
  0.53125000000000000       0.46875000000000000        0.0000000000000000     
  0.56250000000000000       0.46875000000000000        0.0000000000000000     
  0.59375000000000000       0.46875000000000000        0.0000000000000000     
  0.62500000000000000       0.46875000000000000        0.0000000000000000     
  0.50000000000000000       0.50000000000000000        0.0000000000000000     
  0.53125000000000000       0.50000000000000000        0.0000000000000000     
  0.56250000000000000       0.50000000000000000        0.0000000000000000     
  0.59375000000000000       0.50000000000000000        0.0000000000000000     
  0.62500000000000000       0.50000000000000000        0.0000000000000000     
  0.62500000000000000       0.37500000000000000        0.0000000000000000     
  0.65625000000000000       0.37500000000000000        0.0000000000000000     
  0.68750000000000000       0.37500000000000000        0.0000000000000000     
  0.71875000000000000       0.37500000000000000        0.0000000000000000     
  0.75000000000000000       0.37500000000000000        0.0000000000000000     
  0.62500000000000000       0.40625000000000000        0.0000000000000000     
  0.65625000000000000       0.40625000000000000        0.0000000000000000     
  0.68750000000000000       0.40625000000000000        0.0000000000000000     
  0.71875000000000000       0.40625000000000000        0.0000000000000000     
  0.75000000000000000       0.40625000000000000        0.0000000000000000     
  0.62500000000000000       0.43750000000000000        0.0000000000000000     
  0.65625000000000000       0.43750000000000000        0.0000000000000000     
  0.68750000000000000       0.43750000000000000        0.0000000000000000     
  0.71875000000000000       0.43750000000000000        0.0000000000000000     
  0.75000000000000000       0.43750000000000000        0.0000000000000000     
  0.62500000000000000       0.46875000000000000        0.0000000000000000     
  0.65625000000000000       0.46875000000000000        0.0000000000000000     
  0.68750000000000000       0.46875000000000000        0.0000000000000000     
  0.71875000000000000       0.46875000000000000        0.0000000000000000     
  0.75000000000000000       0.46875000000000000        0.0000000000000000     
  0.62500000000000000       0.50000000000000000        0.0000000000000000     
  0.65625000000000000       0.50000000000000000        0.0000000000000000     
  0.68750000000000000       0.50000000000000000        0.0000000000000000     
  0.71875000000000000       0.50000000000000000        0.0000000000000000     
  0.75000000000000000       0.50000000000000000        0.0000000000000000     
  0.75000000000000000       0.37500000000000000        0.0000000000000000     
  0.78125000000000000       0.37500000000000000        0.0000000000000000     
  0.81250000000000000       0.37500000000000000        0.0000000000000000     
  0.84375000000000000       0.37500000000000000        0.0000000000000000     
  0.87500000000000000       0.37500000000000000        0.0000000000000000     
  0.75000000000000000       0.40625000000000000        0.0000000000000000     
  0.78125000000000000       0.40625000000000000        0.0000000000000000     
  0.81250000000000000       0.40625000000000000        0.0000000000000000     
  0.84375000000000000       0.40625000000000000        0.0000000000000000     
  0.87500000000000000       0.40625000000000000        0.0000000000000000     
  0.75000000000000000       0.43750000000000000        0.0000000000000000     
  0.78125000000000000       0.43750000000000000        0.0000000000000000     
  0.81250000000000000       0.43750000000000000        0.0000000000000000     
  0.84375000000000000       0.43750000000000000        0.0000000000000000     
  0.87500000000000000       0.43750000000000000        0.0000000000000000     
  0.75000000000000000       0.46875000000000000        0.0000000000000000     
  0.78125000000000000       0.46875000000000000        0.0000000000000000     
  0.81250000000000000       0.46875000000000000        0.0000000000000000     
  0.84375000000000000       0.46875000000000000        0.0000000000000000     
  0.87500000000000000       0.46875000000000000        0.0000000000000000     
  0.75000000000000000       0.50000000000000000        0.0000000000000000     
  0.78125000000000000       0.50000000000000000        0.0000000000000000     
  0.81250000000000000       0.50000000000000000        0.0000000000000000     
  0.84375000000000000       0.50000000000000000        0.0000000000000000     
  0.87500000000000000       0.50000000000000000        0.0000000000000000     
  0.87500000000000000       0.37500000000000000        0.0000000000000000     
  0.90625000000000000       0.37500000000000000        0.0000000000000000     
  0.93750000000000000       0.37500000000000000        0.0000000000000000     
  0.96875000000000000       0.37500000000000000        0.0000000000000000     
   1.0000000000000000       0.37500000000000000        0.0000000000000000     
  0.87500000000000000       0.40625000000000000        0.0000000000000000     
  0.90625000000000000       0.40625000000000000        0.0000000000000000     
  0.93750000000000000       0.40625000000000000        0.0000000000000000     
  0.96875000000000000       0.40625000000000000        0.0000000000000000     
   1.0000000000000000       0.40625000000000000        0.0000000000000000     
  0.87500000000000000       0.43750000000000000        0.0000000000000000     
  0.90625000000000000       0.43750000000000000        0.0000000000000000     
  0.93750000000000000       0.43750000000000000        0.0000000000000000     
  0.96875000000000000       0.43750000000000000        0.0000000000000000     
   1.0000000000000000       0.43750000000000000        0.0000000000000000     
  0.87500000000000000       0.46875000000000000        0.0000000000000000     
  0.90625000000000000       0.46875000000000000        0.0000000000000000     
  0.93750000000000000       0.46875000000000000        0.0000000000000000     
  0.96875000000000000       0.46875000000000000        0.0000000000000000     
   1.0000000000000000       0.46875000000000000        0.0000000000000000     
  0.87500000000000000       0.50000000000000000        0.0000000000000000     
  0.90625000000000000       0.50000000000000000        0.0000000000000000     
  0.93750000000000000       0.50000000000000000        0.0000000000000000     
  0.96875000000000000       0.50000000000000000        0.0000000000000000     
   1.0000000000000000       0.50000000000000000        0.0000000000000000     
   0.0000000000000000       0.50000000000000000        0.0000000000000000     
   3.1250000000000000E-002  0.50000000000000000        0.0000000000000000     
   6.2500000000000000E-002  0.50000000000000000        0.0000000000000000     
   9.3750000000000000E-002  0.50000000000000000        0.0000000000000000     
  0.12500000000000000       0.50000000000000000        0.0000000000000000     
   0.0000000000000000       0.53125000000000000        0.0000000000000000     
   3.1250000000000000E-002  0.53125000000000000        0.0000000000000000     
   6.2500000000000000E-002  0.53125000000000000        0.0000000000000000     
   9.3750000000000000E-002  0.53125000000000000        0.0000000000000000     
  0.12500000000000000       0.53125000000000000        0.0000000000000000     
   0.0000000000000000       0.56250000000000000        0.0000000000000000     
   3.1250000000000000E-002  0.56250000000000000        0.0000000000000000     
   6.2500000000000000E-002  0.56250000000000000        0.0000000000000000     
   9.3750000000000000E-002  0.56250000000000000        0.0000000000000000     
  0.12500000000000000       0.56250000000000000        0.0000000000000000     
   0.0000000000000000       0.59375000000000000        0.0000000000000000     
   3.1250000000000000E-002  0.59375000000000000        0.0000000000000000     
   6.2500000000000000E-002  0.59375000000000000        0.0000000000000000     
   9.3750000000000000E-002  0.59375000000000000        0.0000000000000000     
  0.12500000000000000       0.59375000000000000        0.0000000000000000     
   0.0000000000000000       0.62500000000000000        0.0000000000000000     
   3.1250000000000000E-002  0.62500000000000000        0.0000000000000000     
   6.2500000000000000E-002  0.62500000000000000        0.0000000000000000     
   9.3750000000000000E-002  0.62500000000000000        0.0000000000000000     
  0.12500000000000000       0.62500000000000000        0.0000000000000000     
  0.12500000000000000       0.50000000000000000        0.0000000000000000     
  0.15625000000000000       0.50000000000000000        0.0000000000000000     
  0.18750000000000000       0.50000000000000000        0.0000000000000000     
  0.21875000000000000       0.50000000000000000        0.0000000000000000     
  0.25000000000000000       0.50000000000000000        0.0000000000000000     
  0.12500000000000000       0.53125000000000000        0.0000000000000000     
  0.15625000000000000       0.53125000000000000        0.0000000000000000     
  0.18750000000000000       0.53125000000000000        0.0000000000000000     
  0.21875000000000000       0.53125000000000000        0.0000000000000000     
  0.25000000000000000       0.53125000000000000        0.0000000000000000     
  0.12500000000000000       0.56250000000000000        0.0000000000000000     
  0.15625000000000000       0.56250000000000000        0.0000000000000000     
  0.18750000000000000       0.56250000000000000        0.0000000000000000     
  0.21875000000000000       0.56250000000000000        0.0000000000000000     
  0.25000000000000000       0.56250000000000000        0.0000000000000000     
  0.12500000000000000       0.59375000000000000        0.0000000000000000     
  0.15625000000000000       0.59375000000000000        0.0000000000000000     
  0.18750000000000000       0.59375000000000000        0.0000000000000000     
  0.21875000000000000       0.59375000000000000        0.0000000000000000     
  0.25000000000000000       0.59375000000000000        0.0000000000000000     
  0.12500000000000000       0.62500000000000000        0.0000000000000000     
  0.15625000000000000       0.62500000000000000        0.0000000000000000     
  0.18750000000000000       0.62500000000000000        0.0000000000000000     
  0.21875000000000000       0.62500000000000000        0.0000000000000000     
  0.25000000000000000       0.62500000000000000        0.0000000000000000     
  0.25000000000000000       0.50000000000000000        0.0000000000000000     
  0.28125000000000000       0.50000000000000000        0.0000000000000000     
  0.31250000000000000       0.50000000000000000        0.0000000000000000     
  0.34375000000000000       0.50000000000000000        0.0000000000000000     
  0.37500000000000000       0.50000000000000000        0.0000000000000000     
  0.25000000000000000       0.53125000000000000        0.0000000000000000     
  0.28125000000000000       0.53125000000000000        0.0000000000000000     
  0.31250000000000000       0.53125000000000000        0.0000000000000000     
  0.34375000000000000       0.53125000000000000        0.0000000000000000     
  0.37500000000000000       0.53125000000000000        0.0000000000000000     
  0.25000000000000000       0.56250000000000000        0.0000000000000000     
  0.28125000000000000       0.56250000000000000        0.0000000000000000     
  0.31250000000000000       0.56250000000000000        0.0000000000000000     
  0.34375000000000000       0.56250000000000000        0.0000000000000000     
  0.37500000000000000       0.56250000000000000        0.0000000000000000     
  0.25000000000000000       0.59375000000000000        0.0000000000000000     
  0.28125000000000000       0.59375000000000000        0.0000000000000000     
  0.31250000000000000       0.59375000000000000        0.0000000000000000     
  0.34375000000000000       0.59375000000000000        0.0000000000000000     
  0.37500000000000000       0.59375000000000000        0.0000000000000000     
  0.25000000000000000       0.62500000000000000        0.0000000000000000     
  0.28125000000000000       0.62500000000000000        0.0000000000000000     
  0.31250000000000000       0.62500000000000000        0.0000000000000000     
  0.34375000000000000       0.62500000000000000        0.0000000000000000     
  0.37500000000000000       0.62500000000000000        0.0000000000000000     
  0.37500000000000000       0.50000000000000000        0.0000000000000000     
  0.40625000000000000       0.50000000000000000        0.0000000000000000     
  0.43750000000000000       0.50000000000000000        0.0000000000000000     
  0.46875000000000000       0.50000000000000000        0.0000000000000000     
  0.50000000000000000       0.50000000000000000        0.0000000000000000     
  0.37500000000000000       0.53125000000000000        0.0000000000000000     
  0.40625000000000000       0.53125000000000000        0.0000000000000000     
  0.43750000000000000       0.53125000000000000        0.0000000000000000     
  0.46875000000000000       0.53125000000000000        0.0000000000000000     
  0.50000000000000000       0.53125000000000000        0.0000000000000000     
  0.37500000000000000       0.56250000000000000        0.0000000000000000     
  0.40625000000000000       0.56250000000000000        0.0000000000000000     
  0.43750000000000000       0.56250000000000000        0.0000000000000000     
  0.46875000000000000       0.56250000000000000        0.0000000000000000     
  0.50000000000000000       0.56250000000000000        0.0000000000000000     
  0.37500000000000000       0.59375000000000000        0.0000000000000000     
  0.40625000000000000       0.59375000000000000        0.0000000000000000     
  0.43750000000000000       0.59375000000000000        0.0000000000000000     
  0.46875000000000000       0.59375000000000000        0.0000000000000000     
  0.50000000000000000       0.59375000000000000        0.0000000000000000     
  0.37500000000000000       0.62500000000000000        0.0000000000000000     
  0.40625000000000000       0.62500000000000000        0.0000000000000000     
  0.43750000000000000       0.62500000000000000        0.0000000000000000     
  0.46875000000000000       0.62500000000000000        0.0000000000000000     
  0.50000000000000000       0.62500000000000000        0.0000000000000000     
  0.50000000000000000       0.50000000000000000        0.0000000000000000     
  0.53125000000000000       0.50000000000000000        0.0000000000000000     
  0.56250000000000000       0.50000000000000000        0.0000000000000000     
  0.59375000000000000       0.50000000000000000        0.0000000000000000     
  0.62500000000000000       0.50000000000000000        0.0000000000000000     
  0.50000000000000000       0.53125000000000000        0.0000000000000000     
  0.53125000000000000       0.53125000000000000        0.0000000000000000     
  0.56250000000000000       0.53125000000000000        0.0000000000000000     
  0.59375000000000000       0.53125000000000000        0.0000000000000000     
  0.62500000000000000       0.53125000000000000        0.0000000000000000     
  0.50000000000000000       0.56250000000000000        0.0000000000000000     
  0.53125000000000000       0.56250000000000000        0.0000000000000000     
  0.56250000000000000       0.56250000000000000        0.0000000000000000     
  0.59375000000000000       0.56250000000000000        0.0000000000000000     
  0.62500000000000000       0.56250000000000000        0.0000000000000000     
  0.50000000000000000       0.59375000000000000        0.0000000000000000     
  0.53125000000000000       0.59375000000000000        0.0000000000000000     
  0.56250000000000000       0.59375000000000000        0.0000000000000000     
  0.59375000000000000       0.59375000000000000        0.0000000000000000     
  0.62500000000000000       0.59375000000000000        0.0000000000000000     
  0.50000000000000000       0.62500000000000000        0.0000000000000000     
  0.53125000000000000       0.62500000000000000        0.0000000000000000     
  0.56250000000000000       0.62500000000000000        0.0000000000000000     
  0.59375000000000000       0.62500000000000000        0.0000000000000000     
  0.62500000000000000       0.62500000000000000        0.0000000000000000     
  0.62500000000000000       0.50000000000000000        0.0000000000000000     
  0.65625000000000000       0.50000000000000000        0.0000000000000000     
  0.68750000000000000       0.50000000000000000        0.0000000000000000     
  0.71875000000000000       0.50000000000000000        0.0000000000000000     
  0.75000000000000000       0.50000000000000000        0.0000000000000000     
  0.62500000000000000       0.53125000000000000        0.0000000000000000     
  0.65625000000000000       0.53125000000000000        0.0000000000000000     
  0.68750000000000000       0.53125000000000000        0.0000000000000000     
  0.71875000000000000       0.53125000000000000        0.0000000000000000     
  0.75000000000000000       0.53125000000000000        0.0000000000000000     
  0.62500000000000000       0.56250000000000000        0.0000000000000000     
  0.65625000000000000       0.56250000000000000        0.0000000000000000     
  0.68750000000000000       0.56250000000000000        0.0000000000000000     
  0.71875000000000000       0.56250000000000000        0.0000000000000000     
  0.75000000000000000       0.56250000000000000        0.0000000000000000     
  0.62500000000000000       0.59375000000000000        0.0000000000000000     
  0.65625000000000000       0.59375000000000000        0.0000000000000000     
  0.68750000000000000       0.59375000000000000        0.0000000000000000     
  0.71875000000000000       0.59375000000000000        0.0000000000000000     
  0.75000000000000000       0.59375000000000000        0.0000000000000000     
  0.62500000000000000       0.62500000000000000        0.0000000000000000     
  0.65625000000000000       0.62500000000000000        0.0000000000000000     
  0.68750000000000000       0.62500000000000000        0.0000000000000000     
  0.71875000000000000       0.62500000000000000        0.0000000000000000     
  0.75000000000000000       0.62500000000000000        0.0000000000000000     
  0.75000000000000000       0.50000000000000000        0.0000000000000000     
  0.78125000000000000       0.50000000000000000        0.0000000000000000     
  0.81250000000000000       0.50000000000000000        0.0000000000000000     
  0.84375000000000000       0.50000000000000000        0.0000000000000000     
  0.87500000000000000       0.50000000000000000        0.0000000000000000     
  0.75000000000000000       0.53125000000000000        0.0000000000000000     
  0.78125000000000000       0.53125000000000000        0.0000000000000000     
  0.81250000000000000       0.53125000000000000        0.0000000000000000     
  0.84375000000000000       0.53125000000000000        0.0000000000000000     
  0.87500000000000000       0.53125000000000000        0.0000000000000000     
  0.75000000000000000       0.56250000000000000        0.0000000000000000     
  0.78125000000000000       0.56250000000000000        0.0000000000000000     
  0.81250000000000000       0.56250000000000000        0.0000000000000000     
  0.84375000000000000       0.56250000000000000        0.0000000000000000     
  0.87500000000000000       0.56250000000000000        0.0000000000000000     
  0.75000000000000000       0.59375000000000000        0.0000000000000000     
  0.78125000000000000       0.59375000000000000        0.0000000000000000     
  0.81250000000000000       0.59375000000000000        0.0000000000000000     
  0.84375000000000000       0.59375000000000000        0.0000000000000000     
  0.87500000000000000       0.59375000000000000        0.0000000000000000     
  0.75000000000000000       0.62500000000000000        0.0000000000000000     
  0.78125000000000000       0.62500000000000000        0.0000000000000000     
  0.81250000000000000       0.62500000000000000        0.0000000000000000     
  0.84375000000000000       0.62500000000000000        0.0000000000000000     
  0.87500000000000000       0.62500000000000000        0.0000000000000000     
  0.87500000000000000       0.50000000000000000        0.0000000000000000     
  0.90625000000000000       0.50000000000000000        0.0000000000000000     
  0.93750000000000000       0.50000000000000000        0.0000000000000000     
  0.96875000000000000       0.50000000000000000        0.0000000000000000     
   1.0000000000000000       0.50000000000000000        0.0000000000000000     
  0.87500000000000000       0.53125000000000000        0.0000000000000000     
  0.90625000000000000       0.53125000000000000        0.0000000000000000     
  0.93750000000000000       0.53125000000000000        0.0000000000000000     
  0.96875000000000000       0.53125000000000000        0.0000000000000000     
   1.0000000000000000       0.53125000000000000        0.0000000000000000     
  0.87500000000000000       0.56250000000000000        0.0000000000000000     
  0.90625000000000000       0.56250000000000000        0.0000000000000000     
  0.93750000000000000       0.56250000000000000        0.0000000000000000     
  0.96875000000000000       0.56250000000000000        0.0000000000000000     
   1.0000000000000000       0.56250000000000000        0.0000000000000000     
  0.87500000000000000       0.59375000000000000        0.0000000000000000     
  0.90625000000000000       0.59375000000000000        0.0000000000000000     
  0.93750000000000000       0.59375000000000000        0.0000000000000000     
  0.96875000000000000       0.59375000000000000        0.0000000000000000     
   1.0000000000000000       0.59375000000000000        0.0000000000000000     
  0.87500000000000000       0.62500000000000000        0.0000000000000000     
  0.90625000000000000       0.62500000000000000        0.0000000000000000     
  0.93750000000000000       0.62500000000000000        0.0000000000000000     
  0.96875000000000000       0.62500000000000000        0.0000000000000000     
   1.0000000000000000       0.62500000000000000        0.0000000000000000     
   0.0000000000000000       0.62500000000000000        0.0000000000000000     
   3.1250000000000000E-002  0.62500000000000000        0.0000000000000000     
   6.2500000000000000E-002  0.62500000000000000        0.0000000000000000     
   9.3750000000000000E-002  0.62500000000000000        0.0000000000000000     
  0.12500000000000000       0.62500000000000000        0.0000000000000000     
   0.0000000000000000       0.65625000000000000        0.0000000000000000     
   3.1250000000000000E-002  0.65625000000000000        0.0000000000000000     
   6.2500000000000000E-002  0.65625000000000000        0.0000000000000000     
   9.3750000000000000E-002  0.65625000000000000        0.0000000000000000     
  0.12500000000000000       0.65625000000000000        0.0000000000000000     
   0.0000000000000000       0.68750000000000000        0.0000000000000000     
   3.1250000000000000E-002  0.68750000000000000        0.0000000000000000     
   6.2500000000000000E-002  0.68750000000000000        0.0000000000000000     
   9.3750000000000000E-002  0.68750000000000000        0.0000000000000000     
  0.12500000000000000       0.68750000000000000        0.0000000000000000     
   0.0000000000000000       0.71875000000000000        0.0000000000000000     
   3.1250000000000000E-002  0.71875000000000000        0.0000000000000000     
   6.2500000000000000E-002  0.71875000000000000        0.0000000000000000     
   9.3750000000000000E-002  0.71875000000000000        0.0000000000000000     
  0.12500000000000000       0.71875000000000000        0.0000000000000000     
   0.0000000000000000       0.75000000000000000        0.0000000000000000     
   3.1250000000000000E-002  0.75000000000000000        0.0000000000000000     
   6.2500000000000000E-002  0.75000000000000000        0.0000000000000000     
   9.3750000000000000E-002  0.75000000000000000        0.0000000000000000     
  0.12500000000000000       0.75000000000000000        0.0000000000000000     
  0.12500000000000000       0.62500000000000000        0.0000000000000000     
  0.15625000000000000       0.62500000000000000        0.0000000000000000     
  0.18750000000000000       0.62500000000000000        0.0000000000000000     
  0.21875000000000000       0.62500000000000000        0.0000000000000000     
  0.25000000000000000       0.62500000000000000        0.0000000000000000     
  0.12500000000000000       0.65625000000000000        0.0000000000000000     
  0.15625000000000000       0.65625000000000000        0.0000000000000000     
  0.18750000000000000       0.65625000000000000        0.0000000000000000     
  0.21875000000000000       0.65625000000000000        0.0000000000000000     
  0.25000000000000000       0.65625000000000000        0.0000000000000000     
  0.12500000000000000       0.68750000000000000        0.0000000000000000     
  0.15625000000000000       0.68750000000000000        0.0000000000000000     
  0.18750000000000000       0.68750000000000000        0.0000000000000000     
  0.21875000000000000       0.68750000000000000        0.0000000000000000     
  0.25000000000000000       0.68750000000000000        0.0000000000000000     
  0.12500000000000000       0.71875000000000000        0.0000000000000000     
  0.15625000000000000       0.71875000000000000        0.0000000000000000     
  0.18750000000000000       0.71875000000000000        0.0000000000000000     
  0.21875000000000000       0.71875000000000000        0.0000000000000000     
  0.25000000000000000       0.71875000000000000        0.0000000000000000     
  0.12500000000000000       0.75000000000000000        0.0000000000000000     
  0.15625000000000000       0.75000000000000000        0.0000000000000000     
  0.18750000000000000       0.75000000000000000        0.0000000000000000     
  0.21875000000000000       0.75000000000000000        0.0000000000000000     
  0.25000000000000000       0.75000000000000000        0.0000000000000000     
  0.25000000000000000       0.62500000000000000        0.0000000000000000     
  0.28125000000000000       0.62500000000000000        0.0000000000000000     
  0.31250000000000000       0.62500000000000000        0.0000000000000000     
  0.34375000000000000       0.62500000000000000        0.0000000000000000     
  0.37500000000000000       0.62500000000000000        0.0000000000000000     
  0.25000000000000000       0.65625000000000000        0.0000000000000000     
  0.28125000000000000       0.65625000000000000        0.0000000000000000     
  0.31250000000000000       0.65625000000000000        0.0000000000000000     
  0.34375000000000000       0.65625000000000000        0.0000000000000000     
  0.37500000000000000       0.65625000000000000        0.0000000000000000     
  0.25000000000000000       0.68750000000000000        0.0000000000000000     
  0.28125000000000000       0.68750000000000000        0.0000000000000000     
  0.31250000000000000       0.68750000000000000        0.0000000000000000     
  0.34375000000000000       0.68750000000000000        0.0000000000000000     
  0.37500000000000000       0.68750000000000000        0.0000000000000000     
  0.25000000000000000       0.71875000000000000        0.0000000000000000     
  0.28125000000000000       0.71875000000000000        0.0000000000000000     
  0.31250000000000000       0.71875000000000000        0.0000000000000000     
  0.34375000000000000       0.71875000000000000        0.0000000000000000     
  0.37500000000000000       0.71875000000000000        0.0000000000000000     
  0.25000000000000000       0.75000000000000000        0.0000000000000000     
  0.28125000000000000       0.75000000000000000        0.0000000000000000     
  0.31250000000000000       0.75000000000000000        0.0000000000000000     
  0.34375000000000000       0.75000000000000000        0.0000000000000000     
  0.37500000000000000       0.75000000000000000        0.0000000000000000     
  0.37500000000000000       0.62500000000000000        0.0000000000000000     
  0.40625000000000000       0.62500000000000000        0.0000000000000000     
  0.43750000000000000       0.62500000000000000        0.0000000000000000     
  0.46875000000000000       0.62500000000000000        0.0000000000000000     
  0.50000000000000000       0.62500000000000000        0.0000000000000000     
  0.37500000000000000       0.65625000000000000        0.0000000000000000     
  0.40625000000000000       0.65625000000000000        0.0000000000000000     
  0.43750000000000000       0.65625000000000000        0.0000000000000000     
  0.46875000000000000       0.65625000000000000        0.0000000000000000     
  0.50000000000000000       0.65625000000000000        0.0000000000000000     
  0.37500000000000000       0.68750000000000000        0.0000000000000000     
  0.40625000000000000       0.68750000000000000        0.0000000000000000     
  0.43750000000000000       0.68750000000000000        0.0000000000000000     
  0.46875000000000000       0.68750000000000000        0.0000000000000000     
  0.50000000000000000       0.68750000000000000        0.0000000000000000     
  0.37500000000000000       0.71875000000000000        0.0000000000000000     
  0.40625000000000000       0.71875000000000000        0.0000000000000000     
  0.43750000000000000       0.71875000000000000        0.0000000000000000     
  0.46875000000000000       0.71875000000000000        0.0000000000000000     
  0.50000000000000000       0.71875000000000000        0.0000000000000000     
  0.37500000000000000       0.75000000000000000        0.0000000000000000     
  0.40625000000000000       0.75000000000000000        0.0000000000000000     
  0.43750000000000000       0.75000000000000000        0.0000000000000000     
  0.46875000000000000       0.75000000000000000        0.0000000000000000     
  0.50000000000000000       0.75000000000000000        0.0000000000000000     
  0.50000000000000000       0.62500000000000000        0.0000000000000000     
  0.53125000000000000       0.62500000000000000        0.0000000000000000     
  0.56250000000000000       0.62500000000000000        0.0000000000000000     
  0.59375000000000000       0.62500000000000000        0.0000000000000000     
  0.62500000000000000       0.62500000000000000        0.0000000000000000     
  0.50000000000000000       0.65625000000000000        0.0000000000000000     
  0.53125000000000000       0.65625000000000000        0.0000000000000000     
  0.56250000000000000       0.65625000000000000        0.0000000000000000     
  0.59375000000000000       0.65625000000000000        0.0000000000000000     
  0.62500000000000000       0.65625000000000000        0.0000000000000000     
  0.50000000000000000       0.68750000000000000        0.0000000000000000     
  0.53125000000000000       0.68750000000000000        0.0000000000000000     
  0.56250000000000000       0.68750000000000000        0.0000000000000000     
  0.59375000000000000       0.68750000000000000        0.0000000000000000     
  0.62500000000000000       0.68750000000000000        0.0000000000000000     
  0.50000000000000000       0.71875000000000000        0.0000000000000000     
  0.53125000000000000       0.71875000000000000        0.0000000000000000     
  0.56250000000000000       0.71875000000000000        0.0000000000000000     
  0.59375000000000000       0.71875000000000000        0.0000000000000000     
  0.62500000000000000       0.71875000000000000        0.0000000000000000     
  0.50000000000000000       0.75000000000000000        0.0000000000000000     
  0.53125000000000000       0.75000000000000000        0.0000000000000000     
  0.56250000000000000       0.75000000000000000        0.0000000000000000     
  0.59375000000000000       0.75000000000000000        0.0000000000000000     
  0.62500000000000000       0.75000000000000000        0.0000000000000000     
  0.62500000000000000       0.62500000000000000        0.0000000000000000     
  0.65625000000000000       0.62500000000000000        0.0000000000000000     
  0.68750000000000000       0.62500000000000000        0.0000000000000000     
  0.71875000000000000       0.62500000000000000        0.0000000000000000     
  0.75000000000000000       0.62500000000000000        0.0000000000000000     
  0.62500000000000000       0.65625000000000000        0.0000000000000000     
  0.65625000000000000       0.65625000000000000        0.0000000000000000     
  0.68750000000000000       0.65625000000000000        0.0000000000000000     
  0.71875000000000000       0.65625000000000000        0.0000000000000000     
  0.75000000000000000       0.65625000000000000        0.0000000000000000     
  0.62500000000000000       0.68750000000000000        0.0000000000000000     
  0.65625000000000000       0.68750000000000000        0.0000000000000000     
  0.68750000000000000       0.68750000000000000        0.0000000000000000     
  0.71875000000000000       0.68750000000000000        0.0000000000000000     
  0.75000000000000000       0.68750000000000000        0.0000000000000000     
  0.62500000000000000       0.71875000000000000        0.0000000000000000     
  0.65625000000000000       0.71875000000000000        0.0000000000000000     
  0.68750000000000000       0.71875000000000000        0.0000000000000000     
  0.71875000000000000       0.71875000000000000        0.0000000000000000     
  0.75000000000000000       0.71875000000000000        0.0000000000000000     
  0.62500000000000000       0.75000000000000000        0.0000000000000000     
  0.65625000000000000       0.75000000000000000        0.0000000000000000     
  0.68750000000000000       0.75000000000000000        0.0000000000000000     
  0.71875000000000000       0.75000000000000000        0.0000000000000000     
  0.75000000000000000       0.75000000000000000        0.0000000000000000     
  0.75000000000000000       0.62500000000000000        0.0000000000000000     
  0.78125000000000000       0.62500000000000000        0.0000000000000000     
  0.81250000000000000       0.62500000000000000        0.0000000000000000     
  0.84375000000000000       0.62500000000000000        0.0000000000000000     
  0.87500000000000000       0.62500000000000000        0.0000000000000000     
  0.75000000000000000       0.65625000000000000        0.0000000000000000     
  0.78125000000000000       0.65625000000000000        0.0000000000000000     
  0.81250000000000000       0.65625000000000000        0.0000000000000000     
  0.84375000000000000       0.65625000000000000        0.0000000000000000     
  0.87500000000000000       0.65625000000000000        0.0000000000000000     
  0.75000000000000000       0.68750000000000000        0.0000000000000000     
  0.78125000000000000       0.68750000000000000        0.0000000000000000     
  0.81250000000000000       0.68750000000000000        0.0000000000000000     
  0.84375000000000000       0.68750000000000000        0.0000000000000000     
  0.87500000000000000       0.68750000000000000        0.0000000000000000     
  0.75000000000000000       0.71875000000000000        0.0000000000000000     
  0.78125000000000000       0.71875000000000000        0.0000000000000000     
  0.81250000000000000       0.71875000000000000        0.0000000000000000     
  0.84375000000000000       0.71875000000000000        0.0000000000000000     
  0.87500000000000000       0.71875000000000000        0.0000000000000000     
  0.75000000000000000       0.75000000000000000        0.0000000000000000     
  0.78125000000000000       0.75000000000000000        0.0000000000000000     
  0.81250000000000000       0.75000000000000000        0.0000000000000000     
  0.84375000000000000       0.75000000000000000        0.0000000000000000     
  0.87500000000000000       0.75000000000000000        0.0000000000000000     
  0.87500000000000000       0.62500000000000000        0.0000000000000000     
  0.90625000000000000       0.62500000000000000        0.0000000000000000     
  0.93750000000000000       0.62500000000000000        0.0000000000000000     
  0.96875000000000000       0.62500000000000000        0.0000000000000000     
   1.0000000000000000       0.62500000000000000        0.0000000000000000     
  0.87500000000000000       0.65625000000000000        0.0000000000000000     
  0.90625000000000000       0.65625000000000000        0.0000000000000000     
  0.93750000000000000       0.65625000000000000        0.0000000000000000     
  0.96875000000000000       0.65625000000000000        0.0000000000000000     
   1.0000000000000000       0.65625000000000000        0.0000000000000000     
  0.87500000000000000       0.68750000000000000        0.0000000000000000     
  0.90625000000000000       0.68750000000000000        0.0000000000000000     
  0.93750000000000000       0.68750000000000000        0.0000000000000000     
  0.96875000000000000       0.68750000000000000        0.0000000000000000     
   1.0000000000000000       0.68750000000000000        0.0000000000000000     
  0.87500000000000000       0.71875000000000000        0.0000000000000000     
  0.90625000000000000       0.71875000000000000        0.0000000000000000     
  0.93750000000000000       0.71875000000000000        0.0000000000000000     
  0.96875000000000000       0.71875000000000000        0.0000000000000000     
   1.0000000000000000       0.71875000000000000        0.0000000000000000     
  0.87500000000000000       0.75000000000000000        0.0000000000000000     
  0.90625000000000000       0.75000000000000000        0.0000000000000000     
  0.93750000000000000       0.75000000000000000        0.0000000000000000     
  0.96875000000000000       0.75000000000000000        0.0000000000000000     
   1.0000000000000000       0.75000000000000000        0.0000000000000000     
   0.0000000000000000       0.75000000000000000        0.0000000000000000     
   3.1250000000000000E-002  0.75000000000000000        0.0000000000000000     
   6.2500000000000000E-002  0.75000000000000000        0.0000000000000000     
   9.3750000000000000E-002  0.75000000000000000        0.0000000000000000     
  0.12500000000000000       0.75000000000000000        0.0000000000000000     
   0.0000000000000000       0.78125000000000000        0.0000000000000000     
   3.1250000000000000E-002  0.78125000000000000        0.0000000000000000     
   6.2500000000000000E-002  0.78125000000000000        0.0000000000000000     
   9.3750000000000000E-002  0.78125000000000000        0.0000000000000000     
  0.12500000000000000       0.78125000000000000        0.0000000000000000     
   0.0000000000000000       0.81250000000000000        0.0000000000000000     
   3.1250000000000000E-002  0.81250000000000000        0.0000000000000000     
   6.2500000000000000E-002  0.81250000000000000        0.0000000000000000     
   9.3750000000000000E-002  0.81250000000000000        0.0000000000000000     
  0.12500000000000000       0.81250000000000000        0.0000000000000000     
   0.0000000000000000       0.84375000000000000        0.0000000000000000     
   3.1250000000000000E-002  0.84375000000000000        0.0000000000000000     
   6.2500000000000000E-002  0.84375000000000000        0.0000000000000000     
   9.3750000000000000E-002  0.84375000000000000        0.0000000000000000     
  0.12500000000000000       0.84375000000000000        0.0000000000000000     
   0.0000000000000000       0.87500000000000000        0.0000000000000000     
   3.1250000000000000E-002  0.87500000000000000        0.0000000000000000     
   6.2500000000000000E-002  0.87500000000000000        0.0000000000000000     
   9.3750000000000000E-002  0.87500000000000000        0.0000000000000000     
  0.12500000000000000       0.87500000000000000        0.0000000000000000     
  0.12500000000000000       0.75000000000000000        0.0000000000000000     
  0.15625000000000000       0.75000000000000000        0.0000000000000000     
  0.18750000000000000       0.75000000000000000        0.0000000000000000     
  0.21875000000000000       0.75000000000000000        0.0000000000000000     
  0.25000000000000000       0.75000000000000000        0.0000000000000000     
  0.12500000000000000       0.78125000000000000        0.0000000000000000     
  0.15625000000000000       0.78125000000000000        0.0000000000000000     
  0.18750000000000000       0.78125000000000000        0.0000000000000000     
  0.21875000000000000       0.78125000000000000        0.0000000000000000     
  0.25000000000000000       0.78125000000000000        0.0000000000000000     
  0.12500000000000000       0.81250000000000000        0.0000000000000000     
  0.15625000000000000       0.81250000000000000        0.0000000000000000     
  0.18750000000000000       0.81250000000000000        0.0000000000000000     
  0.21875000000000000       0.81250000000000000        0.0000000000000000     
  0.25000000000000000       0.81250000000000000        0.0000000000000000     
  0.12500000000000000       0.84375000000000000        0.0000000000000000     
  0.15625000000000000       0.84375000000000000        0.0000000000000000     
  0.18750000000000000       0.84375000000000000        0.0000000000000000     
  0.21875000000000000       0.84375000000000000        0.0000000000000000     
  0.25000000000000000       0.84375000000000000        0.0000000000000000     
  0.12500000000000000       0.87500000000000000        0.0000000000000000     
  0.15625000000000000       0.87500000000000000        0.0000000000000000     
  0.18750000000000000       0.87500000000000000        0.0000000000000000     
  0.21875000000000000       0.87500000000000000        0.0000000000000000     
  0.25000000000000000       0.87500000000000000        0.0000000000000000     
  0.25000000000000000       0.75000000000000000        0.0000000000000000     
  0.28125000000000000       0.75000000000000000        0.0000000000000000     
  0.31250000000000000       0.75000000000000000        0.0000000000000000     
  0.34375000000000000       0.75000000000000000        0.0000000000000000     
  0.37500000000000000       0.75000000000000000        0.0000000000000000     
  0.25000000000000000       0.78125000000000000        0.0000000000000000     
  0.28125000000000000       0.78125000000000000        0.0000000000000000     
  0.31250000000000000       0.78125000000000000        0.0000000000000000     
  0.34375000000000000       0.78125000000000000        0.0000000000000000     
  0.37500000000000000       0.78125000000000000        0.0000000000000000     
  0.25000000000000000       0.81250000000000000        0.0000000000000000     
  0.28125000000000000       0.81250000000000000        0.0000000000000000     
  0.31250000000000000       0.81250000000000000        0.0000000000000000     
  0.34375000000000000       0.81250000000000000        0.0000000000000000     
  0.37500000000000000       0.81250000000000000        0.0000000000000000     
  0.25000000000000000       0.84375000000000000        0.0000000000000000     
  0.28125000000000000       0.84375000000000000        0.0000000000000000     
  0.31250000000000000       0.84375000000000000        0.0000000000000000     
  0.34375000000000000       0.84375000000000000        0.0000000000000000     
  0.37500000000000000       0.84375000000000000        0.0000000000000000     
  0.25000000000000000       0.87500000000000000        0.0000000000000000     
  0.28125000000000000       0.87500000000000000        0.0000000000000000     
  0.31250000000000000       0.87500000000000000        0.0000000000000000     
  0.34375000000000000       0.87500000000000000        0.0000000000000000     
  0.37500000000000000       0.87500000000000000        0.0000000000000000     
  0.37500000000000000       0.75000000000000000        0.0000000000000000     
  0.40625000000000000       0.75000000000000000        0.0000000000000000     
  0.43750000000000000       0.75000000000000000        0.0000000000000000     
  0.46875000000000000       0.75000000000000000        0.0000000000000000     
  0.50000000000000000       0.75000000000000000        0.0000000000000000     
  0.37500000000000000       0.78125000000000000        0.0000000000000000     
  0.40625000000000000       0.78125000000000000        0.0000000000000000     
  0.43750000000000000       0.78125000000000000        0.0000000000000000     
  0.46875000000000000       0.78125000000000000        0.0000000000000000     
  0.50000000000000000       0.78125000000000000        0.0000000000000000     
  0.37500000000000000       0.81250000000000000        0.0000000000000000     
  0.40625000000000000       0.81250000000000000        0.0000000000000000     
  0.43750000000000000       0.81250000000000000        0.0000000000000000     
  0.46875000000000000       0.81250000000000000        0.0000000000000000     
  0.50000000000000000       0.81250000000000000        0.0000000000000000     
  0.37500000000000000       0.84375000000000000        0.0000000000000000     
  0.40625000000000000       0.84375000000000000        0.0000000000000000     
  0.43750000000000000       0.84375000000000000        0.0000000000000000     
  0.46875000000000000       0.84375000000000000        0.0000000000000000     
  0.50000000000000000       0.84375000000000000        0.0000000000000000     
  0.37500000000000000       0.87500000000000000        0.0000000000000000     
  0.40625000000000000       0.87500000000000000        0.0000000000000000     
  0.43750000000000000       0.87500000000000000        0.0000000000000000     
  0.46875000000000000       0.87500000000000000        0.0000000000000000     
  0.50000000000000000       0.87500000000000000        0.0000000000000000     
  0.50000000000000000       0.75000000000000000        0.0000000000000000     
  0.53125000000000000       0.75000000000000000        0.0000000000000000     
  0.56250000000000000       0.75000000000000000        0.0000000000000000     
  0.59375000000000000       0.75000000000000000        0.0000000000000000     
  0.62500000000000000       0.75000000000000000        0.0000000000000000     
  0.50000000000000000       0.78125000000000000        0.0000000000000000     
  0.53125000000000000       0.78125000000000000        0.0000000000000000     
  0.56250000000000000       0.78125000000000000        0.0000000000000000     
  0.59375000000000000       0.78125000000000000        0.0000000000000000     
  0.62500000000000000       0.78125000000000000        0.0000000000000000     
  0.50000000000000000       0.81250000000000000        0.0000000000000000     
  0.53125000000000000       0.81250000000000000        0.0000000000000000     
  0.56250000000000000       0.81250000000000000        0.0000000000000000     
  0.59375000000000000       0.81250000000000000        0.0000000000000000     
  0.62500000000000000       0.81250000000000000        0.0000000000000000     
  0.50000000000000000       0.84375000000000000        0.0000000000000000     
  0.53125000000000000       0.84375000000000000        0.0000000000000000     
  0.56250000000000000       0.84375000000000000        0.0000000000000000     
  0.59375000000000000       0.84375000000000000        0.0000000000000000     
  0.62500000000000000       0.84375000000000000        0.0000000000000000     
  0.50000000000000000       0.87500000000000000        0.0000000000000000     
  0.53125000000000000       0.87500000000000000        0.0000000000000000     
  0.56250000000000000       0.87500000000000000        0.0000000000000000     
  0.59375000000000000       0.87500000000000000        0.0000000000000000     
  0.62500000000000000       0.87500000000000000        0.0000000000000000     
  0.62500000000000000       0.75000000000000000        0.0000000000000000     
  0.65625000000000000       0.75000000000000000        0.0000000000000000     
  0.68750000000000000       0.75000000000000000        0.0000000000000000     
  0.71875000000000000       0.75000000000000000        0.0000000000000000     
  0.75000000000000000       0.75000000000000000        0.0000000000000000     
  0.62500000000000000       0.78125000000000000        0.0000000000000000     
  0.65625000000000000       0.78125000000000000        0.0000000000000000     
  0.68750000000000000       0.78125000000000000        0.0000000000000000     
  0.71875000000000000       0.78125000000000000        0.0000000000000000     
  0.75000000000000000       0.78125000000000000        0.0000000000000000     
  0.62500000000000000       0.81250000000000000        0.0000000000000000     
  0.65625000000000000       0.81250000000000000        0.0000000000000000     
  0.68750000000000000       0.81250000000000000        0.0000000000000000     
  0.71875000000000000       0.81250000000000000        0.0000000000000000     
  0.75000000000000000       0.81250000000000000        0.0000000000000000     
  0.62500000000000000       0.84375000000000000        0.0000000000000000     
  0.65625000000000000       0.84375000000000000        0.0000000000000000     
  0.68750000000000000       0.84375000000000000        0.0000000000000000     
  0.71875000000000000       0.84375000000000000        0.0000000000000000     
  0.75000000000000000       0.84375000000000000        0.0000000000000000     
  0.62500000000000000       0.87500000000000000        0.0000000000000000     
  0.65625000000000000       0.87500000000000000        0.0000000000000000     
  0.68750000000000000       0.87500000000000000        0.0000000000000000     
  0.71875000000000000       0.87500000000000000        0.0000000000000000     
  0.75000000000000000       0.87500000000000000        0.0000000000000000     
  0.75000000000000000       0.75000000000000000        0.0000000000000000     
  0.78125000000000000       0.75000000000000000        0.0000000000000000     
  0.81250000000000000       0.75000000000000000        0.0000000000000000     
  0.84375000000000000       0.75000000000000000        0.0000000000000000     
  0.87500000000000000       0.75000000000000000        0.0000000000000000     
  0.75000000000000000       0.78125000000000000        0.0000000000000000     
  0.78125000000000000       0.78125000000000000        0.0000000000000000     
  0.81250000000000000       0.78125000000000000        0.0000000000000000     
  0.84375000000000000       0.78125000000000000        0.0000000000000000     
  0.87500000000000000       0.78125000000000000        0.0000000000000000     
  0.75000000000000000       0.81250000000000000        0.0000000000000000     
  0.78125000000000000       0.81250000000000000        0.0000000000000000     
  0.81250000000000000       0.81250000000000000        0.0000000000000000     
  0.84375000000000000       0.81250000000000000        0.0000000000000000     
  0.87500000000000000       0.81250000000000000        0.0000000000000000     
  0.75000000000000000       0.84375000000000000        0.0000000000000000     
  0.78125000000000000       0.84375000000000000        0.0000000000000000     
  0.81250000000000000       0.84375000000000000        0.0000000000000000     
  0.84375000000000000       0.84375000000000000        0.0000000000000000     
  0.87500000000000000       0.84375000000000000        0.0000000000000000     
  0.75000000000000000       0.87500000000000000        0.0000000000000000     
  0.78125000000000000       0.87500000000000000        0.0000000000000000     
  0.81250000000000000       0.87500000000000000        0.0000000000000000     
  0.84375000000000000       0.87500000000000000        0.0000000000000000     
  0.87500000000000000       0.87500000000000000        0.0000000000000000     
  0.87500000000000000       0.75000000000000000        0.0000000000000000     
  0.90625000000000000       0.75000000000000000        0.0000000000000000     
  0.93750000000000000       0.75000000000000000        0.0000000000000000     
  0.96875000000000000       0.75000000000000000        0.0000000000000000     
   1.0000000000000000       0.75000000000000000        0.0000000000000000     
  0.87500000000000000       0.78125000000000000        0.0000000000000000     
  0.90625000000000000       0.78125000000000000        0.0000000000000000     
  0.93750000000000000       0.78125000000000000        0.0000000000000000     
  0.96875000000000000       0.78125000000000000        0.0000000000000000     
   1.0000000000000000       0.78125000000000000        0.0000000000000000     
  0.87500000000000000       0.81250000000000000        0.0000000000000000     
  0.90625000000000000       0.81250000000000000        0.0000000000000000     
  0.93750000000000000       0.81250000000000000        0.0000000000000000     
  0.96875000000000000       0.81250000000000000        0.0000000000000000     
   1.0000000000000000       0.81250000000000000        0.0000000000000000     
  0.87500000000000000       0.84375000000000000        0.0000000000000000     
  0.90625000000000000       0.84375000000000000        0.0000000000000000     
  0.93750000000000000       0.84375000000000000        0.0000000000000000     
  0.96875000000000000       0.84375000000000000        0.0000000000000000     
   1.0000000000000000       0.84375000000000000        0.0000000000000000     
  0.87500000000000000       0.87500000000000000        0.0000000000000000     
  0.90625000000000000       0.87500000000000000        0.0000000000000000     
  0.93750000000000000       0.87500000000000000        0.0000000000000000     
  0.96875000000000000       0.87500000000000000        0.0000000000000000     
   1.0000000000000000       0.87500000000000000        0.0000000000000000     
   0.0000000000000000       0.87500000000000000        0.0000000000000000     
   3.1250000000000000E-002  0.87500000000000000        0.0000000000000000     
   6.2500000000000000E-002  0.87500000000000000        0.0000000000000000     
   9.3750000000000000E-002  0.87500000000000000        0.0000000000000000     
  0.12500000000000000       0.87500000000000000        0.0000000000000000     
   0.0000000000000000       0.90625000000000000        0.0000000000000000     
   3.1250000000000000E-002  0.90625000000000000        0.0000000000000000     
   6.2500000000000000E-002  0.90625000000000000        0.0000000000000000     
   9.3750000000000000E-002  0.90625000000000000        0.0000000000000000     
  0.12500000000000000       0.90625000000000000        0.0000000000000000     
   0.0000000000000000       0.93750000000000000        0.0000000000000000     
   3.1250000000000000E-002  0.93750000000000000        0.0000000000000000     
   6.2500000000000000E-002  0.93750000000000000        0.0000000000000000     
   9.3750000000000000E-002  0.93750000000000000        0.0000000000000000     
  0.12500000000000000       0.93750000000000000        0.0000000000000000     
   0.0000000000000000       0.96875000000000000        0.0000000000000000     
   3.1250000000000000E-002  0.96875000000000000        0.0000000000000000     
   6.2500000000000000E-002  0.96875000000000000        0.0000000000000000     
   9.3750000000000000E-002  0.96875000000000000        0.0000000000000000     
  0.12500000000000000       0.96875000000000000        0.0000000000000000     
   0.0000000000000000        1.0000000000000000        0.0000000000000000     
   3.1250000000000000E-002   1.0000000000000000        0.0000000000000000     
   6.2500000000000000E-002   1.0000000000000000        0.0000000000000000     
   9.3750000000000000E-002   1.0000000000000000        0.0000000000000000     
  0.12500000000000000        1.0000000000000000        0.0000000000000000     
  0.12500000000000000       0.87500000000000000        0.0000000000000000     
  0.15625000000000000       0.87500000000000000        0.0000000000000000     
  0.18750000000000000       0.87500000000000000        0.0000000000000000     
  0.21875000000000000       0.87500000000000000        0.0000000000000000     
  0.25000000000000000       0.87500000000000000        0.0000000000000000     
  0.12500000000000000       0.90625000000000000        0.0000000000000000     
  0.15625000000000000       0.90625000000000000        0.0000000000000000     
  0.18750000000000000       0.90625000000000000        0.0000000000000000     
  0.21875000000000000       0.90625000000000000        0.0000000000000000     
  0.25000000000000000       0.90625000000000000        0.0000000000000000     
  0.12500000000000000       0.93750000000000000        0.0000000000000000     
  0.15625000000000000       0.93750000000000000        0.0000000000000000     
  0.18750000000000000       0.93750000000000000        0.0000000000000000     
  0.21875000000000000       0.93750000000000000        0.0000000000000000     
  0.25000000000000000       0.93750000000000000        0.0000000000000000     
  0.12500000000000000       0.96875000000000000        0.0000000000000000     
  0.15625000000000000       0.96875000000000000        0.0000000000000000     
  0.18750000000000000       0.96875000000000000        0.0000000000000000     
  0.21875000000000000       0.96875000000000000        0.0000000000000000     
  0.25000000000000000       0.96875000000000000        0.0000000000000000     
  0.12500000000000000        1.0000000000000000        0.0000000000000000     
  0.15625000000000000        1.0000000000000000        0.0000000000000000     
  0.18750000000000000        1.0000000000000000        0.0000000000000000     
  0.21875000000000000        1.0000000000000000        0.0000000000000000     
  0.25000000000000000        1.0000000000000000        0.0000000000000000     
  0.25000000000000000       0.87500000000000000        0.0000000000000000     
  0.28125000000000000       0.87500000000000000        0.0000000000000000     
  0.31250000000000000       0.87500000000000000        0.0000000000000000     
  0.34375000000000000       0.87500000000000000        0.0000000000000000     
  0.37500000000000000       0.87500000000000000        0.0000000000000000     
  0.25000000000000000       0.90625000000000000        0.0000000000000000     
  0.28125000000000000       0.90625000000000000        0.0000000000000000     
  0.31250000000000000       0.90625000000000000        0.0000000000000000     
  0.34375000000000000       0.90625000000000000        0.0000000000000000     
  0.37500000000000000       0.90625000000000000        0.0000000000000000     
  0.25000000000000000       0.93750000000000000        0.0000000000000000     
  0.28125000000000000       0.93750000000000000        0.0000000000000000     
  0.31250000000000000       0.93750000000000000        0.0000000000000000     
  0.34375000000000000       0.93750000000000000        0.0000000000000000     
  0.37500000000000000       0.93750000000000000        0.0000000000000000     
  0.25000000000000000       0.96875000000000000        0.0000000000000000     
  0.28125000000000000       0.96875000000000000        0.0000000000000000     
  0.31250000000000000       0.96875000000000000        0.0000000000000000     
  0.34375000000000000       0.96875000000000000        0.0000000000000000     
  0.37500000000000000       0.96875000000000000        0.0000000000000000     
  0.25000000000000000        1.0000000000000000        0.0000000000000000     
  0.28125000000000000        1.0000000000000000        0.0000000000000000     
  0.31250000000000000        1.0000000000000000        0.0000000000000000     
  0.34375000000000000        1.0000000000000000        0.0000000000000000     
  0.37500000000000000        1.0000000000000000        0.0000000000000000     
  0.37500000000000000       0.87500000000000000        0.0000000000000000     
  0.40625000000000000       0.87500000000000000        0.0000000000000000     
  0.43750000000000000       0.87500000000000000        0.0000000000000000     
  0.46875000000000000       0.87500000000000000        0.0000000000000000     
  0.50000000000000000       0.87500000000000000        0.0000000000000000     
  0.37500000000000000       0.90625000000000000        0.0000000000000000     
  0.40625000000000000       0.90625000000000000        0.0000000000000000     
  0.43750000000000000       0.90625000000000000        0.0000000000000000     
  0.46875000000000000       0.90625000000000000        0.0000000000000000     
  0.50000000000000000       0.90625000000000000        0.0000000000000000     
  0.37500000000000000       0.93750000000000000        0.0000000000000000     
  0.40625000000000000       0.93750000000000000        0.0000000000000000     
  0.43750000000000000       0.93750000000000000        0.0000000000000000     
  0.46875000000000000       0.93750000000000000        0.0000000000000000     
  0.50000000000000000       0.93750000000000000        0.0000000000000000     
  0.37500000000000000       0.96875000000000000        0.0000000000000000     
  0.40625000000000000       0.96875000000000000        0.0000000000000000     
  0.43750000000000000       0.96875000000000000        0.0000000000000000     
  0.46875000000000000       0.96875000000000000        0.0000000000000000     
  0.50000000000000000       0.96875000000000000        0.0000000000000000     
  0.37500000000000000        1.0000000000000000        0.0000000000000000     
  0.40625000000000000        1.0000000000000000        0.0000000000000000     
  0.43750000000000000        1.0000000000000000        0.0000000000000000     
  0.46875000000000000        1.0000000000000000        0.0000000000000000     
  0.50000000000000000        1.0000000000000000        0.0000000000000000     
  0.50000000000000000       0.87500000000000000        0.0000000000000000     
  0.53125000000000000       0.87500000000000000        0.0000000000000000     
  0.56250000000000000       0.87500000000000000        0.0000000000000000     
  0.59375000000000000       0.87500000000000000        0.0000000000000000     
  0.62500000000000000       0.87500000000000000        0.0000000000000000     
  0.50000000000000000       0.90625000000000000        0.0000000000000000     
  0.53125000000000000       0.90625000000000000        0.0000000000000000     
  0.56250000000000000       0.90625000000000000        0.0000000000000000     
  0.59375000000000000       0.90625000000000000        0.0000000000000000     
  0.62500000000000000       0.90625000000000000        0.0000000000000000     
  0.50000000000000000       0.93750000000000000        0.0000000000000000     
  0.53125000000000000       0.93750000000000000        0.0000000000000000     
  0.56250000000000000       0.93750000000000000        0.0000000000000000     
  0.59375000000000000       0.93750000000000000        0.0000000000000000     
  0.62500000000000000       0.93750000000000000        0.0000000000000000     
  0.50000000000000000       0.96875000000000000        0.0000000000000000     
  0.53125000000000000       0.96875000000000000        0.0000000000000000     
  0.56250000000000000       0.96875000000000000        0.0000000000000000     
  0.59375000000000000       0.96875000000000000        0.0000000000000000     
  0.62500000000000000       0.96875000000000000        0.0000000000000000     
  0.50000000000000000        1.0000000000000000        0.0000000000000000     
  0.53125000000000000        1.0000000000000000        0.0000000000000000     
  0.56250000000000000        1.0000000000000000        0.0000000000000000     
  0.59375000000000000        1.0000000000000000        0.0000000000000000     
  0.62500000000000000        1.0000000000000000        0.0000000000000000     
  0.62500000000000000       0.87500000000000000        0.0000000000000000     
  0.65625000000000000       0.87500000000000000        0.0000000000000000     
  0.68750000000000000       0.87500000000000000        0.0000000000000000     
  0.71875000000000000       0.87500000000000000        0.0000000000000000     
  0.75000000000000000       0.87500000000000000        0.0000000000000000     
  0.62500000000000000       0.90625000000000000        0.0000000000000000     
  0.65625000000000000       0.90625000000000000        0.0000000000000000     
  0.68750000000000000       0.90625000000000000        0.0000000000000000     
  0.71875000000000000       0.90625000000000000        0.0000000000000000     
  0.75000000000000000       0.90625000000000000        0.0000000000000000     
  0.62500000000000000       0.93750000000000000        0.0000000000000000     
  0.65625000000000000       0.93750000000000000        0.0000000000000000     
  0.68750000000000000       0.93750000000000000        0.0000000000000000     
  0.71875000000000000       0.93750000000000000        0.0000000000000000     
  0.75000000000000000       0.93750000000000000        0.0000000000000000     
  0.62500000000000000       0.96875000000000000        0.0000000000000000     
  0.65625000000000000       0.96875000000000000        0.0000000000000000     
  0.68750000000000000       0.96875000000000000        0.0000000000000000     
  0.71875000000000000       0.96875000000000000        0.0000000000000000     
  0.75000000000000000       0.96875000000000000        0.0000000000000000     
  0.62500000000000000        1.0000000000000000        0.0000000000000000     
  0.65625000000000000        1.0000000000000000        0.0000000000000000     
  0.68750000000000000        1.0000000000000000        0.0000000000000000     
  0.71875000000000000        1.0000000000000000        0.0000000000000000     
  0.75000000000000000        1.0000000000000000        0.0000000000000000     
  0.75000000000000000       0.87500000000000000        0.0000000000000000     
  0.78125000000000000       0.87500000000000000        0.0000000000000000     
  0.81250000000000000       0.87500000000000000        0.0000000000000000     
  0.84375000000000000       0.87500000000000000        0.0000000000000000     
  0.87500000000000000       0.87500000000000000        0.0000000000000000     
  0.75000000000000000       0.90625000000000000        0.0000000000000000     
  0.78125000000000000       0.90625000000000000        0.0000000000000000     
  0.81250000000000000       0.90625000000000000        0.0000000000000000     
  0.84375000000000000       0.90625000000000000        0.0000000000000000     
  0.87500000000000000       0.90625000000000000        0.0000000000000000     
  0.75000000000000000       0.93750000000000000        0.0000000000000000     
  0.78125000000000000       0.93750000000000000        0.0000000000000000     
  0.81250000000000000       0.93750000000000000        0.0000000000000000     
  0.84375000000000000       0.93750000000000000        0.0000000000000000     
  0.87500000000000000       0.93750000000000000        0.0000000000000000     
  0.75000000000000000       0.96875000000000000        0.0000000000000000     
  0.78125000000000000       0.96875000000000000        0.0000000000000000     
  0.81250000000000000       0.96875000000000000        0.0000000000000000     
  0.84375000000000000       0.96875000000000000        0.0000000000000000     
  0.87500000000000000       0.96875000000000000        0.0000000000000000     
  0.75000000000000000        1.0000000000000000        0.0000000000000000     
  0.78125000000000000        1.0000000000000000        0.0000000000000000     
  0.81250000000000000        1.0000000000000000        0.0000000000000000     
  0.84375000000000000        1.0000000000000000        0.0000000000000000     
  0.87500000000000000        1.0000000000000000        0.0000000000000000     
  0.87500000000000000       0.87500000000000000        0.0000000000000000     
  0.90625000000000000       0.87500000000000000        0.0000000000000000     
  0.93750000000000000       0.87500000000000000        0.0000000000000000     
  0.96875000000000000       0.87500000000000000        0.0000000000000000     
   1.0000000000000000       0.87500000000000000        0.0000000000000000     
  0.87500000000000000       0.90625000000000000        0.0000000000000000     
  0.90625000000000000       0.90625000000000000        0.0000000000000000     
  0.93750000000000000       0.90625000000000000        0.0000000000000000     
  0.96875000000000000       0.90625000000000000        0.0000000000000000     
   1.0000000000000000       0.90625000000000000        0.0000000000000000     
  0.87500000000000000       0.93750000000000000        0.0000000000000000     
  0.90625000000000000       0.93750000000000000        0.0000000000000000     
  0.93750000000000000       0.93750000000000000        0.0000000000000000     
  0.96875000000000000       0.93750000000000000        0.0000000000000000     
   1.0000000000000000       0.93750000000000000        0.0000000000000000     
  0.87500000000000000       0.96875000000000000        0.0000000000000000     
  0.90625000000000000       0.96875000000000000        0.0000000000000000     
  0.93750000000000000       0.96875000000000000        0.0000000000000000     
  0.96875000000000000       0.96875000000000000        0.0000000000000000     
   1.0000000000000000       0.96875000000000000        0.0000000000000000     
  0.87500000000000000        1.0000000000000000        0.0000000000000000     
  0.90625000000000000        1.0000000000000000        0.0000000000000000     
  0.93750000000000000        1.0000000000000000        0.0000000000000000     
  0.96875000000000000        1.0000000000000000        0.0000000000000000     
   1.0000000000000000        1.0000000000000000        0.0000000000000000     
 </DataArray>
 </Points>
 <Cells>
 <DataArray  type="Int32"  Name="connectivity"  format="ascii">
           0           1           6           5
           1           2           7           6
           2           3           8           7
           3           4           9           8
           5           6          11          10
           6           7          12          11
           7           8          13          12
           8           9          14          13
          10          11          16          15
          11          12          17          16
          12          13          18          17
          13          14          19          18
          15          16          21          20
          16          17          22          21
          17          18          23          22
          18          19          24          23
          25          26          31          30
          26          27          32          31
          27          28          33          32
          28          29          34          33
          30          31          36          35
          31          32          37          36
          32          33          38          37
          33          34          39          38
          35          36          41          40
          36          37          42          41
          37          38          43          42
          38          39          44          43
          40          41          46          45
          41          42          47          46
          42          43          48          47
          43          44          49          48
          50          51          56          55
          51          52          57          56
          52          53          58          57
          53          54          59          58
          55          56          61          60
          56          57          62          61
          57          58          63          62
          58          59          64          63
          60          61          66          65
          61          62          67          66
          62          63          68          67
          63          64          69          68
          65          66          71          70
          66          67          72          71
          67          68          73          72
          68          69          74          73
          75          76          81          80
          76          77          82          81
          77          78          83          82
          78          79          84          83
          80          81          86          85
          81          82          87          86
          82          83          88          87
          83          84          89          88
          85          86          91          90
          86          87          92          91
          87          88          93          92
          88          89          94          93
          90          91          96          95
          91          92          97          96
          92          93          98          97
          93          94          99          98
         100         101         106         105
         101         102         107         106
         102         103         108         107
         103         104         109         108
         105         106         111         110
         106         107         112         111
         107         108         113         112
         108         109         114         113
         110         111         116         115
         111         112         117         116
         112         113         118         117
         113         114         119         118
         115         116         121         120
         116         117         122         121
         117         118         123         122
         118         119         124         123
         125         126         131         130
         126         127         132         131
         127         128         133         132
         128         129         134         133
         130         131         136         135
         131         132         137         136
         132         133         138         137
         133         134         139         138
         135         136         141         140
         136         137         142         141
         137         138         143         142
         138         139         144         143
         140         141         146         145
         141         142         147         146
         142         143         148         147
         143         144         149         148
         150         151         156         155
         151         152         157         156
         152         153         158         157
         153         154         159         158
         155         156         161         160
         156         157         162         161
         157         158         163         162
         158         159         164         163
         160         161         166         165
         161         162         167         166
         162         163         168         167
         163         164         169         168
         165         166         171         170
         166         167         172         171
         167         168         173         172
         168         169         174         173
         175         176         181         180
         176         177         182         181
         177         178         183         182
         178         179         184         183
         180         181         186         185
         181         182         187         186
         182         183         188         187
         183         184         189         188
         185         186         191         190
         186         187         192         191
         187         188         193         192
         188         189         194         193
         190         191         196         195
         191         192         197         196
         192         193         198         197
         193         194         199         198
         200         201         206         205
         201         202         207         206
         202         203         208         207
         203         204         209         208
         205         206         211         210
         206         207         212         211
         207         208         213         212
         208         209         214         213
         210         211         216         215
         211         212         217         216
         212         213         218         217
         213         214         219         218
         215         216         221         220
         216         217         222         221
         217         218         223         222
         218         219         224         223
         225         226         231         230
         226         227         232         231
         227         228         233         232
         228         229         234         233
         230         231         236         235
         231         232         237         236
         232         233         238         237
         233         234         239         238
         235         236         241         240
         236         237         242         241
         237         238         243         242
         238         239         244         243
         240         241         246         245
         241         242         247         246
         242         243         248         247
         243         244         249         248
         250         251         256         255
         251         252         257         256
         252         253         258         257
         253         254         259         258
         255         256         261         260
         256         257         262         261
         257         258         263         262
         258         259         264         263
         260         261         266         265
         261         262         267         266
         262         263         268         267
         263         264         269         268
         265         266         271         270
         266         267         272         271
         267         268         273         272
         268         269         274         273
         275         276         281         280
         276         277         282         281
         277         278         283         282
         278         279         284         283
         280         281         286         285
         281         282         287         286
         282         283         288         287
         283         284         289         288
         285         286         291         290
         286         287         292         291
         287         288         293         292
         288         289         294         293
         290         291         296         295
         291         292         297         296
         292         293         298         297
         293         294         299         298
         300         301         306         305
         301         302         307         306
         302         303         308         307
         303         304         309         308
         305         306         311         310
         306         307         312         311
         307         308         313         312
         308         309         314         313
         310         311         316         315
         311         312         317         316
         312         313         318         317
         313         314         319         318
         315         316         321         320
         316         317         322         321
         317         318         323         322
         318         319         324         323
         325         326         331         330
         326         327         332         331
         327         328         333         332
         328         329         334         333
         330         331         336         335
         331         332         337         336
         332         333         338         337
         333         334         339         338
         335         336         341         340
         336         337         342         341
         337         338         343         342
         338         339         344         343
         340         341         346         345
         341         342         347         346
         342         343         348         347
         343         344         349         348
         350         351         356         355
         351         352         357         356
         352         353         358         357
         353         354         359         358
         355         356         361         360
         356         357         362         361
         357         358         363         362
         358         359         364         363
         360         361         366         365
         361         362         367         366
         362         363         368         367
         363         364         369         368
         365         366         371         370
         366         367         372         371
         367         368         373         372
         368         369         374         373
         375         376         381         380
         376         377         382         381
         377         378         383         382
         378         379         384         383
         380         381         386         385
         381         382         387         386
         382         383         388         387
         383         384         389         388
         385         386         391         390
         386         387         392         391
         387         388         393         392
         388         389         394         393
         390         391         396         395
         391         392         397         396
         392         393         398         397
         393         394         399         398
         400         401         406         405
         401         402         407         406
         402         403         408         407
         403         404         409         408
         405         406         411         410
         406         407         412         411
         407         408         413         412
         408         409         414         413
         410         411         416         415
         411         412         417         416
         412         413         418         417
         413         414         419         418
         415         416         421         420
         416         417         422         421
         417         418         423         422
         418         419         424         423
         425         426         431         430
         426         427         432         431
         427         428         433         432
         428         429         434         433
         430         431         436         435
         431         432         437         436
         432         433         438         437
         433         434         439         438
         435         436         441         440
         436         437         442         441
         437         438         443         442
         438         439         444         443
         440         441         446         445
         441         442         447         446
         442         443         448         447
         443         444         449         448
         450         451         456         455
         451         452         457         456
         452         453         458         457
         453         454         459         458
         455         456         461         460
         456         457         462         461
         457         458         463         462
         458         459         464         463
         460         461         466         465
         461         462         467         466
         462         463         468         467
         463         464         469         468
         465         466         471         470
         466         467         472         471
         467         468         473         472
         468         469         474         473
         475         476         481         480
         476         477         482         481
         477         478         483         482
         478         479         484         483
         480         481         486         485
         481         482         487         486
         482         483         488         487
         483         484         489         488
         485         486         491         490
         486         487         492         491
         487         488         493         492
         488         489         494         493
         490         491         496         495
         491         492         497         496
         492         493         498         497
         493         494         499         498
         500         501         506         505
         501         502         507         506
         502         503         508         507
         503         504         509         508
         505         506         511         510
         506         507         512         511
         507         508         513         512
         508         509         514         513
         510         511         516         515
         511         512         517         516
         512         513         518         517
         513         514         519         518
         515         516         521         520
         516         517         522         521
         517         518         523         522
         518         519         524         523
         525         526         531         530
         526         527         532         531
         527         528         533         532
         528         529         534         533
         530         531         536         535
         531         532         537         536
         532         533         538         537
         533         534         539         538
         535         536         541         540
         536         537         542         541
         537         538         543         542
         538         539         544         543
         540         541         546         545
         541         542         547         546
         542         543         548         547
         543         544         549         548
         550         551         556         555
         551         552         557         556
         552         553         558         557
         553         554         559         558
         555         556         561         560
         556         557         562         561
         557         558         563         562
         558         559         564         563
         560         561         566         565
         561         562         567         566
         562         563         568         567
         563         564         569         568
         565         566         571         570
         566         567         572         571
         567         568         573         572
         568         569         574         573
         575         576         581         580
         576         577         582         581
         577         578         583         582
         578         579         584         583
         580         581         586         585
         581         582         587         586
         582         583         588         587
         583         584         589         588
         585         586         591         590
         586         587         592         591
         587         588         593         592
         588         589         594         593
         590         591         596         595
         591         592         597         596
         592         593         598         597
         593         594         599         598
         600         601         606         605
         601         602         607         606
         602         603         608         607
         603         604         609         608
         605         606         611         610
         606         607         612         611
         607         608         613         612
         608         609         614         613
         610         611         616         615
         611         612         617         616
         612         613         618         617
         613         614         619         618
         615         616         621         620
         616         617         622         621
         617         618         623         622
         618         619         624         623
         625         626         631         630
         626         627         632         631
         627         628         633         632
         628         629         634         633
         630         631         636         635
         631         632         637         636
         632         633         638         637
         633         634         639         638
         635         636         641         640
         636         637         642         641
         637         638         643         642
         638         639         644         643
         640         641         646         645
         641         642         647         646
         642         643         648         647
         643         644         649         648
         650         651         656         655
         651         652         657         656
         652         653         658         657
         653         654         659         658
         655         656         661         660
         656         657         662         661
         657         658         663         662
         658         659         664         663
         660         661         666         665
         661         662         667         666
         662         663         668         667
         663         664         669         668
         665         666         671         670
         666         667         672         671
         667         668         673         672
         668         669         674         673
         675         676         681         680
         676         677         682         681
         677         678         683         682
         678         679         684         683
         680         681         686         685
         681         682         687         686
         682         683         688         687
         683         684         689         688
         685         686         691         690
         686         687         692         691
         687         688         693         692
         688         689         694         693
         690         691         696         695
         691         692         697         696
         692         693         698         697
         693         694         699         698
         700         701         706         705
         701         702         707         706
         702         703         708         707
         703         704         709         708
         705         706         711         710
         706         707         712         711
         707         708         713         712
         708         709         714         713
         710         711         716         715
         711         712         717         716
         712         713         718         717
         713         714         719         718
         715         716         721         720
         716         717         722         721
         717         718         723         722
         718         719         724         723
         725         726         731         730
         726         727         732         731
         727         728         733         732
         728         729         734         733
         730         731         736         735
         731         732         737         736
         732         733         738         737
         733         734         739         738
         735         736         741         740
         736         737         742         741
         737         738         743         742
         738         739         744         743
         740         741         746         745
         741         742         747         746
         742         743         748         747
         743         744         749         748
         750         751         756         755
         751         752         757         756
         752         753         758         757
         753         754         759         758
         755         756         761         760
         756         757         762         761
         757         758         763         762
         758         759         764         763
         760         761         766         765
         761         762         767         766
         762         763         768         767
         763         764         769         768
         765         766         771         770
         766         767         772         771
         767         768         773         772
         768         769         774         773
         775         776         781         780
         776         777         782         781
         777         778         783         782
         778         779         784         783
         780         781         786         785
         781         782         787         786
         782         783         788         787
         783         784         789         788
         785         786         791         790
         786         787         792         791
         787         788         793         792
         788         789         794         793
         790         791         796         795
         791         792         797         796
         792         793         798         797
         793         794         799         798
         800         801         806         805
         801         802         807         806
         802         803         808         807
         803         804         809         808
         805         806         811         810
         806         807         812         811
         807         808         813         812
         808         809         814         813
         810         811         816         815
         811         812         817         816
         812         813         818         817
         813         814         819         818
         815         816         821         820
         816         817         822         821
         817         818         823         822
         818         819         824         823
         825         826         831         830
         826         827         832         831
         827         828         833         832
         828         829         834         833
         830         831         836         835
         831         832         837         836
         832         833         838         837
         833         834         839         838
         835         836         841         840
         836         837         842         841
         837         838         843         842
         838         839         844         843
         840         841         846         845
         841         842         847         846
         842         843         848         847
         843         844         849         848
         850         851         856         855
         851         852         857         856
         852         853         858         857
         853         854         859         858
         855         856         861         860
         856         857         862         861
         857         858         863         862
         858         859         864         863
         860         861         866         865
         861         862         867         866
         862         863         868         867
         863         864         869         868
         865         866         871         870
         866         867         872         871
         867         868         873         872
         868         869         874         873
         875         876         881         880
         876         877         882         881
         877         878         883         882
         878         879         884         883
         880         881         886         885
         881         882         887         886
         882         883         888         887
         883         884         889         888
         885         886         891         890
         886         887         892         891
         887         888         893         892
         888         889         894         893
         890         891         896         895
         891         892         897         896
         892         893         898         897
         893         894         899         898
         900         901         906         905
         901         902         907         906
         902         903         908         907
         903         904         909         908
         905         906         911         910
         906         907         912         911
         907         908         913         912
         908         909         914         913
         910         911         916         915
         911         912         917         916
         912         913         918         917
         913         914         919         918
         915         916         921         920
         916         917         922         921
         917         918         923         922
         918         919         924         923
         925         926         931         930
         926         927         932         931
         927         928         933         932
         928         929         934         933
         930         931         936         935
         931         932         937         936
         932         933         938         937
         933         934         939         938
         935         936         941         940
         936         937         942         941
         937         938         943         942
         938         939         944         943
         940         941         946         945
         941         942         947         946
         942         943         948         947
         943         944         949         948
         950         951         956         955
         951         952         957         956
         952         953         958         957
         953         954         959         958
         955         956         961         960
         956         957         962         961
         957         958         963         962
         958         959         964         963
         960         961         966         965
         961         962         967         966
         962         963         968         967
         963         964         969         968
         965         966         971         970
         966         967         972         971
         967         968         973         972
         968         969         974         973
         975         976         981         980
         976         977         982         981
         977         978         983         982
         978         979         984         983
         980         981         986         985
         981         982         987         986
         982         983         988         987
         983         984         989         988
         985         986         991         990
         986         987         992         991
         987         988         993         992
         988         989         994         993
         990         991         996         995
         991         992         997         996
         992         993         998         997
         993         994         999         998
        1000        1001        1006        1005
        1001        1002        1007        1006
        1002        1003        1008        1007
        1003        1004        1009        1008
        1005        1006        1011        1010
        1006        1007        1012        1011
        1007        1008        1013        1012
        1008        1009        1014        1013
        1010        1011        1016        1015
        1011        1012        1017        1016
        1012        1013        1018        1017
        1013        1014        1019        1018
        1015        1016        1021        1020
        1016        1017        1022        1021
        1017        1018        1023        1022
        1018        1019        1024        1023
        1025        1026        1031        1030
        1026        1027        1032        1031
        1027        1028        1033        1032
        1028        1029        1034        1033
        1030        1031        1036        1035
        1031        1032        1037        1036
        1032        1033        1038        1037
        1033        1034        1039        1038
        1035        1036        1041        1040
        1036        1037        1042        1041
        1037        1038        1043        1042
        1038        1039        1044        1043
        1040        1041        1046        1045
        1041        1042        1047        1046
        1042        1043        1048        1047
        1043        1044        1049        1048
        1050        1051        1056        1055
        1051        1052        1057        1056
        1052        1053        1058        1057
        1053        1054        1059        1058
        1055        1056        1061        1060
        1056        1057        1062        1061
        1057        1058        1063        1062
        1058        1059        1064        1063
        1060        1061        1066        1065
        1061        1062        1067        1066
        1062        1063        1068        1067
        1063        1064        1069        1068
        1065        1066        1071        1070
        1066        1067        1072        1071
        1067        1068        1073        1072
        1068        1069        1074        1073
        1075        1076        1081        1080
        1076        1077        1082        1081
        1077        1078        1083        1082
        1078        1079        1084        1083
        1080        1081        1086        1085
        1081        1082        1087        1086
        1082        1083        1088        1087
        1083        1084        1089        1088
        1085        1086        1091        1090
        1086        1087        1092        1091
        1087        1088        1093        1092
        1088        1089        1094        1093
        1090        1091        1096        1095
        1091        1092        1097        1096
        1092        1093        1098        1097
        1093        1094        1099        1098
        1100        1101        1106        1105
        1101        1102        1107        1106
        1102        1103        1108        1107
        1103        1104        1109        1108
        1105        1106        1111        1110
        1106        1107        1112        1111
        1107        1108        1113        1112
        1108        1109        1114        1113
        1110        1111        1116        1115
        1111        1112        1117        1116
        1112        1113        1118        1117
        1113        1114        1119        1118
        1115        1116        1121        1120
        1116        1117        1122        1121
        1117        1118        1123        1122
        1118        1119        1124        1123
        1125        1126        1131        1130
        1126        1127        1132        1131
        1127        1128        1133        1132
        1128        1129        1134        1133
        1130        1131        1136        1135
        1131        1132        1137        1136
        1132        1133        1138        1137
        1133        1134        1139        1138
        1135        1136        1141        1140
        1136        1137        1142        1141
        1137        1138        1143        1142
        1138        1139        1144        1143
        1140        1141        1146        1145
        1141        1142        1147        1146
        1142        1143        1148        1147
        1143        1144        1149        1148
        1150        1151        1156        1155
        1151        1152        1157        1156
        1152        1153        1158        1157
        1153        1154        1159        1158
        1155        1156        1161        1160
        1156        1157        1162        1161
        1157        1158        1163        1162
        1158        1159        1164        1163
        1160        1161        1166        1165
        1161        1162        1167        1166
        1162        1163        1168        1167
        1163        1164        1169        1168
        1165        1166        1171        1170
        1166        1167        1172        1171
        1167        1168        1173        1172
        1168        1169        1174        1173
        1175        1176        1181        1180
        1176        1177        1182        1181
        1177        1178        1183        1182
        1178        1179        1184        1183
        1180        1181        1186        1185
        1181        1182        1187        1186
        1182        1183        1188        1187
        1183        1184        1189        1188
        1185        1186        1191        1190
        1186        1187        1192        1191
        1187        1188        1193        1192
        1188        1189        1194        1193
        1190        1191        1196        1195
        1191        1192        1197        1196
        1192        1193        1198        1197
        1193        1194        1199        1198
        1200        1201        1206        1205
        1201        1202        1207        1206
        1202        1203        1208        1207
        1203        1204        1209        1208
        1205        1206        1211        1210
        1206        1207        1212        1211
        1207        1208        1213        1212
        1208        1209        1214        1213
        1210        1211        1216        1215
        1211        1212        1217        1216
        1212        1213        1218        1217
        1213        1214        1219        1218
        1215        1216        1221        1220
        1216        1217        1222        1221
        1217        1218        1223        1222
        1218        1219        1224        1223
        1225        1226        1231        1230
        1226        1227        1232        1231
        1227        1228        1233        1232
        1228        1229        1234        1233
        1230        1231        1236        1235
        1231        1232        1237        1236
        1232        1233        1238        1237
        1233        1234        1239        1238
        1235        1236        1241        1240
        1236        1237        1242        1241
        1237        1238        1243        1242
        1238        1239        1244        1243
        1240        1241        1246        1245
        1241        1242        1247        1246
        1242        1243        1248        1247
        1243        1244        1249        1248
        1250        1251        1256        1255
        1251        1252        1257        1256
        1252        1253        1258        1257
        1253        1254        1259        1258
        1255        1256        1261        1260
        1256        1257        1262        1261
        1257        1258        1263        1262
        1258        1259        1264        1263
        1260        1261        1266        1265
        1261        1262        1267        1266
        1262        1263        1268        1267
        1263        1264        1269        1268
        1265        1266        1271        1270
        1266        1267        1272        1271
        1267        1268        1273        1272
        1268        1269        1274        1273
        1275        1276        1281        1280
        1276        1277        1282        1281
        1277        1278        1283        1282
        1278        1279        1284        1283
        1280        1281        1286        1285
        1281        1282        1287        1286
        1282        1283        1288        1287
        1283        1284        1289        1288
        1285        1286        1291        1290
        1286        1287        1292        1291
        1287        1288        1293        1292
        1288        1289        1294        1293
        1290        1291        1296        1295
        1291        1292        1297        1296
        1292        1293        1298        1297
        1293        1294        1299        1298
        1300        1301        1306        1305
        1301        1302        1307        1306
        1302        1303        1308        1307
        1303        1304        1309        1308
        1305        1306        1311        1310
        1306        1307        1312        1311
        1307        1308        1313        1312
        1308        1309        1314        1313
        1310        1311        1316        1315
        1311        1312        1317        1316
        1312        1313        1318        1317
        1313        1314        1319        1318
        1315        1316        1321        1320
        1316        1317        1322        1321
        1317        1318        1323        1322
        1318        1319        1324        1323
        1325        1326        1331        1330
        1326        1327        1332        1331
        1327        1328        1333        1332
        1328        1329        1334        1333
        1330        1331        1336        1335
        1331        1332        1337        1336
        1332        1333        1338        1337
        1333        1334        1339        1338
        1335        1336        1341        1340
        1336        1337        1342        1341
        1337        1338        1343        1342
        1338        1339        1344        1343
        1340        1341        1346        1345
        1341        1342        1347        1346
        1342        1343        1348        1347
        1343        1344        1349        1348
        1350        1351        1356        1355
        1351        1352        1357        1356
        1352        1353        1358        1357
        1353        1354        1359        1358
        1355        1356        1361        1360
        1356        1357        1362        1361
        1357        1358        1363        1362
        1358        1359        1364        1363
        1360        1361        1366        1365
        1361        1362        1367        1366
        1362        1363        1368        1367
        1363        1364        1369        1368
        1365        1366        1371        1370
        1366        1367        1372        1371
        1367        1368        1373        1372
        1368        1369        1374        1373
        1375        1376        1381        1380
        1376        1377        1382        1381
        1377        1378        1383        1382
        1378        1379        1384        1383
        1380        1381        1386        1385
        1381        1382        1387        1386
        1382        1383        1388        1387
        1383        1384        1389        1388
        1385        1386        1391        1390
        1386        1387        1392        1391
        1387        1388        1393        1392
        1388        1389        1394        1393
        1390        1391        1396        1395
        1391        1392        1397        1396
        1392        1393        1398        1397
        1393        1394        1399        1398
        1400        1401        1406        1405
        1401        1402        1407        1406
        1402        1403        1408        1407
        1403        1404        1409        1408
        1405        1406        1411        1410
        1406        1407        1412        1411
        1407        1408        1413        1412
        1408        1409        1414        1413
        1410        1411        1416        1415
        1411        1412        1417        1416
        1412        1413        1418        1417
        1413        1414        1419        1418
        1415        1416        1421        1420
        1416        1417        1422        1421
        1417        1418        1423        1422
        1418        1419        1424        1423
        1425        1426        1431        1430
        1426        1427        1432        1431
        1427        1428        1433        1432
        1428        1429        1434        1433
        1430        1431        1436        1435
        1431        1432        1437        1436
        1432        1433        1438        1437
        1433        1434        1439        1438
        1435        1436        1441        1440
        1436        1437        1442        1441
        1437        1438        1443        1442
        1438        1439        1444        1443
        1440        1441        1446        1445
        1441        1442        1447        1446
        1442        1443        1448        1447
        1443        1444        1449        1448
        1450        1451        1456        1455
        1451        1452        1457        1456
        1452        1453        1458        1457
        1453        1454        1459        1458
        1455        1456        1461        1460
        1456        1457        1462        1461
        1457        1458        1463        1462
        1458        1459        1464        1463
        1460        1461        1466        1465
        1461        1462        1467        1466
        1462        1463        1468        1467
        1463        1464        1469        1468
        1465        1466        1471        1470
        1466        1467        1472        1471
        1467        1468        1473        1472
        1468        1469        1474        1473
        1475        1476        1481        1480
        1476        1477        1482        1481
        1477        1478        1483        1482
        1478        1479        1484        1483
        1480        1481        1486        1485
        1481        1482        1487        1486
        1482        1483        1488        1487
        1483        1484        1489        1488
        1485        1486        1491        1490
        1486        1487        1492        1491
        1487        1488        1493        1492
        1488        1489        1494        1493
        1490        1491        1496        1495
        1491        1492        1497        1496
        1492        1493        1498        1497
        1493        1494        1499        1498
        1500        1501        1506        1505
        1501        1502        1507        1506
        1502        1503        1508        1507
        1503        1504        1509        1508
        1505        1506        1511        1510
        1506        1507        1512        1511
        1507        1508        1513        1512
        1508        1509        1514        1513
        1510        1511        1516        1515
        1511        1512        1517        1516
        1512        1513        1518        1517
        1513        1514        1519        1518
        1515        1516        1521        1520
        1516        1517        1522        1521
        1517        1518        1523        1522
        1518        1519        1524        1523
        1525        1526        1531        1530
        1526        1527        1532        1531
        1527        1528        1533        1532
        1528        1529        1534        1533
        1530        1531        1536        1535
        1531        1532        1537        1536
        1532        1533        1538        1537
        1533        1534        1539        1538
        1535        1536        1541        1540
        1536        1537        1542        1541
        1537        1538        1543        1542
        1538        1539        1544        1543
        1540        1541        1546        1545
        1541        1542        1547        1546
        1542        1543        1548        1547
        1543        1544        1549        1548
        1550        1551        1556        1555
        1551        1552        1557        1556
        1552        1553        1558        1557
        1553        1554        1559        1558
        1555        1556        1561        1560
        1556        1557        1562        1561
        1557        1558        1563        1562
        1558        1559        1564        1563
        1560        1561        1566        1565
        1561        1562        1567        1566
        1562        1563        1568        1567
        1563        1564        1569        1568
        1565        1566        1571        1570
        1566        1567        1572        1571
        1567        1568        1573        1572
        1568        1569        1574        1573
        1575        1576        1581        1580
        1576        1577        1582        1581
        1577        1578        1583        1582
        1578        1579        1584        1583
        1580        1581        1586        1585
        1581        1582        1587        1586
        1582        1583        1588        1587
        1583        1584        1589        1588
        1585        1586        1591        1590
        1586        1587        1592        1591
        1587        1588        1593        1592
        1588        1589        1594        1593
        1590        1591        1596        1595
        1591        1592        1597        1596
        1592        1593        1598        1597
        1593        1594        1599        1598
 </DataArray>
 <DataArray  type="Int32"  Name="offsets"  format="ascii"> 
           4
           8
          12
          16
          20
          24
          28
          32
          36
          40
          44
          48
          52
          56
          60
          64
          68
          72
          76
          80
          84
          88
          92
          96
         100
         104
         108
         112
         116
         120
         124
         128
         132
         136
         140
         144
         148
         152
         156
         160
         164
         168
         172
         176
         180
         184
         188
         192
         196
         200
         204
         208
         212
         216
         220
         224
         228
         232
         236
         240
         244
         248
         252
         256
         260
         264
         268
         272
         276
         280
         284
         288
         292
         296
         300
         304
         308
         312
         316
         320
         324
         328
         332
         336
         340
         344
         348
         352
         356
         360
         364
         368
         372
         376
         380
         384
         388
         392
         396
         400
         404
         408
         412
         416
         420
         424
         428
         432
         436
         440
         444
         448
         452
         456
         460
         464
         468
         472
         476
         480
         484
         488
         492
         496
         500
         504
         508
         512
         516
         520
         524
         528
         532
         536
         540
         544
         548
         552
         556
         560
         564
         568
         572
         576
         580
         584
         588
         592
         596
         600
         604
         608
         612
         616
         620
         624
         628
         632
         636
         640
         644
         648
         652
         656
         660
         664
         668
         672
         676
         680
         684
         688
         692
         696
         700
         704
         708
         712
         716
         720
         724
         728
         732
         736
         740
         744
         748
         752
         756
         760
         764
         768
         772
         776
         780
         784
         788
         792
         796
         800
         804
         808
         812
         816
         820
         824
         828
         832
         836
         840
         844
         848
         852
         856
         860
         864
         868
         872
         876
         880
         884
         888
         892
         896
         900
         904
         908
         912
         916
         920
         924
         928
         932
         936
         940
         944
         948
         952
         956
         960
         964
         968
         972
         976
         980
         984
         988
         992
         996
        1000
        1004
        1008
        1012
        1016
        1020
        1024
        1028
        1032
        1036
        1040
        1044
        1048
        1052
        1056
        1060
        1064
        1068
        1072
        1076
        1080
        1084
        1088
        1092
        1096
        1100
        1104
        1108
        1112
        1116
        1120
        1124
        1128
        1132
        1136
        1140
        1144
        1148
        1152
        1156
        1160
        1164
        1168
        1172
        1176
        1180
        1184
        1188
        1192
        1196
        1200
        1204
        1208
        1212
        1216
        1220
        1224
        1228
        1232
        1236
        1240
        1244
        1248
        1252
        1256
        1260
        1264
        1268
        1272
        1276
        1280
        1284
        1288
        1292
        1296
        1300
        1304
        1308
        1312
        1316
        1320
        1324
        1328
        1332
        1336
        1340
        1344
        1348
        1352
        1356
        1360
        1364
        1368
        1372
        1376
        1380
        1384
        1388
        1392
        1396
        1400
        1404
        1408
        1412
        1416
        1420
        1424
        1428
        1432
        1436
        1440
        1444
        1448
        1452
        1456
        1460
        1464
        1468
        1472
        1476
        1480
        1484
        1488
        1492
        1496
        1500
        1504
        1508
        1512
        1516
        1520
        1524
        1528
        1532
        1536
        1540
        1544
        1548
        1552
        1556
        1560
        1564
        1568
        1572
        1576
        1580
        1584
        1588
        1592
        1596
        1600
        1604
        1608
        1612
        1616
        1620
        1624
        1628
        1632
        1636
        1640
        1644
        1648
        1652
        1656
        1660
        1664
        1668
        1672
        1676
        1680
        1684
        1688
        1692
        1696
        1700
        1704
        1708
        1712
        1716
        1720
        1724
        1728
        1732
        1736
        1740
        1744
        1748
        1752
        1756
        1760
        1764
        1768
        1772
        1776
        1780
        1784
        1788
        1792
        1796
        1800
        1804
        1808
        1812
        1816
        1820
        1824
        1828
        1832
        1836
        1840
        1844
        1848
        1852
        1856
        1860
        1864
        1868
        1872
        1876
        1880
        1884
        1888
        1892
        1896
        1900
        1904
        1908
        1912
        1916
        1920
        1924
        1928
        1932
        1936
        1940
        1944
        1948
        1952
        1956
        1960
        1964
        1968
        1972
        1976
        1980
        1984
        1988
        1992
        1996
        2000
        2004
        2008
        2012
        2016
        2020
        2024
        2028
        2032
        2036
        2040
        2044
        2048
        2052
        2056
        2060
        2064
        2068
        2072
        2076
        2080
        2084
        2088
        2092
        2096
        2100
        2104
        2108
        2112
        2116
        2120
        2124
        2128
        2132
        2136
        2140
        2144
        2148
        2152
        2156
        2160
        2164
        2168
        2172
        2176
        2180
        2184
        2188
        2192
        2196
        2200
        2204
        2208
        2212
        2216
        2220
        2224
        2228
        2232
        2236
        2240
        2244
        2248
        2252
        2256
        2260
        2264
        2268
        2272
        2276
        2280
        2284
        2288
        2292
        2296
        2300
        2304
        2308
        2312
        2316
        2320
        2324
        2328
        2332
        2336
        2340
        2344
        2348
        2352
        2356
        2360
        2364
        2368
        2372
        2376
        2380
        2384
        2388
        2392
        2396
        2400
        2404
        2408
        2412
        2416
        2420
        2424
        2428
        2432
        2436
        2440
        2444
        2448
        2452
        2456
        2460
        2464
        2468
        2472
        2476
        2480
        2484
        2488
        2492
        2496
        2500
        2504
        2508
        2512
        2516
        2520
        2524
        2528
        2532
        2536
        2540
        2544
        2548
        2552
        2556
        2560
        2564
        2568
        2572
        2576
        2580
        2584
        2588
        2592
        2596
        2600
        2604
        2608
        2612
        2616
        2620
        2624
        2628
        2632
        2636
        2640
        2644
        2648
        2652
        2656
        2660
        2664
        2668
        2672
        2676
        2680
        2684
        2688
        2692
        2696
        2700
        2704
        2708
        2712
        2716
        2720
        2724
        2728
        2732
        2736
        2740
        2744
        2748
        2752
        2756
        2760
        2764
        2768
        2772
        2776
        2780
        2784
        2788
        2792
        2796
        2800
        2804
        2808
        2812
        2816
        2820
        2824
        2828
        2832
        2836
        2840
        2844
        2848
        2852
        2856
        2860
        2864
        2868
        2872
        2876
        2880
        2884
        2888
        2892
        2896
        2900
        2904
        2908
        2912
        2916
        2920
        2924
        2928
        2932
        2936
        2940
        2944
        2948
        2952
        2956
        2960
        2964
        2968
        2972
        2976
        2980
        2984
        2988
        2992
        2996
        3000
        3004
        3008
        3012
        3016
        3020
        3024
        3028
        3032
        3036
        3040
        3044
        3048
        3052
        3056
        3060
        3064
        3068
        3072
        3076
        3080
        3084
        3088
        3092
        3096
        3100
        3104
        3108
        3112
        3116
        3120
        3124
        3128
        3132
        3136
        3140
        3144
        3148
        3152
        3156
        3160
        3164
        3168
        3172
        3176
        3180
        3184
        3188
        3192
        3196
        3200
        3204
        3208
        3212
        3216
        3220
        3224
        3228
        3232
        3236
        3240
        3244
        3248
        3252
        3256
        3260
        3264
        3268
        3272
        3276
        3280
        3284
        3288
        3292
        3296
        3300
        3304
        3308
        3312
        3316
        3320
        3324
        3328
        3332
        3336
        3340
        3344
        3348
        3352
        3356
        3360
        3364
        3368
        3372
        3376
        3380
        3384
        3388
        3392
        3396
        3400
        3404
        3408
        3412
        3416
        3420
        3424
        3428
        3432
        3436
        3440
        3444
        3448
        3452
        3456
        3460
        3464
        3468
        3472
        3476
        3480
        3484
        3488
        3492
        3496
        3500
        3504
        3508
        3512
        3516
        3520
        3524
        3528
        3532
        3536
        3540
        3544
        3548
        3552
        3556
        3560
        3564
        3568
        3572
        3576
        3580
        3584
        3588
        3592
        3596
        3600
        3604
        3608
        3612
        3616
        3620
        3624
        3628
        3632
        3636
        3640
        3644
        3648
        3652
        3656
        3660
        3664
        3668
        3672
        3676
        3680
        3684
        3688
        3692
        3696
        3700
        3704
        3708
        3712
        3716
        3720
        3724
        3728
        3732
        3736
        3740
        3744
        3748
        3752
        3756
        3760
        3764
        3768
        3772
        3776
        3780
        3784
        3788
        3792
        3796
        3800
        3804
        3808
        3812
        3816
        3820
        3824
        3828
        3832
        3836
        3840
        3844
        3848
        3852
        3856
        3860
        3864
        3868
        3872
        3876
        3880
        3884
        3888
        3892
        3896
        3900
        3904
        3908
        3912
        3916
        3920
        3924
        3928
        3932
        3936
        3940
        3944
        3948
        3952
        3956
        3960
        3964
        3968
        3972
        3976
        3980
        3984
        3988
        3992
        3996
        4000
        4004
        4008
        4012
        4016
        4020
        4024
        4028
        4032
        4036
        4040
        4044
        4048
        4052
        4056
        4060
        4064
        4068
        4072
        4076
        4080
        4084
        4088
        4092
        4096
 </DataArray>
 <DataArray  type="UInt8"  Name="types"  format="ascii">
 9
 9
 9
 9
 9
 9
 9
 9
 9
 9
 9
 9
 9
 9
 9
 9
 9
 9
 9
 9
 9
 9
 9
 9
 9
 9
 9
 9
 9
 9
 9
 9
 9
 9
 9
 9
 9
 9
 9
 9
 9
 9
 9
 9
 9
 9
 9
 9
 9
 9
 9
 9
 9
 9
 9
 9
 9
 9
 9
 9
 9
 9
 9
 9
 9
 9
 9
 9
 9
 9
 9
 9
 9
 9
 9
 9
 9
 9
 9
 9
 9
 9
 9
 9
 9
 9
 9
 9
 9
 9
 9
 9
 9
 9
 9
 9
 9
 9
 9
 9
 9
 9
 9
 9
 9
 9
 9
 9
 9
 9
 9
 9
 9
 9
 9
 9
 9
 9
 9
 9
 9
 9
 9
 9
 9
 9
 9
 9
 9
 9
 9
 9
 9
 9
 9
 9
 9
 9
 9
 9
 9
 9
 9
 9
 9
 9
 9
 9
 9
 9
 9
 9
 9
 9
 9
 9
 9
 9
 9
 9
 9
 9
 9
 9
 9
 9
 9
 9
 9
 9
 9
 9
 9
 9
 9
 9
 9
 9
 9
 9
 9
 9
 9
 9
 9
 9
 9
 9
 9
 9
 9
 9
 9
 9
 9
 9
 9
 9
 9
 9
 9
 9
 9
 9
 9
 9
 9
 9
 9
 9
 9
 9
 9
 9
 9
 9
 9
 9
 9
 9
 9
 9
 9
 9
 9
 9
 9
 9
 9
 9
 9
 9
 9
 9
 9
 9
 9
 9
 9
 9
 9
 9
 9
 9
 9
 9
 9
 9
 9
 9
 9
 9
 9
 9
 9
 9
 9
 9
 9
 9
 9
 9
 9
 9
 9
 9
 9
 9
 9
 9
 9
 9
 9
 9
 9
 9
 9
 9
 9
 9
 9
 9
 9
 9
 9
 9
 9
 9
 9
 9
 9
 9
 9
 9
 9
 9
 9
 9
 9
 9
 9
 9
 9
 9
 9
 9
 9
 9
 9
 9
 9
 9
 9
 9
 9
 9
 9
 9
 9
 9
 9
 9
 9
 9
 9
 9
 9
 9
 9
 9
 9
 9
 9
 9
 9
 9
 9
 9
 9
 9
 9
 9
 9
 9
 9
 9
 9
 9
 9
 9
 9
 9
 9
 9
 9
 9
 9
 9
 9
 9
 9
 9
 9
 9
 9
 9
 9
 9
 9
 9
 9
 9
 9
 9
 9
 9
 9
 9
 9
 9
 9
 9
 9
 9
 9
 9
 9
 9
 9
 9
 9
 9
 9
 9
 9
 9
 9
 9
 9
 9
 9
 9
 9
 9
 9
 9
 9
 9
 9
 9
 9
 9
 9
 9
 9
 9
 9
 9
 9
 9
 9
 9
 9
 9
 9
 9
 9
 9
 9
 9
 9
 9
 9
 9
 9
 9
 9
 9
 9
 9
 9
 9
 9
 9
 9
 9
 9
 9
 9
 9
 9
 9
 9
 9
 9
 9
 9
 9
 9
 9
 9
 9
 9
 9
 9
 9
 9
 9
 9
 9
 9
 9
 9
 9
 9
 9
 9
 9
 9
 9
 9
 9
 9
 9
 9
 9
 9
 9
 9
 9
 9
 9
 9
 9
 9
 9
 9
 9
 9
 9
 9
 9
 9
 9
 9
 9
 9
 9
 9
 9
 9
 9
 9
 9
 9
 9
 9
 9
 9
 9
 9
 9
 9
 9
 9
 9
 9
 9
 9
 9
 9
 9
 9
 9
 9
 9
 9
 9
 9
 9
 9
 9
 9
 9
 9
 9
 9
 9
 9
 9
 9
 9
 9
 9
 9
 9
 9
 9
 9
 9
 9
 9
 9
 9
 9
 9
 9
 9
 9
 9
 9
 9
 9
 9
 9
 9
 9
 9
 9
 9
 9
 9
 9
 9
 9
 9
 9
 9
 9
 9
 9
 9
 9
 9
 9
 9
 9
 9
 9
 9
 9
 9
 9
 9
 9
 9
 9
 9
 9
 9
 9
 9
 9
 9
 9
 9
 9
 9
 9
 9
 9
 9
 9
 9
 9
 9
 9
 9
 9
 9
 9
 9
 9
 9
 9
 9
 9
 9
 9
 9
 9
 9
 9
 9
 9
 9
 9
 9
 9
 9
 9
 9
 9
 9
 9
 9
 9
 9
 9
 9
 9
 9
 9
 9
 9
 9
 9
 9
 9
 9
 9
 9
 9
 9
 9
 9
 9
 9
 9
 9
 9
 9
 9
 9
 9
 9
 9
 9
 9
 9
 9
 9
 9
 9
 9
 9
 9
 9
 9
 9
 9
 9
 9
 9
 9
 9
 9
 9
 9
 9
 9
 9
 9
 9
 9
 9
 9
 9
 9
 9
 9
 9
 9
 9
 9
 9
 9
 9
 9
 9
 9
 9
 9
 9
 9
 9
 9
 9
 9
 9
 9
 9
 9
 9
 9
 9
 9
 9
 9
 9
 9
 9
 9
 9
 9
 9
 9
 9
 9
 9
 9
 9
 9
 9
 9
 9
 9
 9
 9
 9
 9
 9
 9
 9
 9
 9
 9
 9
 9
 9
 9
 9
 9
 9
 9
 9
 9
 9
 9
 9
 9
 9
 9
 9
 9
 9
 9
 9
 9
 9
 9
 9
 9
 9
 9
 9
 9
 9
 9
 9
 9
 9
 9
 9
 9
 9
 9
 9
 9
 9
 9
 9
 9
 9
 9
 9
 9
 9
 9
 9
 9
 9
 9
 9
 9
 9
 9
 9
 9
 9
 9
 9
 9
 9
 9
 9
 9
 9
 9
 9
 9
 9
 9
 9
 9
 9
 9
 9
 9
 9
 9
 9
 9
 9
 9
 9
 9
 9
 9
 9
 9
 9
 9
 9
 9
 9
 9
 9
 9
 9
 9
 9
 9
 9
 9
 9
 9
 9
 9
 9
 9
 9
 9
 9
 9
 9
 9
 9
 9
 9
 9
 9
 9
 9
 9
 9
 9
 9
 9
 9
 9
 9
 9
 9
 9
 9
 9
 9
 9
 9
 9
 9
 9
 9
 9
 9
 9
 9
 9
 9
 9
 9
 9
 9
 9
 9
 9
 9
 9
 9
 9
 9
 9
 9
 9
 9
 9
 9
 9
 9
 9
 9
 9
 9
 9
 9
 9
 9
 9
 9
 9
 9
 9
 9
 9
 9
 9
 9
 9
 9
 9
 9
 9
 9
 9
 9
 9
 9
 9
 9
 9
 9
 9
 9
 9
 9
 9
 9
 9
 9
 9
 9
 9
 9
 9
 9
 9
 9
 9
 9
 9
 9
 9
 9
 9
 9
 9
 9
 9
 9
 9
 9
 9
 9
 9
 9
 9
 9
 9
 9
 9
 9
 9
 9
 </DataArray>
 </Cells> 
 <PointData>
 <DataArray  type="Float64" Name="disp" NumberOfComponents="3" format="ascii">
   0.0000000000000000        0.0000000000000000        0.0000000000000000     
   6.0963711799217257E-003   3.7903953114302360E-003   0.0000000000000000     
   1.1666546659695911E-002   7.3240297311259958E-003   0.0000000000000000     
   1.6710526439322554E-002   1.0600903259087279E-002   0.0000000000000000     
   2.1228310518801658E-002   1.3621015895314087E-002   0.0000000000000000     
   0.0000000000000000        0.0000000000000000        0.0000000000000000     
   4.8912648804261046E-003   3.0222338220328815E-003   0.0000000000000000     
   9.5737835048337744E-003   6.0608587929947720E-003   0.0000000000000000     
   1.4047555873223008E-002   9.1158749128856693E-003   0.0000000000000000     
   1.8312581985593806E-002   1.2187282181705578E-002   0.0000000000000000     
   0.0000000000000000        0.0000000000000000        0.0000000000000000     
   3.9534939171155508E-003   2.4252921825151305E-003   0.0000000000000000     
   7.9105239462216054E-003   5.0633018772425747E-003   0.0000000000000000     
   1.1871090087318167E-002   7.9140290841823308E-003   0.0000000000000000     
   1.5835192340405233E-002   1.0977473803334402E-002   0.0000000000000000     
   0.0000000000000000        0.0000000000000000        0.0000000000000000     
   3.2830582899900629E-003   1.9995703928769835E-003   0.0000000000000000     
   6.6767679838594073E-003   4.3313589838694056E-003   0.0000000000000000     
   1.0181129081608032E-002   6.9953657729772637E-003   0.0000000000000000     
   1.3796141583235935E-002   9.9915907602005638E-003   0.0000000000000000     
   0.0000000000000000        0.0000000000000000        0.0000000000000000     
   2.8799579990496423E-003   1.7450684531184399E-003   0.0000000000000000     
   5.8725156177471746E-003   3.8650301128752623E-003   0.0000000000000000     
   8.9776728560926004E-003   6.3598849792704673E-003   0.0000000000000000     
   1.2195429714085914E-002   9.2296330523040579E-003   0.0000000000000000     
   2.1228310518801658E-002   1.3621015895314087E-002   0.0000000000000000     
   2.5433115437726781E-002   1.6614626879132725E-002   0.0000000000000000     
   2.9538157735691493E-002   1.9811995449869502E-002   0.0000000000000000     
   3.3543437412695790E-002   2.3213121607524416E-002   0.0000000000000000     
   3.7448954468739665E-002   2.6818005352097468E-002   0.0000000000000000     
   1.8312581985593806E-002   1.2187282181705578E-002   0.0000000000000000     
   2.2407162057041779E-002   1.5343253960717194E-002   0.0000000000000000     
   2.6369596302662526E-002   1.8651963611183233E-002   0.0000000000000000     
   3.0199884722456057E-002   2.2113411133103684E-002   0.0000000000000000     
   3.3898027316422372E-002   2.5727596526478557E-002   0.0000000000000000     
   1.5835192340405233E-002   1.0977473803334402E-002   0.0000000000000000     
   1.9730985968862975E-002   1.4212417073749225E-002   0.0000000000000000     
   2.3486626236071562E-002   1.7577639934477245E-002   0.0000000000000000     
   2.7102113142030999E-002   2.1073142385518454E-002   0.0000000000000000     
   3.0577446686741276E-002   2.4698924426872857E-002   0.0000000000000000     
   1.3796141583235935E-002   9.9915907602005638E-003   0.0000000000000000     
   1.7404587173190374E-002   1.3222116218228813E-002   0.0000000000000000     
   2.0889247535918597E-002   1.6589024419751533E-002   0.0000000000000000     
   2.4250122671420602E-002   2.0092315364768725E-002   0.0000000000000000     
   2.7487212579696402E-002   2.3731989053280382E-002   0.0000000000000000     
   1.2195429714085914E-002   9.2296330523040579E-003   0.0000000000000000     
   1.5427965670023974E-002   1.2372351394155956E-002   0.0000000000000000     
   1.8577460202203629E-002   1.5686117067006105E-002   0.0000000000000000     
   2.1643913310624877E-002   1.9170930070854492E-002   0.0000000000000000     
   2.4627324995287726E-002   2.2826790405701129E-002   0.0000000000000000     
   3.7448954468739665E-002   2.6818005352097468E-002   0.0000000000000000     
   4.1257788753219150E-002   3.0623350084265515E-002   0.0000000000000000     
   4.4973020115530261E-002   3.4625859204705414E-002   0.0000000000000000     
   4.8594648555673019E-002   3.8825532713417155E-002   0.0000000000000000     
   5.2122674073647401E-002   4.3222370610400754E-002   0.0000000000000000     
   3.3898027316422372E-002   2.5727596526478557E-002   0.0000000000000000     
   3.7486550986326334E-002   2.9524376533441084E-002   0.0000000000000000     
   4.0987982633932857E-002   3.3533607896124550E-002   0.0000000000000000     
   4.4402322259241928E-002   3.7755290614528939E-002   0.0000000000000000     
   4.7729569862253539E-002   4.2189424688654241E-002   0.0000000000000000     
   3.0577446686741276E-002   2.4698924426872857E-002   0.0000000000000000     
   3.3941866700966841E-002   2.8500190317784668E-002   0.0000000000000000     
   3.7224613015472141E-002   3.2522144317498086E-002   0.0000000000000000     
   4.0425685630257155E-002   3.6764786426013121E-002   0.0000000000000000     
   4.3545084545321903E-002   4.1228116643329774E-002   0.0000000000000000     
   2.7487212579696402E-002   2.3731989053280382E-002   0.0000000000000000     
   3.0623735897140670E-002   2.7550791437296239E-002   0.0000000000000000     
   3.3682911260148114E-002   3.1591468468826017E-002   0.0000000000000000     
   3.6664738668718728E-002   3.5854020147869724E-002   0.0000000000000000     
   3.9569218122852502E-002   4.0338446474427359E-002   0.0000000000000000     
   2.4627324995287726E-002   2.2826790405701129E-002   0.0000000000000000     
   2.7532158574847809E-002   2.6676179891975814E-002   0.0000000000000000     
   3.0362877367960773E-002   3.0741580350108353E-002   0.0000000000000000     
   3.3119481374626621E-002   3.5022991780098746E-002   0.0000000000000000     
   3.5801970594845342E-002   3.9520414181946989E-002   0.0000000000000000     
   5.2122674073647401E-002   4.3222370610400754E-002   0.0000000000000000     
   5.5552484425126995E-002   4.7815715282523957E-002   0.0000000000000000     
   5.8879467365785379E-002   5.2604909116654511E-002   0.0000000000000000     
   6.2103622895622532E-002   5.7589952112792407E-002   0.0000000000000000     
   6.5224951014638488E-002   6.2770844270937654E-002   0.0000000000000000     
   4.7729569862253539E-002   4.2189424688654241E-002   0.0000000000000000     
   5.0966430558728459E-002   4.6824871950957712E-002   0.0000000000000000     
   5.4109609464427423E-002   5.1650494233896588E-002   0.0000000000000000     
   5.7159106579350451E-002   5.6666291537470867E-002   0.0000000000000000     
   6.0114921903497535E-002   6.1872263861680550E-002   0.0000000000000000     
   4.3545084545321903E-002   4.1228116643329774E-002   0.0000000000000000     
   4.6580997439290790E-002   4.5895868957403024E-002   0.0000000000000000     
   4.9531611990788232E-002   5.0751777356187834E-002   0.0000000000000000     
   5.2396928199814230E-002   5.5795841839684203E-002   0.0000000000000000     
   5.5176946066368790E-002   6.1028062407892145E-002   0.0000000000000000     
   3.9569218122852502E-002   4.0338446474427359E-002   0.0000000000000000     
   4.2396185066814022E-002   4.5028706301859865E-002   0.0000000000000000     
   4.5145474944867807E-002   4.9908758483528222E-002   0.0000000000000000     
   4.7817087757013890E-002   5.4978603019432422E-002   0.0000000000000000     
   5.0411023503252265E-002   6.0238239909572451E-002   0.0000000000000000     
   3.5801970594845342E-002   3.9520414181946989E-002   0.0000000000000000     
   3.8411993441298128E-002   4.4223383984328277E-002   0.0000000000000000     
   4.0951198326666154E-002   4.9121437615917779E-002   0.0000000000000000     
   4.3419585250949431E-002   5.4214575076715510E-002   0.0000000000000000     
   4.5817154214147948E-002   5.9502796366721455E-002   0.0000000000000000     
   6.5224951014638488E-002   6.2770844270937654E-002   0.0000000000000000     
   6.8251904620162701E-002   6.8141758507702571E-002   0.0000000000000000     
   7.1192936609524651E-002   7.3696867739699509E-002   0.0000000000000000     
   7.4048046982724366E-002   7.9436171966928412E-002   0.0000000000000000     
   7.6817235739761819E-002   8.5359671189389308E-002   0.0000000000000000     
   6.0114921903497535E-002   6.1872263861680550E-002   0.0000000000000000     
   6.2979541718452159E-002   6.7266590278068125E-002   0.0000000000000000     
   6.5755452305797810E-002   7.2847449858176122E-002   0.0000000000000000     
   6.8442653665534495E-002   7.8614842602004464E-002   0.0000000000000000     
   7.1041145797662200E-002   8.4568768509553222E-002   0.0000000000000000     
   5.5176946066368790E-002   6.1028062407892145E-002   0.0000000000000000     
   5.7869979884328779E-002   6.6447996534096138E-002   0.0000000000000000     
   6.0474343947571077E-002   7.2055201691580695E-002   0.0000000000000000     
   6.2990038256095698E-002   7.7849677880345747E-002   0.0000000000000000     
   6.5417062809902615E-002   8.3831425100391349E-002   0.0000000000000000     
   5.0411023503252265E-002   6.0238239909572451E-002   0.0000000000000000     
   5.2923219117792575E-002   6.5685977275786608E-002   0.0000000000000000     
   5.5349611534844467E-002   7.1320123239913213E-002   0.0000000000000000     
   5.7690200754407964E-002   7.7140677801952232E-002   0.0000000000000000     
   5.9944986776483057E-002   8.3147640961903677E-002   0.0000000000000000     
   4.5817154214147948E-002   5.9502796366721455E-002   0.0000000000000000     
   4.8139259418843533E-002   6.4980532503139565E-002   0.0000000000000000     
   5.0381255067617974E-002   7.0642214503173720E-002   0.0000000000000000     
   5.2543141160471311E-002   7.6487842366823947E-002   0.0000000000000000     
   5.4624917697403512E-002   8.2517416094090246E-002   0.0000000000000000     
   7.6817235739761819E-002   8.5359671189389308E-002   0.0000000000000000     
   7.9494298914947747E-002   9.1459626900063096E-002   0.0000000000000000     
   8.2073032542592905E-002   9.7728300591930661E-002   0.0000000000000000     
   8.4553436622697278E-002  0.10416569226499199        0.0000000000000000     
   8.6935511155260853E-002  0.11077180191924710        0.0000000000000000     
   7.1041145797662200E-002   8.4568768509553222E-002   0.0000000000000000     
   7.3550627950069281E-002   9.0699443798297447E-002   0.0000000000000000     
   7.5970799370644063E-002   9.6997084685712207E-002   0.0000000000000000     
   7.8301660059386560E-002  0.10346169117179752        0.0000000000000000     
   8.0543210016296746E-002  0.11009326325655334        0.0000000000000000     
   6.5417062809902615E-002   8.3831425100391349E-002   0.0000000000000000     
   6.7759100045580486E-002   8.9989402518753231E-002   0.0000000000000000     
   7.0019832399717916E-002   9.6312569302467080E-002   0.0000000000000000     
   7.2199259872314916E-002  0.10280092545153299        0.0000000000000000     
   7.4297382463371489E-002  0.10945447096595086        0.0000000000000000     
   5.9944986776483057E-002   8.3147640961903677E-002   0.0000000000000000     
   6.2119715201481338E-002   8.9329503061430435E-002   0.0000000000000000     
   6.4220131629814436E-002   9.5674754442195351E-002   0.0000000000000000     
   6.6246236061482347E-002  0.10218339510419842        0.0000000000000000     
   6.8198028496485055E-002  0.10885542504743966        0.0000000000000000     
   5.4624917697403512E-002   8.2517416094090246E-002   0.0000000000000000     
   5.6632473417771861E-002   8.8719745426329086E-002   0.0000000000000000     
   5.8571697060933646E-002   9.5083640104896949E-002   0.0000000000000000     
   6.0442588626888845E-002  0.10160910012979385        0.0000000000000000     
   6.2245148115637472E-002  0.10829612550101976        0.0000000000000000     
   8.6935511155260853E-002  0.11077180191924710        0.0000000000000000     
   8.9212014486718005E-002  0.11752509685514141        0.0000000000000000     
   9.1375704963503154E-002  0.12440404437312036        0.0000000000000000     
   9.3426582585616230E-002  0.13140864447318396        0.0000000000000000     
   9.5364647353057302E-002  0.13853889715533221        0.0000000000000000     
   8.0543210016296746E-002  0.11009326325655334        0.0000000000000000     
   8.2696295408726875E-002  0.11687203274052745        0.0000000000000000     
   8.4761762404029203E-002  0.12377823142426754        0.0000000000000000     
   8.6739611002203718E-002  0.13081185930777367        0.0000000000000000     
   8.8629841203250431E-002  0.13797291639104581        0.0000000000000000     
   7.4297382463371489E-002  0.10945447096595086        0.0000000000000000     
   7.6319783715359843E-002  0.11625532188461550        0.0000000000000000     
   7.8272047170752229E-002  0.12318559424642163        0.0000000000000000     
   8.0154172829548662E-002  0.13024528805136928        0.0000000000000000     
   8.1966160691749113E-002  0.13743440329945844        0.0000000000000000     
   6.8198028496485055E-002  0.10885542504743966        0.0000000000000000     
   7.0082479406616910E-002  0.11567496428740556        0.0000000000000000     
   7.1906559263672246E-002  0.12262613283958262        0.0000000000000000     
   7.3670268067651049E-002  0.12970893070397083        0.0000000000000000     
   7.5373605818553319E-002  0.13692335788057017        0.0000000000000000     
   6.2245148115637472E-002  0.10829612550101976        0.0000000000000000     
   6.3984382482498076E-002  0.11513095994889766        0.0000000000000000     
   6.5665298682789225E-002  0.12209984720375049        0.0000000000000000     
   6.7287896716510878E-002  0.12920278726557824        0.0000000000000000     
   6.8852176583663091E-002  0.13643978013438091        0.0000000000000000     
   9.5364647353057302E-002  0.13853889715533221        0.0000000000000000     
   9.7127336436903078E-002  0.14570782330792761        0.0000000000000000     
   9.8652087008230305E-002  0.15282844381933269        0.0000000000000000     
   9.9938899067038969E-002  0.15990075868954748        0.0000000000000000     
  0.10098777261332910       0.16692476791857191        0.0000000000000000     
   8.8629841203250431E-002  0.13797291639104581        0.0000000000000000     
   9.0388556421167096E-002  0.14519893724679953        0.0000000000000000     
   9.1971860069951492E-002  0.15242745644775049        0.0000000000000000     
   9.3379752149603618E-002  0.15965847399389860        0.0000000000000000     
   9.4612232660123474E-002  0.16689198988524395        0.0000000000000000     
   8.1966160691749113E-002  0.13743440329945844        0.0000000000000000     
   8.3676761760265256E-002  0.14470932573704998        0.0000000000000000     
   8.5254727038008807E-002  0.15202644111050476        0.0000000000000000     
   8.6700056524979766E-002  0.15938574941982278        0.0000000000000000     
   8.8012750221178104E-002  0.16678725066500402        0.0000000000000000     
   7.5373605818553319E-002  0.13692335788057017        0.0000000000000000     
   7.6991952454197543E-002  0.14423898877867897        0.0000000000000000     
   7.8500687912402251E-002  0.15162539780759554        0.0000000000000000     
   7.9899812193167372E-002  0.15908258496731989        0.0000000000000000     
   8.1189325296492962E-002  0.16661055025785204        0.0000000000000000     
   6.8852176583663091E-002  0.13643978013438091        0.0000000000000000     
   7.0334128502964000E-002  0.14378792637168644        0.0000000000000000     
   7.1709742693131795E-002  0.15122432653902285        0.0000000000000000     
   7.2979019154166491E-002  0.15874898063639004        0.0000000000000000     
   7.4141957886068088E-002  0.16636188866378804        0.0000000000000000     
   0.0000000000000000        0.0000000000000000        0.0000000000000000     
   2.8799579990496423E-003   1.7450684531184399E-003   0.0000000000000000     
   5.8725156177471746E-003   3.8650301128752623E-003   0.0000000000000000     
   8.9776728560926004E-003   6.3598849792704673E-003   0.0000000000000000     
   1.2195429714085914E-002   9.2296330523040579E-003   0.0000000000000000     
   0.0000000000000000        0.0000000000000000        0.0000000000000000     
   2.6102848482729589E-003   1.5891382965450877E-003   0.0000000000000000     
   5.2896963468617459E-003   3.5570240657651210E-003   0.0000000000000000     
   8.0382344957663620E-003   5.9036573076600993E-003   0.0000000000000000     
   1.0855899294986803E-002   8.6290380222300237E-003   0.0000000000000000     
   0.0000000000000000        0.0000000000000000        0.0000000000000000     
   2.3401306416386851E-003   1.4591318564625153E-003   0.0000000000000000     
   4.7202396701799525E-003   3.3000496440439542E-003   0.0000000000000000     
   7.1403270856238016E-003   5.5227533627443155E-003   0.0000000000000000     
   9.6003928879702348E-003   8.1272430125636022E-003   0.0000000000000000     
   0.0000000000000000        0.0000000000000000        0.0000000000000000     
   2.0694953791468205E-003   1.3550491328707219E-003   0.0000000000000000     
   4.1641455877017937E-003   3.0941068477117611E-003   0.0000000000000000     
   6.2839506256649226E-003   5.2171731445231186E-003   0.0000000000000000     
   8.4289104930362051E-003   7.7242480233047925E-003   0.0000000000000000     
   0.0000000000000000        0.0000000000000000        0.0000000000000000     
   1.7983790607973644E-003   1.2768901257697082E-003   0.0000000000000000     
   3.6214140994272719E-003   2.9391956767685430E-003   0.0000000000000000     
   5.4691051158897233E-003   4.9869166529965051E-003   0.0000000000000000     
   7.3414521101847190E-003   7.4200530544535947E-003   0.0000000000000000     
   1.2195429714085914E-002   9.2296330523040579E-003   0.0000000000000000     
   1.5427965670023974E-002   1.2372351394155956E-002   0.0000000000000000     
   1.8577460202203629E-002   1.5686117067006105E-002   0.0000000000000000     
   2.1643913310624877E-002   1.9170930070854492E-002   0.0000000000000000     
   2.4627324995287726E-002   2.2826790405701129E-002   0.0000000000000000     
   1.0855899294986803E-002   8.6290380222300237E-003   0.0000000000000000     
   1.3689349603363758E-002   1.1651100369223545E-002   0.0000000000000000     
   1.6485244279737913E-002   1.4887778508389312E-002   0.0000000000000000     
   1.9243583324109258E-002   1.8339072439727332E-002   0.0000000000000000     
   2.1964366736477798E-002   2.2004982163237603E-002   0.0000000000000000     
   9.6003928879702348E-003   8.1272430125636022E-003   0.0000000000000000     
   1.2076967117209710E-002   1.1046340911124457E-002   0.0000000000000000     
   1.4546579813332685E-002   1.4212869376049524E-002   0.0000000000000000     
   1.7009230976339169E-002   1.7626828407338809E-002   0.0000000000000000     
   1.9464920606229150E-002   2.1288218004992303E-002   0.0000000000000000     
   8.4289104930362051E-003   7.7242480233047925E-003   0.0000000000000000     
   1.0590818211561824E-002   1.0558073019858694E-002   0.0000000000000000     
   1.2761466802987960E-002   1.3661389669986736E-002   0.0000000000000000     
   1.4940856267314612E-002   1.7034197973688915E-002   0.0000000000000000     
   1.7128986604541780E-002   2.0676497930965231E-002   0.0000000000000000     
   7.3414521101847190E-003   7.4200530544535947E-003   0.0000000000000000     
   9.2309028864201049E-003   1.0186296695426257E-002   0.0000000000000000     
   1.1129905248703730E-002   1.3233339390200945E-002   0.0000000000000000     
   1.3038459197035593E-002   1.6561181138777657E-002   0.0000000000000000     
   1.4956564731415690E-002   2.0169821941156390E-002   0.0000000000000000     
   2.4627324995287726E-002   2.2826790405701129E-002   0.0000000000000000     
   2.7532158574847809E-002   2.6676179891975814E-002   0.0000000000000000     
   3.0362877367960773E-002   3.0741580350108353E-002   0.0000000000000000     
   3.3119481374626621E-002   3.5022991780098746E-002   0.0000000000000000     
   3.5801970594845342E-002   3.9520414181946989E-002   0.0000000000000000     
   2.1964366736477798E-002   2.2004982163237603E-002   0.0000000000000000     
   2.4631347559303990E-002   2.5882880415393623E-002   0.0000000000000000     
   2.7228278835048286E-002   2.9970139932668921E-002   0.0000000000000000     
   2.9755160563710685E-002   3.4266760715063474E-002   0.0000000000000000     
   3.2211992745291185E-002   3.8772742762577306E-002   0.0000000000000000     
   1.9464920606229150E-002   2.1288218004992303E-002   0.0000000000000000     
   2.1885515675724936E-002   2.5177417741119916E-002   0.0000000000000000     
   2.4242883157548804E-002   2.9274807187831552E-002   0.0000000000000000     
   2.6537023051700758E-002   3.3580386345127208E-002   0.0000000000000000     
   2.8767935358180809E-002   3.8094155213006901E-002   0.0000000000000000     
   1.7128986604541780E-002   2.0676497930965231E-002   0.0000000000000000     
   1.9294662924110632E-002   2.4559791869154680E-002   0.0000000000000000     
   2.1406690335462320E-002   2.8655582115596264E-002   0.0000000000000000     
   2.3465068838596854E-002   3.2963868670289977E-002   0.0000000000000000     
   2.5469798433514216E-002   3.7484651533235817E-002   0.0000000000000000     
   1.4956564731415690E-002   2.0169821941156390E-002   0.0000000000000000     
   1.6858789304461087E-002   2.4030002799497928E-002   0.0000000000000000     
   1.8719700368788842E-002   2.8112464715963039E-002   0.0000000000000000     
   2.0539297924398948E-002   3.2417207690551737E-002   0.0000000000000000     
   2.2317581971291411E-002   3.6944231723264019E-002   0.0000000000000000     
   3.5801970594845342E-002   3.9520414181946989E-002   0.0000000000000000     
   3.8411993441298128E-002   4.4223383984328277E-002   0.0000000000000000     
   4.0951198326666154E-002   4.9121437615917779E-002   0.0000000000000000     
   4.3419585250949431E-002   5.4214575076715510E-002   0.0000000000000000     
   4.5817154214147948E-002   5.9502796366721455E-002   0.0000000000000000     
   3.2211992745291185E-002   3.8772742762577306E-002   0.0000000000000000     
   3.4601566099718706E-002   4.3484042771224474E-002   0.0000000000000000     
   3.6926671346922180E-002   4.8396617437019104E-002   0.0000000000000000     
   3.9187308486901593E-002   5.3510466759961177E-002   0.0000000000000000     
   4.1383477519656965E-002   5.8825590740050698E-002   0.0000000000000000     
   2.8767935358180809E-002   3.8094155213006901E-002   0.0000000000000000     
   3.0938046579051356E-002   4.2814823428964727E-002   0.0000000000000000     
   3.3049783216374813E-002   4.7741100630494797E-002   0.0000000000000000     
   3.5103145270151168E-002   5.2872986817597119E-002   0.0000000000000000     
   3.7098132740380436E-002   5.8210481990271699E-002   0.0000000000000000     
   2.5469798433514216E-002   3.7484651533235817E-002   0.0000000000000000     
   2.7421434879296068E-002   4.2215725957549029E-002   0.0000000000000000     
   2.9320533935024047E-002   4.7154887196344877E-002   0.0000000000000000     
   3.1167095600698139E-002   5.2302135249623342E-002   0.0000000000000000     
   3.2961119876318362E-002   5.7657470117384459E-002   0.0000000000000000     
   2.2317581971291411E-002   3.6944231723264019E-002   0.0000000000000000     
   2.4051731000452849E-002   4.1686750356977373E-002   0.0000000000000000     
   2.5738923502869882E-002   4.6637977134569325E-002   0.0000000000000000     
   2.7379159478542515E-002   5.1797912056039862E-002   0.0000000000000000     
   2.8972438927470742E-002   5.7166555121388969E-002   0.0000000000000000     
   4.5817154214147948E-002   5.9502796366721455E-002   0.0000000000000000     
   4.8139259418843533E-002   6.4980532503139565E-002   0.0000000000000000     
   5.0381255067617974E-002   7.0642214503173720E-002   0.0000000000000000     
   5.2543141160471311E-002   7.6487842366823947E-002   0.0000000000000000     
   5.4624917697403512E-002   8.2517416094090246E-002   0.0000000000000000     
   4.1383477519656965E-002   5.8825590740050698E-002   0.0000000000000000     
   4.3510926854045756E-002   6.4331948502826947E-002   0.0000000000000000     
   4.5565404898925459E-002   7.0019499173829158E-002   0.0000000000000000     
   4.7546911654296066E-002   7.5888242753057389E-002   0.0000000000000000     
   4.9455447120157578E-002   8.1938179240511597E-002   0.0000000000000000     
   3.7098132740380436E-002   5.8210481990271699E-002   0.0000000000000000     
   3.9031047489963375E-002   6.3740511561520760E-002   0.0000000000000000     
   4.0898191381800751E-002   6.9450000944346557E-002   0.0000000000000000     
   4.2699564415892566E-002   7.5338950138749083E-002   0.0000000000000000     
   4.4435166592238819E-002   8.1407359144728325E-002   0.0000000000000000     
   3.2961119876318362E-002   5.7657470117384459E-002   0.0000000000000000     
   3.4699621326596382E-002   6.3206221679221020E-002   0.0000000000000000     
   3.6379614516243865E-002   6.8933719814725861E-002   0.0000000000000000     
   3.8001099445260818E-002   7.4839964523899030E-002   0.0000000000000000     
   3.9564076113647241E-002   8.0924955806740445E-002   0.0000000000000000     
   2.8972438927470742E-002   5.7166555121388969E-002   0.0000000000000000     
   3.0516648363944771E-002   6.2729078855927711E-002   0.0000000000000000     
   3.2009674302254792E-002   6.8470655784967110E-002   0.0000000000000000     
   3.3451516742400815E-002   7.4391285908507201E-002   0.0000000000000000     
   3.4842175684382838E-002   8.0490969226547943E-002   0.0000000000000000     
   5.4624917697403512E-002   8.2517416094090246E-002   0.0000000000000000     
   5.6632473417771861E-002   8.8719745426329086E-002   0.0000000000000000     
   5.8571697060933646E-002   9.5083640104896949E-002   0.0000000000000000     
   6.0442588626888845E-002  0.10160910012979385        0.0000000000000000     
   6.2245148115637472E-002  0.10829612550101976        0.0000000000000000     
   4.9455447120157578E-002   8.1938179240511597E-002   0.0000000000000000     
   5.1296032131322819E-002   8.8158690858685884E-002   0.0000000000000000     
   5.3073687522604614E-002   9.4539159830074410E-002   0.0000000000000000     
   5.4788413294002983E-002  0.10107958615467713        0.0000000000000000     
   5.6440209445517905E-002  0.10777996983249405        0.0000000000000000     
   4.4435166592238819E-002   8.1407359144728325E-002   0.0000000000000000     
   4.6109048779004957E-002   8.7644900603737613E-002   0.0000000000000000     
   4.7725261844356458E-002   9.4041247157230209E-002   0.0000000000000000     
   4.9283805788293306E-002  0.10059639880520616        0.0000000000000000     
   5.0784680610815508E-002  0.10731035554766540        0.0000000000000000     
   3.9564076113647241E-002   8.0924955806740445E-002   0.0000000000000000     
   4.1071523360818298E-002   8.7178374661484218E-002   0.0000000000000000     
   4.2526420026189150E-002   9.3589902086364377E-002   0.0000000000000000     
   4.3928766109759820E-002  0.10015953808138091        0.0000000000000000     
   4.5278561611530287E-002  0.10688728264653385        0.0000000000000000     
   3.4842175684382838E-002   8.0490969226547943E-002   0.0000000000000000     
   3.6183455876762811E-002   8.6759113031925711E-002   0.0000000000000000     
   3.7477162068102698E-002   9.3185124617476855E-002   0.0000000000000000     
   3.8723294258402520E-002   9.9769003983201446E-002   0.0000000000000000     
   3.9921852447662234E-002  0.10651075112909940        0.0000000000000000     
   6.2245148115637472E-002  0.10829612550101976        0.0000000000000000     
   6.3984382482498076E-002  0.11513095994889766        0.0000000000000000     
   6.5665298682789225E-002  0.12209984720375049        0.0000000000000000     
   6.7287896716510878E-002  0.12920278726557824        0.0000000000000000     
   6.8852176583663091E-002  0.13643978013438091        0.0000000000000000     
   5.6440209445517905E-002  0.10777996983249405        0.0000000000000000     
   5.8030979882475790E-002  0.11462858656526910        0.0000000000000000     
   5.9562628510203046E-002  0.12161371205474619        0.0000000000000000     
   6.1035155328699672E-002  0.12873534630092534        0.0000000000000000     
   6.2448560337965663E-002  0.13599348930380650        0.0000000000000000     
   5.0784680610815508E-002  0.10731035554766540        0.0000000000000000     
   5.2227758546022476E-002  0.11417312183269721        0.0000000000000000     
   5.3612911828013587E-002  0.12117470210839068        0.0000000000000000     
   5.4940140456788869E-002  0.12831509637474586        0.0000000000000000     
   5.6209444432348321E-002  0.13559430463176275        0.0000000000000000     
   4.5278561611530287E-002  0.10688728264653385        0.0000000000000000     
   4.6574718473138106E-002  0.11376456575118195        0.0000000000000000     
   4.7816148636220850E-002  0.12078281736468394        0.0000000000000000     
   4.9002852100778496E-002  0.12794203748703986        0.0000000000000000     
   5.0134828866811060E-002  0.13524222611824965        0.0000000000000000     
   3.9921852447662234E-002  0.10651075112909940        0.0000000000000000     
   4.1071859663822721E-002  0.11340291832072338        0.0000000000000000     
   4.2172338934824832E-002  0.12043805782362599        0.0000000000000000     
   4.3223290260668554E-002  0.12761616963780725        0.0000000000000000     
   4.4224713641353885E-002  0.13493725376326721        0.0000000000000000     
   6.8852176583663091E-002  0.13643978013438091        0.0000000000000000     
   7.0334128502964000E-002  0.14378792637168644        0.0000000000000000     
   7.1709742693131795E-002  0.15122432653902285        0.0000000000000000     
   7.2979019154166491E-002  0.15874898063639004        0.0000000000000000     
   7.4141957886068088E-002  0.16636188866378804        0.0000000000000000     
   6.2448560337965663E-002  0.13599348930380650        0.0000000000000000     
   6.3777360211813808E-002  0.14336810928712629        0.0000000000000000     
   6.4996071624056906E-002  0.15083917447462122        0.0000000000000000     
   6.6104694574694964E-002  0.15840668486629125        0.0000000000000000     
   6.7103229063727954E-002  0.16607064046213643        0.0000000000000000     
   5.6209444432348321E-002  0.13559430463176275        0.0000000000000000     
   5.7395717885996275E-002  0.14299150829605226        0.0000000000000000     
   5.8473854949037049E-002  0.15048588878422520        0.0000000000000000     
   5.9443855621470656E-002  0.15807744609628166        0.0000000000000000     
   6.0305719903297111E-002  0.16576618023222156        0.0000000000000000     
   5.0134828866811060E-002  0.13524222611824965        0.0000000000000000     
   5.1189201525511353E-002  0.14265812339846434        0.0000000000000000     
   5.2143092668072197E-002  0.15016446946783488        0.0000000000000000     
   5.2996502294493590E-002  0.15776126432636126        0.0000000000000000     
   5.3749430404775533E-002  0.16544850797404345        0.0000000000000000     
   4.4224713641353885E-002  0.13493725376326721        0.0000000000000000     
   4.5157811130359063E-002  0.14236795459436255        0.0000000000000000     
   4.6003784781162363E-002  0.14987491652545018        0.0000000000000000     
   4.6762634593763744E-002  0.15745813955653001        0.0000000000000000     
   4.7434360568163234E-002  0.16511762368760211        0.0000000000000000     
   0.0000000000000000        0.0000000000000000        0.0000000000000000     
   1.7983790607973644E-003   1.2768901257697082E-003   0.0000000000000000     
   3.6214140994272719E-003   2.9391956767685430E-003   0.0000000000000000     
   5.4691051158897233E-003   4.9869166529965051E-003   0.0000000000000000     
   7.3414521101847190E-003   7.4200530544535947E-003   0.0000000000000000     
   0.0000000000000000        0.0000000000000000        0.0000000000000000     
   1.5350659581907556E-003   1.2175582559700356E-003   0.0000000000000000     
   3.0994178057809165E-003   2.8208235062814049E-003   0.0000000000000000     
   4.6930555427704829E-003   4.8097957509341070E-003   0.0000000000000000     
   6.3159791691594549E-003   7.1844749899281435E-003   0.0000000000000000     
   0.0000000000000000        0.0000000000000000        0.0000000000000000     
   1.2878403429274321E-003   1.1699569442822667E-003   0.0000000000000000     
   2.6055293071872584E-003   2.7244977113174513E-003   0.0000000000000000     
   3.9530668927794787E-003   4.6636223011055546E-003   0.0000000000000000     
   5.3304530997040928E-003   6.9873307136465767E-003   0.0000000000000000     
   0.0000000000000000        0.0000000000000000        0.0000000000000000     
   1.0567022150073939E-003   1.1340861907064008E-003   0.0000000000000000     
   2.1397486036462978E-003   2.6502182918766836E-003   0.0000000000000000     
   3.2491391659167112E-003   4.5483963035108472E-003   0.0000000000000000     
   4.3848739018186355E-003   6.8286202256088923E-003   0.0000000000000000     
   0.0000000000000000        0.0000000000000000        0.0000000000000000     
   8.4165157443064033E-004   1.1099459952424386E-003   0.0000000000000000     
   1.7020756951580339E-003   2.5979852479591000E-003   0.0000000000000000     
   2.5812723621821804E-003   4.4641177581499847E-003   0.0000000000000000     
   3.4792415755030798E-003   6.7083435258150940E-003   0.0000000000000000     
   7.3414521101847190E-003   7.4200530544535947E-003   0.0000000000000000     
   9.2309028864201049E-003   1.0186296695426257E-002   0.0000000000000000     
   1.1129905248703730E-002   1.3233339390200945E-002   0.0000000000000000     
   1.3038459197035593E-002   1.6561181138777657E-002   0.0000000000000000     
   1.4956564731415690E-002   2.0169821941156390E-002   0.0000000000000000     
   6.3159791691594549E-003   7.1844749899281435E-003   0.0000000000000000     
   7.9556075431816489E-003   9.8953418700552520E-003   0.0000000000000000     
   9.5993595230708835E-003   1.2892877038107171E-002   0.0000000000000000     
   1.1247235108827157E-002   1.6177080494083906E-002   0.0000000000000000     
   1.2899234300450471E-002   1.9747952237985450E-002   0.0000000000000000     
   5.3304530997040928E-003   6.9873307136465767E-003   0.0000000000000000     
   6.7233185832435540E-003   9.6495384759737804E-003   0.0000000000000000     
   8.1172939986803062E-003   1.2604161115120433E-002   0.0000000000000000     
   9.5123793460143557E-003   1.5851198631086534E-002   0.0000000000000000     
   1.0908574625245696E-002   1.9390651023872083E-002   0.0000000000000000     
   4.3848739018186355E-003   6.8286202256088923E-003   0.0000000000000000     
   5.5340360066058157E-003   9.4488865131818443E-003   0.0000000000000000     
   6.6837086755320010E-003   1.2367191621240729E-002   0.0000000000000000     
   7.8338919085971879E-003   1.5583535549785543E-002   0.0000000000000000     
   8.9845857058013807E-003   1.9097918298816290E-002   0.0000000000000000     
   3.4792415755030798E-003   6.7083435258150940E-003   0.0000000000000000     
   4.3877598132684385E-003   9.2933859816794438E-003   0.0000000000000000     
   5.2986035536259643E-003   1.2181968556468057E-002   0.0000000000000000     
   6.2117727965756561E-003   1.5374091250180934E-002   0.0000000000000000     
   7.1272675421175137E-003   1.8869754062818073E-002   0.0000000000000000     
   1.4956564731415690E-002   2.0169821941156390E-002   0.0000000000000000     
   1.6858789304461087E-002   2.4030002799497928E-002   0.0000000000000000     
   1.8719700368788842E-002   2.8112464715963039E-002   0.0000000000000000     
   2.0539297924398948E-002   3.2417207690551737E-002   0.0000000000000000     
   2.2317581971291411E-002   3.6944231723264019E-002   0.0000000000000000     
   1.2899234300450471E-002   1.9747952237985450E-002   0.0000000000000000     
   1.4538715656203439E-002   2.3578898164882050E-002   0.0000000000000000     
   1.6149037734348677E-002   2.7643324169843962E-002   0.0000000000000000     
   1.7730200534886185E-002   3.1941230252871176E-002   0.0000000000000000     
   1.9282204057815965E-002   3.6472616413963682E-002   0.0000000000000000     
   1.0908574625245696E-002   1.9390651023872083E-002   0.0000000000000000     
   1.2295262818764802E-002   2.3197325598039473E-002   0.0000000000000000     
   1.3661826908962131E-002   2.7246029658151084E-002   0.0000000000000000     
   1.5008266895837685E-002   3.1536763204206925E-002   0.0000000000000000     
   1.6334582779391461E-002   3.6069526236207003E-002   0.0000000000000000     
   8.9845857058013807E-003   1.9097918298816290E-002   0.0000000000000000     
   1.0128430792145184E-002   2.2885285098970181E-002   0.0000000000000000     
   1.1258067892629205E-002   2.6920581180884418E-002   0.0000000000000000     
   1.2373497007253447E-002   3.1203806544558996E-002   0.0000000000000000     
   1.3474718136017905E-002   3.5734961189993933E-002   0.0000000000000000     
   7.1272675421175137E-003   1.8869754062818073E-002   0.0000000000000000     
   8.0382195763445807E-003   2.2642776667674176E-002   0.0000000000000000     
   8.9377606853498978E-003   2.6666978738043957E-002   0.0000000000000000     
   9.8258908691334669E-003   3.0942360273927393E-002   0.0000000000000000     
   1.0702610127695291E-002   3.5468921275324507E-002   0.0000000000000000     
   2.2317581971291411E-002   3.6944231723264019E-002   0.0000000000000000     
   2.4051731000452849E-002   4.1686750356977373E-002   0.0000000000000000     
   2.5738923502869882E-002   4.6637977134569325E-002   0.0000000000000000     
   2.7379159478542515E-002   5.1797912056039862E-002   0.0000000000000000     
   2.8972438927470742E-002   5.7166555121388969E-002   0.0000000000000000     
   1.9282204057815965E-002   3.6472616413963682E-002   0.0000000000000000     
   2.0798977405407107E-002   4.1225125052254966E-002   0.0000000000000000     
   2.2274449679928691E-002   4.6186398566878464E-002   0.0000000000000000     
   2.3708620881380732E-002   5.1356436957834185E-002   0.0000000000000000     
   2.5101491009763215E-002   5.6735240225122108E-002   0.0000000000000000     
   1.6334582779391461E-002   3.6069526236207003E-002   0.0000000000000000     
   1.7633216557044258E-002   4.0828078468386993E-002   0.0000000000000000     
   1.8896610226216845E-002   4.5796179614982620E-002   0.0000000000000000     
   2.0124763786909236E-002   5.0973829675993870E-002   0.0000000000000000     
   2.1317677239121421E-002   5.6361028651420751E-002   0.0000000000000000     
   1.3474718136017905E-002   3.5734961189993933E-002   0.0000000000000000     
   1.4554448455364301E-002   4.0495610605373447E-002   0.0000000000000000     
   1.5605405141734339E-002   4.5467320278881777E-002   0.0000000000000000     
   1.6627588195128027E-002   5.0650090210518910E-002   0.0000000000000000     
   1.7620997615545354E-002   5.6043920400284879E-002   0.0000000000000000     
   1.0702610127695291E-002   3.5468921275324507E-002   0.0000000000000000     
   1.1562673100367236E-002   4.0227721463214336E-002   0.0000000000000000     
   1.2400834426481171E-002   4.5199820558575944E-002   0.0000000000000000     
   1.3217094106037100E-002   5.0385218561409331E-002   0.0000000000000000     
   1.4011452139035020E-002   5.5783915471714504E-002   0.0000000000000000     
   2.8972438927470742E-002   5.7166555121388969E-002   0.0000000000000000     
   3.0516648363944771E-002   6.2729078855927711E-002   0.0000000000000000     
   3.2009674302254792E-002   6.8470655784967110E-002   0.0000000000000000     
   3.3451516742400815E-002   7.4391285908507201E-002   0.0000000000000000     
   3.4842175684382838E-002   8.0490969226547943E-002   0.0000000000000000     
   2.5101491009763215E-002   5.6735240225122108E-002   0.0000000000000000     
   2.6451703084758946E-002   6.2308348065560695E-002   0.0000000000000000     
   2.7757900126050710E-002   6.8061300175968356E-002   0.0000000000000000     
   2.9020082133638513E-002   7.3994096556345104E-002   0.0000000000000000     
   3.0238249107522347E-002   8.0106737206690926E-002   0.0000000000000000     
   2.1317677239121421E-002   5.6361028651420751E-002   0.0000000000000000     
   2.2474359971789301E-002   6.1943294282039818E-002   0.0000000000000000     
   2.3593821373848776E-002   6.7706144308627633E-002   0.0000000000000000     
   2.4676061445299841E-002   7.3649578731184190E-002   0.0000000000000000     
   2.5721080186142501E-002   7.9773597549709502E-002   0.0000000000000000     
   1.7620997615545354E-002   5.6043920400284879E-002   0.0000000000000000     
   1.8584619025035842E-002   6.1633917505365080E-002   0.0000000000000000     
   1.9517438045648997E-002   6.7405188182944956E-002   0.0000000000000000     
   2.0419454677384812E-002   7.3357732433024486E-002   0.0000000000000000     
   2.1290668920243290E-002   7.9491550255603671E-002   0.0000000000000000     
   1.4011452139035020E-002   5.5783915471714504E-002   0.0000000000000000     
   1.4782480244498563E-002   6.1380217735536473E-002   0.0000000000000000     
   1.5528750141451362E-002   6.7158431798920296E-002   0.0000000000000000     
   1.6250261829893416E-002   7.3118557661865938E-002   0.0000000000000000     
   1.6947015309824724E-002   7.9260595324373406E-002   0.0000000000000000     
   3.4842175684382838E-002   8.0490969226547943E-002   0.0000000000000000     
   3.6183455876762811E-002   8.6759113031925711E-002   0.0000000000000000     
   3.7477162068102698E-002   9.3185124617476855E-002   0.0000000000000000     
   3.8723294258402520E-002   9.9769003983201446E-002   0.0000000000000000     
   3.9921852447662234E-002  0.10651075112909940        0.0000000000000000     
   3.0238249107522347E-002   8.0106737206690926E-002   0.0000000000000000     
   3.1413166835385350E-002   8.6388258728099035E-002   0.0000000000000000     
   3.2545601104910643E-002   9.2827697721662647E-002   0.0000000000000000     
   3.3635551916098232E-002   9.9425054187381776E-002   0.0000000000000000     
   3.4683019268948116E-002  0.10618032812525638        0.0000000000000000     
   2.5721080186142501E-002   7.9773597549709502E-002   0.0000000000000000     
   2.6728976745232724E-002   8.6066954763041117E-002   0.0000000000000000     
   2.7699850271426494E-002   9.2518404370016585E-002   0.0000000000000000     
   2.8633700764723810E-002   9.9127946370635947E-002   0.0000000000000000     
   2.9530528225124669E-002  0.10589558076489913        0.0000000000000000     
   2.1290668920243290E-002   7.9491550255603671E-002   0.0000000000000000     
   2.2130885606304940E-002   8.5795201136751958E-002   0.0000000000000000     
   2.2939909567650258E-002   9.2257244562538698E-002   0.0000000000000000     
   2.3717740804279241E-002   9.8877680532963960E-002   0.0000000000000000     
   2.4464379316191907E-002  0.10565650904802769        0.0000000000000000     
   1.6947015309824724E-002   7.9260595324373406E-002   0.0000000000000000     
   1.7618893418601993E-002   8.5572997849231502E-002   0.0000000000000000     
   1.8265778993581932E-002   9.2044218299228972E-002   0.0000000000000000     
   1.8887672034764540E-002   9.8674256674365829E-002   0.0000000000000000     
   1.9484572542149817E-002  0.10546311297464205        0.0000000000000000     
   3.9921852447662234E-002  0.10651075112909940        0.0000000000000000     
   4.1071859663822721E-002  0.11340291832072338        0.0000000000000000     
   4.2172338934824832E-002  0.12043805782362599        0.0000000000000000     
   4.3223290260668554E-002  0.12761616963780725        0.0000000000000000     
   4.4224713641353885E-002  0.13493725376326721        0.0000000000000000     
   3.4683019268948116E-002  0.10618032812525638        0.0000000000000000     
   3.5687580799982389E-002  0.11308692427453125        0.0000000000000000     
   3.6648814145723164E-002  0.12013824737445117        0.0000000000000000     
   3.7566719306170435E-002  0.12733429742501612        0.0000000000000000     
   3.8441296281324200E-002  0.13467507442622612        0.0000000000000000     
   2.9530528225124669E-002  0.10589558076489913        0.0000000000000000     
   3.0390280563523196E-002  0.11281532834581537        0.0000000000000000     
   3.1212905690813499E-002  0.11988120990639377        0.0000000000000000     
   3.1998403606995580E-002  0.12709322544663440        0.0000000000000000     
   3.2746774312069439E-002  0.13445137496653720        0.0000000000000000     
   2.4464379316191907E-002  0.10565650904802769        0.0000000000000000     
   2.5179958954445133E-002  0.11258813053457573        0.0000000000000000     
   2.5864613570095823E-002  0.11966694541945386        0.0000000000000000     
   2.6518343163143974E-002  0.12689295370266207        0.0000000000000000     
   2.7141147733589596E-002  0.13426615538420039        0.0000000000000000     
   1.9484572542149817E-002  0.10546311297464205        0.0000000000000000     
   2.0056615972748201E-002  0.11240533084081232        0.0000000000000000     
   2.0603937783570139E-002  0.11949545391363139        0.0000000000000000     
   2.1126537974615629E-002  0.12673348219309918        0.0000000000000000     
   2.1624416545884664E-002  0.13411941567921576        0.0000000000000000     
   4.4224713641353885E-002  0.13493725376326721        0.0000000000000000     
   4.5157811130359063E-002  0.14236795459436255        0.0000000000000000     
   4.6003784781162363E-002  0.14987491652545018        0.0000000000000000     
   4.6762634593763744E-002  0.15745813955653001        0.0000000000000000     
   4.7434360568163234E-002  0.16511762368760211        0.0000000000000000     
   3.8441296281324200E-002  0.13467507442622612        0.0000000000000000     
   3.9258124219498904E-002  0.14211899578542728        0.0000000000000000     
   4.0002782269008955E-002  0.14962447890996580        0.0000000000000000     
   4.0675270429854381E-002  0.15719152379984164        0.0000000000000000     
   4.1275588702035168E-002  0.16482013045505484        0.0000000000000000     
   3.2746774312069439E-002  0.13445137496653720        0.0000000000000000     
   3.3446718311890306E-002  0.14190924087333895        0.0000000000000000     
   3.4086936112313393E-002  0.14942040557427649        0.0000000000000000     
   3.4667427713338729E-002  0.15698486906934983        0.0000000000000000     
   3.5188193114966293E-002  0.16460263135855896        0.0000000000000000     
   2.7141147733589596E-002  0.13426615538420039        0.0000000000000000     
   2.7723593407533297E-002  0.14173868985809757        0.0000000000000000     
   2.8256246311075695E-002  0.14926269651838228        0.0000000000000000     
   2.8739106444216789E-002  0.15683817536505457        0.0000000000000000     
   2.9172173806956588E-002  0.16446512639811448        0.0000000000000000     
   2.1624416545884664E-002  0.13411941567921576        0.0000000000000000     
   2.2088749506427863E-002  0.14160734273970307        0.0000000000000000     
   2.2510712865295830E-002  0.14915135174228311        0.0000000000000000     
   2.2890306622488567E-002  0.15675144268695593        0.0000000000000000     
   2.3227530778006072E-002  0.16440761557372141        0.0000000000000000     
   0.0000000000000000        0.0000000000000000        0.0000000000000000     
   8.4165157443064033E-004   1.1099459952424386E-003   0.0000000000000000     
   1.7020756951580339E-003   2.5979852479591000E-003   0.0000000000000000     
   2.5812723621821804E-003   4.4641177581499847E-003   0.0000000000000000     
   3.4792415755030798E-003   6.7083435258150940E-003   0.0000000000000000     
   0.0000000000000000        0.0000000000000000        0.0000000000000000     
   6.3379307207107763E-004   1.0939543511214555E-003   0.0000000000000000     
   1.2779816401997210E-003   2.5619251190171842E-003   0.0000000000000000     
   1.9325657043859302E-003   4.4039123036871859E-003   0.0000000000000000     
   2.5975452646297055E-003   6.6199159051314625E-003   0.0000000000000000     
   0.0000000000000000        0.0000000000000000        0.0000000000000000     
   4.2423135880261057E-004   1.0825292515745277E-003   0.0000000000000000     
   8.5293749724861252E-004   2.5361644445034172E-003   0.0000000000000000     
   1.2861184153380057E-003   4.3609055787866679E-003   0.0000000000000000     
   1.7237741130707903E-003   6.5567526544242803E-003   0.0000000000000000     
   0.0000000000000000        0.0000000000000000        0.0000000000000000     
   2.1296643462523932E-004   1.0756706966016554E-003   0.0000000000000000     
   4.2694326630470810E-004   2.5207032244177995E-003   0.0000000000000000     
   6.4193049503840651E-004   4.3350975834484315E-003   0.0000000000000000     
   8.5792812082633417E-004   6.5188537736935517E-003   0.0000000000000000     
   0.0000000000000000        0.0000000000000000        0.0000000000000000     
  -1.7004610361405666E-009   1.0733786862028387E-003   0.0000000000000000     
  -1.0526319919336967E-009   2.5155414587603305E-003   0.0000000000000000     
   1.9434871326206096E-009   4.3264883176724759E-003   0.0000000000000000     
   7.2878963376578777E-009   6.5062192629392751E-003   0.0000000000000000     
   3.4792415755030798E-003   6.7083435258150940E-003   0.0000000000000000     
   4.3877598132684385E-003   9.2933859816794438E-003   0.0000000000000000     
   5.2986035536259643E-003   1.2181968556468057E-002   0.0000000000000000     
   6.2117727965756561E-003   1.5374091250180934E-002   0.0000000000000000     
   7.1272675421175137E-003   1.8869754062818073E-002   0.0000000000000000     
   2.5975452646297055E-003   6.6199159051314625E-003   0.0000000000000000     
   3.2699460044052875E-003   9.1770770026629693E-003   0.0000000000000000     
   3.9467936071869176E-003   1.2042536675594663E-002   0.0000000000000000     
   4.6280880729745958E-003   1.5216294923926543E-002   0.0000000000000000     
   5.3138294017683234E-003   1.8698351747658611E-002   0.0000000000000000     
   1.7237741130707903E-003   6.5567526544242803E-003   0.0000000000000000     
   2.1660505811902280E-003   9.0939996973288025E-003   0.0000000000000000     
   2.6130938104395808E-003   1.1942940733412778E-002   0.0000000000000000     
   3.0649038008188486E-003   1.5103575762676206E-002   0.0000000000000000     
   3.5214805523280318E-003   1.8575904785119092E-002   0.0000000000000000     
   8.5792812082633417E-004   6.5188537736935517E-003   0.0000000000000000     
   1.0760735436232602E-003   9.0441540656769504E-003   0.0000000000000000     
   1.2975041633839530E-003   1.1883180729922404E-002   0.0000000000000000     
   1.5222199801084118E-003   1.5035933766429923E-002   0.0000000000000000     
   1.7502209937966377E-003   1.8502413175199500E-002   0.0000000000000000     
   7.2878963376578777E-009   6.5062192629392751E-003   0.0000000000000000     
   1.4891704384258227E-008   9.0275401077074043E-003   0.0000000000000000     
   2.4666020033888025E-008   1.1863256665123546E-002   0.0000000000000000     
   3.6610843286542189E-008   1.5013368935187692E-002   0.0000000000000000     
   5.0726174142222413E-008   1.8477876917899854E-002   0.0000000000000000     
   7.1272675421175137E-003   1.8869754062818073E-002   0.0000000000000000     
   8.0382195763445807E-003   2.2642776667674176E-002   0.0000000000000000     
   8.9377606853498978E-003   2.6666978738043957E-002   0.0000000000000000     
   9.8258908691334669E-003   3.0942360273927393E-002   0.0000000000000000     
   1.0702610127695291E-002   3.5468921275324507E-002   0.0000000000000000     
   5.3138294017683234E-003   1.8698351747658611E-002   0.0000000000000000     
   5.9969102500044323E-003   2.2460991563055470E-002   0.0000000000000000     
   6.6702232741192571E-003   2.6476498786381707E-002   0.0000000000000000     
   7.3337684741128003E-003   3.0744873417637326E-002   0.0000000000000000     
   7.9875458499850584E-003   3.5266115456822331E-002   0.0000000000000000     
   3.5214805523280318E-003   1.8575904785119092E-002   0.0000000000000000     
   3.9767838917661750E-003   2.2331121044018038E-002   0.0000000000000000     
   4.4247736459323249E-003   2.6340417782649696E-002   0.0000000000000000     
   4.8654498148264815E-003   3.0603795001014032E-002   0.0000000000000000     
   5.2988123984486464E-003   3.5121252699111073E-002   0.0000000000000000     
   1.7502209937966377E-003   1.8502413175199500E-002   0.0000000000000000     
   1.9778405016298078E-003   2.2253165110561912E-002   0.0000000000000000     
   2.2014118007891003E-003   2.6258735726847910E-002   0.0000000000000000     
   2.4209348912745151E-003   3.0519125024057507E-002   0.0000000000000000     
   2.6364097730860524E-003   3.5034333002190700E-002   0.0000000000000000     
   5.0726174142222413E-008   1.8477876917899854E-002   0.0000000000000000     
   8.0079595331477953E-008   2.2227123762687061E-002   0.0000000000000000     
   1.3773868958366544E-007   2.6231452618976366E-002   0.0000000000000000     
   2.2370345689973355E-007   3.0490863486767748E-002   0.0000000000000000     
   3.3797389727943834E-007   3.5005356366061238E-002   0.0000000000000000     
   1.0702610127695291E-002   3.5468921275324507E-002   0.0000000000000000     
   1.1562673100367236E-002   4.0227721463214336E-002   0.0000000000000000     
   1.2400834426481171E-002   4.5199820558575944E-002   0.0000000000000000     
   1.3217094106037100E-002   5.0385218561409331E-002   0.0000000000000000     
   1.4011452139035020E-002   5.5783915471714504E-002   0.0000000000000000     
   7.9875458499850584E-003   3.5266115456822331E-002   0.0000000000000000     
   8.6288248998180640E-003   4.0021575330055140E-002   0.0000000000000000     
   9.2548751216938469E-003   4.4992603463454135E-002   0.0000000000000000     
   9.8656965156124071E-003   5.0179199857019331E-002   0.0000000000000000     
   1.0461289081573745E-002   5.5581364510750714E-002   0.0000000000000000     
   5.2988123984486464E-003   3.5121252699111073E-002   0.0000000000000000     
   5.7238382614817852E-003   3.9874336494041325E-002   0.0000000000000000     
   6.1395042686088665E-003   4.4844592002905345E-002   0.0000000000000000     
   6.5458104198298913E-003   5.0032019225703113E-002   0.0000000000000000     
   6.9427567151448613E-003   5.5436618162434628E-002   0.0000000000000000     
   2.6364097730860524E-003   3.5034333002190700E-002   0.0000000000000000     
   2.8477131853583957E-003   3.9786004955172927E-002   0.0000000000000000     
   3.0547218672262290E-003   4.4755786176929581E-002   0.0000000000000000     
   3.2574358186895531E-003   4.9943676667460683E-002   0.0000000000000000     
   3.4558550397483668E-003   5.5349676426766248E-002   0.0000000000000000     
   3.3797389727943834E-007   3.5005356366061238E-002   0.0000000000000000     
   4.4967144789947316E-007   3.9756580713449896E-002   0.0000000000000000     
   5.2791754593696505E-007   4.4726185985526835E-002   0.0000000000000000     
   5.7271219139126348E-007   4.9914172182292056E-002   0.0000000000000000     
   5.8405538426345265E-007   5.5320539303745551E-002   0.0000000000000000     
   1.4011452139035020E-002   5.5783915471714504E-002   0.0000000000000000     
   1.4782480244498563E-002   6.1380217735536473E-002   0.0000000000000000     
   1.5528750141451362E-002   6.7158431798920296E-002   0.0000000000000000     
   1.6250261829893416E-002   7.3118557661865938E-002   0.0000000000000000     
   1.6947015309824724E-002   7.9260595324373406E-002   0.0000000000000000     
   1.0461289081573745E-002   5.5581364510750714E-002   0.0000000000000000     
   1.1039859849853100E-002   6.1182541509552942E-002   0.0000000000000000     
   1.1599615850725714E-002   6.6966174938330625E-002   0.0000000000000000     
   1.2140557084191582E-002   7.2932264797083743E-002   0.0000000000000000     
   1.2662683550250709E-002   7.9080811085812344E-002   0.0000000000000000     
   6.9427567151448613E-003   5.5436618162434628E-002   0.0000000000000000     
   7.3286740607750849E-003   6.1041235364413401E-002   0.0000000000000000     
   7.7018933629418749E-003   6.6828717382952874E-002   0.0000000000000000     
   8.0624146216452357E-003   7.2799064218053100E-002   0.0000000000000000     
   8.4102378368851594E-003   7.8952275869714039E-002   0.0000000000000000     
   3.4558550397483668E-003   5.5349676426766248E-002   0.0000000000000000     
   3.6489228772645177E-003   6.0956299300117839E-002   0.0000000000000000     
   3.8355826780998529E-003   6.6746059132787083E-002   0.0000000000000000     
   4.0158344422543705E-003   7.2718955924773954E-002   0.0000000000000000     
   4.1896781697280741E-003   7.8874989676078464E-002   0.0000000000000000     
   5.8405538426345265E-007   5.5320539303745551E-002   0.0000000000000000     
   6.0629932139828844E-007   6.0927733316666274E-002   0.0000000000000000     
   6.8379619964231567E-007   6.6718200187833213E-002   0.0000000000000000     
   8.1654601899332528E-007   7.2691939917246332E-002   0.0000000000000000     
   1.0045487794534992E-006   7.8848952504905673E-002   0.0000000000000000     
   1.6947015309824724E-002   7.9260595324373406E-002   0.0000000000000000     
   1.7618893418601993E-002   8.5572997849231502E-002   0.0000000000000000     
   1.8265778993581932E-002   9.2044218299228972E-002   0.0000000000000000     
   1.8887672034764540E-002   9.8674256674365829E-002   0.0000000000000000     
   1.9484572542149817E-002  0.10546311297464205        0.0000000000000000     
   1.2662683550250709E-002   7.9080811085812344E-002   0.0000000000000000     
   1.3166081766092217E-002   8.5400209094610158E-002   0.0000000000000000     
   1.3650838248905232E-002   9.1878854113570996E-002   0.0000000000000000     
   1.4116952998689751E-002   9.8516746142694844E-002   0.0000000000000000     
   1.4564426015445777E-002  0.10531388518198169        0.0000000000000000     
   8.4102378368851594E-003   7.8952275869714039E-002   0.0000000000000000     
   8.7455322327439390E-003   8.5276699067018263E-002   0.0000000000000000     
   9.0684670333038668E-003   9.1760680539048373E-002   0.0000000000000000     
   9.3790422385649375E-003   9.8404220285804339E-002   0.0000000000000000     
   9.6772578485271529E-003  0.10520731830728619        0.0000000000000000     
   4.1896781697280741E-003   7.8874989676078464E-002   0.0000000000000000     
   4.3572448185571627E-003   8.5202467766455778E-002   0.0000000000000000     
   4.5186653467778381E-003   9.1689697575661061E-002   0.0000000000000000     
   4.6739397543901001E-003   9.8336679103694299E-002   0.0000000000000000     
   4.8230680413939488E-003  0.10514341235055551        0.0000000000000000     
   1.0045487794534992E-006   7.8848952504905673E-002   0.0000000000000000     
   1.2195235318827793E-006   8.5177515192922743E-002   0.0000000000000000     
   1.4331893271453356E-006   9.1665905223409103E-002   0.0000000000000000     
   1.6455461652378886E-006   9.8314122596364753E-002   0.0000000000000000     
   1.8565940461626879E-006  0.10512216731178969        0.0000000000000000     
   1.9484572542149817E-002  0.10546311297464205        0.0000000000000000     
   2.0056615972748201E-002  0.11240533084081232        0.0000000000000000     
   2.0603937783570139E-002  0.11949545391363139        0.0000000000000000     
   2.1126537974615629E-002  0.12673348219309918        0.0000000000000000     
   2.1624416545884664E-002  0.13411941567921576        0.0000000000000000     
   1.4564426015445777E-002  0.10531388518198169        0.0000000000000000     
   1.4993305620488860E-002  0.11226483962804491        0.0000000000000000     
   1.5403640135134565E-002  0.11936417787749784        0.0000000000000000     
   1.5795429559382883E-002  0.12661189993034053        0.0000000000000000     
   1.6168673893233822E-002  0.13400800578657293        0.0000000000000000     
   9.6772578485271529E-003  0.10520731830728619        0.0000000000000000     
   9.9630818997235616E-003  0.11216456725979325        0.0000000000000000     
   1.0236482428687212E-002  0.11927055979962480        0.0000000000000000     
   1.0497459435418103E-002  0.12652529592678091        0.0000000000000000     
   1.0746012919916236E-002  0.13392877564126154        0.0000000000000000     
   4.8230680413939488E-003  0.10514341235055551        0.0000000000000000     
   4.9659448104523041E-003  0.11210451373605730        0.0000000000000000     
   5.1024646642280807E-003  0.11921459968001225        0.0000000000000000     
   5.2326276027212801E-003  0.12647367018242037        0.0000000000000000     
   5.3564336259319051E-003  0.13388172524328165        0.0000000000000000     
   1.8565940461626879E-006  0.10512216731178969        0.0000000000000000     
   1.8943526750860810E-006  0.11208467905683710        0.0000000000000000     
   1.5868417571705123E-006  0.11919629751866014        0.0000000000000000     
   9.3406129241771670E-007  0.12645702269725886        0.0000000000000000     
  -6.3988719171872294E-008  0.13386685459263320        0.0000000000000000     
   2.1624416545884664E-002  0.13411941567921576        0.0000000000000000     
   2.2088749506427863E-002  0.14160734273970307        0.0000000000000000     
   2.2510712865295830E-002  0.14915135174228311        0.0000000000000000     
   2.2890306622488567E-002  0.15675144268695593        0.0000000000000000     
   2.3227530778006072E-002  0.16440761557372141        0.0000000000000000     
   1.6168673893233822E-002  0.13400800578657293        0.0000000000000000     
   1.6515079703750272E-002  0.14150971305010798        0.0000000000000000     
   1.6826353557995128E-002  0.14907423932485867        0.0000000000000000     
   1.7102495455968390E-002  0.15670158461082495        0.0000000000000000     
   1.7343505397670059E-002  0.16439174890800684        0.0000000000000000     
   1.0746012919916236E-002  0.13392877564126154        0.0000000000000000     
   1.0975477094676778E-002  0.14144031432126472        0.0000000000000000     
   1.1179186172194896E-002  0.14901922734498854        0.0000000000000000     
   1.1357140152470588E-002  0.15666551471243290        0.0000000000000000     
   1.1509339035503857E-002  0.16437917642359787        0.0000000000000000     
   5.3564336259319051E-003  0.13388172524328165        0.0000000000000000     
   5.4699416792073794E-003  0.14139914655317337        0.0000000000000000     
   5.5692107078951312E-003  0.14898631580267271        0.0000000000000000     
   5.6542407119951612E-003  0.15664323299177976        0.0000000000000000     
   5.7250316915074687E-003  0.16436989812049449        0.0000000000000000     
  -6.3988719171872294E-008  0.13386685459263320        0.0000000000000000     
  -1.5265426579228955E-006  0.14138620974583380        0.0000000000000000     
  -3.5728349041638970E-006  0.14897550469791124        0.0000000000000000     
  -6.2028654578895641E-006  0.15663473944886552        0.0000000000000000     
  -9.4166343191032578E-006  0.16436391399869668        0.0000000000000000     
   0.0000000000000000        0.0000000000000000        0.0000000000000000     
  -1.7004610361405666E-009   1.0733786862028387E-003   0.0000000000000000     
  -1.0526319919336967E-009   2.5155414587603305E-003   0.0000000000000000     
   1.9434871326206096E-009   4.3264883176724759E-003   0.0000000000000000     
   7.2878963376578777E-009   6.5062192629392751E-003   0.0000000000000000     
   0.0000000000000000        0.0000000000000000        0.0000000000000000     
  -2.1297034141931173E-004   1.0756567403638825E-003   0.0000000000000000     
  -4.2694658967356159E-004   2.5206835443392392E-003   0.0000000000000000     
  -6.4192874476274968E-004   4.3350804119260695E-003   0.0000000000000000     
  -8.5791680668687584E-004   6.5188473431243722E-003   0.0000000000000000     
   0.0000000000000000        0.0000000000000000        0.0000000000000000     
  -4.2423678321268344E-004   1.0825083790705933E-003   0.0000000000000000     
  -8.5294447493207480E-004   2.5361338779627519E-003   0.0000000000000000     
  -1.2861230751581745E-003   4.3608764966764774E-003   0.0000000000000000     
  -1.7237725838909813E-003   6.5567362352117672E-003   0.0000000000000000     
   0.0000000000000000        0.0000000000000000        0.0000000000000000     
  -6.3380102584115118E-004   1.0939336023229704E-003   0.0000000000000000     
  -1.2779947084075314E-003   2.5618924596308708E-003   0.0000000000000000     
  -1.9325810476991407E-003   4.4038765719237004E-003   0.0000000000000000     
  -2.5975600437159801E-003   6.6198859392014612E-003   0.0000000000000000     
   0.0000000000000000        0.0000000000000000        0.0000000000000000     
  -8.4166306930471505E-004   1.1099324101210141E-003   0.0000000000000000     
  -1.7020972900999318E-003   2.5979592893435942E-003   0.0000000000000000     
  -2.5813026623856504E-003   4.4640806376677403E-003   0.0000000000000000     
  -3.4792791861618707E-003   6.7082964550934524E-003   0.0000000000000000     
   7.2878963376578777E-009   6.5062192629392751E-003   0.0000000000000000     
   1.4891704384258227E-008   9.0275401077074043E-003   0.0000000000000000     
   2.4666020033888025E-008   1.1863256665123546E-002   0.0000000000000000     
   3.6610843286542189E-008   1.5013368935187692E-002   0.0000000000000000     
   5.0726174142222413E-008   1.8477876917899854E-002   0.0000000000000000     
  -8.5791680668687584E-004   6.5188473431243722E-003   0.0000000000000000     
  -1.0760484199585937E-003   9.0441531760215542E-003   0.0000000000000000     
  -1.2974612290905581E-003   1.1883166748705024E-002   0.0000000000000000     
  -1.5221552340827684E-003   1.5035888061174780E-002   0.0000000000000000     
  -1.7501304349352240E-003   1.8502317113430821E-002   0.0000000000000000     
  -1.7237725838909813E-003   6.5567362352117672E-003   0.0000000000000000     
  -2.1660394367578680E-003   9.0939886232207813E-003   0.0000000000000000     
  -2.6130700693862054E-003   1.1942909190355669E-002   0.0000000000000000     
  -3.0648644817759928E-003   1.5103497936616439E-002   0.0000000000000000     
  -3.5214226739272319E-003   1.8575754862003087E-002   0.0000000000000000     
  -2.5975600437159801E-003   6.6198859392014612E-003   0.0000000000000000     
  -3.2699581586934389E-003   9.1770464493050787E-003   0.0000000000000000     
  -3.9468018548669088E-003   1.2042483990075483E-002   0.0000000000000000     
  -4.6280911322363885E-003   1.5216198561512670E-002   0.0000000000000000     
  -5.3138259908018792E-003   1.8698190163616644E-002   0.0000000000000000     
  -3.4792791861618707E-003   6.7082964550934524E-003   0.0000000000000000     
  -4.3878045857653055E-003   9.2933266542744534E-003   0.0000000000000000     
  -5.2986565855326672E-003   1.2181891147864459E-002   0.0000000000000000     
  -6.2118351854639547E-003   1.5373989935863473E-002   0.0000000000000000     
  -7.1273403855591690E-003   1.8869623018271497E-002   0.0000000000000000     
   5.0726174142222413E-008   1.8477876917899854E-002   0.0000000000000000     
   8.0079595331477953E-008   2.2227123762687061E-002   0.0000000000000000     
   1.3773868958366544E-007   2.6231452618976366E-002   0.0000000000000000     
   2.2370345689973355E-007   3.0490863486767748E-002   0.0000000000000000     
   3.3797389727943834E-007   3.5005356366061238E-002   0.0000000000000000     
  -1.7501304349352240E-003   1.8502317113430821E-002   0.0000000000000000     
  -1.9776958830070787E-003   2.2253028709217949E-002   0.0000000000000000     
  -2.2011606296574830E-003   2.6258597652280970E-002   0.0000000000000000     
  -2.4205246748864370E-003   3.0519023942619881E-002   0.0000000000000000     
  -2.6357880186939418E-003   3.5034307580234687E-002   0.0000000000000000     
  -3.5214226739272319E-003   1.8575754862003087E-002   0.0000000000000000     
  -3.9766858948472438E-003   2.2330911658979023E-002   0.0000000000000000     
  -4.4245953935433558E-003   2.6340200020007674E-002   0.0000000000000000     
  -4.8651511700155674E-003   3.0603619945089026E-002   0.0000000000000000     
  -5.2983532242638779E-003   3.5121171434223081E-002   0.0000000000000000     
  -5.3138259908018792E-003   1.8698190163616644E-002   0.0000000000000000     
  -5.9968899559251681E-003   2.2460772611970277E-002   0.0000000000000000     
  -6.6701665529680376E-003   2.6476259722156451E-002   0.0000000000000000     
  -7.3336557819304923E-003   3.0744651494175171E-002   0.0000000000000000     
  -7.9873576428125294E-003   3.5265947928026432E-002   0.0000000000000000     
  -7.1273403855591690E-003   1.8869623018271497E-002   0.0000000000000000     
  -8.0383080662408488E-003   2.2642611568191716E-002   0.0000000000000000     
  -8.9378741079315267E-003   2.6666776758727334E-002   0.0000000000000000     
  -9.8260385106312114E-003   3.0942118589878328E-002   0.0000000000000000     
  -1.0702801274339894E-002   3.5468637061644714E-002   0.0000000000000000     
   3.3797389727943834E-007   3.5005356366061238E-002   0.0000000000000000     
   4.4967144789947316E-007   3.9756580713449896E-002   0.0000000000000000     
   5.2791754593696505E-007   4.4726185985526835E-002   0.0000000000000000     
   5.7271219139126348E-007   4.9914172182292056E-002   0.0000000000000000     
   5.8405538426345265E-007   5.5320539303745551E-002   0.0000000000000000     
  -2.6357880186939418E-003   3.5034307580234687E-002   0.0000000000000000     
  -2.8468852411106826E-003   3.9786037024705088E-002   0.0000000000000000     
  -3.0537509221673495E-003   4.4755800735610807E-002   0.0000000000000000     
  -3.2563850618639398E-003   4.9943598712951842E-002   0.0000000000000000     
  -3.4547876602004563E-003   5.5349430956728188E-002   0.0000000000000000     
  -5.2983532242638779E-003   3.5121171434223081E-002   0.0000000000000000     
  -5.7232245131783295E-003   3.9874347144771310E-002   0.0000000000000000     
  -6.1387879936489658E-003   4.4844639734095179E-002   0.0000000000000000     
  -6.5450436656757883E-003   5.0032049202194673E-002   0.0000000000000000     
  -6.9419915292587972E-003   5.5436575549069812E-002   0.0000000000000000     
  -7.9873576428125294E-003   3.5265947928026432E-002   0.0000000000000000     
  -8.6285681447550392E-003   4.0021511073648576E-002   0.0000000000000000     
  -9.2545832968989137E-003   4.4992702980979946E-002   0.0000000000000000     
  -9.8654030992441546E-003   5.0179523650020569E-002   0.0000000000000000     
  -1.0461027551790760E-002   5.5581973080770432E-002   0.0000000000000000     
  -1.0702801274339894E-002   3.5468637061644714E-002   0.0000000000000000     
  -1.1562916135840812E-002   4.0227528811336864E-002   0.0000000000000000     
  -1.2401136831917191E-002   4.5199990476265120E-002   0.0000000000000000     
  -1.3217463362569038E-002   5.0386022056429516E-002   0.0000000000000000     
  -1.4011895727796346E-002   5.5785623551830005E-002   0.0000000000000000     
   5.8405538426345265E-007   5.5320539303745551E-002   0.0000000000000000     
   6.0629932139828844E-007   6.0927733316666274E-002   0.0000000000000000     
   6.8379619964231567E-007   6.6718200187833213E-002   0.0000000000000000     
   8.1654601899332528E-007   7.2691939917246332E-002   0.0000000000000000     
   1.0045487794534992E-006   7.8848952504905673E-002   0.0000000000000000     
  -3.4547876602004563E-003   5.5349430956728188E-002   0.0000000000000000     
  -3.6478183925747806E-003   6.0955890317543379E-002   0.0000000000000000     
  -3.8343369343848007E-003   6.6745569646000952E-002   0.0000000000000000     
  -4.0143432856305176E-003   7.2718468942100892E-002   0.0000000000000000     
  -4.1878374463119291E-003   7.8874588205843213E-002   0.0000000000000000     
  -6.9419915292587972E-003   5.5436575549069812E-002   0.0000000000000000     
  -7.3278939179445279E-003   6.1041123206233838E-002   0.0000000000000000     
  -7.7010131652795214E-003   6.6828596605199977E-002   0.0000000000000000     
  -8.0613492712637794E-003   7.2798995745968251E-002   0.0000000000000000     
  -8.4089022358972993E-003   7.8952320628538658E-002   0.0000000000000000     
  -1.0461027551790760E-002   5.5581973080770432E-002   0.0000000000000000     
  -1.1039620276787846E-002   6.1183431982737624E-002   0.0000000000000000     
  -1.1599344896484521E-002   6.6967281065430276E-002   0.0000000000000000     
  -1.2140201410880793E-002   7.2933520328848422E-002   0.0000000000000000     
  -1.2662189819976655E-002   7.9082149772992050E-002   0.0000000000000000     
  -1.4011895727796346E-002   5.5785623551830005E-002   0.0000000000000000     
  -1.4782997469104730E-002   6.1382816647054764E-002   0.0000000000000000     
  -1.5529332127999798E-002   6.7161623026691888E-002   0.0000000000000000     
  -1.6250899704481559E-002   7.3122042690741421E-002   0.0000000000000000     
  -1.6947700198549999E-002   7.9264075639203360E-002   0.0000000000000000     
   1.0045487794534992E-006   7.8848952504905673E-002   0.0000000000000000     
   1.2195235318827793E-006   8.5177515192922743E-002   0.0000000000000000     
   1.4331893271453356E-006   9.1665905223409103E-002   0.0000000000000000     
   1.6455461652378886E-006   9.8314122596364753E-002   0.0000000000000000     
   1.8565940461626879E-006  0.10512216731178969        0.0000000000000000     
  -4.1878374463119291E-003   7.8874588205843213E-002   0.0000000000000000     
  -4.3550025340381195E-003   8.5202212293916127E-002   0.0000000000000000     
  -4.5160216664181735E-003   9.1689626063007873E-002   0.0000000000000000     
  -4.6708948434520895E-003   9.8336829513118423E-002   0.0000000000000000     
  -4.8196220651398692E-003  0.10514382264424781        0.0000000000000000     
  -8.4089022358972993E-003   7.8952320628538658E-002   0.0000000000000000     
  -8.7438802358590674E-003   8.5276930016932914E-002   0.0000000000000000     
  -9.0664914478280761E-003   9.1761182675172734E-002   0.0000000000000000     
  -9.3767358718043255E-003   9.8405078603258089E-002   0.0000000000000000     
  -9.6746135077878138E-003  0.10520861780118901        0.0000000000000000     
  -1.2662189819976655E-002   7.9082149772992050E-002   0.0000000000000000     
  -1.3165413581930964E-002   8.5401668361973132E-002   0.0000000000000000     
  -1.3649976154902568E-002   9.1880575059903685E-002   0.0000000000000000     
  -1.4115877538891470E-002   9.8518869866783751E-002   0.0000000000000000     
  -1.4563117733897669E-002  0.10531655278261327        0.0000000000000000     
  -1.6947700198549999E-002   7.9264075639203360E-002   0.0000000000000000     
  -1.7619602572253805E-002   8.5576427329036781E-002   0.0000000000000000     
  -1.8266475787641644E-002   9.2047803217200783E-002   0.0000000000000000     
  -1.8888319844713519E-002   9.8678203303695380E-002   0.0000000000000000     
  -1.9485134743469433E-002  0.10546762758852062        0.0000000000000000     
   1.8565940461626879E-006  0.10512216731178969        0.0000000000000000     
   1.8943526750860810E-006  0.11208467905683710        0.0000000000000000     
   1.5868417571705123E-006  0.11919629751866014        0.0000000000000000     
   9.3406129241771670E-007  0.12645702269725886        0.0000000000000000     
  -6.3988719171872294E-008  0.13386685459263320        0.0000000000000000     
  -4.8196220651398692E-003  0.10514382264424781        0.0000000000000000     
  -4.9624142540317618E-003  0.11210526235284161        0.0000000000000000     
  -5.0994823326780169E-003  0.11921580553534544        0.0000000000000000     
  -5.2308263010786352E-003  0.12647545219175929        0.0000000000000000     
  -5.3564461592336167E-003  0.13388420232208317        0.0000000000000000     
  -9.6746135077878138E-003  0.10520861780118901        0.0000000000000000     
  -9.9603257900919076E-003  0.11216646275477987        0.0000000000000000     
  -1.0234074153029980E-002  0.11927327594984505        0.0000000000000000     
  -1.0495858596602025E-002  0.12652905738638456        0.0000000000000000     
  -1.0745679120808050E-002  0.13393380706439839        0.0000000000000000     
  -1.4563117733897669E-002  0.10531655278261327        0.0000000000000000     
  -1.4991840255505352E-002  0.11226828026265182        0.0000000000000000     
  -1.5402188619298714E-002  0.11936870876215898        0.0000000000000000     
  -1.5794162825277753E-002  0.12661783828113465        0.0000000000000000     
  -1.6167762873442470E-002  0.13401566881957899        0.0000000000000000     
  -1.9485134743469433E-002  0.10546762758852062        0.0000000000000000     
  -2.0056957650272097E-002  0.11241071487645751        0.0000000000000000     
  -2.0603825731484227E-002  0.11950210397228718        0.0000000000000000     
  -2.1125738987105822E-002  0.12674179487600964        0.0000000000000000     
  -2.1622697417136884E-002  0.13412978758762489        0.0000000000000000     
  -6.3988719171872294E-008  0.13386685459263320        0.0000000000000000     
  -1.5265426579228955E-006  0.14138620974583380        0.0000000000000000     
  -3.5728349041638970E-006  0.14897550469791124        0.0000000000000000     
  -6.2028654578895641E-006  0.15663473944886552        0.0000000000000000     
  -9.4166343191032578E-006  0.16436391399869668        0.0000000000000000     
  -5.3564461592336167E-003  0.13388420232208317        0.0000000000000000     
  -5.4726270318316084E-003  0.14140170869769547        0.0000000000000000     
  -5.5756540435612642E-003  0.14898762408997479        0.0000000000000000     
  -5.6655271944225840E-003  0.15664194849892099        0.0000000000000000     
  -5.7422464844155627E-003  0.16436468192453416        0.0000000000000000     
  -1.0745679120808050E-002  0.13393380706439839        0.0000000000000000     
  -1.0977059249226154E-002  0.14144584820720782        0.0000000000000000     
  -1.1183522505434453E-002  0.14902350403813394        0.0000000000000000     
  -1.1365068889432938E-002  0.15666677455717684        0.0000000000000000     
  -1.1521698401221615E-002  0.16437565976433652        0.0000000000000000     
  -1.6167762873442470E-002  0.13401566881957899        0.0000000000000000     
  -1.6514823194841561E-002  0.14151862827437076        0.0000000000000000     
  -1.6827178220523719E-002  0.14908314454238880        0.0000000000000000     
  -1.7104827950488954E-002  0.15670921762363318        0.0000000000000000     
  -1.7347772384737257E-002  0.16439684751810379        0.0000000000000000     
  -2.1622697417136884E-002  0.13412978758762489        0.0000000000000000     
  -2.2085918868677824E-002  0.14162004889918431        0.0000000000000000     
  -2.2506621188829075E-002  0.14916654560273929        0.0000000000000000     
  -2.2884804377590627E-002  0.15676927769828986        0.0000000000000000     
  -2.3220468434962491E-002  0.16442824518583596        0.0000000000000000     
   0.0000000000000000        0.0000000000000000        0.0000000000000000     
  -8.4166306930471505E-004   1.1099324101210141E-003   0.0000000000000000     
  -1.7020972900999318E-003   2.5979592893435942E-003   0.0000000000000000     
  -2.5813026623856504E-003   4.4640806376677403E-003   0.0000000000000000     
  -3.4792791861618707E-003   6.7082964550934524E-003   0.0000000000000000     
   0.0000000000000000        0.0000000000000000        0.0000000000000000     
  -1.0567163688213511E-003   1.1340817413015994E-003   0.0000000000000000     
  -2.1397773729737806E-003   2.6502023640826581E-003   0.0000000000000000     
  -3.2491830124572892E-003   4.5483618683431750E-003   0.0000000000000000     
  -4.3849332872718761E-003   6.8285602540831512E-003   0.0000000000000000     
   0.0000000000000000        0.0000000000000000        0.0000000000000000     
  -1.2878543796090351E-003   1.1699585347016020E-003   0.0000000000000000     
  -2.6055601099935826E-003   2.7244896808297967E-003   0.0000000000000000     
  -3.9531171911536440E-003   4.6635934383845853E-003   0.0000000000000000     
  -5.3305256230892165E-003   6.9872698073659683E-003   0.0000000000000000     
   0.0000000000000000        0.0000000000000000        0.0000000000000000     
  -1.5350771016677677E-003   1.2175627903210208E-003   0.0000000000000000     
  -3.0994455011593394E-003   2.8208212395850114E-003   0.0000000000000000     
  -4.6931051984747153E-003   4.8097753477919711E-003   0.0000000000000000     
  -6.3160561936138945E-003   7.1844251149419018E-003   0.0000000000000000     
   0.0000000000000000        0.0000000000000000        0.0000000000000000     
  -1.7983845349975481E-003   1.2768945081598568E-003   0.0000000000000000     
  -3.6214335464710493E-003   2.9391970403483008E-003   0.0000000000000000     
  -5.4691470344205018E-003   4.9869075965653332E-003   0.0000000000000000     
  -7.3415249988459082E-003   7.4200261768109519E-003   0.0000000000000000     
  -3.4792791861618707E-003   6.7082964550934524E-003   0.0000000000000000     
  -4.3878045857653055E-003   9.2933266542744534E-003   0.0000000000000000     
  -5.2986565855326672E-003   1.2181891147864459E-002   0.0000000000000000     
  -6.2118351854639547E-003   1.5373989935863473E-002   0.0000000000000000     
  -7.1273403855591690E-003   1.8869623018271497E-002   0.0000000000000000     
  -4.3849332872718761E-003   6.8285602540831512E-003   0.0000000000000000     
  -5.5341123979158018E-003   9.4488028252640629E-003   0.0000000000000000     
  -6.6838045448873234E-003   1.2367094885847380E-002   0.0000000000000000     
  -7.8340097281864429E-003   1.5583436435833108E-002   0.0000000000000000     
  -8.9847279478131592E-003   1.9097827475221242E-002   0.0000000000000000     
  -5.3305256230892165E-003   6.9872698073659683E-003   0.0000000000000000     
  -6.7234152750872567E-003   9.6494485494090735E-003   0.0000000000000000     
  -8.1174160164347205E-003   1.2604059426149023E-002   0.0000000000000000     
  -9.5125278471316025E-003   1.5851102437585824E-002   0.0000000000000000     
  -1.0908750767177908E-002   1.9390577583719475E-002   0.0000000000000000     
  -6.3160561936138945E-003   7.1844251149419018E-003   0.0000000000000000     
  -7.9557132172796766E-003   9.8952638267094835E-003   0.0000000000000000     
  -9.5994910001748548E-003   1.2892784768769389E-002   0.0000000000000000     
  -1.1247389542299436E-002   1.6176987941121622E-002   0.0000000000000000     
  -1.2899408843653416E-002   1.9747873343766192E-002   0.0000000000000000     
  -7.3415249988459082E-003   7.4200261768109519E-003   0.0000000000000000     
  -9.2310062244930543E-003   1.0186248657165288E-002   0.0000000000000000     
  -1.1130029496107733E-002   1.3233270913708479E-002   0.0000000000000000     
  -1.3038594813689946E-002   1.6561092946440509E-002   0.0000000000000000     
  -1.4956702177239685E-002   2.0169714755361393E-002   0.0000000000000000     
  -7.1273403855591690E-003   1.8869623018271497E-002   0.0000000000000000     
  -8.0383080662408488E-003   2.2642611568191716E-002   0.0000000000000000     
  -8.9378741079315267E-003   2.6666776758727334E-002   0.0000000000000000     
  -9.8260385106312114E-003   3.0942118589878328E-002   0.0000000000000000     
  -1.0702801274339894E-002   3.5468637061644714E-002   0.0000000000000000     
  -8.9847279478131592E-003   1.9097827475221242E-002   0.0000000000000000     
  -1.0128617187957437E-002   2.2885187029543244E-002   0.0000000000000000     
  -1.1258335432809248E-002   2.6920434124330574E-002   0.0000000000000000     
  -1.2373882682368588E-002   3.1203568759583227E-002   0.0000000000000000     
  -1.3475258936635455E-002   3.5734590935301215E-002   0.0000000000000000     
  -1.0908750767177908E-002   1.9390577583719475E-002   0.0000000000000000     
  -1.2295494283238095E-002   2.3197257497924759E-002   0.0000000000000000     
  -1.3662167901976619E-002   2.7245914813576466E-002   0.0000000000000000     
  -1.5008771623393482E-002   3.1536549530674599E-002   0.0000000000000000     
  -1.6335305447488686E-002   3.6069161649219160E-002   0.0000000000000000     
  -1.2899408843653416E-002   1.9747873343766192E-002   0.0000000000000000     
  -1.4538939352082815E-002   2.3578822973336258E-002   0.0000000000000000     
  -1.6149371515433639E-002   2.7643218826465022E-002   0.0000000000000000     
  -1.7730705333705899E-002   3.1941060903152456E-002   0.0000000000000000     
  -1.9282940806899591E-002   3.6472349203398584E-002   0.0000000000000000     
  -1.4956702177239685E-002   2.0169714755361393E-002   0.0000000000000000     
  -1.6858952394491596E-002   2.4029883455777754E-002   0.0000000000000000     
  -1.8719946273180313E-002   2.8112346162996217E-002   0.0000000000000000     
  -2.0539683813305839E-002   3.2417102877016789E-002   0.0000000000000000     
  -2.2318165014868167E-002   3.6944153597839452E-002   0.0000000000000000     
  -1.0702801274339894E-002   3.5468637061644714E-002   0.0000000000000000     
  -1.1562916135840812E-002   4.0227528811336864E-002   0.0000000000000000     
  -1.2401136831917191E-002   4.5199990476265120E-002   0.0000000000000000     
  -1.3217463362569038E-002   5.0386022056429516E-002   0.0000000000000000     
  -1.4011895727796346E-002   5.5785623551830005E-002   0.0000000000000000     
  -1.3475258936635455E-002   3.5734590935301215E-002   0.0000000000000000     
  -1.4555152061533893E-002   4.0495307358661990E-002   0.0000000000000000     
  -1.5606249922987944E-002   4.5467524736843047E-002   0.0000000000000000     
  -1.6628552520997604E-002   5.0651243069844365E-002   0.0000000000000000     
  -1.7622059855562883E-002   5.6046462357665958E-002   0.0000000000000000     
  -1.6335305447488686E-002   3.6069161649219160E-002   0.0000000000000000     
  -1.7634159496932530E-002   4.0827753716449776E-002   0.0000000000000000     
  -1.8897723894395313E-002   4.5796328279606072E-002   0.0000000000000000     
  -2.0125998639877036E-002   5.0974885338688027E-002   0.0000000000000000     
  -2.1318983733377692E-002   5.6363424893695654E-002   0.0000000000000000     
  -1.9282940806899591E-002   3.6472349203398584E-002   0.0000000000000000     
  -2.0799938442036717E-002   4.1224867884700207E-002   0.0000000000000000     
  -2.2275558746139294E-002   4.6186401104554173E-002   0.0000000000000000     
  -2.3709801719207314E-002   5.1356948862960487E-002   0.0000000000000000     
  -2.5102667361240786E-002   5.6736511159919130E-002   0.0000000000000000     
  -2.2318165014868167E-002   3.6944153597839452E-002   0.0000000000000000     
  -2.4052488896846462E-002   4.1686649863413291E-002   0.0000000000000000     
  -2.5739754478219894E-002   4.6637743211687385E-002   0.0000000000000000     
  -2.7379961758988457E-002   5.1797433642661740E-002   0.0000000000000000     
  -2.8973110739152149E-002   5.7165721156336335E-002   0.0000000000000000     
  -1.4011895727796346E-002   5.5785623551830005E-002   0.0000000000000000     
  -1.4782997469104730E-002   6.1382816647054764E-002   0.0000000000000000     
  -1.5529332127999798E-002   6.7161623026691888E-002   0.0000000000000000     
  -1.6250899704481559E-002   7.3122042690741421E-002   0.0000000000000000     
  -1.6947700198549999E-002   7.9264075639203360E-002   0.0000000000000000     
  -1.7622059855562883E-002   5.6046462357665958E-002   0.0000000000000000     
  -1.8585787462875099E-002   6.1637827746810134E-002   0.0000000000000000     
  -1.9518750879125597E-002   6.7409984383779181E-002   0.0000000000000000     
  -2.0420950104314370E-002   7.3362932268573128E-002   0.0000000000000000     
  -2.1292385138441429E-002   7.9496671401191946E-002   0.0000000000000000     
  -2.1318983733377692E-002   5.6363424893695654E-002   0.0000000000000000     
  -2.2475752226078869E-002   6.1947015829628617E-002   0.0000000000000000     
  -2.3595377169162157E-002   6.7710727031486520E-002   0.0000000000000000     
  -2.4677858562627539E-002   7.3654558499269371E-002   0.0000000000000000     
  -2.5723196406475031E-002   7.9778510232977176E-002   0.0000000000000000     
  -2.5102667361240786E-002   5.6736511159919130E-002   0.0000000000000000     
  -2.6452891758716044E-002   6.2310380895510227E-002   0.0000000000000000     
  -2.7759210998109476E-002   6.8063850969813919E-002   0.0000000000000000     
  -2.9021625079421062E-002   7.3996921382830178E-002   0.0000000000000000     
  -3.0240134002650819E-002   8.0109592134559052E-002   0.0000000000000000     
  -2.8973110739152149E-002   5.7165721156336335E-002   0.0000000000000000     
  -3.0517206060786631E-002   6.2727922944454950E-002   0.0000000000000000     
  -3.2010252365967558E-002   6.8469356198761350E-002   0.0000000000000000     
  -3.3452249654694947E-002   7.4390020919255562E-002   0.0000000000000000     
  -3.4843197926968779E-002   8.0489917105937558E-002   0.0000000000000000     
  -1.6947700198549999E-002   7.9264075639203360E-002   0.0000000000000000     
  -1.7619602572253805E-002   8.5576427329036781E-002   0.0000000000000000     
  -1.8266475787641644E-002   9.2047803217200783E-002   0.0000000000000000     
  -1.8888319844713519E-002   9.8678203303695380E-002   0.0000000000000000     
  -1.9485134743469433E-002  0.10546762758852062        0.0000000000000000     
  -2.1292385138441429E-002   7.9496671401191946E-002   0.0000000000000000     
  -2.2132818866634235E-002   8.5800124108983689E-002   0.0000000000000000     
  -2.2942014174020291E-002   9.2262212719296410E-002   0.0000000000000000     
  -2.3719971060599580E-002   9.8882937232130097E-002   0.0000000000000000     
  -2.4466689526372119E-002  0.10566229764748478        0.0000000000000000     
  -2.5723196406475031E-002   7.9778510232977176E-002   0.0000000000000000     
  -2.6731434124878918E-002   8.6071675892673782E-002   0.0000000000000000     
  -2.7702615142013495E-002   9.2523149138423022E-002   0.0000000000000000     
  -2.8636739457878764E-002   9.9132929970224951E-002   0.0000000000000000     
  -2.9533807072474726E-002  0.10590101838807953        0.0000000000000000     
  -3.0240134002650819E-002   8.0109592134559052E-002   0.0000000000000000     
  -3.1415448346987840E-002   8.6391082680107020E-002   0.0000000000000000     
  -3.2548278691621260E-002   9.2830612474580659E-002   0.0000000000000000     
  -3.3638625036551059E-002   9.9428181517979927E-002   0.0000000000000000     
  -3.4686487381777258E-002  0.10618378981030485        0.0000000000000000     
  -3.4843197926968779E-002   8.0489917105937558E-002   0.0000000000000000     
  -3.6184861532961000E-002   8.6758344471283430E-002   0.0000000000000000     
  -3.7479004822843567E-002   9.3184602727769239E-002   0.0000000000000000     
  -3.8725627796616473E-002   9.9768691875395013E-002   0.0000000000000000     
  -3.9924730454279717E-002  0.10651061191416075        0.0000000000000000     
  -1.9485134743469433E-002  0.10546762758852062        0.0000000000000000     
  -2.0056957650272097E-002  0.11241071487645751        0.0000000000000000     
  -2.0603825731484227E-002  0.11950210397228718        0.0000000000000000     
  -2.1125738987105822E-002  0.12674179487600964        0.0000000000000000     
  -2.1622697417136884E-002  0.13412978758762489        0.0000000000000000     
  -2.4466689526372119E-002  0.10566229764748478        0.0000000000000000     
  -2.5182029838013174E-002  0.11259478789059130        0.0000000000000000     
  -2.5865852262198050E-002  0.11967490188668052        0.0000000000000000     
  -2.6518156798926745E-002  0.12690263963575243        0.0000000000000000     
  -2.7138943448199247E-002  0.13427800113780711        0.0000000000000000     
  -2.9533807072474726E-002  0.10590101838807953        0.0000000000000000     
  -3.0393408682349628E-002  0.11282152059944751        0.0000000000000000     
  -3.1215134984051741E-002  0.11988854281178969        0.0000000000000000     
  -3.1998985977581045E-002  0.12710208502510603        0.0000000000000000     
  -3.2744961662937548E-002  0.13446214723939656        0.0000000000000000     
  -3.4686487381777258E-002  0.10618378981030485        0.0000000000000000     
  -3.5691094183281466E-002  0.11309091300302618        0.0000000000000000     
  -3.6651673897045288E-002  0.12014302674761472        0.0000000000000000     
  -3.7568226523068717E-002  0.12734013104407041        0.0000000000000000     
  -3.8440752061351773E-002  0.13468222589239329        0.0000000000000000     
  -3.9924730454279717E-002  0.10651061191416075        0.0000000000000000     
  -4.1075086340808663E-002  0.11340296510132730        0.0000000000000000     
  -4.2175469001178675E-002  0.12043835369415556        0.0000000000000000     
  -4.3225878435389768E-002  0.12761677769264557        0.0000000000000000     
  -4.4226314643441927E-002  0.13493823709679728        0.0000000000000000     
  -2.1622697417136884E-002  0.13412978758762489        0.0000000000000000     
  -2.2085918868677824E-002  0.14162004889918431        0.0000000000000000     
  -2.2506621188829075E-002  0.14916654560273929        0.0000000000000000     
  -2.2884804377590627E-002  0.15676927769828986        0.0000000000000000     
  -2.3220468434962491E-002  0.16442824518583596        0.0000000000000000     
  -2.7138943448199247E-002  0.13427800113780711        0.0000000000000000     
  -2.7718731884175434E-002  0.14175371902104281        0.0000000000000000     
  -2.8248041781015164E-002  0.14928252591365790        0.0000000000000000     
  -2.8726873138718429E-002  0.15686442181565244        0.0000000000000000     
  -2.9155225957285244E-002  0.16449940672702640        0.0000000000000000     
  -3.2744961662937548E-002  0.13446214723939656        0.0000000000000000     
  -3.3441647854774874E-002  0.14192324757934052        0.0000000000000000     
  -3.4077630367746622E-002  0.14943990416961711        0.0000000000000000     
  -3.4652909201852822E-002  0.15701211701022644        0.0000000000000000     
  -3.5167484357093444E-002  0.16463988610116842        0.0000000000000000     
  -3.8440752061351773E-002  0.13468222589239329        0.0000000000000000     
  -3.9254666780476122E-002  0.14212863457407743        0.0000000000000000     
  -3.9995386949023472E-002  0.14963868037061692        0.0000000000000000     
  -4.0662912566993788E-002  0.15721236328201177        0.0000000000000000     
  -4.1257243634387097E-002  0.16484968330826200        0.0000000000000000     
  -4.4226314643441927E-002  0.13493823709679728        0.0000000000000000     
  -4.5157788661279209E-002  0.14236988000525358        0.0000000000000000     
  -4.6001311524845684E-002  0.14987885451665733        0.0000000000000000     
  -4.6756883234141330E-002  0.15746516063100852        0.0000000000000000     
  -4.7424503789166184E-002  0.16512879834830718        0.0000000000000000     
   0.0000000000000000        0.0000000000000000        0.0000000000000000     
  -1.7983845349975481E-003   1.2768945081598568E-003   0.0000000000000000     
  -3.6214335464710493E-003   2.9391970403483008E-003   0.0000000000000000     
  -5.4691470344205018E-003   4.9869075965653332E-003   0.0000000000000000     
  -7.3415249988459082E-003   7.4200261768109519E-003   0.0000000000000000     
   0.0000000000000000        0.0000000000000000        0.0000000000000000     
  -2.0694949138483961E-003   1.3550523483728196E-003   0.0000000000000000     
  -4.1641547744015088E-003   3.0941106853387083E-003   0.0000000000000000     
  -6.2839795816593373E-003   5.2171750108976648E-003   0.0000000000000000     
  -8.4289693356218824E-003   7.7242453250496888E-003   0.0000000000000000     
   0.0000000000000000        0.0000000000000000        0.0000000000000000     
  -2.3401264724703316E-003   1.4591349711146192E-003   0.0000000000000000     
  -4.7202397134235158E-003   3.3000557767752731E-003   0.0000000000000000     
  -7.1403397228595551E-003   5.5227624169819607E-003   0.0000000000000000     
  -9.6004265007784469E-003   8.1272548917346830E-003   0.0000000000000000     
   0.0000000000000000        0.0000000000000000        0.0000000000000000     
  -2.6102792108633533E-003   1.5891423763852554E-003   0.0000000000000000     
  -5.2896883635370718E-003   3.5570323146579957E-003   0.0000000000000000     
  -8.0382274580211525E-003   5.9036698148182210E-003   0.0000000000000000     
  -1.0855896494315601E-002   8.6290548768659294E-003   0.0000000000000000     
   0.0000000000000000        0.0000000000000000        0.0000000000000000     
  -2.8799531290274617E-003   1.7450745641847286E-003   0.0000000000000000     
  -5.8725007247421726E-003   3.8650402989868775E-003   0.0000000000000000     
  -8.9776427871441321E-003   6.3598972044064464E-003   0.0000000000000000     
  -1.2195379316233344E-002   9.2296452804434357E-003   0.0000000000000000     
  -7.3415249988459082E-003   7.4200261768109519E-003   0.0000000000000000     
  -9.2310062244930543E-003   1.0186248657165288E-002   0.0000000000000000     
  -1.1130029496107733E-002   1.3233270913708479E-002   0.0000000000000000     
  -1.3038594813689946E-002   1.6561092946440509E-002   0.0000000000000000     
  -1.4956702177239685E-002   2.0169714755361393E-002   0.0000000000000000     
  -8.4289693356218824E-003   7.7242453250496888E-003   0.0000000000000000     
  -1.0590905047572482E-002   1.0558057330398388E-002   0.0000000000000000     
  -1.2761567728794472E-002   1.3661346729547365E-002   0.0000000000000000     
  -1.4940957379287854E-002   1.7034113522496622E-002   0.0000000000000000     
  -1.7129073999052630E-002   2.0676357709246158E-002   0.0000000000000000     
  -9.6004265007784469E-003   8.1272548917346830E-003   0.0000000000000000     
  -1.2077020437363042E-002   1.1046344136030667E-002   0.0000000000000000     
  -1.4546641922796198E-002   1.4212841084867138E-002   0.0000000000000000     
  -1.7009290957077910E-002   1.7626745738244097E-002   0.0000000000000000     
  -1.9464967540208170E-002   2.1288058096161546E-002   0.0000000000000000     
  -1.0855896494315601E-002   8.6290548768659294E-003   0.0000000000000000     
  -1.3689352393864743E-002   1.1651109074062123E-002   0.0000000000000000     
  -1.6485252078112914E-002   1.4887753979667791E-002   0.0000000000000000     
  -1.9243595547060101E-002   1.8338989593682933E-002   0.0000000000000000     
  -2.1964382800706315E-002   2.2004815916107558E-002   0.0000000000000000     
  -1.2195379316233344E-002   9.2296452804434357E-003   0.0000000000000000     
  -1.5427900917077578E-002   1.2372352144492758E-002   0.0000000000000000     
  -1.8577398194744601E-002   1.5686085413949329E-002   0.0000000000000000     
  -2.1643871149234429E-002   1.9170845088813140E-002   0.0000000000000000     
  -2.4627319780547045E-002   2.2826631169084205E-002   0.0000000000000000     
  -1.4956702177239685E-002   2.0169714755361393E-002   0.0000000000000000     
  -1.6858952394491596E-002   2.4029883455777754E-002   0.0000000000000000     
  -1.8719946273180313E-002   2.8112346162996217E-002   0.0000000000000000     
  -2.0539683813305839E-002   3.2417102877016789E-002   0.0000000000000000     
  -2.2318165014868167E-002   3.6944153597839452E-002   0.0000000000000000     
  -1.7129073999052630E-002   2.0676357709246158E-002   0.0000000000000000     
  -1.9294750378997871E-002   2.4559618279769130E-002   0.0000000000000000     
  -2.1406819310032625E-002   2.8655434224038715E-002   0.0000000000000000     
  -2.3465280792156921E-002   3.2963805542054900E-002   0.0000000000000000     
  -2.5470134825370739E-002   3.7484732233817694E-002   0.0000000000000000     
  -1.9464967540208170E-002   2.1288058096161546E-002   0.0000000000000000     
  -2.1885550274135041E-002   2.5177206779830291E-002   0.0000000000000000     
  -2.4242917760806580E-002   2.9274620410461156E-002   0.0000000000000000     
  -2.6537070000222769E-002   3.3580298988054133E-002   0.0000000000000000     
  -2.8768006992383632E-002   3.8094242512609219E-002   0.0000000000000000     
  -2.1964382800706315E-002   2.2004815916107558E-002   0.0000000000000000     
  -2.4631352079903142E-002   2.5882648955961235E-002   0.0000000000000000     
  -2.7228241625502164E-002   2.9969904722263539E-002   0.0000000000000000     
  -2.9755051437503406E-002   3.4266583215014468E-002   0.0000000000000000     
  -3.2211781515906847E-002   3.8772684434214028E-002   0.0000000000000000     
  -2.4627319780547045E-002   2.2826631169084205E-002   0.0000000000000000     
  -2.7532155796302138E-002   2.6675944808161961E-002   0.0000000000000000     
  -3.0362790904119398E-002   3.0741287159445869E-002   0.0000000000000000     
  -3.3119225103998805E-002   3.5022658222935911E-002   0.0000000000000000     
  -3.5801458395940379E-002   3.9520057998632119E-002   0.0000000000000000     
  -2.2318165014868167E-002   3.6944153597839452E-002   0.0000000000000000     
  -2.4052488896846462E-002   4.1686649863413291E-002   0.0000000000000000     
  -2.5739754478219894E-002   4.6637743211687385E-002   0.0000000000000000     
  -2.7379961758988457E-002   5.1797433642661740E-002   0.0000000000000000     
  -2.8973110739152149E-002   5.7165721156336335E-002   0.0000000000000000     
  -2.5470134825370739E-002   3.7484732233817694E-002   0.0000000000000000     
  -2.7421861986204821E-002   4.2215754369574907E-002   0.0000000000000000     
  -2.9320942851189906E-002   4.7154412019574349E-002   0.0000000000000000     
  -3.1167377420325982E-002   5.2300705183816021E-002   0.0000000000000000     
  -3.2961165693613063E-002   5.7654633862299930E-002   0.0000000000000000     
  -2.8768006992383632E-002   3.8094242512609219E-002   0.0000000000000000     
  -3.0938108834954844E-002   4.2814836120170910E-002   0.0000000000000000     
  -3.3049755625602105E-002   4.7740464946783689E-002   0.0000000000000000     
  -3.5102947364325426E-002   5.2871128992447572E-002   0.0000000000000000     
  -3.7097684051124805E-002   5.8206828257162536E-002   0.0000000000000000     
  -3.2211781515906847E-002   3.8772684434214028E-002   0.0000000000000000     
  -3.4601229443096536E-002   4.3483895115201315E-002   0.0000000000000000     
  -3.6926192801456530E-002   4.8395901993315435E-002   0.0000000000000000     
  -3.9186671590986807E-002   5.3508705068556386E-002   0.0000000000000000     
  -4.1382665811687390E-002   5.8822304340924156E-002   0.0000000000000000     
  -3.5801458395940379E-002   3.9520057998632119E-002   0.0000000000000000     
  -3.8411223810629891E-002   4.4222931354666109E-002   0.0000000000000000     
  -4.0950254378753125E-002   4.9120723159169558E-002   0.0000000000000000     
  -4.3418550100310094E-002   5.4213433412142457E-002   0.0000000000000000     
  -4.5816110975300792E-002   5.9501062113584809E-002   0.0000000000000000     
  -2.8973110739152149E-002   5.7165721156336335E-002   0.0000000000000000     
  -3.0517206060786631E-002   6.2727922944454950E-002   0.0000000000000000     
  -3.2010252365967558E-002   6.8469356198761350E-002   0.0000000000000000     
  -3.3452249654694947E-002   7.4390020919255562E-002   0.0000000000000000     
  -3.4843197926968779E-002   8.0489917105937558E-002   0.0000000000000000     
  -3.2961165693613063E-002   5.7654633862299930E-002   0.0000000000000000     
  -3.4699448954683541E-002   6.3202042162978811E-002   0.0000000000000000     
  -3.6379368487169800E-002   6.8928774193805373E-002   0.0000000000000000     
  -3.8000924291071853E-002   7.4834829954779691E-002   0.0000000000000000     
  -3.9564116366389700E-002   8.0920209445901697E-002   0.0000000000000000     
  -3.7097684051124805E-002   5.8206828257162536E-002   0.0000000000000000     
  -3.9030374262799712E-002   6.3735138737597785E-002   0.0000000000000000     
  -4.0897426576149608E-002   6.9443636430422534E-002   0.0000000000000000     
  -4.2698840991174485E-002   7.5332321335636721E-002   0.0000000000000000     
  -4.4434617507874349E-002   8.1401193453240414E-002   0.0000000000000000     
  -4.1382665811687390E-002   5.8822304340924156E-002   0.0000000000000000     
  -4.3509981985135143E-002   6.4327212668311914E-002   0.0000000000000000     
  -4.5564426632906954E-002   7.0013942908612750E-002   0.0000000000000000     
  -4.7545999755002809E-002   7.5882495061826705E-002   0.0000000000000000     
  -4.9454701351422749E-002   8.1932869127953750E-002   0.0000000000000000     
  -4.5816110975300792E-002   5.9501062113584809E-002   0.0000000000000000     
  -4.8138272121689835E-002   6.4978263955121171E-002   0.0000000000000000     
  -5.0380368657441867E-002   7.0639693628376091E-002   0.0000000000000000     
  -5.2542400582556881E-002   7.6485351133349602E-002   0.0000000000000000     
  -5.4624367897034870E-002   8.2515236470041664E-002   0.0000000000000000     
  -3.4843197926968779E-002   8.0489917105937558E-002   0.0000000000000000     
  -3.6184861532961000E-002   8.6758344471283430E-002   0.0000000000000000     
  -3.7479004822843567E-002   9.3184602727769239E-002   0.0000000000000000     
  -3.8725627796616473E-002   9.9768691875395013E-002   0.0000000000000000     
  -3.9924730454279717E-002  0.10651061191416075        0.0000000000000000     
  -3.9564116366389700E-002   8.0920209445901697E-002   0.0000000000000000     
  -4.1071898709672927E-002   8.7174209088755727E-002   0.0000000000000000     
  -4.2527225317471155E-002   9.3586125304926118E-002   0.0000000000000000     
  -4.3930096189784398E-002  0.10015595809441283        0.0000000000000000     
  -4.5280511326612614E-002  0.10688370745721588        0.0000000000000000     
  -4.4434617507874349E-002   8.1401193453240414E-002   0.0000000000000000     
  -4.6108784903998126E-002   8.7639424355076670E-002   0.0000000000000000     
  -4.7725371957294746E-002   9.4036185612988474E-002   0.0000000000000000     
  -4.9284378667764188E-002  0.10059147722697591        0.0000000000000000     
  -5.0785805035406466E-002  0.10730529919703893        0.0000000000000000     
  -4.9454701351422749E-002   8.1932869127953750E-002   0.0000000000000000     
  -5.1295520115936605E-002   8.8153990270246202E-002   0.0000000000000000     
  -5.3073444742314319E-002   9.4534783651956403E-002   0.0000000000000000     
  -5.4788475230555876E-002  0.10107524927308426        0.0000000000000000     
  -5.6440611580661264E-002  0.10777538713362990        0.0000000000000000     
  -5.4624367897034870E-002   8.2515236470041664E-002   0.0000000000000000     
  -5.6632104345488377E-002   8.8717906834264393E-002   0.0000000000000000     
  -5.8571443672529894E-002   9.5081919421829808E-002   0.0000000000000000     
  -6.0442385878159456E-002  0.10160727423273792        0.0000000000000000     
  -6.2244930962377022E-002  0.10829397126698874        0.0000000000000000     
  -3.9924730454279717E-002  0.10651061191416075        0.0000000000000000     
  -4.1075086340808663E-002  0.11340296510132730        0.0000000000000000     
  -4.2175469001178675E-002  0.12043835369415556        0.0000000000000000     
  -4.3225878435389768E-002  0.12761677769264557        0.0000000000000000     
  -4.4226314643441927E-002  0.13493823709679728        0.0000000000000000     
  -4.5280511326612614E-002  0.10688370745721588        0.0000000000000000     
  -4.6577267752480257E-002  0.11376083338034639        0.0000000000000000     
  -4.7819162491911725E-002  0.12077879585081540        0.0000000000000000     
  -4.9006195544907032E-002  0.12793759486862291        0.0000000000000000     
  -5.0138366911466163E-002  0.13523723043376892        0.0000000000000000     
  -5.0785805035406466E-002  0.10730529919703893        0.0000000000000000     
  -5.2229521015845250E-002  0.11416767432607891        0.0000000000000000     
  -5.3615396564704196E-002  0.12116862541699717        0.0000000000000000     
  -5.4943431681983332E-002  0.12830815246979374        0.0000000000000000     
  -5.6213626367682644E-002  0.13558625548446862        0.0000000000000000     
  -5.6440611580661264E-002  0.10777538713362990        0.0000000000000000     
  -5.8031846130903633E-002  0.11462348793852489        0.0000000000000000     
  -5.9564171219556108E-002  0.12160784239270098        0.0000000000000000     
  -6.1037586846618683E-002  0.12872845049615811        0.0000000000000000     
  -6.2452093012091356E-002  0.13598531224889635        0.0000000000000000     
  -6.2244930962377022E-002  0.10829397126698874        0.0000000000000000     
  -6.3984243097655435E-002  0.11512827421768432        0.0000000000000000     
  -6.5665486456467442E-002  0.12209644677792675        0.0000000000000000     
  -6.7288661038813077E-002  0.12919848894771602        0.0000000000000000     
  -6.8853766844692327E-002  0.13643440072705212        0.0000000000000000     
  -4.4226314643441927E-002  0.13493823709679728        0.0000000000000000     
  -4.5157788661279209E-002  0.14236988000525358        0.0000000000000000     
  -4.6001311524845684E-002  0.14987885451665733        0.0000000000000000     
  -4.6756883234141330E-002  0.15746516063100852        0.0000000000000000     
  -4.7424503789166184E-002  0.16512879834830718        0.0000000000000000     
  -5.0138366911466163E-002  0.13523723043376892        0.0000000000000000     
  -5.1192607331989624E-002  0.14265246137207047        0.0000000000000000     
  -5.2145847546877955E-002  0.15015804650934464        0.0000000000000000     
  -5.2998087556131120E-002  0.15775398584559136        0.0000000000000000     
  -5.3749327359749140E-002  0.16544027938081068        0.0000000000000000     
  -5.6213626367682644E-002  0.13558625548446862        0.0000000000000000     
  -5.7400716627412925E-002  0.14298185617372980        0.0000000000000000     
  -5.8479438466784960E-002  0.15047387625028524        0.0000000000000000     
  -5.9449791885798769E-002  0.15806231571413507        0.0000000000000000     
  -6.0311776884454334E-002  0.16574717456527913        0.0000000000000000     
  -6.2452093012091356E-002  0.13598531224889635        0.0000000000000000     
  -6.3782116547549061E-002  0.14335806441023141        0.0000000000000000     
  -6.5002084284566691E-002  0.15082634373947917        0.0000000000000000     
  -6.6111996223144287E-002  0.15839015023663949        0.0000000000000000     
  -6.7111852363281821E-002  0.16604948390171254        0.0000000000000000     
  -6.8853766844692327E-002  0.13643440072705212        0.0000000000000000     
  -7.0336807092398063E-002  0.14378108608157544        0.0000000000000000     
  -7.1713785000223171E-002  0.15121544897692635        0.0000000000000000     
  -7.2984700568167665E-002  0.15873748941310484        0.0000000000000000     
  -7.4149553796231532E-002  0.16634720739011094        0.0000000000000000     
   0.0000000000000000        0.0000000000000000        0.0000000000000000     
  -2.8799531290274617E-003   1.7450745641847286E-003   0.0000000000000000     
  -5.8725007247421726E-003   3.8650402989868775E-003   0.0000000000000000     
  -8.9776427871441321E-003   6.3598972044064464E-003   0.0000000000000000     
  -1.2195379316233344E-002   9.2296452804434357E-003   0.0000000000000000     
   0.0000000000000000        0.0000000000000000        0.0000000000000000     
  -3.2830518312893494E-003   1.9995754576047652E-003   0.0000000000000000     
  -6.6767438010496257E-003   4.3313664962809943E-003   0.0000000000000000     
  -1.0181075909280827E-002   6.9953731160286867E-003   0.0000000000000000     
  -1.3796048155982961E-002   9.9915953168478421E-003   0.0000000000000000     
   0.0000000000000000        0.0000000000000000        0.0000000000000000     
  -3.9534789219757074E-003   2.4252889797370934E-003   0.0000000000000000     
  -7.9104845964702332E-003   5.0632976730594229E-003   0.0000000000000000     
  -1.1871017023483572E-002   7.9140260799669907E-003   0.0000000000000000     
  -1.5835076203015729E-002   1.0977474200459792E-002   0.0000000000000000     
   0.0000000000000000        0.0000000000000000        0.0000000000000000     
  -4.8912344010865359E-003   3.0222151305817121E-003   0.0000000000000000     
  -9.5737231110039900E-003   6.0608338293221637E-003   0.0000000000000000     
  -1.4047466129752363E-002   9.1158560962213541E-003   0.0000000000000000     
  -1.8312463457331656E-002   1.2187281931279286E-002   0.0000000000000000     
   0.0000000000000000        0.0000000000000000        0.0000000000000000     
  -6.0963182686218365E-003   3.7903539101386222E-003   0.0000000000000000     
  -1.1666459344650904E-002   7.3239749650692177E-003   0.0000000000000000     
  -1.6710423228087204E-002   1.0600863164791786E-002   0.0000000000000000     
  -2.1228209918930738E-002   1.3621018509306328E-002   0.0000000000000000     
  -1.2195379316233344E-002   9.2296452804434357E-003   0.0000000000000000     
  -1.5427900917077578E-002   1.2372352144492758E-002   0.0000000000000000     
  -1.8577398194744601E-002   1.5686085413949329E-002   0.0000000000000000     
  -2.1643871149234429E-002   1.9170845088813140E-002   0.0000000000000000     
  -2.4627319780547045E-002   2.2826631169084205E-002   0.0000000000000000     
  -1.3796048155982961E-002   9.9915953168478421E-003   0.0000000000000000     
  -1.7404462082301678E-002   1.3222107691650810E-002   0.0000000000000000     
  -2.0889119229382642E-002   1.6588984833349939E-002   0.0000000000000000     
  -2.4250019597225867E-002   2.0092226741945232E-002   0.0000000000000000     
  -2.7487163185831338E-002   2.3731833417436683E-002   0.0000000000000000     
  -1.5835076203015729E-002   1.0977474200459792E-002   0.0000000000000000     
  -1.9730831964837180E-002   1.4212410059864509E-002   0.0000000000000000     
  -2.3486454138718402E-002   1.7577601683507818E-002   0.0000000000000000     
  -2.7101942724659388E-002   2.1073049071389731E-002   0.0000000000000000     
  -3.0577297722660150E-002   2.4698752223510225E-002   0.0000000000000000     
  -1.8312463457331656E-002   1.2187281931279286E-002   0.0000000000000000     
  -2.2407010564684082E-002   1.5343259249133859E-002   0.0000000000000000     
  -2.6369402922751865E-002   1.8651935964422973E-002   0.0000000000000000     
  -3.0199640531534993E-002   2.2113312077146622E-002   0.0000000000000000     
  -3.3897723391033474E-002   2.5727387587304824E-002   0.0000000000000000     
  -2.1228209918930738E-002   1.3621018509306328E-002   0.0000000000000000     
  -2.5432997881842390E-002   1.6614655259458856E-002   0.0000000000000000     
  -2.9537965581483035E-002   1.9811987676095395E-002   0.0000000000000000     
  -3.3543113017852677E-002   2.3213015759215937E-002   0.0000000000000000     
  -3.7448440190951331E-002   2.6817739508820479E-002   0.0000000000000000     
  -2.4627319780547045E-002   2.2826631169084205E-002   0.0000000000000000     
  -2.7532155796302138E-002   2.6675944808161961E-002   0.0000000000000000     
  -3.0362790904119398E-002   3.0741287159445869E-002   0.0000000000000000     
  -3.3119225103998805E-002   3.5022658222935911E-002   0.0000000000000000     
  -3.5801458395940379E-002   3.9520057998632119E-002   0.0000000000000000     
  -2.7487163185831338E-002   2.3731833417436683E-002   0.0000000000000000     
  -3.0623696371351188E-002   2.7550546822986879E-002   0.0000000000000000     
  -3.3682765529937556E-002   3.1591108921758371E-002   0.0000000000000000     
  -3.6664370661590437E-002   3.5853519713751163E-002   0.0000000000000000     
  -3.9568511766309836E-002   4.0337779198965279E-002   0.0000000000000000     
  -3.0577297722660150E-002   2.4698752223510225E-002   0.0000000000000000     
  -3.3941708753069427E-002   2.8499907486990394E-002   0.0000000000000000     
  -3.7224365436235959E-002   3.2521711208951289E-002   0.0000000000000000     
  -4.0425267772159754E-002   3.6764163389392923E-002   0.0000000000000000     
  -4.3544415760840817E-002   4.1227264028315280E-002   0.0000000000000000     
  -3.3897723391033474E-002   2.5727387587304824E-002   0.0000000000000000     
  -3.7486192941456845E-002   2.9524026800172513E-002   0.0000000000000000     
  -4.0987590623014596E-002   3.3533094021024633E-002   0.0000000000000000     
  -4.4401916435706762E-002   3.7754589249861165E-002   0.0000000000000000     
  -4.7729170379533323E-002   4.2188512486682150E-002   0.0000000000000000     
  -3.7448440190951331E-002   2.6817739508820479E-002   0.0000000000000000     
  -4.1257148936513437E-002   3.0622904762533227E-002   0.0000000000000000     
  -4.4972441090273485E-002   3.4625257357978376E-002   0.0000000000000000     
  -4.8594316652231448E-002   3.8824797295155929E-002   0.0000000000000000     
  -5.2122775622387346E-002   4.3221524574065875E-002   0.0000000000000000     
  -3.5801458395940379E-002   3.9520057998632119E-002   0.0000000000000000     
  -3.8411223810629891E-002   4.4222931354666109E-002   0.0000000000000000     
  -4.0950254378753125E-002   4.9120723159169558E-002   0.0000000000000000     
  -4.3418550100310094E-002   5.4213433412142457E-002   0.0000000000000000     
  -4.5816110975300792E-002   5.9501062113584809E-002   0.0000000000000000     
  -3.9568511766309836E-002   4.0337779198965279E-002   0.0000000000000000     
  -4.2395163365777228E-002   4.5027951657972652E-002   0.0000000000000000     
  -4.5144299981674109E-002   4.9908101371345284E-002   0.0000000000000000     
  -4.7815921614000466E-002   5.4978228339083168E-002   0.0000000000000000     
  -5.0410028262756298E-002   6.0238332561186304E-002   0.0000000000000000     
  -4.3544415760840817E-002   4.1227264028315280E-002   0.0000000000000000     
  -4.6580119536760861E-002   4.5894962844528285E-002   0.0000000000000000     
  -4.9530689234401612E-002   5.0751209556841807E-002   0.0000000000000000     
  -5.2396124853763063E-002   5.5796004165255875E-002   0.0000000000000000     
  -5.5176426394845206E-002   6.1029346669770480E-002   0.0000000000000000     
  -4.7729170379533323E-002   4.2188512486682150E-002   0.0000000000000000     
  -5.0966092323580778E-002   4.6823964914333008E-002   0.0000000000000000     
  -5.4109422136935634E-002   5.1650047715659141E-002   0.0000000000000000     
  -5.7159159819597856E-002   5.6666760890660604E-002   0.0000000000000000     
  -6.0115305371567507E-002   6.1874104439337337E-002   0.0000000000000000     
  -5.2122775622387346E-002   4.3221524574065875E-002   0.0000000000000000     
  -5.5553081726236991E-002   4.7814957867386806E-002   0.0000000000000000     
  -5.8880498689276174E-002   5.2604615847797291E-002   0.0000000000000000     
  -6.2105026511504909E-002   5.7590498515297309E-002   0.0000000000000000     
  -6.5226665192923194E-002   6.2772605869886908E-002   0.0000000000000000     
  -4.5816110975300792E-002   5.9501062113584809E-002   0.0000000000000000     
  -4.8138272121689835E-002   6.4978263955121171E-002   0.0000000000000000     
  -5.0380368657441867E-002   7.0639693628376091E-002   0.0000000000000000     
  -5.2542400582556881E-002   7.6485351133349602E-002   0.0000000000000000     
  -5.4624367897034870E-002   8.2515236470041664E-002   0.0000000000000000     
  -5.0410028262756298E-002   6.0238332561186304E-002   0.0000000000000000     
  -5.2922460225650739E-002   6.5686572017861933E-002   0.0000000000000000     
  -5.5349057800392877E-002   7.1321104689317349E-002   0.0000000000000000     
  -5.7689820986982748E-002   7.7141930575552520E-002   0.0000000000000000     
  -5.9944749785420332E-002   8.3149049676567471E-002   0.0000000000000000     
  -5.5176426394845206E-002   6.1029346669770480E-002   0.0000000000000000     
  -5.7869761850204794E-002   6.6450416276370633E-002   0.0000000000000000     
  -6.0474299212398587E-002   7.2058392191041321E-002   0.0000000000000000     
  -6.2990038481426563E-002   7.7853274413782605E-002   0.0000000000000000     
  -6.5416979657288737E-002   8.3835062944594432E-002   0.0000000000000000     
  -6.0115305371567507E-002   6.1874104439337337E-002   0.0000000000000000     
  -6.2980176995352022E-002   6.7269796730647230E-002   0.0000000000000000     
  -6.5756092893458976E-002   7.2851556133548045E-002   0.0000000000000000     
  -6.8443053065888312E-002   7.8619382648039790E-002   0.0000000000000000     
  -7.1041057512640060E-002   8.4573276274122519E-002   0.0000000000000000     
  -6.5226665192923194E-002   6.2772605869886908E-002   0.0000000000000000     
  -6.8253705661092429E-002   6.8144713380691724E-002   0.0000000000000000     
  -7.1194438843574029E-002   7.3700596516837469E-002   0.0000000000000000     
  -7.4048864740368009E-002   7.9440255278324171E-002   0.0000000000000000     
  -7.6816983351474355E-002   8.5363689665151773E-002   0.0000000000000000     
  -5.4624367897034870E-002   8.2515236470041664E-002   0.0000000000000000     
  -5.6632104345488377E-002   8.8717906834264393E-002   0.0000000000000000     
  -5.8571443672529894E-002   9.5081919421829808E-002   0.0000000000000000     
  -6.0442385878159456E-002  0.10160727423273792        0.0000000000000000     
  -6.2244930962377022E-002  0.10829397126698874        0.0000000000000000     
  -5.9944749785420332E-002   8.3149049676567471E-002   0.0000000000000000     
  -6.2119534664299411E-002   8.9330939873216039E-002   0.0000000000000000     
  -6.4219866092213793E-002   9.5676079046352031E-002   0.0000000000000000     
  -6.6245744069163448E-002  0.10218446719597545        0.0000000000000000     
  -6.8197168595148419E-002  0.10885610432208634        0.0000000000000000     
  -6.5416979657288737E-002   8.3835062944594432E-002   0.0000000000000000     
  -6.7758808144015775E-002   8.9992855213185952E-002   0.0000000000000000     
  -7.0019209345638350E-002   9.6315748649266286E-002   0.0000000000000000     
  -7.2198183262156490E-002  0.10280374325283549        0.0000000000000000     
  -7.4295729893570139E-002  0.10945683902389351        0.0000000000000000     
  -7.1041057512640060E-002   8.4573276274122519E-002   0.0000000000000000     
  -7.3549924784637427E-002   9.0703652854174158E-002   0.0000000000000000     
  -7.5969473432803553E-002   9.7000928230572644E-002   0.0000000000000000     
  -7.8299703457138492E-002  0.10346510240331802        0.0000000000000000     
  -8.0540614857642231E-002  0.11009617537241025        0.0000000000000000     
  -7.6816983351474355E-002   8.5363689665151773E-002   0.0000000000000000     
  -7.9492884586164381E-002   9.1463332796180630E-002   0.0000000000000000     
  -8.2070658353709441E-002   9.7731617790271050E-002   0.0000000000000000     
  -8.4550304654109509E-002  0.10416854464742305        0.0000000000000000     
  -8.6931823487364612E-002  0.11077411336763660        0.0000000000000000     
  -6.2244930962377022E-002  0.10829397126698874        0.0000000000000000     
  -6.3984243097655435E-002  0.11512827421768432        0.0000000000000000     
  -6.5665486456467442E-002  0.12209644677792675        0.0000000000000000     
  -6.7288661038813077E-002  0.12919848894771602        0.0000000000000000     
  -6.8853766844692327E-002  0.13643440072705212        0.0000000000000000     
  -6.8197168595148419E-002  0.10885610432208634        0.0000000000000000     
  -7.0081306920983286E-002  0.11567514263297703        0.0000000000000000     
  -7.1905326297482711E-002  0.12262573433693987        0.0000000000000000     
  -7.3669226724646680E-002  0.12970787943397483        0.0000000000000000     
  -7.5373008202475153E-002  0.13692157792408197        0.0000000000000000     
  -7.4295729893570139E-002  0.10945683902389351        0.0000000000000000     
  -7.6317632605769958E-002  0.11625720265382274        0.0000000000000000     
  -7.8269674764646427E-002  0.12318700083400555        0.0000000000000000     
  -8.0151856370199628E-002  0.13024623356444195        0.0000000000000000     
  -8.1964177422429466E-002  0.13743490084513194        0.0000000000000000     
  -8.0540614857642231E-002  0.11009617537241025        0.0000000000000000     
  -8.2693220152015370E-002  0.11687445428022152        0.0000000000000000     
  -8.4758531857958605E-002  0.12378024626912387        0.0000000000000000     
  -8.6736549975471908E-002  0.13081355133911737        0.0000000000000000     
  -8.8627274504555278E-002  0.13797436949020198        0.0000000000000000     
  -8.6931823487364612E-002  0.11077411336763660        0.0000000000000000     
  -8.9208069559719549E-002  0.11752689751217332        0.0000000000000000     
  -9.1371897577419203E-002  0.12440547064229482        0.0000000000000000     
  -9.3423307540463546E-002  0.13140983275800111        0.0000000000000000     
  -9.5362299448852605E-002  0.13853998385929214        0.0000000000000000     
  -6.8853766844692327E-002  0.13643440072705212        0.0000000000000000     
  -7.0336807092398063E-002  0.14378108608157544        0.0000000000000000     
  -7.1713785000223171E-002  0.15121544897692635        0.0000000000000000     
  -7.2984700568167665E-002  0.15873748941310484        0.0000000000000000     
  -7.4149553796231532E-002  0.16634720739011094        0.0000000000000000     
  -7.5373008202475153E-002  0.13692157792408197        0.0000000000000000     
  -7.6992148492504256E-002  0.14423638771559660        0.0000000000000000     
  -7.8502125356270075E-002  0.15162186671685410        0.0000000000000000     
  -7.9902938793772596E-002  0.15907801492785445        0.0000000000000000     
  -8.1194588805011861E-002  0.16660483234859763        0.0000000000000000     
  -8.1964177422429466E-002  0.13743490084513194        0.0000000000000000     
  -8.3675500978411990E-002  0.14470943584012974        0.0000000000000000     
  -8.5254690095223115E-002  0.15202627171348973        0.0000000000000000     
  -8.6701744772862799E-002  0.15938540846521174        0.0000000000000000     
  -8.8016665011331124E-002  0.16678684609529590        0.0000000000000000     
  -8.8627274504555278E-002  0.13797436949020198        0.0000000000000000     
  -9.0386864550121224E-002  0.14520023045517486        0.0000000000000000     
  -9.1971479217082222E-002  0.15242866396683313        0.0000000000000000     
  -9.3381118505438260E-002  0.15965967002517678        0.0000000000000000     
  -9.4615782415189337E-002  0.16689324863020580        0.0000000000000000     
  -9.5362299448852605E-002  0.13853998385929214        0.0000000000000000     
  -9.7126239207632012E-002  0.14570877156073192        0.0000000000000000     
  -9.8652492721847465E-002  0.15282904347688436        0.0000000000000000     
  -9.9941059991498951E-002  0.15990079960774947        0.0000000000000000     
 -0.10099194101658650       0.16692403995332727        0.0000000000000000     
 </DataArray>
 <DataArray  type="Float64" Name="stress" NumberOfComponents="3" format="ascii">
   13417780810.539948        4025334243.1619844        2893865174.6196733     
   11767156547.966892        1890905848.8627279        1715624047.7352688     
   10313742582.655001        413845112.10068321        810638046.15980387     
   9057538914.6042709       -405847967.12414932        178907169.89327779     
   7998545543.8147078       -568173388.81176853       -179568581.06430921     
   10540247226.588812        3162074167.9766436        2225751321.2812634     
   9667782926.9372234        1589835874.3226657        1446639334.2234819     
   8943900803.4797821        512871501.31585026        863120631.64744067     
   8368600856.2164907       -68818951.043802261        475195213.55313909     
   7941883085.1473484       -155235482.75629234        282863079.94057792     
   8337707311.3746948        2501312193.4124084        1712443145.6558578     
   8021512000.8525743        1424696708.2661102        1275727490.5131814     
   7805270745.4575891        681261406.87692451        956943279.02504611     
   7688983545.1897373        271006289.24485159        756090511.19145191     
   7672650400.0490208        193931355.36989212        673169187.01239967     
   6810161064.8975954        2043048319.4692786        1353940647.7434568     
   6828343769.7129498        1395488350.6930618        1202888516.6043677     
   6897852408.5884209        919014828.78390670        1092105988.2926219     
   7018686981.5240135        613627753.74181485        1021593062.8082173     
   7190847488.5197229        479327125.56678462        991349740.15115619     
   5957608487.1575136        1787282546.1472540        1150243827.5440605     
   6088278233.5183430        1502210801.6035190        1228122412.4970415     
   6221645792.8722773        1226131767.0367963        1268608759.4501662     
   6357711165.2193155        959045442.44708598        1271702868.4034348     
   6496474350.5594587        700951827.83438849        1237404739.3568466     
   7998545543.8147078       -568173388.81176853       -179568581.06430921     
   7917217747.4175797       -200785269.32219696       -77798584.364600644     
   7794556929.9303627        28826113.200400829       -8942586.1307934783     
   7630563091.3530512        120660758.75603008        26999413.637111489     
   7425236231.6856537        74718667.344686985        30027414.939116176     
   7941883085.1473484       -155235482.75629234        282863079.94057792     
   7739447604.8742027        15712868.294099808        281557646.99588299     
   7513757549.8513613        109145970.17883921        265338709.94457534     
   7264812920.0788212        125063822.89792347        234206268.78665891     
   6992613715.5565844        63466426.451348305        188160323.52213082     
   7672650400.0490208        193931355.36989212        673169187.01239967     
   7400537219.7835417        183868933.14621353        589879845.15376103     
   7123247911.1087599        156552749.55819750        509677493.54780197     
   6840782474.0246782        111982804.60583925        432562132.19452161     
   6553140908.5312939        50159098.289145231        358533761.09392005     
   7190847488.5197229        479327125.56678462        991349740.15115619     
   6900486592.1455975        303682925.23414254        847168010.10903609     
   6623028013.7025652        171046451.33847713        724073764.67888427     
   6358471753.1906252        81417703.879786730        622067003.86070037     
   6106817810.6097803        34796682.858076096        541147727.65448844     
   6496474350.5594587        700951827.83438849        1237404739.3568466     
   6239295721.9603710        375154844.55788612        1053422141.8617036     
   6013097857.6327734        152627075.51967669        908527523.33782077     
   5817880757.5766611        33368520.719761848        802720883.78519738     
   5653644421.7920389        17379180.158136606        736002223.20383251     
   7425236231.6856537        74718667.344686985        30027414.939116176     
   7218192860.5667372       -16367201.174152851        14335324.537476955     
   7023056912.5123901       -67761659.477751732        3854696.4258963689     
   6839828387.5226107       -79464707.566130638       -1414469.3956334293     
   6668507285.5974083       -51476345.439255714       -1472172.9271074743     
   6992613715.5565844        63466426.451348305        188160323.52213082     
   6807568233.0369101        4037094.0894584656        180956055.65305713     
   6629967620.3112669       -30576005.625652313        178156423.76481691     
   6459811877.3796597       -40372872.693977356        179761427.85741404     
   6297101004.2420921       -25353507.115513563        185771067.93084338     
   6553140908.5312939        50159098.289145231        358533761.09392005     
   6387788096.5845165        21694736.676298380        354611003.60845304     
   6225417601.1612368        3171430.1417832375        354286055.79460239     
   6066029422.2614574       -5410821.3144001961        357558917.65236545     
   5909623559.8851738       -4052017.6922564507        364429589.18174344     
   6106817810.6097803        34796682.858076096        541147727.65448844     
   5958852451.2095528        36605726.586370230        535300168.40366930     
   5809406855.0622940        33480647.824540854        532243592.51524687     
   5658481022.1679974        25421446.572594881        531977999.98921633     
   5506074952.5266628        12428122.830524921        534503390.82558274     
   5653644421.7920389        17379180.158136606        736002223.20383251     
   5520761296.9120283        48770063.819669724        723023550.03870428     
   5381935382.0144415        60351647.422627449        712029033.92674947     
   5237166677.0992870        52123930.967015266        703018674.86797190     
   5086455182.1665611        24086914.452828884        695992472.86236930     
   6668507285.5974083       -51476345.439255714       -1472172.9271074743     
   6481303059.4757891       -17395003.255541086        3622163.6292086071     
   6289350476.6516476        858483.25309610367        15751606.092470616     
   6092649537.1249819        3284114.0866572857        34916154.462682396     
   5891200240.8957911       -10118110.754868031        61115808.739841379     
   6297101004.2420921       -25353507.115513563        185771067.93084338     
   6122991512.5847273       -6155018.3406834602        180768945.01149881     
   5946447288.7722130        4927696.5836570263        182239093.48283565     
   5767468332.8045473        7894637.6574869156        190181513.34485850     
   5586054644.6817398        2745804.8808300495        204596204.59757012     
   5909623559.8851738       -4052017.6922564507        364429589.18174344     
   5747000704.0741768       -218811.91167354584        352030235.42533505     
   5584256740.6554041        3210701.8429915905        345540318.54335093     
   5421391669.6288576        6236523.5717470646        344959838.53579074     
   5258405490.9945307        8858653.2745823860        350288795.40265375     
   5506074952.5266628        12428122.830524921        534503390.82558274     
   5353330633.9441423        413616.03148818016        517406034.87071919     
   5202778832.3012190       -4292500.9688825607        505655281.27401781     
   5054419547.5978966       -1690228.1705811024        499251130.03547770     
   4908252779.8341799        8220434.4263916016        498193581.15510052     
   5086455182.1665611        24086914.452828884        695992472.86236930     
   4941981302.1946239       -4257734.5111892223        676896343.34765339     
   4802013563.7096624       -17581911.851962805        662583981.67483711     
   4666551966.7116776       -15885617.569479942        653055387.84392047     
   4535596511.2006664        831148.33625006676        648310561.85490489     
   5891200240.8957911       -10118110.754868031        61115808.739841379     
   5724039361.4840631       -17422698.688877344        80675666.862869769     
   5558864934.5082111       -18105778.503295422        97133134.623510942     
   5395676959.9682446       -12167350.198099136        110488212.02178414     
   5234475437.8641624        392586.22671127319        120740899.05768679     
   5586054644.6817398        2745804.8808300495        204596204.59757012     
   5414401909.6808929       -1690921.7579083443        219050311.62891105     
   5243722689.3855219       -2882599.3784010410        232489721.34748179     
   5074016983.7956171       -829227.98066902161        244914433.75327083     
   4905284792.9111910        4469192.4353101254        256324448.84628713     
   5258405490.9945307        8858653.2745823860        350288795.40265375     
   5088225737.6891470        9079239.1164977551        358455390.65684038     
   4918006561.3588161        9168414.8752720356        367694981.64785153     
   4747747962.0035515        9126180.5509226322        378007568.37568057     
   4577449939.6233454        8952536.1434504986        389393150.84033877     
   4908252779.8341799        8220434.4263916016        498193581.15510052     
   4745510845.5088167        14887783.934315443        498890903.94665045     
   4581716550.4281044        18047264.257748365        502748915.52461946     
   4416869894.5920420        17698875.396681547        509767615.88901699     
   4250970878.0006323        13842617.351122379        519947005.03983784     
   4535596511.2006664        831148.33625006676        648310561.85490489     
   4386257233.1399021        15734712.695567846        640356851.49833620     
   4234852656.5933762        23753948.769019365        637651522.97779560     
   4081382781.5610962        24888856.556616783        640194576.29327130     
   3925847608.0430517        19139436.058340311        647986011.44477546     
   5234475437.8641624        392586.22671127319        120740899.05768679     
   5047536944.2868643        6573378.5634171963        121530244.57652317     
   4859496798.7267847        9081997.6241741180        129353656.61853732     
   4670355001.1839209        7918443.4089827538        144211135.18372923     
   4480111551.6582613        3082715.9178147316        166102680.27209893     
   4905284792.9111910        4469192.4353101254        256324448.84628713     
   4735211877.1926899        9148157.1003332138        255920236.35386604     
   4564022212.7242508        10104625.932248831        261802054.38463554     
   4391715799.5059071        7338598.9311335087        273969902.93862510     
   4218292637.5376272        850076.09689211845        292423782.01582193     
   4577449939.6233454        8952536.1434504986        389393150.84033877     
   4422105356.0494308        11488499.422501087        387777767.44164723     
   4265628926.9584646        10251644.311354160        391700378.56620204     
   4108020652.3504353        5241970.8100206852        401160984.21398830     
   3949280532.2253442       -3540521.0815188885        416159584.38501549     
   4250970878.0006323        13842617.351122379        519947005.03983784     
   4108217380.8571162        13594405.529957056        517102837.83989191     
   3964316941.4294086        9523052.7614822388        519048629.16322082     
   3819269559.7175031        1628559.0456826687        525784379.00981951     
   3673075235.7214003       -10089075.617438078        537310087.37968898     
   3925847608.0430517        19139436.058340311        647986011.44477546     
   3793547951.6157389        15465875.422705889        643895447.54858863     
   3660086256.1370897        7918851.2826180458        643846806.17569828     
   3525462521.6071134       -3501636.3618876934        647840087.32611513     
   3389676748.0258060       -18795587.510842323        655875290.99983215     
   4480111551.6582613        3082715.9178147316        166102680.27209893     
   4259287238.8887658       -10996056.746134996        170435783.36009172     
   4039519224.5638409       -21553834.594860077        196222217.68530199     
   3820807508.6834726       -28590617.628387928        243461983.24775985     
   3603152091.2476740       -32106405.846693754        312155080.04744673     
   4218292637.5376272        850076.09689211845        292423782.01582193     
   4048478132.6502266       -4440531.9097964764        292703038.65454549     
   3879856410.1632261       -5755198.5818037987        308739239.81365734     
   3712427470.0766468       -3093923.9190874100        340532385.49316037     
   3546191312.3904757        3543292.0783340931        388082475.69306511     
   3949280532.2253442       -3540521.0815188885        416159584.38501549     
   3814200444.6004725       -4925581.6168575287        412544225.85630667     
   3680449623.3318644       -1879754.2979774475        418989425.13113993     
   3548028068.4195113        5596960.8751003742        435495182.20952517     
   3416935779.8634353        17504563.902406216        462061497.09146303     
   3673075235.7214003       -10089075.617438078        537310087.37968898     
   3556454174.7395163       -12451205.867268085        529959344.96536368     
   3441298864.0697513       -9927501.7433800697        526972773.63774109     
   3327609303.7120924       -2517963.2457935810        528350373.39683944     
   3215385493.6665568        9777409.6255285740        534092144.24263543     
   3389676748.0258060       -18795587.510842323        655875290.99983215     
   3275239323.0673647       -27017404.661027431        644948395.98172033     
   3162404132.3768849       -29898440.918018818        632689285.33347726     
   3051171175.9543815       -27438696.281759501        619097959.05510294     
   2941540453.7998304       -19638170.752307057        604174417.14659214     
   3603152091.2476740       -32106405.846693754        312155080.04744673     
   3139860029.6255851       -53606797.801613092        289846625.61024100     
   2712241157.1540499        43803440.745290995        321004651.83734173     
   2320295473.8330760        260124309.79407287        405629158.72874457     
   1964022979.6626451        595355809.34467411        543720146.28447306     
   3546191312.3904757        3543292.0783340931        388082475.69306511     
   3209638254.5277586        4333808.3157920837        370694909.56315047     
   2901726504.5677166        100595350.89548731        392188348.38557225     
   2622456062.5103426        292327919.81741416        452562792.16035414     
   2371826928.3556113        579531515.08150649        551818240.88747370     
   3416935779.8634353        17504563.902406216        462061497.09146303     
   3165448938.0116410        28084152.007736206        441390957.81295913     
   2935571522.8146214        110695162.29565406        445015947.77484554     
   2727303534.2723680        265337594.76614308        472936466.97711354     
   2540644972.3848977        492011449.41920853        525152515.41977918     
   3215385493.6665568        9777409.6255285740        534092144.24263543     
   3007292080.0772228        17644233.274190426        501934770.35967571     
   2813776211.8947692        74102874.945787549        479487450.00514239     
   2634837889.1192045        179153334.64034200        466750183.17904323     
   2470477111.7505164        332795612.35783011        463722969.88136643     
   2941540453.7998304       -19638170.752307057        604174417.14659214     
   2735167680.7245035       -26985947.884862304        552326347.20330071     
   2536340571.8081765       -9181511.1540852785        495602855.07647574     
   2345059127.0508304        33775139.439970016        434003940.76612139     
   2161323346.4524922        101884003.89735889        367529604.27224314     
   5957608487.1575136        1787282546.1472540        1150243827.5440605     
   6088278233.5183430        1502210801.6035190        1228122412.4970415     
   6221645792.8722773        1226131767.0367963        1268608759.4501662     
   6357711165.2193155        959045442.44708598        1271702868.4034348     
   6496474350.5594587        700951827.83438849        1237404739.3568466     
   5434489367.4515228        1630346810.2354569        1033672290.6148542     
   5489844783.6817245        1372454302.3148298        1114041861.5461528     
   5547381633.5936804        1121833240.0000477        1167597438.8484144     
   5607099917.1873894        878483623.29111135        1194339022.5216386     
   5668999634.4628506        642405452.18801975        1194266612.5658257     
   4895243495.0767002        1468573048.5230100        936545642.51302409     
   4905508136.5214691        1246926843.8290496        1018803756.8927318     
   4917437832.3366432        1030830820.3697677        1084826122.0142217     
   4931032582.5222178        820284978.14516330        1134612737.8774929     
   4946292387.0781994        615289317.15523803        1168163604.4825466     
   4339870870.0330410        1301961261.0099123        858863883.23856974     
   4335268292.0375757        1125628426.1461778        942408098.53677833     
   4331814389.1011648        953124508.14595532        1020294808.9475876     
   4329509161.2238073        784449507.00924361        1092524014.4709978     
   4328352608.4055023        619603422.73604286        1159095715.1070099     
   3768371492.3205471        1130511447.6961641        800627012.79149151     
   3779125250.2300458        1008559049.2662156        884854886.47829187     
   3790511303.8872485        888714303.32861114        974003499.64851260     
   3802529653.2921534        770977209.88335049        1068072852.3021536     
   3815180298.4447627        655347768.93043435        1167062944.4392147     
   6496474350.5594587        700951827.83438849        1237404739.3568466     
   6239295721.9603710        375154844.55788612        1053422141.8617036     
   6013097857.6327734        152627075.51967669        908527523.33782077     
   5817880757.5766611        33368520.719761848        802720883.78519738     
   5653644421.7920389        17379180.158136606        736002223.20383251     
   5668999634.4628506        642405452.18801975        1194266612.5658257     
   5518989193.6791096        382726694.39349222        1073627790.7735475     
   5393152787.8243771        203628053.02899742        981080005.52597272     
   5291490416.8986568        105109528.09453702        916623256.82310402     
   5214002080.9019432        87171119.590108156        880257544.66493750     
   4946292387.0781994        615289317.15523803        1168163604.4825466     
   4872030298.6053600        412302834.19135261        1102927374.1602414     
   4815135515.7190514        267207369.84923911        1054785237.9560856     
   4775608038.4192772        180002924.12890077        1023737195.8700799     
   4753447866.7060318        150689497.03033447        1009783247.9022229     
   4328352608.4055023        619603422.73604286        1159095715.1070099     
   4298419036.7391243        463883263.95146656        1141320892.0217865     
   4279046041.3167977        343365025.98040223        1129643220.6281588     
   4270233622.1385279        258048708.82285380        1124062700.9261248     
   4271981779.2043095        207934312.47881842        1124579332.9156859     
   3815180298.4447627        655347768.93043435        1167062944.4392147     
   3798155408.0804005        537467983.67383504        1188808344.3581831     
   3784884364.6176133        432101021.42248654        1205653953.5421910     
   3775367168.0564036        339246882.17639458        1217599771.9912398     
   3769603818.3967690        258905565.93555582        1224645799.7053263     
   5653644421.7920389        17379180.158136606        736002223.20383251     
   5520761296.9120283        48770063.819669724        723023550.03870428     
   5381935382.0144415        60351647.422627449        712029033.92674947     
   5237166677.0992870        52123930.967015266        703018674.86797190     
   5086455182.1665611        24086914.452828884        695992472.86236930     
   5214002080.9019432        87171119.590108156        880257544.66493750     
   5078804522.1771097        84829691.831471205        856067029.03696096     
   4941131663.1809959        74237263.168570995        835896402.18752468     
   4800983503.9136057        55393833.601413965        819745664.11662388     
   4658360044.3749371        28299403.129997253        807614814.82426441     
   4753447866.7060318        150689497.03033447        1009783247.9022229     
   4621752250.4945602        116360670.75898194        978426294.51540494     
   4491048823.7581005        85339142.737681866        953124961.63249183     
   4361337586.4966583        57624912.966435432        933879249.25348318     
   4232618538.7102323        33217981.445242405        920689157.37837625     
   4271981779.2043095        207934312.47881842        1124579332.9156859     
   4149604481.8643780        143363000.60220432        1090101346.4740403     
   4031686863.7457561        93657286.129956484        1063714712.2616599     
   3918228924.8484449        58817169.062075853        1045419430.2785488     
   3809230665.1724439        38842649.398563623        1035215500.5247045     
   3769603818.3967690        258905565.93555582        1224645799.7053263     
   3662361216.2865634        165836681.36113489        1191092184.9128606     
   3563045783.1439638        99191693.345397115        1167665654.0750260     
   3471657518.9689655        58970601.888334990        1154366207.1918216     
   3388196423.7615728        45173406.989956021        1151193844.2632506     
   5086455182.1665611        24086914.452828884        695992472.86236930     
   4941981302.1946239       -4257734.5111892223        676896343.34765339     
   4802013563.7096624       -17581911.851962805        662583981.67483711     
   4666551966.7116776       -15885617.569479942        653055387.84392047     
   4535596511.2006664        831148.33625006676        648310561.85490489     
   4658360044.3749371        28299403.129997253        807614814.82426441     
   4527940678.7044544        6164070.4623317719        793819499.88739932     
   4400852351.5316010       -4867800.5465779305        784618662.81059396     
   4277095062.8563719       -4796209.8967363834        780012303.59384620     
   4156668812.6787710        6378842.4118604660        780000422.23716056     
   4232618538.7102323        33217981.445242405        920689157.37837625     
   4115712858.8216619        17129716.518067598        910823703.53178787     
   4000963114.4413657        8227903.2851500511        905363437.56342018     
   3888369305.5693488        6512541.7464909554        904308359.47327042     
   3777931432.2056098        11983631.902088881        907658469.26133800     
   3809230665.1724439        38842649.398563623        1035215500.5247045     
   3705297842.5462365        28639203.656014204        1027908954.2808220     
   3602345852.4389572        21705199.643227577        1024818305.9333148     
   3500374694.8506079        18040637.360202789        1025943555.4821875     
   3399384369.7811847        17645516.806936502        1031284702.9274385     
   3388196423.7615728        45173406.989956021        1151193844.2632506     
   3296695629.8781857        40692531.876172662        1145075252.1344972     
   3205000565.5243759        35564088.527653456        1142983267.9202802     
   3113111230.7001457        29788076.944396973        1144917891.6206017     
   3021027625.4054966        23364497.126408577        1150879123.2354589     
   4535596511.2006664        831148.33625006676        648310561.85490489     
   4386257233.1399021        15734712.695567846        640356851.49833620     
   4234852656.5933762        23753948.769019365        637651522.97779560     
   4081382781.5610962        24888856.556616783        640194576.29327130     
   3925847608.0430517        19139436.058340311        647986011.44477546     
   4156668812.6787710        6378842.4118604660        780000422.23716056     
   4019257420.7819114        15357122.280532122        770103324.88553131     
   3880426267.3605146        19602863.734073639        765500516.09103501     
   3740175352.4145808        19116066.772495985        766191995.85366535     
   3598504675.9441109        13896731.395792723        772177764.17343009     
   3777931432.2056098        11983631.902088881        907658469.26133800     
   3652579088.5329657        15075975.898207903        896571111.36940491     
   3526452520.2970009        15587571.349934101        890823948.75571227     
   3399551727.4977241        13518418.257279873        890416981.42025590     
   3271876710.1351290        8868516.6202330589        895350209.36303806     
   3399384369.7811847        17645516.806936502        1031284702.9274385     
   3286222236.3930612        14891273.548593044        1019760210.9499617     
   3172931415.4028397        11708071.616601348        1013621820.9718289     
   3059511906.8105259        8095911.0109612942        1012869532.9930439     
   2945963710.6161127        4054791.7316650152        1017503347.0136015     
   3021027625.4054966        23364497.126408577        1150879123.2354589     
   2920186864.3621988        14803015.231695652        1139670623.6271956     
   2819862952.6780248        7964364.5340676308        1133894132.7393837     
   2720055890.3529792        2848545.0335335732        1133549650.5720248     
   2620765677.3870597       -544443.26991772652        1138637177.1251197     
   3925847608.0430517        19139436.058340311        647986011.44477546     
   3793547951.6157389        15465875.422705889        643895447.54858863     
   3660086256.1370897        7918851.2826180458        643846806.17569828     
   3525462521.6071134       -3501636.3618876934        647840087.32611513     
   3389676748.0258060       -18795587.510842323        655875290.99983215     
   3598504675.9441109        13896731.395792723        772177764.17343009     
   3476874151.0360670        11211215.623006582        767097581.83233821     
   3354370051.9175115        5613785.8151814938        765954490.86056817     
   3230992378.5884547       -2895558.0276534557        768748491.25812912     
   3106741131.0488868       -14316815.905514479        775479583.02501488     
   3271876710.1351290        8868516.6202330589        895350209.36303806     
   3160615799.1635718        7081190.4354541302        889616950.89133334     
   3048769778.8223300        3343499.6850606203        887715952.63498127     
   2936338649.1114054       -2344555.6309298277        889647214.59398425     
   2823322410.0308037       -9982975.5125342607        895410736.76833487     
   2945963710.6161127        4054791.7316650152        1017503347.0136015     
   2844772895.9982567        3075799.8600620031        1011453554.7255809     
   2743285436.8515382        1107992.8922566175        1009131191.4989389     
   2641501333.1759682       -1848629.1717284918        1010536257.3336725     
   2539420584.9715352       -5794066.3319087029        1015668752.2297852     
   2620765677.3870597       -544443.26991772652        1138637177.1251197     
   2529345441.5401173       -804956.10318410397        1132607393.3350794     
   2437917026.0051441       -1092734.5632239580        1130200207.4524393     
   2346480430.7821374       -1407778.6500416994        1131415619.4772067     
   2255035655.8710957       -1750088.3636379242        1136253629.4093754     
   3389676748.0258060       -18795587.510842323        655875290.99983215     
   3275239323.0673647       -27017404.661027431        644948395.98172033     
   3162404132.3768849       -29898440.918018818        632689285.33347726     
   3051171175.9543815       -27438696.281759501        619097959.05510294     
   2941540453.7998304       -19638170.752307057        604174417.14659214     
   3106741131.0488868       -14316815.905514479        775479583.02501488     
   2990840576.5186782       -22272418.596849561        766935982.44056308     
   2876446858.1442828       -25205234.102134228        758537679.09437597     
   2763559975.9257059       -23115262.421361208        750284672.98645222     
   2652179929.8629446       -16002503.554537654        742176964.11679697     
   2823322410.0308037       -9982975.5125342607        895410736.76833487     
   2710180191.2670999       -16405924.143524289        889139132.82003379     
   2598449410.5470595       -18124079.295639515        884490338.97839403     
   2488130067.8706903       -15137440.968858600        881464355.24341774     
   2379222163.2379837       -7446009.1631890535        880061181.61510444     
   2539420584.9715352       -5794066.3319087029        1015668752.2297852     
   2433258167.3126187       -9417921.3010755777        1011557847.1201265     
   2328411789.5852108       -8654976.4985408783        1010547264.9855287     
   2224881451.7893305       -3505231.9242557287        1012637005.8259860     
   2122667153.9249628        6031312.4217408895        1017827069.6415081     
   2255035655.8710957       -1750088.3636379242        1136253629.4093754     
   2160074504.6552401       -1308410.0694960356        1134192125.3408496     
   2066333995.2587471        3202074.2891910076        1136708457.1157799     
   1973814127.6816213        11781364.712430120        1143802624.7341714     
   1882514901.9238663        24429461.200244665        1155474628.1960144     
   2941540453.7998304       -19638170.752307057        604174417.14659214     
   2735167680.7245035       -26985947.884862304        552326347.20330071     
   2536340571.8081765       -9181511.1540852785        495602855.07647574     
   2345059127.0508304        33775139.439970016        434003940.76612139     
   2161323346.4524922        101884003.89735889        367529604.27224314     
   2652179929.8629446       -16002503.554537654        742176964.11679697     
   2435431240.5109382       -33931980.455550909        704224450.65118778     
   2221506499.9826260       -42448294.610925674        665607816.02592242     
   2010405708.2780099       -41551446.020638943        626327060.24100232     
   1802128865.3970952       -31241434.684689641        586382183.29644454     
   2379222163.2379837       -7446009.1631890535        880061181.61510444     
   2164129846.2489414       -32347499.240793943        850495556.73599517     
   1947139762.7482994       -63574877.690395236        824477111.72111416     
   1728251912.7360547       -101128144.51199806        802005846.57045496     
   1507466296.2122223       -145007299.70558751        783081761.28401279     
   2122667153.9249628        6031312.4217408895        1017827069.6415081     
   1921263497.9385254       -22232504.240553617        991139665.45773399     
   1713240360.1051981       -72561260.392502427        972210742.16204810     
   1498597740.4249766       -144954956.03408253        961040299.75446486     
   1277335638.8978641       -239413591.16533113        957628338.23498046     
   1882514901.9238663        24429461.200244665        1155474628.1960144     
   1706832195.5796900       -3586995.4548391104        1126156776.8163860     
   1519808292.0533211       -69407442.717236578        1108808707.3487306     
   1321443191.3447597       -173031880.58692896        1103430419.7930379     
   1111736893.4540131       -314460309.06391573        1110021914.1493318     
   3768371492.3205471        1130511447.6961641        800627012.79149151     
   3779125250.2300458        1008559049.2662156        884854886.47829187     
   3790511303.8872485        888714303.32861114        974003499.64851260     
   3802529653.2921534        770977209.88335049        1068072852.3021536     
   3815180298.4447627        655347768.93043435        1167062944.4392147     
   3207925479.0140905        962377643.70422709        756705052.65184188     
   3235872898.1113153        868106015.20545077        853028229.56731296     
   3263557128.7325535        772957091.78671813        951268690.23657489     
   3290978170.8778057        676930873.44802880        1051426434.6596280     
   3318136024.5470705        580027360.18938434        1153501462.8364725     
   2685712947.1885400        805713884.15656197        721968024.29967344     
   2722272725.3888364        736548634.96356153        829341772.84950995     
   2757673830.8894558        663521143.43830407        935629349.42350841     
   2791916263.6903982        586631409.58078992        1040830754.0216686     
   2825000023.7916641        505879433.39101899        1144945986.6439905     
   2201733896.8438969        660520169.05316913        696415927.73498595     
   2238324732.0626101        613886908.54054797        813795516.32488322     
   2272861410.3579555        560406458.28336942        927085477.20931244     
   2305343931.7299342        500078818.28163362        1036285810.3882748     
   2335772296.1785455        432903988.53534019        1141396515.8617694     
   1755988327.9801612        526796498.39404833        680048762.95777988     
   1784028918.1326356        500120835.93640983        806389459.99343216     
   1809119867.1380522        463613036.32191372        925637073.59398782     
   1831261174.9964118        417273099.55055988        1037791603.7594466     
   1850452841.7077143        361101025.62234831        1142853050.4898086     
   3815180298.4447627        655347768.93043435        1167062944.4392147     
   3798155408.0804005        537467983.67383504        1188808344.3581831     
   3784884364.6176133        432101021.42248654        1205653953.5421910     
   3775367168.0564036        339246882.17639458        1217599771.9912398     
   3769603818.3967690        258905565.93555582        1224645799.7053263     
   3318136024.5470705        580027360.18938434        1153501462.8364725     
   3293910739.0688543        472885331.04627788        1181840398.1547606     
   3273361670.1060433        377997356.95452130        1207062415.0173161     
   3256488817.6586380        295363437.91411507        1229167513.4241383     
   3243292181.7266364        224983573.92505801        1248155693.3752279     
   2825000023.7916641        505879433.39101899        1144945986.6439905     
   2798668263.9973884        411003336.60074610        1179787888.5777318     
   2775935090.3323460        328122526.90791774        1213295744.3349681     
   2756800502.7965364        257237004.31253517        1245469553.9156983     
   2741264501.3899612        198346768.81459701        1276309317.3199239     
   2335772296.1785455        432903988.53534019        1141396515.8617694     
   2312427982.8660016        351822000.33723837        1182650815.6270974     
   2292604625.2965202        282476531.28267670        1224353941.4951475     
   2276302223.4701009        224867581.37165493        1266505893.4659190     
   2263520777.3867431        178995150.60417330        1309106671.5394132     
   1850452841.7077143        361101025.62234831        1142853050.4898086     
   1835189895.6746948        295341322.25575322        1190429179.3028564     
   1823370274.9985671        241059370.07879549        1240237006.4978547     
   1814993979.6793292        198255169.09147352        1292276532.0748010     
   1810061009.7169826        166928719.29378641        1346547756.0336964     
   3769603818.3967690        258905565.93555582        1224645799.7053263     
   3662361216.2865634        165836681.36113489        1191092184.9128606     
   3563045783.1439638        99191693.345397115        1167665654.0750260     
   3471657518.9689655        58970601.888334990        1154366207.1918216     
   3388196423.7615728        45173406.989956021        1151193844.2632506     
   3243292181.7266364        224983573.92505801        1248155693.3752279     
   3164835453.3211470        150080522.59622788        1230219857.0445130     
   3092628776.7973566        96010977.539730310        1220107801.1676581     
   3026672152.1552658        62774938.755559683        1217819525.7446618     
   2966965579.3948746        50372406.243722677        1223355030.7755277     
   2741264501.3899612        198346768.81459701        1276309317.3199239     
   2685012779.5441260        139635290.58783925        1272034622.8507376     
   2633333992.4940867        96166928.347062945        1273280405.3346398     
   2586228140.2398400        67941682.092265606        1280046664.7716315     
   2543695222.7813878        54959551.823449969        1292333401.1617110     
   2263520777.3867431        178995150.60417330        1309106671.5394132     
   2222893194.9555030        134500985.33596826        1316536482.3315332     
   2185161430.2341509        99659545.767395616        1327183466.5759718     
   2150325483.2226892        74470831.898452878        1341047624.2727275     
   2118385353.9211175        58934843.729142785        1358128955.4217989     
   1810061009.7169826        166928719.29378641        1346547756.0336964     
   1778476699.5552762        134677606.84062040        1363725435.4869018     
   1748111090.0175529        106488829.80073118        1381816984.8916514     
   1718964181.1038141        82362388.174125373        1400822404.2479479     
   1691035972.8140600        62298281.960800350        1420741693.5557911     
   3388196423.7615728        45173406.989956021        1151193844.2632506     
   3296695629.8781857        40692531.876172662        1145075252.1344972     
   3205000565.5243759        35564088.527653456        1142983267.9202802     
   3113111230.7001457        29788076.944396973        1144917891.6206017     
   3021027625.4054966        23364497.126408577        1150879123.2354589     
   2966965579.3948746        50372406.243722677        1223355030.7755277     
   2884899223.4221840        41144753.979883075        1216714231.2022820     
   2803098957.4656138        32804068.436447024        1214399493.7573552     
   2721564781.5251627        25350349.613400340        1216410818.4407530     
   2640296695.6008325        18783597.510757089        1222748205.2524669     
   2543695222.7813878        54959551.823449969        1292333401.1617110     
   2471918888.1873479        41241797.449942827        1285707481.3782706     
   2400869004.0959697        29945544.751968980        1283707077.9369299     
   2330545570.5072498        21070793.729524732        1286332190.8376949     
   2260948587.4211879        14617544.382612348        1293582820.0805652     
   2118385353.9211175        58934843.729142785        1358128955.4217989     
   2057754624.1736805        40983662.286352634        1352055002.6624568     
   1998310705.4154458        26988517.474233031        1350906020.4590025     
   1940053597.6464081        16949409.292771220        1354682008.8114355     
   1882983300.8665688        10866337.741973042        1363382967.7197552     
   1691035972.8140600        62298281.960800350        1420741693.5557911     
   1642406431.3811789        40370348.489112079        1415756795.0548463     
   1595424061.4240379        23932986.603228450        1415996321.3235719     
   1550088862.9426355        12986196.303137243        1421460272.3619673     
   1506400835.9369721        7529977.5888438225        1432148648.1700323     
   3021027625.4054966        23364497.126408577        1150879123.2354589     
   2920186864.3621988        14803015.231695652        1139670623.6271956     
   2819862952.6780248        7964364.5340676308        1133894132.7393837     
   2720055890.3529792        2848545.0335335732        1133549650.5720248     
   2620765677.3870597       -544443.26991772652        1138637177.1251197     
   2640296695.6008325        18783597.510757089        1222748205.2524669     
   2553677795.9959097        11750147.866391182        1212469498.5935180     
   2467543496.4160571        6332031.6389122009        1207346053.8012531     
   2381893796.8612599        2529248.8282927275        1207377870.8756638     
   2296728697.3315287        341799.43455862999        1212564949.8167565     
   2260948587.4211879        14617544.382612348        1293582820.0805652     
   2187760843.9581561        8874915.3996524811        1284196282.1478567     
   2115025451.1861243        4640122.0533589125        1279688259.2280581     
   2042742409.1050923        1913164.3437221050        1280058751.3211684     
   1970911717.7150519        694042.27074480057        1285307758.4271889     
   1882983300.8665688        10866337.741973042        1363382967.7197552     
   1822436008.2489345        6177317.8314731121        1354850974.2902114     
   1762308816.9882348        2888635.7774176598        1350920749.0198073     
   1702601727.0844696        1000291.5798144341        1351592291.9085395     
   1643314738.5376360        512285.23864746094        1356865602.9564114     
   1506400835.9369721        7529977.5888438225        1432148648.1700323     
   1457703288.8682425        3657355.1618486047        1424433575.0205824     
   1409393593.8223865        1077572.8110955358        1421043523.1764963     
   1361471750.7993975       -209369.46343070269        1421978492.6377766     
   1313937759.7992790       -203471.66172558069        1427238483.4044201     
   2620765677.3870597       -544443.26991772652        1138637177.1251197     
   2529345441.5401173       -804956.10318410397        1132607393.3350794     
   2437917026.0051441       -1092734.5632239580        1130200207.4524393     
   2346480430.7821374       -1407778.6500416994        1131415619.4772067     
   2255035655.8710957       -1750088.3636379242        1136253629.4093754     
   2296728697.3315287        341799.43455862999        1212564949.8167565     
   2215072896.7626352        49930.899572610855        1206085433.8861413     
   2133488182.6547315       -4982.7654540538788        1203501660.0393274     
   2051974555.0078068        177058.43945050240        1204813628.2763145     
   1970532013.8218677        596054.51430881023        1210021338.5971007     
   1970911717.7150519        694042.27074480057        1285307758.4271889     
   1899800764.3567786        604941.61381030083        1278470987.5298498     
   1828840163.6085105        1017016.3235594034        1275803102.8927133     
   1758029915.4702420        1930266.3999725580        1277304104.5157764     
   1687370019.9419742        3344691.8430594206        1282973992.3990407     
   1643314738.5376360        512285.23864746094        1356865602.9564114     
   1583529044.3225496        860076.03953939676        1349764054.2662046     
   1523972968.8664849        1973262.7038352489        1347104536.0125959     
   1464646512.1694360        3851845.2315154076        1348887048.1955876     
   1405549674.2314100        6495823.6226103902        1355111590.8151841     
   1313937759.7992790       -203471.66172558069        1427238483.4044201     
   1266257736.6599476        815334.17675513029        1419964634.0952022     
   1218886598.4286575        2863756.3753753901        1417405959.3989816     
   1171824345.1053996        5941794.9341037273        1419562459.3157570     
   1125070976.6901793        10049449.852958083        1426434133.8455312     
   2255035655.8710957       -1750088.3636379242        1136253629.4093754     
   2160074504.6552401       -1308410.0694960356        1134192125.3408496     
   2066333995.2587471        3202074.2891910076        1136708457.1157799     
   1973814127.6816213        11781364.712430120        1143802624.7341714     
   1882514901.9238663        24429461.200244665        1155474628.1960144     
   1970532013.8218677        596054.51430881023        1210021338.5971007     
   1887843042.7808149        2266536.9225535393        1209725593.4382517     
   1806154687.6677406        7272405.7573943138        1214008580.8517702     
   1725466948.4826398        15613661.018817544        1222870300.8376539     
   1645779825.2255235        27290302.706847072        1236310753.3959079     
   1687370019.9419742        3344691.8430594206        1282973992.3990407     
   1616955791.1583295        6244746.9901933670        1284187309.2765775     
   1547322152.4112785        11746768.925963938        1289980255.4553888     
   1478469103.7008126        19850757.650357842        1300352830.9354875     
   1410396645.0269399        30556713.163392127        1315305035.7168639     
   1405549674.2314100        6495823.6226103902        1355111590.8151841     
   1347412749.7877824        10626220.133410633        1357577272.8558176     
   1289836389.4893560        16625163.794887364        1364623480.9266455     
   1232820593.3361330        24492654.607035875        1376250215.0276618     
   1176365361.3281112        34228692.569862783        1392457475.1588771     
   1125070976.6901793        10049449.852958083        1426434133.8455312     
   1079213918.6691737        15410956.352212667        1429895484.1759830     
   1033697398.9019853        21907590.364193738        1437938257.2655351     
   988521417.38860118        29539351.888852537        1450562453.1141939     
   943685974.12903774        38306240.926253438        1467768071.7219548     
   1882514901.9238663        24429461.200244665        1155474628.1960144     
   1706832195.5796900       -3586995.4548391104        1126156776.8163860     
   1519808292.0533211       -69407442.717236578        1108808707.3487306     
   1321443191.3447597       -173031880.58692896        1103430419.7930379     
   1111736893.4540131       -314460309.06391573        1110021914.1493318     
   1645779825.2255235        27290302.706847072        1236310753.3959079     
   1502106589.5852439        10266804.692925811        1195684307.1769559     
   1351166162.6409380       -30980664.334421992        1165173912.2087607     
   1192958544.3926067       -96452104.375179648        1144779568.4913275     
   1027483734.8402554       -186147515.42934322        1134501276.0246422     
   1410396645.0269399        30556713.163392127        1315305035.7168639     
   1293436506.7727885        22937261.795284510        1268123001.5164528     
   1173283183.0927823        4673859.0076478124        1229203287.9055822     
   1049936673.9869257       -24233495.199493647        1198545894.8842506     
   923396979.45520222       -63784800.826172769        1176150822.4524593     
   1176365361.3281112        34228692.569862783        1392457475.1588771     
   1080821947.1423273        34424375.852243185        1343472859.8348737     
   986159353.40885735        37556127.308996797        1300896834.4391923     
   892377580.12769341        43623946.940119356        1264729398.9718328     
   799476627.29884732        52627834.745617270        1234970553.4327877     
   943685974.12903774        38306240.926253438        1467768071.7219548     
   864262910.69385910        44728146.863799721        1421733882.1322131     
   789794673.58915639        67666140.569602877        1380254551.8095827     
   720281262.81494129        107120222.04369223        1343330080.7540605     
   655722678.37119246        163090391.28601059        1310960468.9656315     
   1755988327.9801612        526796498.39404833        680048762.95777988     
   1784028918.1326356        500120835.93640983        806389459.99343216     
   1809119867.1380522        463613036.32191372        925637073.59398782     
   1831261174.9964118        417273099.55055988        1037791603.7594466     
   1850452841.7077143        361101025.62234831        1142853050.4898086     
   1326267057.3200066        397880117.19600195        669744843.86534309     
   1339523464.1927185        375536965.33662117        791817195.09753382     
   1350568500.6890349        345822578.88925487        908610370.95002186     
   1359402166.8089559        308736957.85390282        1020124371.4228072     
   1366024462.5524812        264280102.23056498        1126359196.5158894     
   890360901.58610606        267108270.47583184        662382484.35496390     
   894015719.62303913        250652407.54790372        781047805.68279850     
   896197438.05423784        229286212.60086191        896247859.68632400     
   896906056.87970257        203009685.63470632        1007982646.3655410     
   896141576.09943330        171822826.64943713        1116252165.7204492     
   448269860.77846062        134480958.23353818        657961684.42664206     
   447505684.42359704        125467162.57025751        774081291.74922550     
   446006679.23366094        114003937.45673507        888549539.80289423     
   443772845.20865238        100091282.89297085        1001366428.5876480     
   440804182.34857136        83729198.878965199        1112531958.1034870     
  -6065.1029302455236       -1819.5308790736572        656482444.08037794     
  -6641.4056075000399       -18769.596317478969        770917653.29681575     
  -3775.7726956326082       -24246.543125694632        885515411.29973233     
   2531.7958052666972       -18250.371303695625        1000275718.0891279     
   12281.299895330842       -781.08085097368348        1115198573.6650033     
   1850452841.7077143        361101025.62234831        1142853050.4898086     
   1835189895.6746948        295341322.25575322        1190429179.3028564     
   1823370274.9985671        241059370.07879549        1240237006.4978547     
   1814993979.6793292        198255169.09147352        1292276532.0748010     
   1810061009.7169826        166928719.29378641        1346547756.0336964     
   1366024462.5524812        264280102.23056498        1126359196.5158894     
   1360280394.4636691        216673285.36248362        1181875029.5575342     
   1357116893.1721048        177668357.81856090        1238292250.3669629     
   1356533958.6777878        147265319.59879529        1295610858.9441762     
   1358531590.9807184        125464170.70318913        1353830855.2891729     
   896141576.09943330        171822826.64943713        1116252165.7204492     
   896115498.48578584        141228630.03915653        1178701151.3377731     
   897807229.10974264        116360460.88755640        1240721214.1087158     
   901216767.97130299        97218319.194635361        1302312354.0332778     
   906344115.07046747        83802204.960394263        1363474571.1114585     
   440804182.34857136        83729198.878965199        1112531958.1034870     
   442695207.74104559        69007356.285772949        1180907544.6435723     
   445441282.81148022        57135679.285782218        1247523897.7231114     
   449042407.55987507        48114167.878991857        1312381017.3421052     
   453498581.98623073        41942822.065404460        1375478903.5005529     
   12281.299895330842       -781.08085097368348        1115198573.6650033     
   19522.229447811169        9464.1023311088338        1188494209.4749331     
   19054.277317369153       -5986.9867630863500        1258700301.2101517     
   10877.443503695980       -47134.348134523585        1325816848.8706598     
  -5008.2719924763442       -113977.98178130490        1389843852.4564564     
   1810061009.7169826        166928719.29378641        1346547756.0336964     
   1778476699.5552762        134677606.84062040        1363725435.4869018     
   1748111090.0175529        106488829.80073118        1381816984.8916514     
   1718964181.1038141        82362388.174125373        1400822404.2479479     
   1691035972.8140600        62298281.960800350        1420741693.5557911     
   1358531590.9807184        125464170.70318913        1353830855.2891729     
   1332287140.4878354        100496743.43645972        1372324192.2995782     
   1306960813.1763582        78589726.774418712        1392330393.2914305     
   1282552609.0462873        59743120.717062593        1413849458.2647295     
   1259062528.0976222        43956925.264393032        1436881387.2194793     
   906344115.07046747        83802204.960394263        1363474571.1114585     
   887150935.76041448        66631886.334307581        1382932891.9960551     
   868575302.18918908        51520053.504313678        1404503070.8920009     
   850617214.35679066        38466706.470409542        1428185107.7992964     
   833276672.26321971        27471845.232596606        1453979002.7179410     
   453498581.98623073        41942822.065404460        1375478903.5005529     
   443068085.37301350        33083035.534164250        1395551534.5763319     
   432954557.05604374        25279809.990414977        1418335017.6933637     
   423157997.03532398        18533145.434166789        1443829352.8516464     
   413678405.31085235        12843041.865410566        1472034540.0511816     
  -5008.2719924763442       -113977.98178130490        1389843852.4564564     
   38589.325629759922       -149808.96397991112        1410180120.0404112     
   98577.776923135738       -131003.76727523927        1433826233.6955194     
   174957.08188666176       -57562.391670240206        1460782193.4217811     
   267727.24052028649        70515.162835955271        1491047999.2191978     
   1691035972.8140600        62298281.960800350        1420741693.5557911     
   1642406431.3811789        40370348.489112079        1415756795.0548463     
   1595424061.4240379        23932986.603228450        1415996321.3235719     
   1550088862.9426355        12986196.303137243        1421460272.3619673     
   1506400835.9369721        7529977.5888438225        1432148648.1700323     
   1259062528.0976222        43956925.264393032        1436881387.2194793     
   1225122230.4600120        28287098.731918931        1435441169.6294191     
   1192407612.2301490        16702870.225265801        1438631767.0493119     
   1160918673.4080336        9204239.7444375157        1446453179.4791558     
   1130655413.9936626        5791207.2894262075        1458905406.9189506     
   833276672.26321971        27471845.232596606        1453979002.7179410     
   812329590.53597033        17551317.273860812        1455591725.2927768     
   792186696.14847445        10311413.780970901        1461241653.1178458     
   772847989.10073221        5752134.7539261878        1470928786.1931453     
   754313469.39274347        3873480.1927257776        1484653124.5186779     
   413678405.31085235        12843041.865410566        1472034540.0511816     
   404028511.60905164        8163004.1149391383        1476208462.0449197     
   394761313.17901176        4758617.2703361511        1483825979.5291717     
   385876810.02073330        2629881.3316047490        1494887092.5039375     
   377375002.13421607        1776796.2987436056        1509391800.9692159     
   267727.24052028649        70515.162835955271        1491047999.2191978     
   218993.67925762487        122159.25515570492        1497291379.8858473     
   131463.32176288663        44480.693367838699        1506384746.2832921     
   5136.1680371069597       -162520.52252280517        1518328098.4115303     
  -159987.78192085226       -498844.39252140804        1533121436.2705653     
   1506400835.9369721        7529977.5888438225        1432148648.1700323     
   1457703288.8682425        3657355.1618486047        1424433575.0205824     
   1409393593.8223865        1077572.8110955358        1421043523.1764963     
   1361471750.7993975       -209369.46343070269        1421978492.6377766     
   1313937759.7992790       -203471.66172558069        1427238483.4044201     
   1130655413.9936626        5791207.2894262075        1458905406.9189506     
   1093589863.1894960        2653882.6786903143        1451447720.8085241     
   1056825926.5564064        521938.63821256161        1448443018.7155652     
   1020363604.0943933       -604624.83201146126        1449891300.6400762     
   984202895.80345786       -725807.73197662830        1455792566.5820601     
   754313469.39274347        3873480.1927257776        1484653124.5186779     
   729245522.60200632        1581135.7229053676        1477352214.6201825     
   704392952.13055348        6712.3173678815365        1474632251.4512622     
   679755757.97838509       -849790.02388837934        1476493235.0119150     
   655333940.14549959       -988371.30087053776        1482935165.3021371     
   377375002.13421607        1776796.2987436056        1509391800.9692159     
   364670267.10577750        439114.29450391233        1502147056.4555628     
   352094670.54482895       -468106.15143501759        1499611221.3835857     
   339648212.45137101       -944865.03907123208        1501784295.7532854     
   327330892.82540452       -991162.36840461195        1508666279.5646634     
  -159987.78192085226       -498844.39252140804        1533121436.2705653     
  -135903.29919496010       -772181.60652733408        1525832246.3146603     
  -68918.200770346855       -902516.76820488367        1523379928.5125363     
   40967.513354108436       -889849.87754945317        1525764482.8641908     
   193753.84317275547       -734180.93457970303        1532985909.3696308     
   1313937759.7992790       -203471.66172558069        1427238483.4044201     
   1266257736.6599476        815334.17675513029        1419964634.0952022     
   1218886598.4286575        2863756.3753753901        1417405959.3989816     
   1171824345.1053996        5941794.9341037273        1419562459.3157570     
   1125070976.6901793        10049449.852958083        1426434133.8455312     
   984202895.80345786       -725807.73197662830        1455792566.5820601     
   948675232.34167767        155738.77778720856        1449113295.4709916     
   913381877.32045925        1818313.4227560759        1447098493.9593644     
   878322830.73980045        4261916.2029258013        1449748162.0471716     
   843498092.59970403        7486547.1183006167        1457062299.7344162     
   655333940.14549959       -988371.30087053776        1482935165.3021371     
   631813764.89395213       -287545.56002327800        1476763466.5105038     
   608453321.61549115        945720.09111252427        1475205532.3047471     
   585252610.31011081        2711425.6525174081        1478261362.6848645     
   562211630.97781909        5009571.1242186129        1485930957.6508598     
   327330892.82540452       -991162.36840461195        1508666279.5646634     
   315673334.31677169       -514518.83667062223        1502915147.2137370     
   304100931.31375021        245976.38043376803        1501727074.4351265     
   292613683.81633306        1290323.2828876227        1505102061.2288308     
   281211591.82452804        2618521.8707122803        1513040107.5948520     
   193753.84317275547       -734180.93457970303        1532985909.3696308     
   253940.61013873754       -525181.05215037707        1527568337.5806913     
   324706.41523768124       -280917.70927645825        1526663120.3505085     
   406051.25846357021       -1390.9059797352820        1530270257.6790793     
   497975.13983189123        313399.35779106716        1538389749.5664032     
   1125070976.6901793        10049449.852958083        1426434133.8455312     
   1079213918.6691737        15410956.352212667        1429895484.1759830     
   1033697398.9019853        21907590.364193738        1437938257.2655351     
   988521417.38860118        29539351.888852537        1450562453.1141939     
   943685974.12903774        38306240.926253438        1467768071.7219548     
   843498092.59970403        7486547.1183006167        1457062299.7344162     
   809127080.84366989        11605086.474771023        1460957029.8430214     
   775021402.75205863        16608071.379319072        1469392595.9677584     
   741181058.32485998        22495501.831909299        1482368998.1086276     
   707606047.56208670        29267377.832582921        1499886236.2656326     
   562211630.97781909        5009571.1242186129        1485930957.6508598     
   539210703.36398160        7850354.7010823488        1490171328.8499930     
   516399904.82516831        11324901.861361623        1498911949.3222880     
   493779235.36137760        15433212.605046898        1512152819.0677392     
   471348694.97261423        20175286.932159290        1529893938.0863495     
   281211591.82452804        2618521.8707122803        1513040107.5948520     
   269464786.23010337        4146761.0311225355        1517538381.1968896     
   257832905.12131318        6058081.8103149086        1526496317.3291140     
   246315948.49815008        8352484.2082626969        1539913915.9915254     
   234913916.36061597        11029968.224976294        1557791177.1841218     
   497975.13983189123        313399.35779106716        1538389749.5664032     
  -110670.55795423969        494305.46492888371        1543058186.8837152     
  -679596.35950665979        807611.22618045774        1552145699.9882421     
  -1208802.2648248656        1253316.6415446911        1565652288.8799827     
  -1698288.2739052430        1831421.7110364069        1583577953.5589387     
   943685974.12903774        38306240.926253438        1467768071.7219548     
   864262910.69385910        44728146.863799721        1421733882.1322131     
   789794673.58915639        67666140.569602877        1380254551.8095827     
   720281262.81494129        107120222.04369223        1343330080.7540605     
   655722678.37119246        163090391.28601059        1310960468.9656315     
   707606047.56208670        29267377.832582921        1499886236.2656326     
   640954168.85781515        31938968.956543982        1459554877.4897170     
   577876149.13027275        46523423.336265832        1425358104.9659216     
   518371988.37945402        73020740.971742257        1397295918.6942356     
   462441686.60537642        111430921.86301099        1375368318.6746540     
   471348694.97261423        20175286.932159290        1529893938.0863495     
   421981506.67069936        20450614.943956628        1493654281.5448923     
   374807209.99176615        28035581.699028641        1465128938.2405543     
   329825804.93581408        42930187.197368063        1444317908.1733387     
   287037291.50284362        65134431.438982971        1431221191.3432429     
   234913916.36061597        11029968.224976294        1557791177.1841218     
   207344924.13251296        10263084.826053157        1524032094.2977400     
   180587856.17364588        12202615.657917306        1499567051.6334884     
   154642712.48400715        16848560.720542975        1484396049.1913693     
   129509493.06360513        24200920.013953287        1478519086.9713821     
  -1698288.2739052430        1831421.7110364069        1583577953.5589387     
  -2955578.7567439624        1376378.6028251613        1550688315.7482610     
  -4781912.3240918461       -975474.78708260343        1528672445.1447239     
  -7177288.9759650435       -5224138.4587441897        1517530341.7483306     
  -10141708.712347129       -11369612.412097216        1517262005.5590665     
  -6065.1029302455236       -1819.5308790736572        656482444.08037794     
  -6641.4056075000399       -18769.596317478969        770917653.29681575     
  -3775.7726956326082       -24246.543125694632        885515411.29973233     
   2531.7958052666972       -18250.371303695625        1000275718.0891279     
   12281.299895330842       -781.08085097368348        1115198573.6650033     
  -448282840.61927241       -134484852.18578172        657948338.62755370     
  -447515796.19857776       -125490233.70652878        774073278.12464917     
  -446010385.14220101       -114034393.10833539        888546553.57369959     
  -443766607.45014209       -100117330.39120165        1001368164.9747052     
  -440784463.12240112       -83739045.555127531        1112538112.3276658     
  -890376430.33177185       -267112929.09953156        662362943.37955236     
  -894025230.42920268       -250661781.64803657        781035025.30741405     
  -896200739.19085824       -229299663.07729092        896241230.35270643     
  -896902956.61673903       -203026573.38729477        1007981558.5154302     
  -896131882.70684421       -171842512.57804787        1116256009.7955849     
  -1326286834.2404287       -397886050.27212864        669726258.33637321     
  -1339534944.0974822       -375533413.42084068        791802894.84510970     
  -1350574837.9186680       -345820056.44999206        908599441.63675332     
  -1359406515.7039852       -308745979.35958254        1020115898.7113038     
  -1366029977.4534340       -264311182.14961237        1126352266.0687606     
  -1756014052.3452430       -526804215.70357287        680038283.49801683     
  -1784044937.2034168       -500105129.02494133        806376886.73773682     
  -1809132681.3256295       -463595573.22643882        925621187.42583966     
  -1831277284.7118807       -417275548.30806506        1037771185.5623252     
  -1850478747.3621712       -361145054.26982087        1142826881.1471937     
   12281.299895330842       -781.08085097368348        1115198573.6650033     
   19522.229447811169        9464.1023311088338        1188494209.4749331     
   19054.277317369153       -5986.9867630863500        1258700301.2101517     
   10877.443503695980       -47134.348134523585        1325816848.8706598     
  -5008.2719924763442       -113977.98178130490        1389843852.4564564     
  -440784463.12240112       -83739045.555127531        1112538112.3276658     
  -442665354.98866284       -69009031.603759319        1180897874.6283321     
  -445409466.25533551       -57156415.653760895        1247497901.4450405     
  -449016796.92241883       -48181197.705131218        1312338192.7777913     
  -453487346.98991305       -42083377.757871285        1375418748.6265831     
  -896131882.70684421       -171842512.57804787        1116256009.7955849     
  -896101454.25248337       -141252893.92356244        1178681802.9818063     
  -897789755.71726203       -116392374.99953952        1240677669.2748220     
  -901196787.10117888       -97260955.805979162        1302243608.6746321     
  -906322548.40423465       -83858636.342881590        1363379621.1812365     
  -1366029977.4534340       -264311182.14961237        1126352266.0687606     
  -1360288775.5620148       -216722122.85707897        1181845994.5353541     
  -1357121814.1084623       -177713865.02410075        1238239604.6994941     
  -1356529093.0927761       -147286408.65067875        1295533096.5611818     
  -1358510612.5149570       -125439753.73681128        1353726470.1204166     
  -1850478747.3621712       -361145054.26982087        1142826881.1471937     
  -1835227318.9172568       -295416718.40430862        1190390449.2889762     
  -1823405641.4289367       -241120885.72744423        1240183707.7190585     
  -1815013714.8972111       -198257556.23922873        1292206656.4374411     
  -1810051539.3220804       -166826729.93966246        1346459295.4441237     
  -5008.2719924763442       -113977.98178130490        1389843852.4564564     
   38589.325629759922       -149808.96397991112        1410180120.0404112     
   98577.776923135738       -131003.76727523927        1433826233.6955194     
   174957.08188666176       -57562.391670240206        1460782193.4217811     
   267727.24052028649        70515.162835955271        1491047999.2191978     
  -453487346.98991305       -42083377.757871285        1375418748.6265831     
  -442964915.16624546       -33253094.109591141        1395513069.9351041     
  -432743284.29359031       -25425480.298020437        1418312160.4316278     
  -422822454.37195003       -18600536.323164657        1443816020.1161530     
  -413202425.40132332       -12778262.185021535        1472024648.9886785     
  -906322548.40423465       -83858636.342881590        1363379621.1812365     
  -887050073.44924092       -66680875.392536670        1382861939.1088600     
  -868395591.24994588       -51563090.294519126        1404443949.3413327     
  -850359101.80634797       -38505281.048826605        1428125651.8786540     
  -832940605.11844850       -27507447.655462235        1453907046.7208261     
  -1358510612.5149570       -125439753.73681128        1353726470.1204166     
  -1332216885.5233586       -100433152.81282014        1372226727.5616770     
  -1306858343.0921426       -78543833.756770611        1392221600.4246349     
  -1282434985.2213078       -59771796.568658352        1413711088.7092903     
  -1258946811.9108558       -44117041.248488188        1436695192.4156435     
  -1810051539.3220804       -166826729.93966246        1346459295.4441237     
  -1778465351.3885965       -134509926.37043828        1363607435.2935567     
  -1748131539.8201799       -106367710.68477291        1381645113.6815343     
  -1719050104.6168289       -82400082.882657409        1400572330.6080580     
  -1691221045.7785439       -62607042.964098454        1420389086.0731270     
   267727.24052028649        70515.162835955271        1491047999.2191978     
   218993.67925762487        122159.25515570492        1497291379.8858473     
   131463.32176288663        44480.693367838699        1506384746.2832921     
   5136.1680371069597       -162520.52252280517        1518328098.4115303     
  -159987.78192085226       -498844.39252140804        1533121436.2705653     
  -413202425.40132332       -12778262.185021535        1472024648.9886785     
  -403656763.86143261       -8041255.0898690224        1476117773.8153455     
  -394511152.01697183       -4637746.9794840664        1483659979.2191441     
  -385765589.86793876       -2567737.8538586497        1494651265.2000742     
  -377420077.41433775       -1831227.7130042613        1509091631.7581344     
  -832940605.11844850       -27507447.655462235        1453907046.7208261     
  -812088848.91644263       -17571567.689190954        1455428453.9917810     
  -791998395.30906415       -10173363.038343161        1460998036.6862032     
  -772669244.29631150       -5312833.7029160261        1470615794.8040943     
  -754101395.87818718       -2989979.6829160452        1484281728.3454535     
  -1258946811.9108558       -44117041.248488188        1436695192.4156435     
  -1225077261.4857719       -28468778.542807281        1435223420.4151547     
  -1192330266.5545132       -16562367.483205974        1438398918.6844687     
  -1160705827.1170793       -8397808.0696905851        1446221687.2235887     
  -1130203943.1734715       -3975100.3022602797        1458691726.0325136     
  -1691221045.7785439       -62607042.964098454        1420389086.0731270     
  -1642622001.5694220       -40732887.650722265        1415502673.0854630     
  -1595506765.7533216       -23804760.314083636        1415862625.2139411     
  -1549875338.3302417       -11822660.954183877        1421468942.4585607     
  -1505727719.3001866       -4786589.5710289478        1432321624.8193219     
  -159987.78192085226       -498844.39252140804        1533121436.2705653     
  -135903.29919496010       -772181.60652733408        1525832246.3146603     
  -68918.200770346855       -902516.76820488367        1523379928.5125363     
   40967.513354108436       -889849.87754945317        1525764482.8641908     
   193753.84317275547       -734180.93457970303        1532985909.3696308     
  -377420077.41433775       -1831227.7130042613        1509091631.7581344     
  -364517598.92474449       -500985.69257530570        1501897281.9717531     
  -351724977.06799644        463067.55170199275        1499402460.2135413     
  -339042211.84409988        1060932.0198091567        1501607166.4835014     
  -326469303.25304824        1292607.7117647380        1508511400.7816310     
  -754101395.87818718       -2989979.6829160452        1484281728.3454535     
  -728712935.16918123       -173881.96428281069        1477004001.9386210     
  -703587088.34157038        1766836.1497009993        1474288459.4343524     
  -678723855.39535308        2832174.6590379477        1476135100.8326440     
  -654123236.33052969        3022133.5637310445        1482543926.1334965     
  -1130203943.1734715       -3975100.3022602797        1458691726.0325136     
  -1092721912.0325103        209129.57833784819        1451152406.2152643     
  -1055655252.0214887        3008789.0258017182        1448037926.1749661     
  -1019003963.1404092        4423878.0401291251        1449348285.9116197     
  -982768045.38926923        4454396.6213215590        1455083485.4252255     
  -1505727719.3001866       -4786589.5710289478        1432321624.8193219     
  -1456544529.5147276        648048.93529373407        1424342494.8016841     
  -1407929468.1077559        4188926.1799916029        1420650860.4353871     
  -1359882535.0792708        5836042.1630680561        1421246721.7204318     
  -1312403730.4292703        5589396.8845303655        1426130078.6568184     
   193753.84317275547       -734180.93457970303        1532985909.3696308     
   253940.61013873754       -525181.05215037707        1527568337.5806913     
   324706.41523768124       -280917.70927645825        1526663120.3505085     
   406051.25846357021       -1390.9059797352820        1530270257.6790793     
   497975.13983189123        313399.35779106716        1538389749.5664032     
  -326469303.25304824        1292607.7117647380        1508511400.7816310     
  -314753167.01875144        1012280.9441451877        1502746374.5625975     
  -303095286.73569977        537767.67237272859        1501548030.2943068     
  -291495662.40389842       -130932.10356754065        1504916367.9767578     
  -279954294.02334267       -993818.38365751505        1512851387.6099515     
  -654123236.33052969        3022133.5637310445        1482543926.1334965     
  -630595929.50893116        2299046.4820572138        1476351137.9967542     
  -607195713.62796211        1152322.9316177964        1474779359.2027457     
  -583922588.68761957       -418037.08757641912        1477828589.7514696     
  -560776554.68790364       -2412033.5755253434        1485498829.6429245     
  -982768045.38926923        4454396.6213215590        1455083485.4252255     
  -947274346.86040354        3335115.5615764260        1448382627.8831666     
  -911976574.26154268        1562748.0684772730        1446357107.0758312     
  -876874727.59269118       -862705.85798376799        1449006923.0032165     
  -841968806.85385060       -3941246.2178139687        1456332075.6653242     
  -1312403730.4292703        5589396.8845303655        1426130078.6568184     
  -1264788419.0731645        4120488.1827157736        1418840844.2218328     
  -1217437868.6364498        1769043.0829289556        1416281273.9135592     
  -1170352079.1191189       -1464938.4148038030        1418451367.7319934     
  -1123531050.5211775       -5581456.3104999661        1425351125.6771407     
   497975.13983189123        313399.35779106716        1538389749.5664032     
  -110670.55795423969        494305.46492888371        1543058186.8837152     
  -679596.35950665979        807611.22618045774        1552145699.9882421     
  -1208802.2648248656        1253316.6415446911        1565652288.8799827     
  -1698288.2739052430        1831421.7110364069        1583577953.5589387     
  -279954294.02334267       -993818.38365751505        1512851387.6099515     
  -269354012.99901563       -2293853.8746473938        1517450860.9220843     
  -258797557.12499559       -3739973.1999909580        1526595265.5251174     
  -248284926.40128094       -5332176.3596881628        1540284601.4190524     
  -237816120.82787648       -7070463.3537524939        1558518868.6038923     
  -560776554.68790364       -2412033.5755253434        1485498829.6429245     
  -538607759.78806460       -5085134.5186166465        1489931869.7289059     
  -516566335.08507371       -8182802.7845366299        1499035696.6094820     
  -494652280.57893246       -11705038.373286486        1512810310.2846456     
  -472865596.26964194       -15651841.284872979        1531255710.7544050     
  -841968806.85385060       -3941246.2178139687        1456332075.6653242     
  -807871910.92510104       -7879536.4669854045        1460501213.3041892     
  -773985930.23974252       -12520877.527457446        1469466993.2413371     
  -740310864.79777265       -17865269.399228007        1483229415.4767680     
  -706846714.59920585       -23912712.082339644        1501788480.0104752     
  -1123531050.5211775       -5581456.3104999661        1425351125.6771407     
  -1077146466.4101241       -10677059.719743550        1429158891.6479273     
  -1031056342.5890020       -16754197.428758740        1437889155.4206829     
  -985260679.05781376       -23812869.437552333        1451541916.9954081     
  -939759475.81656146       -31853075.746133864        1470117176.3721035     
  -1698288.2739052430        1831421.7110364069        1583577953.5589387     
  -2955578.7567439624        1376378.6028251613        1550688315.7482610     
  -4781912.3240918461       -975474.78708260343        1528672445.1447239     
  -7177288.9759650435       -5224138.4587441897        1517530341.7483306     
  -10141708.712347129       -11369612.412097216        1517262005.5590665     
  -237816120.82787648       -7070463.3537524939        1558518868.6038923     
  -212377683.60310856       -6460382.1618854105        1524143653.4117138     
  -188308072.64087337       -10413055.178460218        1499184048.2566915     
  -165607287.94117284       -18928482.403486818        1483640053.1388187     
  -144275329.50401151       -32006663.836973496        1477511668.0581145     
  -472865596.26964194       -15651841.284872979        1531255710.7544050     
  -424897594.68007982       -15226484.795779660        1494461837.8063707     
  -379098202.53106904       -22029826.441855386        1465625417.7255096     
  -335467419.82261294       -36061866.223114133        1444746450.5118229     
  -294005246.55471385       -57322604.139561154        1431824936.1653049     
  -706846714.59920585       -23912712.082339644        1501788480.0104752     
  -640515311.98765564       -24921929.298847765        1461642868.9322307     
  -577152301.99468100       -35825788.577275485        1427996553.5511723     
  -516757684.62028068       -56624289.917615592        1400849533.8673036     
  -459331459.86444849       -87317433.319855154        1380201809.8806264     
  -939759475.81656146       -31853075.746133864        1470117176.3721035     
  -859230835.52584279       -35546715.671115935        1425686746.7892940     
  -782470371.03171170       -51800941.584727019        1386297455.7336886     
  -709478082.33416855       -80615753.486967891        1351949303.2052896     
  -640253969.43322694       -121991151.37786900        1322642289.2040849     
  -1756014052.3452430       -526804215.70357287        680038283.49801683     
  -1784044937.2034168       -500105129.02494133        806376886.73773682     
  -1809132681.3256295       -463595573.22643882        925621187.42583966     
  -1831277284.7118807       -417275548.30806506        1037771185.5623252     
  -1850478747.3621712       -361145054.26982087        1142826881.1471937     
  -2201763272.7683063       -660528981.83049178        696415237.33799636     
  -2238350279.3138680       -613880004.19679642        813788696.77969396     
  -2272887060.5961251       -560396942.35208297        927071005.71615672     
  -2305373616.6150765       -500079796.29635119        1036262164.1473848     
  -2335809947.3707223       -432928566.02960163        1141362172.0733781     
  -2685739683.6317096       -805721905.08951283        721973338.32982516     
  -2722302377.4464240       -736548906.17528272        829339919.25540185     
  -2757707761.4704900       -663518207.95888782        935618501.72212636     
  -2791955835.7039061       -586629810.44032729        1040809085.7299981     
  -2825046600.1466732       -505883713.61960214        1144911671.2790182     
  -3207943284.9354529       -962382985.48063588        756712586.47350359     
  -3235901231.6010861       -868111834.96040094        853030554.16486108     
  -3263594783.9487252       -772959370.04685354        951263675.44374835     
  -3291023941.9783702       -676925590.73999381        1051411950.3101659     
  -3318188705.6900229       -580010497.03982234        1153475378.7641132     
  -3768374076.6795363       -1130512223.0038610        800632981.76903117     
  -3779146841.7778521       -1008568790.5521504        884860601.50807083     
  -3790548128.0308299       -888720428.61598051        974006526.88102269     
  -3802577935.4384689       -770967137.19535041        1068070757.8878871     
  -3815236264.0007710       -655308916.29026198        1167053294.5286636     
  -1850478747.3621712       -361145054.26982087        1142826881.1471937     
  -1835227318.9172568       -295416718.40430862        1190390449.2889762     
  -1823405641.4289367       -241120885.72744423        1240183707.7190585     
  -1815013714.8972111       -198257556.23922873        1292206656.4374411     
  -1810051539.3220804       -166826729.93966246        1346459295.4441237     
  -2335809947.3707223       -432928566.02960163        1141362172.0733781     
  -2312476155.5077562       -351865827.32309228        1182618071.0556097     
  -2292656014.1910553       -282515257.10413378        1224322774.0308897     
  -2276349523.4206214       -224876855.37273043        1266476280.9992173     
  -2263556683.1964531       -178950622.12888050        1309078591.9605932     
  -2825046600.1466732       -505883713.61960214        1144911671.2790182     
  -2798718691.4235187       -411013046.03945351        1179762018.2470822     
  -2775988332.8363004       -328134212.24576199        1213280282.9129426     
  -2756855524.3850203       -257247212.23852885        1245466465.2765987     
  -2741320266.0696764       -198352046.01775205        1276320565.3380506     
  -3318188705.6900229       -580010497.03982234        1153475378.7641132     
  -3293954926.6645408       -472858374.55339253        1181822290.8633933     
  -3273402597.3646679       -377977751.15232587        1207056234.3652174     
  -3256531717.7904043       -295368626.83662117        1229177209.2695861     
  -3243342287.9417491       -225031001.60628009        1248185215.5764983     
  -3815236264.0007710       -655308916.29026198        1167053294.5286636     
  -3798184861.2308264       -537401812.86491144        1188798888.9045434     
  -3784898807.7761612       -432045873.82382846        1205650628.3877146     
  -3775378103.6367774       -339241099.16701221        1217608512.9781785     
  -3769622748.8126731       -258987488.89446187        1224672542.6759341     
  -1810051539.3220804       -166826729.93966246        1346459295.4441237     
  -1778465351.3885965       -134509926.37043828        1363607435.2935567     
  -1748131539.8201799       -106367710.68477291        1381645113.6815343     
  -1719050104.6168289       -82400082.882657409        1400572330.6080580     
  -1691221045.7785439       -62607042.964098454        1420389086.0731270     
  -2263556683.1964531       -178950622.12888050        1309078591.9605932     
  -2222994678.9375057       -134438311.13753402        1316462928.7798471     
  -2185344082.2397246       -99630692.016743779        1327047853.2904227     
  -2150604893.1031103       -74527764.766508818        1340833365.4923196     
  -2118777111.5276651       -59129529.386831760        1357819465.3855374     
  -2741320266.0696764       -198352046.01775205        1276320565.3380506     
  -2685179447.9059052       -139663328.33047354        1272005562.7316756     
  -2633609068.4994006       -96209406.500754833        1273202196.9693983     
  -2586609127.8501625       -67990280.528590202        1279910468.0512180     
  -2544179625.9581923       -55005950.413985372        1292130375.9771354     
  -3243342287.9417491       -225031001.60628009        1248185215.5764983     
  -3165019658.2937937       -150184977.94926238        1230235337.1490433     
  -3092926498.5992045       -96103854.136802554        1220108144.7184613     
  -3027062808.8579845       -62787630.168905020        1217803638.2847531     
  -2967428589.0701308       -50236306.045563936        1223321817.8479190     
  -3769622748.8126731       -258987488.89446187        1224672542.6759341     
  -3662515310.1011710       -166003259.99389553        1191152252.0319479     
  -3563296372.5391378       -99314034.924889088        1167765696.5376122     
  -3471965936.1265740       -58919813.687447309        1154512876.1929250     
  -3388524000.8634768       -44820596.281563044        1151393790.9978900     
  -1691221045.7785439       -62607042.964098454        1420389086.0731270     
  -1642622001.5694220       -40732887.650722265        1415502673.0854630     
  -1595506765.7533216       -23804760.314083636        1415862625.2139411     
  -1549875338.3302417       -11822660.954183877        1421468942.4585607     
  -1505727719.3001866       -4786589.5710289478        1432321624.8193219     
  -2118777111.5276651       -59129529.386831760        1357819465.3855374     
  -2058117114.5339234       -41219225.451778531        1352008778.0123503     
  -1998592476.6186535       -27093451.778296232        1351144116.4446483     
  -1940203197.7818520       -16752208.366376758        1355225480.6824319     
  -1882949278.0235212       -10195495.216024280        1364252870.7257030     
  -2544179625.9581923       -55005950.413985372        1292130375.9771354     
  -2472316788.4959917       -41316931.552107930        1285801938.4187338     
  -2401240860.7977085       -30250945.236623883        1284119187.3551629     
  -2330951842.8633451       -21807991.467532873        1287082122.7864232     
  -2261449734.6928978       -15988070.244833231        1294690744.7125127     
  -2967428589.0701308       -50236306.045563936        1223321817.8479190     
  -2885221023.4556284       -41026005.951704502        1216882154.3046145     
  -2803451918.2904935       -33277240.689071298        1214787837.9454851     
  -2722121273.5747213       -26990010.257648706        1217038868.7705297     
  -2641229089.3083181       -22164314.657452941        1223635246.7797534     
  -3388524000.8634768       -44820596.281563044        1151393790.9978900     
  -3296829819.4128313       -40346448.650573373        1145249425.6699924     
  -3205225649.0970011       -36172338.135633826        1143150068.2156157     
  -3113711489.9159832       -32298264.736740947        1145095718.6347582     
  -3022287341.8697801       -28724228.453888416        1151086376.9274211     
  -1505727719.3001866       -4786589.5710289478        1432321624.8193219     
  -1456544529.5147276        648048.93529373407        1424342494.8016841     
  -1407929468.1077559        4188926.1799916029        1420650860.4353871     
  -1359882535.0792708        5836042.1630680561        1421246721.7204318     
  -1312403730.4292703        5589396.8845303655        1426130078.6568184     
  -1882949278.0235212       -10195495.216024280        1364252870.7257030     
  -1822345074.7680647       -5072307.1595194340        1355360222.4513526     
  -1762213387.2536850       -1524171.5732778311        1351037346.6833117     
  -1702554215.4803851        448911.54269862175        1351284243.4215770     
  -1643367559.4481626        846942.18841791153        1356100912.6661510     
  -2261449734.6928978       -15988070.244833231        1294690744.7125127     
  -2188618012.6675358       -10934381.048167825        1284996126.2584262     
  -2116163193.7458470       -7137035.5304157734        1280153557.1656144     
  -2044085277.9278300       -4596033.6915683746        1280163037.4340773     
  -1972384265.2134838       -3311375.5316267014        1285024567.0638137     
  -2641229089.3083181       -22164314.657452941        1223635246.7797534     
  -2555363343.2131486       -16938172.730665326        1213250206.2229052     
  -2469778887.5842423       -12649665.691421032        1207999491.8822978     
  -2384475722.4216042       -9298793.5397398472        1207883103.7579327     
  -2299453847.7252293       -6885556.2755950689        1212901041.8498080     
  -3022287341.8697801       -28724228.453888416        1151086376.9274211     
  -2922581066.4048967       -23083682.206994414        1140122462.3447874     
  -2823060468.7688737       -18062062.056306481        1134575150.8333607     
  -2723725548.9617085       -13659368.001804352        1134444442.3931408     
  -2624576306.9834003       -9875600.0434947014        1139730337.0241303     
  -1312403730.4292703        5589396.8845303655        1426130078.6568184     
  -1264788419.0731645        4120488.1827157736        1418840844.2218328     
  -1217437868.6364498        1769043.0829289556        1416281273.9135592     
  -1170352079.1191189       -1464938.4148038030        1418451367.7319934     
  -1123531050.5211775       -5581456.3104999661        1425351125.6771407     
  -1643367559.4481626        846942.18841791153        1356100912.6661510     
  -1583529986.6244528        379625.10419344902        1349062067.2539179     
  -1523919209.7744198       -843678.55896031857        1346464160.7783008     
  -1464535228.8980660       -2822968.8010468483        1348307193.2393050     
  -1405378043.9953923       -5558245.6220565438        1354591164.6369278     
  -1972384265.2134838       -3311375.5316267014        1285024567.0638137     
  -1901149360.0367079       -3024579.7326139212        1278280403.1109886     
  -1830103285.8879054       -3367220.6935042143        1275688452.9046938     
  -1759246042.7670724       -4339298.4143009186        1277248716.4449284     
  -1688577630.6742084       -5940812.8949952126        1282961193.7316875     
  -2299453847.7252293       -6885556.2755950689        1212901041.8498080     
  -2217646539.3099380       -6092126.3277180195        1206495851.7930529     
  -2135990096.9769058       -5801583.3207092285        1203954150.2927358     
  -2054484520.7261345       -6013927.2545685768        1205275937.3488576     
  -1973129810.5576320       -6729158.1293153763        1210461212.9614162     
  -2624576306.9834003       -9875600.0434947014        1139730337.0241303     
  -2533021524.4441347       -8823014.6811070442        1133708413.3001027     
  -2441579643.0414176       -8146766.4405527115        1131261252.9424269     
  -2350250662.7752633       -7846855.3218705654        1132388855.9510963     
  -2259034583.6456556       -7923281.3250122070        1137091222.3261142     
  -1123531050.5211775       -5581456.3104999661        1425351125.6771407     
  -1077146466.4101241       -10677059.719743550        1429158891.6479273     
  -1031056342.5890020       -16754197.428758740        1437889155.4206829     
  -985260679.05781376       -23812869.437552333        1451541916.9954081     
  -939759475.81656146       -31853075.746133864        1470117176.3721035     
  -1405378043.9953923       -5558245.6220565438        1354591164.6369278     
  -1346026569.4195383       -9434476.7554617524        1357348876.4744120     
  -1287239007.3629782       -15190416.286516130        1364877228.0345767     
  -1229015357.8257070       -22826064.215200543        1377176219.3174231     
  -1171355620.8077326       -32341420.541534424        1394245850.3229535     
  -1688577630.6742084       -5940812.8949952126        1282961193.7316875     
  -1616693145.8600891       -8727835.8205261230        1284354490.5016153     
  -1545642025.7946234       -14292741.241564035        1290366568.9149363     
  -1475424270.4778101       -22635529.158108413        1300997428.9716544     
  -1406039879.9096439       -33756199.570152104        1316247070.6717682     
  -1973129810.5576320       -6729158.1293153763        1210461212.9614162     
  -1889146195.7317796       -8557136.9149280787        1210175733.7295356     
  -1806265397.8839409       -14061172.293918729        1214357178.0617619     
  -1724487417.0141089       -23241264.266266704        1223005545.9580965     
  -1643812253.1222925       -36097412.831996858        1236120837.4185443     
  -2259034583.6456556       -7923281.3250122070        1137091222.3261142     
  -2163385719.0346088       -8922380.0386785269        1134812606.1581733     
  -2069109123.6309330       -14495709.443579078        1136849055.4750524     
  -1976204797.4346232       -24643269.539707184        1143200570.2767560     
  -1884672740.4456823       -39365060.327053785        1153867150.5632827     
  -939759475.81656146       -31853075.746133864        1470117176.3721035     
  -859230835.52584279       -35546715.671115935        1425686746.7892940     
  -782470371.03171170       -51800941.584727019        1386297455.7336886     
  -709478082.33416855       -80615753.486967891        1351949303.2052896     
  -640253969.43322694       -121991151.37786900        1322642289.2040849     
  -1171355620.8077326       -32341420.541534424        1394245850.3229535     
  -1074080417.1629615       -31153392.198948324        1347247676.2167821     
  -977020150.65984905       -30681820.995238066        1306963796.5632355     
  -880174821.29840136       -30926706.930401564        1273394211.3623211     
  -783544429.07861924       -31888050.004442573        1246538920.6140325     
  -1406039879.9096439       -33756199.570152104        1316247070.6717682     
  -1287237667.4096055       -26252369.309639990        1270826597.1396482     
  -1165097153.3963032       -7620867.3382412195        1233793573.9855840     
  -1039618337.8697337        22138306.344044805        1205148001.2095704     
  -910801220.82989609        63025151.737225115        1184889878.8116140     
  -1643812253.1222925       -36097412.831996858        1236120837.4185443     
  -1498702586.2657859       -20843647.003201723        1196423509.5578966     
  -1346701379.2410765        17381919.386261761        1166786788.0007284     
  -1187808632.0481730        78579286.336364150        1147210672.7470331     
  -1022024344.6870809        162748453.84711713        1137695163.7968178     
  -1884672740.4456823       -39365060.327053785        1153867150.5632827     
  -1708475173.7314882       -14927225.279610038        1124038413.4715257     
  -1521832828.1941693        44326539.178259730        1105943438.6086712     
  -1324745703.8337214        138396233.04654002        1099582225.9747145     
  -1117213800.6501536        267281856.32524270        1104954775.5696597     
  -3768374076.6795363       -1130512223.0038610        800632981.76903117     
  -3779146841.7778521       -1008568790.5521504        884860601.50807083     
  -3790548128.0308299       -888720428.61598051        974006526.88102269     
  -3802577935.4384689       -770967137.19535041        1068070757.8878871     
  -3815236264.0007710       -655308916.29026198        1167053294.5286636     
  -4339859215.1125202       -1301957764.5337560        858867215.31787229     
  -4335278384.7192049       -1125632670.9791899        942413076.13511062     
  -4331843917.5906982       -953128788.30731702        1020301475.2882622     
  -4329555813.7269993       -784446116.51813769        1092532412.7773275     
  -4328414073.1281090       -619584655.61165178        1159105888.6023054     
  -4895225856.4829636       -1468567756.9448891        936547978.22149074     
  -4905507908.5923004       -1246925945.6857517        1018807930.9884244     
  -4917454166.0765924       -1030831485.6764610        1084834654.7932725     
  -4931064628.9358397       -820284376.91701734        1134628149.6360347     
  -4946339297.1700382       -615284619.40741944        1168188415.5167115     
  -5434474000.7908659       -1630342200.2372596        1033675270.4798867     
  -5489835413.3971405       -1372448614.6718371        1114045166.0680120     
  -5547378873.4885120       -1121828520.7234130        1167606065.3960524     
  -5607104381.0649853       -878481918.39198923        1194357968.4640083     
  -5669011936.1265583       -642408807.67756343        1194300875.2718797     
  -5957603648.0362263       -1787281094.4108679        1150249092.0930598     
  -6088260899.1337194       -1502200677.9374442        1228124781.3738732     
  -6221618039.8264561       -1226119893.4481721        1268615707.0966032     
  -6357675070.1144400       -959038740.94305360        1271721869.2612493     
  -6496431989.9976702       -700957220.42208600        1237443267.8678122     
  -3815236264.0007710       -655308916.29026198        1167053294.5286636     
  -3798184861.2308264       -537401812.86491144        1188798888.9045434     
  -3784898807.7761612       -432045873.82382846        1205650628.3877146     
  -3775378103.6367774       -339241099.16701221        1217608512.9781785     
  -3769622748.8126731       -258987488.89446187        1224672542.6759341     
  -4328414073.1281090       -619584655.61165178        1159105888.6023054     
  -4298447208.2774258       -463842502.77246737        1141324501.5240686     
  -4279048383.6846867       -343327150.79309094        1129640774.9205301     
  -4270217599.3498878       -258038599.67352509        1124054708.7916901     
  -4271954855.2730355       -207976849.41376686        1124566303.1375482     
  -4946339297.1700382       -615284619.40741944        1168188415.5167115     
  -4872052640.6174555       -412286118.26805139        1102943574.2179174     
  -4815136715.2654791       -267190054.46403503        1054787908.7612290     
  -4775591521.1141052       -179996427.99536848        1023721419.1466458     
  -4753417058.1633425       -150705238.86205482        1009744105.3741672     
  -5669011936.1265583       -642408807.67756343        1194300875.2718797     
  -5519001158.2509146       -382732659.35166478        1073656106.9860896     
  -5393163802.5185385       -203634584.83665895        981092029.90981174     
  -5291499868.9294310       -105114584.13254666        916608644.04304612     
  -5214009357.4835901       -87172657.239324570        880205949.38579178     
  -6496431989.9976702       -700957220.42208600        1237443267.8678122     
  -6239292761.1778030       -375182126.02330589        1053462099.8285863     
  -6013129645.4438658       -152660741.91096282        908553138.36627889     
  -5817942642.7958584       -33393068.085052252        802716383.48088980     
  -5653731753.2337818       -17379104.545578718        735951835.17241895     
  -3769622748.8126731       -258987488.89446187        1224672542.6759341     
  -3662515310.1011710       -166003259.99389553        1191152252.0319479     
  -3563296372.5391378       -99314034.924889088        1167765696.5376122     
  -3471965936.1265740       -58919813.687447309        1154512876.1929250     
  -3388524000.8634768       -44820596.281563044        1151393790.9978900     
  -4271954855.2730355       -207976849.41376686        1124566303.1375482     
  -4149677341.9930401       -143472811.50747442        1090145957.5935173     
  -4031839794.9041638       -93768660.904907703        1063833516.7973547     
  -3918442214.0064054       -58864397.606065035        1045628980.7490612     
  -3809484599.2997622       -38760021.610947132        1035532349.4486381     
  -4753417058.1633425       -150705238.86205482        1009744105.3741672     
  -4621757557.1770840       -116417818.00870705        978446995.71483243     
  -4491089487.4235945       -85435167.931246758        953231960.40158665     
  -4361412848.9028721       -57757288.629680157        934098999.43442905     
  -4232727641.6149130       -33384180.103995562        921048112.81336188     
  -5214009357.4835901       -87172657.239324570        880205949.38579178     
  -5078755955.6533022       -84838279.497591496        856055366.39589620     
  -4941045450.0974293       -74313556.003908396        835961027.35030878     
  -4800877840.8159723       -55598486.758278370        819922932.24903119     
  -4658253127.8089294       -28693071.760702848        807941081.09206104     
  -5653731753.2337818       -17379104.545578718        735951835.17241895     
  -5520672537.4216948       -48734195.974128246        722971069.63670707     
  -5381707682.9256659       -60403825.122887373        712020717.64352226     
  -5236837189.7457075       -52387991.991872787        703100779.19286466     
  -5086061057.8818092       -24686696.581066847        696211254.28473485     
  -3388524000.8634768       -44820596.281563044        1151393790.9978900     
  -3296829819.4128313       -40346448.650573373        1145249425.6699924     
  -3205225649.0970011       -36172338.135633826        1143150068.2156157     
  -3113711489.9159832       -32298264.736740947        1145095718.6347582     
  -3022287341.8697801       -28724228.453888416        1151086376.9274211     
  -3809484599.2997622       -38760021.610947132        1035532349.4486381     
  -3705338530.5936303       -28542752.690775394        1027960559.1316713     
  -3602319733.0204182       -22083054.213671207        1024596800.0709776     
  -3500428206.5801263       -19380926.179636955        1025441072.2665581     
  -3399663951.2727551       -20436368.588668585        1030493375.7184149     
  -4232727641.6149130       -33384180.103995562        921048112.81336188     
  -4115663904.5597091       -17284055.566561222        910838760.84286571     
  -4000764698.6355324       -8399034.7992177010        905000463.51139987     
  -3888030023.8423820       -6729117.8019697666        903533220.81896055     
  -3777459880.1802583       -12274304.574811935        906437032.76555181     
  -4658253127.8089294       -28693071.760702848        807941081.09206104     
  -4527805941.3110685       -6570357.2779300213        793884030.80357802     
  -4400560545.9423428        4879720.1077234745        784361058.53687859     
  -4276516941.7027516        5657160.3962600231        779372164.29196155     
  -4155675128.5922914       -4238036.4123106003        778917348.06882977     
  -5086061057.8818092       -24686696.581066847        696211254.28473485     
  -4941764640.8477087        3598342.1751139164        677096369.01380706     
  -4801707274.9408474        17753210.507161379        662678585.14741874     
  -4665888960.1612310        17777908.415062904        652957902.68556535     
  -4534309696.5088549        3672435.8988273144        647934321.62824965     
  -3022287341.8697801       -28724228.453888416        1151086376.9274211     
  -2922581066.4048967       -23083682.206994414        1140122462.3447874     
  -2823060468.7688737       -18062062.056306481        1134575150.8333607     
  -2723725548.9617085       -13659368.001804352        1134444442.3931408     
  -2624576306.9834003       -9875600.0434947014        1139730337.0241303     
  -3399663951.2727551       -20436368.588668585        1030493375.7184149     
  -3287248937.7904716       -19247519.920010686        1019435863.1971844     
  -3174531446.3894167       -17050411.522113204        1013765014.7515721     
  -3061511477.0695815       -13845043.394952536        1013480830.3815757     
  -2948189029.8309717       -9631415.5385417938        1018583310.0871931     
  -3777459880.1802583       -12274304.574811935        906437032.76555181     
  -3652421668.6679807       -15562815.480611086        895855437.34463358     
  -3526592823.4892955       -16215880.831717491        890630567.00373828     
  -3399973344.6441975       -14233500.628121853        890762421.74286902     
  -3272563232.1326928       -9615674.8698338270        896251001.56202495     
  -4155675128.5922914       -4238036.4123106003        778917348.06882977     
  -4018099259.0374193       -12029568.888788462        769381184.78712678     
  -3879244600.0685072       -15558469.985122681        765171807.58985651     
  -3739111151.6855507       -14824739.701314926        766289216.47702301     
  -3597698913.8885517       -9828378.0373623371        772733411.44861805     
  -4534309696.5088549        3672435.8988273144        647934321.62824965     
  -4384281708.8987942       -8647780.1445407867        640013105.52466929     
  -4232486776.1270571       -15078178.982331991        637388736.50992990     
  -4078924898.1936464       -15618760.614529133        640061214.58403456     
  -3923596075.0985575       -10269525.041144848        648030539.74697983     
  -2624576306.9834003       -9875600.0434947014        1139730337.0241303     
  -2533021524.4441347       -8823014.6811070442        1133708413.3001027     
  -2441579643.0414176       -8146766.4405527115        1131261252.9424269     
  -2350250662.7752633       -7846855.3218705654        1132388855.9510963     
  -2259034583.6456556       -7923281.3250122070        1137091222.3261142     
  -2948189029.8309717       -9631415.5385417938        1018583310.0871931     
  -2847069875.2810516       -8284274.1428202391        1012427995.5645372     
  -2745729351.6086378       -6199235.6721229553        1009987152.4452645     
  -2644167458.8137383       -3376300.1264758110        1011260780.7293802     
  -2542384196.8963466        184532.49415361881        1016248880.4168842     
  -3272563232.1326928       -9615674.8698338270        896251001.56202495     
  -3161480539.7520008       -7854227.6947406530        890352278.20961654     
  -3049842207.9897757       -4240649.2478653193        888307734.29763401     
  -2937648236.8460164        1225060.4707849026        890117369.82607961     
  -2824898626.3207235        8542901.4612183571        895781184.79495192     
  -3597698913.8885517       -9828378.0373623371        772733411.44861805     
  -3476253517.8569784       -7532875.3368690014        767481261.23534727     
  -3353918212.1848259       -2271007.1677782536        766222998.49953961     
  -3230692996.8720970        5957226.4699013233        768958623.24119961     
  -3106577871.9187927        17151825.576174855        775688135.46032429     
  -3923596075.0985575       -10269525.041144848        648030539.74697983     
  -3791388809.5959868       -7320217.0692086220        643814944.64172554     
  -3657957364.1937981       -290309.43187475204        643732945.05097795     
  -3523301738.8919840        10820197.870879889        647784540.97473574     
  -3387421933.6905508        26011304.839021444        655969732.41300142     
  -2259034583.6456556       -7923281.3250122070        1137091222.3261142     
  -2163385719.0346088       -8922380.0386785269        1134812606.1581733     
  -2069109123.6309330       -14495709.443579078        1136849055.4750524     
  -1976204797.4346232       -24643269.539707184        1143200570.2767560     
  -1884672740.4456823       -39365060.327053785        1153867150.5632827     
  -2542384196.8963466        184532.49415361881        1016248880.4168842     
  -2436119628.5260286        3284967.2037289143        1011933680.7001525     
  -2331266400.6058493        1680933.7461789846        1010523295.2926747     
  -2227824513.1358066       -4627567.8784966469        1012017724.1944524     
  -2125793966.1158946       -15640537.670275688        1016416967.4054800     
  -2824898626.3207235        8542901.4612183571        895781184.79495192     
  -2712047643.2641892        14534082.872115612        889383818.41287363     
  -2600647071.9005647        15690558.639993787        884481015.16447663     
  -2490696912.2298379        12012328.764865994        881072775.04976654     
  -2382197164.2520185        3499393.2467273474        879159098.06873918     
  -3106577871.9187927        17151825.576174855        775688135.46032429     
  -2991169763.2491021        24824966.966475844        767163019.29633498     
  -2877251137.5150814        27533165.237871766        758722215.09045768     
  -2764821994.7167349        25276420.390362501        750365722.84269631     
  -2653882334.8540587        18054732.423949838        742093542.55304813     
  -3387421933.6905508        26011304.839021444        655969732.41300142     
  -3273485988.4807539        34157619.486814499        645271283.35053682     
  -3161078597.4494009        37208753.539804816        633246895.07061779     
  -3050199760.5964813        35164706.998005390        619896567.57324505     
  -2940849477.9220014        28025479.861418009        605220300.85841846     
  -1884672740.4456823       -39365060.327053785        1153867150.5632827     
  -1708475173.7314882       -14927225.279610038        1124038413.4715257     
  -1521832828.1941693        44326539.178259730        1105943438.6086712     
  -1324745703.8337214        138396233.04654002        1099582225.9747145     
  -1117213800.6501536        267281856.32524270        1104954775.5696597     
  -2125793966.1158946       -15640537.670275688        1016416967.4054800     
  -1924101399.4221644        10266701.910522938        988758686.56320202     
  -1716367863.6164618        56310505.197883010        968639088.58397067     
  -1502593358.6987906        122490872.19180900        956058173.46779037     
  -1282777884.6691532        208807802.89229381        951015941.21465778     
  -2382197164.2520185        3499393.2467273474        879159098.06873918     
  -2166995538.6240377        27280255.047291517        848533495.47958648     
  -1950156753.5952475        56518314.850564480        821251496.38763368     
  -1731680809.1656406        91213572.656546712        797313100.79287124     
  -1511567705.3352239        131366028.46523029        776718308.69530714     
  -2653882334.8540587        18054732.423949838        742093542.55304813     
  -2437157591.3371229        36113434.130699277        703362840.22067451     
  -2223199498.1305289        44949968.136294007        663780662.01964450     
  -2012008055.2342730        44564334.440751553        623347007.94996476     
  -1803583262.6483793        34956533.044037938        582061878.01162148     
  -2940849477.9220014        28025479.861418009        605220300.85841846     
  -2734587557.5613961        36766239.160747170        553246720.78647280     
  -2535496097.2223015        21605465.055070639        496226585.48002112     
  -2343575096.9046955       -17456842.455592155        434159894.93905991     
  -2158824556.6085973       -80420683.371273041        367046649.16358948     
  -5957603648.0362263       -1787281094.4108679        1150249092.0930598     
  -6088260899.1337194       -1502200677.9374442        1228124781.3738732     
  -6221618039.8264561       -1226119893.4481721        1268615707.0966032     
  -6357675070.1144400       -959038740.94305360        1271721869.2612493     
  -6496431989.9976702       -700957220.42208600        1237443267.8678122     
  -6810159322.1356707       -2043047796.6407011        1353945354.1432867     
  -6828321205.8555593       -1395490522.8263977        1202895028.9228609     
  -6897807682.5702505       -919015225.66143131        1092115859.7030878     
  -7018618752.2797403       -613621905.14580131        1021607846.4839666     
  -7190754414.9840336       -479310561.27950835        991370989.26549673     
  -8337685547.0058165       -2501305664.1017447        1712439967.7128432     
  -8021478007.4660034       -1424709316.1819317        1275734807.3583639     
  -7805219764.3205414       -681277289.57663894        956956722.56327248     
  -7688910817.5694399       -271009584.28586912        756105713.32756889     
  -7672551167.2126932       -193906200.30961943        673181779.65125346     
  -10540182322.646667       -3162054696.7940001        2225732932.8017297     
  -9667731303.9650440       -1589857058.0040462        1446644116.6803820     
  -8943854285.0773335       -512906085.19379711        863138295.67715800     
  -8368551265.9835358        68798221.636744022        475215469.79205799     
  -7941822246.6836491        155255862.48758030        282875639.02508092     
  -13417649649.058222       -4025294894.7174668        2893824249.4099464     
  -11767081095.352690       -1890933748.2927403        1715622956.8889158     
  -10313711244.840626       -413901612.51290607        810660579.04474485     
  -9057540097.5220280        405801512.62203836        178937115.87743270     
  -7998567653.3968973        568175627.11209249       -179547432.61302045     
  -6496431989.9976702       -700957220.42208600        1237443267.8678122     
  -6239292761.1778030       -375182126.02330589        1053462099.8285863     
  -6013129645.4438658       -152660741.91096282        908553138.36627889     
  -5817942642.7958584       -33393068.085052252        802716383.48088980     
  -5653731753.2337818       -17379104.545578718        735951835.17241895     
  -7190754414.9840336       -479310561.27950835        991370989.26549673     
  -6900452253.6666346       -303680077.34310961        847184665.38184381     
  -6623053328.2355766       -171060379.69451761        724084839.25684702     
  -6358557638.6908617       -81451468.333737373        622071510.89050543     
  -6106965185.0324926       -34853343.260764360        541144680.28281915     
  -7672551167.2126932       -193906200.30961943        673181779.65125346     
  -7400473812.8785124       -183836648.67982721        589875323.32269239     
  -7123226817.2310848       -156534959.33921337        509669655.93452364     
  -6840810180.2704124       -112001132.28778243        432564777.48675007     
  -6553223901.9964952       -50235167.525535583        358560687.97936732     
  -7941822246.6836491        155255862.48758030        282875639.02508092     
  -7739357438.8134327       -15651840.033454418        281534073.65113157     
  -7513650112.4303885       -109084480.84504747        265307588.39931121     
  -7264700267.5345106       -125042059.94719458        234196183.26962310     
  -6992507904.1257973       -63524577.339897633        188199858.26206264     
  -7998567653.3968973        568175627.11209249       -179547432.61302045     
  -7917103131.4714050        200874348.59599876       -77839083.632837653     
  -7794323213.8334885       -28708944.212017536       -9001363.3487910666     
  -7630227900.4831543       -120574251.31196785        26965728.239125170     
  -7424817191.4203949       -74721572.703849316        30062191.130907826     
  -5653731753.2337818       -17379104.545578718        735951835.17241895     
  -5520672537.4216948       -48734195.974128246        722971069.63670707     
  -5381707682.9256659       -60403825.122887373        712020717.64352226     
  -5236837189.7457075       -52387991.991872787        703100779.19286466     
  -5086061057.8818092       -24686696.581066847        696211254.28473485     
  -6106965185.0324926       -34853343.260764360        541144680.28281915     
  -5958765932.7905302       -36625608.161866426        535282171.40470135     
  -5809104607.0023251       -33524294.575489759        532208624.73146808     
  -5657981207.6678772       -25549402.501637697        531924040.26312095     
  -5505395734.7871876       -12700931.940315247        534428417.99965799     
  -6553223901.9964952       -50235167.525535583        358560687.97936732     
  -6387717331.4322128       -21774421.331456184        354632276.43153685     
  -6225192252.4593849       -3251980.4422111511        354251375.75094795     
  -6065648665.0780010        5332155.1422052383        357417985.93760288     
  -5909086569.2880726        3977985.4217827320        364132106.99149799     
  -6992507904.1257973       -63524577.339897633        188199858.26206264     
  -6807526733.3467474       -4180635.4829034805        181021384.71721238     
  -6629970619.2968388        30413117.276952744        178148970.70196128     
  -6459839561.9760742        40256680.939662695        179582616.21630692     
  -6297133561.3844490        25350055.505239248        185322321.26025403     
  -7424817191.4203949       -74721572.703849316        30062191.130907826     
  -7218194138.5341225        16155749.383798599        14449496.261726404     
  -7023439707.5146933        67470998.581990242        3901409.5845028637     
  -6840553898.3620911        79224174.890745640       -1582068.9007631522     
  -6669536711.0763283        51415278.310034275       -2000939.1940715245     
  -5086061057.8818092       -24686696.581066847        696211254.28473485     
  -4941764640.8477087        3598342.1751139164        677096369.01380706     
  -4801707274.9408474        17753210.507161379        662678585.14741874     
  -4665888960.1612310        17777908.415062904        652957902.68556535     
  -4534309696.5088549        3672435.8988273144        647934321.62824965     
  -5505395734.7871876       -12700931.940315247        534428417.99965799     
  -5352979799.6366987       -743709.62333154678        517449764.76887864     
  -5202580039.3018618        4492929.9748051167        505787750.93983048     
  -5054196453.7826843        3008986.8540718555        499442376.51251447     
  -4907829043.0791636       -5195538.9855008125        498413641.48692876     
  -5909086569.2880726        3977985.4217827320        364132106.99149799     
  -5746781007.4577780        138423.86859965324        351883041.49771732     
  -5584268744.1315517       -3012132.6981527805        345570153.40285969     
  -5421549779.3094034       -5473684.2784943581        345193442.70692819     
  -5258624112.9913273       -7246230.8723914623        350752909.40992051     
  -6297133561.3844490        25350055.505239248        185322321.26025403     
  -6123168264.3109426        6244742.6509001255        180396199.20031625     
  -5946773389.4299183       -4761977.5117087364        182025792.53650227     
  -5767948936.7413864       -7670104.9826285839        190211101.26880345     
  -5586694906.2453442       -2479639.7618350983        204952125.39722681     
  -6669536711.0763283        51415278.310034275       -2000939.1940715245     
  -6482141570.1961975        17575246.723580360        2989237.8766861204     
  -6290093975.1969681       -756604.46588420868        15154668.340760214     
  -6093393926.0786428       -3580275.2583701611        34495352.198146597     
  -5892041422.8412142        9104234.3461685181        61011289.448846221     
  -4534309696.5088549        3672435.8988273144        647934321.62824965     
  -4384281708.8987942       -8647780.1445407867        640013105.52466929     
  -4232486776.1270571       -15078178.982331991        637388736.50992990     
  -4078924898.1936464       -15618760.614529133        640061214.58403456     
  -3923596075.0985575       -10269525.041144848        648030539.74697983     
  -4907829043.0791636       -5195538.9855008125        498413641.48692876     
  -4744492843.5288801       -10081624.659182310        498935039.85824376     
  -4580308950.3639011       -12142064.950548887        502681108.70173132     
  -4415277363.5842228       -11376859.859583616        509651848.01738852     
  -4249398083.1898570       -7786009.3863229752        519847257.80521709     
  -5258624112.9913273       -7246230.8723914623        350752909.40992051     
  -5087900206.1198769       -6474337.5620932579        358644462.11798918     
  -4917247857.1807203       -5940970.6927585602        367688508.68155837     
  -4746667066.1738415       -5646130.2643609047        377885049.10062307     
  -4576157833.0992565       -5589816.2769279480        389234083.37518525     
  -5586694906.2453442       -2479639.7618350983        204952125.39722681     
  -5414503796.6717968        2174081.1467201710        219141372.30390450     
  -5243303496.5775175        3525103.7910532951        232410936.44940734     
  -5073094005.9625072        1573428.1711516380        244760817.83373901     
  -4903875324.8267717       -3680945.7129757404        256191016.45689541     
  -5892041422.8412142        9104234.3461685181        61011289.448846221     
  -5724303615.1846352        15863631.467249870        80425770.415984854     
  -5558475868.5543032        16256158.500846386        96848392.005284667     
  -5394558182.9502134        10281815.446964741        110279154.21672693     
  -5232550558.3723831       -2059397.6944456100        120718057.05033326     
  -3923596075.0985575       -10269525.041144848        648030539.74697983     
  -3791388809.5959868       -7320217.0692086220        643814944.64172554     
  -3657957364.1937981       -290309.43187475204        643732945.05097795     
  -3523301738.8919840        10820197.870879889        647784540.97473574     
  -3387421933.6905508        26011304.839021444        655969732.41300142     
  -4249398083.1898570       -7786009.3863229752        519847257.80521709     
  -4106512660.8706799       -8003354.4965157509        517043287.84879321     
  -3962437594.6898637       -4255220.0679285526        519050455.25574511     
  -3817172884.6474094        3458393.8994438648        525868760.02607507     
  -3670718530.7433395        15137487.405573606        537498202.15978456     
  -4576157833.0992565       -5589816.2769279480        389234083.37518525     
  -4420658420.1095552       -8393064.3130717278        387801446.52327543     
  -4264003899.2961988       -7345952.9370625019        391857488.88361031     
  -4106194270.6592054       -2448482.1488997936        401402210.45619285     
  -3947229534.1985660        6299348.0513975620        416435611.24101895     
  -4903875324.8267717       -3680945.7129757404        256191016.45689541     
  -4733826087.3126183       -8489346.5188858509        256089420.66516775     
  -4562656278.0128136       -9562508.0392801762        262154045.93456441     
  -4390365896.9273472       -6900430.2741394043        274384892.26507753     
  -4216954944.0562325       -503113.22351026535        292781959.65670866     
  -5232550558.3723831       -2059397.6944456100        120718057.05033326     
  -5046015662.4798775       -8292201.1139581203        121907210.27448003     
  -4858394730.8396988       -10904885.374584675        129940126.40861912     
  -4669687763.4518518       -9897450.4763088226        144816805.45274258     
  -4479894760.3163443       -5269896.4191551208        166537247.40685561     
  -3387421933.6905508        26011304.839021444        655969732.41300142     
  -3273485988.4807539        34157619.486814499        645271283.35053682     
  -3161078597.4494009        37208753.539804816        633246895.07061779     
  -3050199760.5964813        35164706.998005390        619896567.57324505     
  -2940849477.9220014        28025479.861418009        605220300.85841846     
  -3670718530.7433395        15137487.405573606        537498202.15978456     
  -3554615389.7066579        17386681.780875921        530304187.10362750     
  -3439915871.8309150        14957132.286372900        527464058.88695228     
  -3326619977.1161180        7848838.9220604897        528977817.50975865     
  -3214727705.5622625       -3938198.3120667934        534845462.97204238     
  -3947229534.1985660        6299348.0513975620        416435611.24101895     
  -3812731122.8866076        7519844.4887368679        412891783.04491657     
  -3679511403.7181034        4478033.7812359333        419381667.74522942     
  -3547570376.6930399       -2826084.0710694790        435905265.34195775     
  -3416908041.8114290       -14392509.068224669        462462575.83509898     
  -4216954944.0562325       -503113.22351026535        292781959.65670866     
  -4047833188.0206213        4557107.6103603840        293034071.17440820     
  -3879865193.1109581        5771458.0243871212        308999721.64544821     
  -3713050959.3272452        3139938.0185916424        340678911.06984639     
  -3547390486.6694803       -3337452.4070339203        388071639.44758946     
  -4479894760.3163443       -5269896.4191551208        166537247.40685561     
  -4259921585.1086860        8498471.1457817554        170731051.49209011     
  -4040977240.0094733        18837405.015876293        196318220.58761251     
  -3823061725.0187240        25746905.191106796        243298754.69341978     
  -3606175040.1364360        29226971.671465397        311672653.80951464     
  -2940849477.9220014        28025479.861418009        605220300.85841846     
  -2734587557.5613961        36766239.160747170        553246720.78647280     
  -2535496097.2223015        21605465.055070639        496226585.48002112     
  -2343575096.9046955       -17456842.455592155        434159894.93905991     
  -2158824556.6085973       -80420683.371273041        367046649.16358948     
  -3214727705.5622625       -3938198.3120667934        534845462.97204238     
  -3007239271.6258149       -10956013.275605321        502742734.80303168     
  -2814111803.3927245       -65843713.917011023        480266627.91061187     
  -2635345300.8629956       -168601300.23628426        467417142.29478449     
  -2470939764.0366197       -319228772.23341274        464194277.95555240     
  -3416908041.8114290       -14392509.068224669        462462575.83509898     
  -3166269732.8388424       -24591889.856552243        441841776.27352172     
  -2937182895.2514772       -106629508.59560537        445520774.49963552     
  -2729647529.0493259       -260505365.28538215        473499570.51343930     
  -2543663634.2323837       -486219459.92587483        525778164.31494141     
  -3547390486.6694803       -3337452.4070339203        388071639.44758946     
  -3211678941.2004771       -4141390.5820688009        370543845.19794452     
  -2904709372.7985501       -100751918.98067904        391989025.24708641     
  -2626481781.4636922       -293169037.60287273        452407179.59503025     
  -2376996167.1959252       -581392746.44867015        551798308.24175000     
  -3606175040.1364360        29226971.671465397        311672653.80951464     
  -3143466896.7107267        50395484.547816992        288848941.57629693     
  -2716691236.0339503       -48210945.072262168        319671380.15297216     
  -2325848058.1061196       -266592317.18882281        404139969.53953916     
  -1970937362.9272037       -604748631.80178642        542254709.73599494     
 </DataArray>
 <DataArray  type="Float64" Name="VM" NumberOfComponents="1" format="ascii">
   12936478347.355124     
   11341120342.897877     
   10210174533.690870     
   9272309897.9675617     
   8303062517.4897232     
   10130567012.495907     
   9322108817.0660648     
   8826338912.6508160     
   8443433314.9655819     
   8035577242.1123190     
   7982236623.7371407     
   7734897260.9587755     
   7669169453.2787504     
   7669756713.9840527     
   7666725265.9552078     
   6491403382.8914967     
   6586775731.6665716     
   6757500567.8824816     
   6961508600.5851498     
   7172140319.4086018     
   5657625889.7657862     
   5890903648.4958172     
   6116520455.7715340     
   6332030484.7774467     
   6537224820.1255703     
   8303062517.4897232     
   8020627789.7235584     
   7780199342.4242449     
   7571098300.9398861     
   7388343329.6362095     
   8035577242.1123190     
   7746967879.6083937     
   7473926872.5531864     
   7214509004.5085974     
   6968722356.3749018     
   7666725265.9552078     
   7381389079.1519222     
   7101360359.9964066     
   6826721394.1200819     
   6557675764.8427811     
   7172140319.4086018     
   6911328344.5134106     
   6658360156.2272110     
   6409368282.4577608     
   6161206064.3941917     
   6537224820.1255703     
   6329134607.0090036     
   6143219523.2477627     
   5965550967.4083061     
   5787127041.6926050     
   7388343329.6362095     
   7226433018.9148235     
   7057184892.4295149     
   6879905375.4609690     
   6694394380.2768660     
   6968722356.3749018     
   6812764052.4487057     
   6652468910.0918312     
   6487568353.0405588     
   6318014729.4944229     
   6557675764.8427811     
   6406478981.4224386     
   6254010450.7254572     
   6100254877.3636427     
   5945253544.9743481     
   6161206064.3941917     
   6012551305.5429726     
   5865635172.9169378     
   5720507733.8127708     
   5577245493.0428371     
   5787127041.6926050     
   5637395240.4949312     
   5492268943.3751183     
   5351668502.9248705     
   5215678868.1473818     
   6694394380.2768660     
   6490021077.2335930     
   6288980457.3061142     
   6091308367.2551041     
   5897215944.6001415     
   6318014729.4944229     
   6134067354.2876015     
   5952360087.7240763     
   5772930646.2638979     
   5595914102.0492907     
   5945253544.9743481     
   5779364196.2311935     
   5614641449.4578190     
   5451119863.2405834     
   5288896965.6244316     
   5577245493.0428371     
   5427620274.0052547     
   5278098211.1955490     
   5128689697.6558628     
   4979483456.0504131     
   5215678868.1473818     
   5081220812.2458839     
   4945818897.5316572     
   4809421450.6064444     
   4672128680.1164722     
   5897215944.6001415     
   5734473303.1899452     
   5570481064.8703852     
   5405159750.3550310     
   5238455247.0057402     
   5595914102.0492907     
   5428522390.6549196     
   5260599387.5144424     
   5092131753.5885525     
   4923111097.7497091     
   5288896965.6244316     
   5121464358.3048439     
   4954531367.4930840     
   4788166074.6069250     
   4622448419.3331947     
   4979483456.0504131     
   4816235157.5632715     
   4654893577.6296606     
   4495605448.9538565     
   4338563716.7822437     
   4672128680.1164722     
   4516708346.8900223     
   4365059586.5757370     
   4217377289.3526053     
   4073961814.1810536     
   5238455247.0057402     
   5048643564.6755028     
   4860129091.5548487     
   4673081119.7309523     
   4487802180.1797447     
   4923111097.7497091     
   4751366356.1817017     
   4581474006.4240885     
   4413634670.0809507     
   4248169327.3288865     
   4622448419.3331947     
   4467153366.6930351     
   4314192055.0549469     
   4163786430.6200542     
   4016264205.3917875     
   4338563716.7822437     
   4198091485.1708312     
   4060342539.6818805     
   3925550962.0475111     
   3794041091.0424094     
   4073961814.1810536     
   3946692128.4288440     
   3822424173.3870001     
   3701396152.3608704     
   3583921021.4791303     
   4487802180.1797447     
   4275000482.9883080     
   4064573377.2138519     
   3858295984.0066209     
   3659472975.6245127     
   4248169327.3288865     
   4082302966.6742849     
   3919388725.8738337     
   3760518604.9003191     
   3607595350.2613287     
   4016264205.3917875     
   3882977551.2356205     
   3752237694.9592361     
   3624588871.4672384     
   3500920885.1447258     
   3794041091.0424094     
   3679045283.0299902     
   3565094786.9695597     
   3452366024.5430274     
   3341126245.0212564     
   3583921021.4791303     
   3473368153.5524836     
   3361120640.7509174     
   3247147276.4486275     
   3131436180.3813314     
   3659472975.6245127     
   3206547323.0996232     
   2747452875.0591459     
   2311163241.1017466     
   1982280783.8854768     
   3607595350.2613287     
   3271105424.4387255     
   2932519571.6023870     
   2609703724.4637060     
   2345289196.3834386     
   3500920885.1447258     
   3242905284.2354646     
   2983118770.6306944     
   2730556564.6329656     
   2504851536.5379829     
   3341126245.0212564     
   3121997942.3386197     
   2898972842.9362597     
   2675068938.4895272     
   2457023222.2047811     
   3131436180.3813314     
   2910476723.3215108     
   2682025690.6819105     
   2446695042.7462440     
   2206066343.5098395     
   5657625889.7657862     
   5890903648.4958172     
   6116520455.7715340     
   6332030484.7774467     
   6537224820.1255703     
   5151411283.7416086     
   5311377719.2256784     
   5467958214.2867985     
   5618264376.8748789     
   5760838790.7125435     
   4643538115.8812609     
   4755618796.5884733     
   4868809267.7068634     
   4980475480.9094877     
   5088694044.3978920     
   4134268986.5269251     
   4224463086.0939183     
   4320568048.5506687     
   4420922465.4636698     
   4524067997.2253618     
   3625121179.6435561     
   3719732860.5326819     
   3825592228.2866397     
   3942627648.3084664     
   4070739399.6766033     
   6537224820.1255703     
   6329134607.0090036     
   6143219523.2477627     
   5965550967.4083061     
   5787127041.6926050     
   5760838790.7125435     
   5652564626.0278893     
   5560298382.8796606     
   5474972819.0408926     
   5391054269.7715120     
   5088694044.3978920     
   5054430465.9620886     
   5030706293.4788790     
   5012317160.4084091     
   4996065041.7148714     
   4524067997.2253618     
   4539324771.4916945     
   4559291746.2431459     
   4581496144.0606594     
   4604216484.2720022     
   4070739399.6766033     
   4112574041.5694523     
   4151796347.7752261     
   4187523346.0996647     
   4219033732.2658086     
   5787127041.6926050     
   5637395240.4949312     
   5492268943.3751183     
   5351668502.9248705     
   5215678868.1473818     
   5391054269.7715120     
   5250635228.5439539     
   5113672415.9915218     
   4980212351.0776844     
   4850362400.6662464     
   4996065041.7148714     
   4869116708.4081144     
   4745406371.1667986     
   4624895223.8621063     
   4507612412.1294508     
   4604216484.2720022     
   4495534828.3348570     
   4390915709.9182415     
   4290014404.3360190     
   4192707931.4300790     
   4219033732.2658086     
   4133901236.3954287     
   4054878412.3856115     
   3981060379.8958330     
   3912109541.9078054     
   5215678868.1473818     
   5081220812.2458839     
   4945818897.5316572     
   4809421450.6064444     
   4672128680.1164722     
   4850362400.6662464     
   4729146057.7405376     
   4608234686.4105806     
   4487687222.5326509     
   4367679423.7538691     
   4507612412.1294508     
   4399736835.9553814     
   4293472122.4423604     
   4188968360.9816484     
   4086461533.4921870     
   4192707931.4300790     
   4098014883.0033617     
   4006236987.6097765     
   3917585993.3840017     
   3832334272.8971596     
   3912109541.9078054     
   3830052096.9506688     
   3752138424.6584044     
   3678603838.8255062     
   3609728146.3864021     
   4672128680.1164722     
   4516708346.8900223     
   4365059586.5757370     
   4217377289.3526053     
   4073961814.1810536     
   4367679423.7538691     
   4227542929.5308838     
   4091454257.5648780     
   3959662886.2280002     
   3832518371.4469848     
   4086461533.4921870     
   3962071978.3919983     
   3842114449.4988089     
   3726889498.7415504     
   3616793490.9457903     
   3832334272.8971596     
   3724281805.4275436     
   3621155827.2733698     
   3523297204.0622125     
   3431138665.2041759     
   3609728146.3864021     
   3518668821.0880733     
   3433129738.1951089     
   3353471095.7590237     
   3280140813.1081805     
   4073961814.1810536     
   3946692128.4288440     
   3822424173.3870001     
   3701396152.3608704     
   3583921021.4791303     
   3832518371.4469848     
   3716869067.8925261     
   3604588477.3416734     
   3495940272.5314159     
   3391257851.9590421     
   3616793490.9457903     
   3513035213.1387420     
   3413053415.9522152     
   3317135973.6714282     
   3225634110.0356679     
   3431138665.2041759     
   3339626808.2491956     
   3252324393.3981624     
   3169537261.0492754     
   3091626286.0610757     
   3280140813.1081805     
   3201253433.4157581     
   3127005299.4403114     
   3057708231.8181410     
   2993718810.2355452     
   3583921021.4791303     
   3473368153.5524836     
   3361120640.7509174     
   3247147276.4486275     
   3131436180.3813314     
   3391257851.9590421     
   3282805061.4594240     
   3173833892.9146533     
   3064385703.7767215     
   2954528036.3265481     
   3225634110.0356679     
   3124342175.0270367     
   3024290297.5447779     
   2925683258.2288551     
   2828779295.9651947     
   3091626286.0610757     
   3002248836.1511712     
   2916392642.3108010     
   2834468134.1239653     
   2756966736.3596897     
   2993718810.2355452     
   2920261147.9774923     
   2852971823.8563523     
   2792432652.7462792     
   2739312902.7182493     
   3131436180.3813314     
   2910476723.3215108     
   2682025690.6819105     
   2446695042.7462440     
   2206066343.5098395     
   2954528036.3265481     
   2739144381.4616709     
   2521962220.9375339     
   2303008827.1608338     
   2082421129.5131423     
   2828779295.9651947     
   2631451427.7816586     
   2440998098.3744440     
   2258649290.7204862     
   2086079217.7579534     
   2756966736.3596897     
   2584866673.7284403     
   2429064373.2543435     
   2292341961.7758212     
   2178502425.2998586     
   2739312902.7182493     
   2593086706.5410500     
   2471536140.3684835     
   2378545777.1739373     
   2319673960.5021863     
   3625121179.6435561     
   3719732860.5326819     
   3825592228.2866397     
   3942627648.3084664     
   4070739399.6766033     
   3138077190.6477432     
   3255514125.3560419     
   3382368184.3070760     
   3518167227.8920741     
   3662450765.7026072     
   2694814682.2636027     
   2830478714.2387190     
   2973458795.8080931     
   3122674020.2136712     
   3277214314.1976728     
   2298829013.5834284     
   2449421547.9856281     
   2604743868.8265829     
   2762879049.3581142     
   2922401573.8469477     
   1955341406.5894589     
   2119302215.5807581     
   2284629546.0056500     
   2448373448.3491750     
   2608583626.4388390     
   4070739399.6766033     
   4112574041.5694523     
   4151796347.7752261     
   4187523346.0996647     
   4219033732.2658086     
   3662450765.7026072     
   3702170525.9377527     
   3740515417.2613716     
   3776594971.0620956     
   3809665631.3871102     
   3277214314.1976728     
   3320678272.0049329     
   3364356234.3626323     
   3407426010.1978970     
   3449209760.4228187     
   2922401573.8469477     
   2975487810.8312955     
   3030734181.4590435     
   3087452380.3317094     
   3145105270.6649241     
   2608583626.4388390     
   2676659472.5975752     
   2749147465.4153895     
   2825528663.1100006     
   2905444452.7240930     
   4219033732.2658086     
   4133901236.3954287     
   4054878412.3856115     
   3981060379.8958330     
   3912109541.9078054     
   3809665631.3871102     
   3755535932.6061020     
   3707105836.9388332     
   3663869408.4858027     
   3625708417.2778845     
   3449209760.4228187     
   3421707957.4654193     
   3399144793.1192818     
   3381277534.8070192     
   3368082904.0557418     
   3145105270.6649241     
   3140090488.2100706     
   3138684145.8703356     
   3140785769.9491510     
   3146382985.6498318     
   2905444452.7240930     
   2919047384.5262012     
   2934166404.4123673     
   2950754759.1237001     
   2968780217.6768775     
   3912109541.9078054     
   3830052096.9506688     
   3752138424.6584044     
   3678603838.8255062     
   3609728146.3864021     
   3625708417.2778845     
   3556236565.8808475     
   3491530497.2934608     
   3431840718.8002701     
   3377464243.2217340     
   3368082904.0557418     
   3311988629.2907367     
   3261423763.6513305     
   3216633598.2082028     
   3177911611.1787896     
   3146382985.6498318     
   3104167782.8318138     
   3068368270.0090804     
   3039194386.1378593     
   3016906098.3288078     
   2968780217.6768775     
   2940395558.2736964     
   2919401343.9292068     
   2905935698.4905586     
   2900190729.2289290     
   3609728146.3864021     
   3518668821.0880733     
   3433129738.1951089     
   3353471095.7590237     
   3280140813.1081805     
   3377464243.2217340     
   3301764545.6770821     
   3232064343.2222281     
   3168703839.7066565     
   3112092395.4753160     
   3177911611.1787896     
   3116799697.6581907     
   3062082026.3468919     
   3014057618.6787639     
   2973074786.5293508     
   3016906098.3288078     
   2969329366.1318264     
   2928414358.1037550     
   2894400752.1631517     
   2867558986.2994933     
   2900190729.2289290     
   2864718824.7564254     
   2836012486.4921732     
   2814242157.8896689     
   2799594415.7427702     
   3280140813.1081805     
   3201253433.4157581     
   3127005299.4403114     
   3057708231.8181410     
   2993718810.2355452     
   3112092395.4753160     
   3044727173.5543265     
   2982789163.4132776     
   2926595961.6895680     
   2876504327.8007388     
   2973074786.5293508     
   2917457495.7540164     
   2868068703.8671618     
   2825207385.2691331     
   2789202723.7075438     
   2867558986.2994933     
   2823436208.7928195     
   2786316959.2523828     
   2756456322.3471260     
   2734129505.0463343     
   2799594415.7427702     
   2766093921.6619306     
   2740314052.7833109     
   2722446985.4245338     
   2712696511.6412539     
   2993718810.2355452     
   2920261147.9774923     
   2852971823.8563523     
   2792432652.7462792     
   2739312902.7182493     
   2876504327.8007388     
   2819571892.9766073     
   2769578137.0211425     
   2727045001.2231088     
   2692548049.8979087     
   2789202723.7075438     
   2748071811.9322076     
   2714464030.4374495     
   2688804319.0369730     
   2671542126.6078362     
   2734129505.0463343     
   2707464549.2931395     
   2688698997.7621784     
   2678142158.2114325     
   2676108196.3931184     
   2712696511.6412539     
   2698538817.2546749     
   2692464248.7803159     
   2694669028.8608871     
   2705344869.0836468     
   2739312902.7182493     
   2593086706.5410500     
   2471536140.3684835     
   2378545777.1739373     
   2319673960.5021863     
   2692548049.8979087     
   2555384641.5086904     
   2437490628.2996974     
   2340742882.1684613     
   2267799969.8278060     
   2671542126.6078362     
   2543274280.1721416     
   2429805276.4586334     
   2331937971.6134849     
   2250693547.8576941     
   2676108196.3931184     
   2558693509.0937033     
   2452321783.1990113     
   2357526907.5720239     
   2274931789.3732424     
   2705344869.0836468     
   2602743898.7216244     
   2508031072.1716342     
   2422133412.5729866     
   2346376076.4296098     
   1955341406.5894589     
   2119302215.5807581     
   2284629546.0056500     
   2448373448.3491750     
   2608583626.4388390     
   1653865795.7782221     
   1820229094.9419928     
   1988288175.2507546     
   2155355253.8506265     
   2319678606.7991681     
   1393742540.5894048     
   1571022141.1931846     
   1749296137.5726881     
   1926566852.4087672     
   2101587952.4576344     
   1207264664.5643537     
   1399093140.8325260     
   1590482062.8236716     
   1780656896.3651838     
   1969160429.7961860     
   1137060947.4369879     
   1335268544.0636120     
   1533757683.4228425     
   1732528365.4191217     
   1931580590.1578133     
   2608583626.4388390     
   2676659472.5975752     
   2749147465.4153895     
   2825528663.1100006     
   2905444452.7240930     
   2319678606.7991681     
   2406877520.4700913     
   2496461229.2767467     
   2588034687.1464953     
   2681319872.1125011     
   2101587952.4576344     
   2205543144.1837940     
   2309392930.6097970     
   2412898814.1757150     
   2515892992.0380235     
   1969160429.7961860     
   2086580869.0870769     
   2201176834.8262281     
   2312872793.5611658     
   2421616360.1570792     
   1931580590.1578133     
   2058532355.3814414     
   2180132873.3158827     
   2296382144.3959723     
   2407280169.6267600     
   2905444452.7240930     
   2919047384.5262012     
   2934166404.4123673     
   2950754759.1237001     
   2968780217.6768775     
   2681319872.1125011     
   2702039816.0503402     
   2725318511.9119363     
   2751144782.0866542     
   2779516236.0203648     
   2515892992.0380235     
   2543594740.1419520     
   2574920378.1631770     
   2609874900.5618086     
   2648467082.6869221     
   2421616360.1570792     
   2454676767.9836946     
   2492421789.2599134     
   2534855680.2512360     
   2581983528.0221567     
   2407280169.6267600     
   2442503621.8160362     
   2483459893.9974971     
   2530148986.4924569     
   2582570902.3564391     
   2968780217.6768775     
   2940395558.2736964     
   2919401343.9292068     
   2905935698.4905586     
   2900190729.2289290     
   2779516236.0203648     
   2765600032.6206822     
   2758837137.9017186     
   2759313666.7981362     
   2767143346.9214683     
   2648467082.6869221     
   2646161705.2338943     
   2650505428.8593249     
   2661536409.2359481     
   2679303397.5461869     
   2581983528.0221567     
   2587968673.8184199     
   2599846001.8615923     
   2617623975.3970108     
   2641313188.0246868     
   2582570902.3564391     
   2593384750.6628098     
   2609134918.8799133     
   2629821414.1937385     
   2655444258.4414711     
   2900190729.2289290     
   2864718824.7564254     
   2836012486.4921732     
   2814242157.8896689     
   2799594415.7427702     
   2767143346.9214683     
   2741011680.2905750     
   2722185013.6561975     
   2710777294.1205845     
   2706910822.2701259     
   2679303397.5461869     
   2660518219.1084814     
   2649487787.1029830     
   2646269653.9501629     
   2650924626.7505250     
   2641313188.0246868     
   2627196567.1147699     
   2621190023.5826702     
   2623309157.4624705     
   2633570345.2063227     
   2655444258.4414711     
   2642819070.8924890     
   2638571578.8795619     
   2642701761.7346783     
   2655209617.6742949     
   2799594415.7427702     
   2766093921.6619306     
   2740314052.7833109     
   2722446985.4245338     
   2712696511.6412539     
   2706910822.2701259     
   2683211695.8086429     
   2667375320.2749510     
   2659517817.3312211     
   2659759731.3130913     
   2650924626.7505250     
   2634741239.5708113     
   2626468160.8708405     
   2626158995.5643978     
   2633868449.1395817     
   2633570345.2063227     
   2622226946.2764869     
   2618769797.7406015     
   2623212441.0324540     
   2635568545.6655660     
   2655209617.6742949     
   2645826062.2351723     
   2644258142.5949793     
   2650505866.8216386     
   2664569243.7702289     
   2712696511.6412539     
   2698538817.2546749     
   2692464248.7803159     
   2694669028.8608871     
   2705344869.0836468     
   2659759731.3130913     
   2654923285.2170405     
   2658083180.6465173     
   2669351177.4638486     
   2688834187.8253236     
   2633868449.1395817     
   2635983418.6486921     
   2645970527.4862142     
   2663879494.6561718     
   2689757131.1679959     
   2635568545.6655660     
   2642021815.9181266     
   2656223927.8614936     
   2678187552.5063553     
   2707924513.4242463     
   2664569243.7702289     
   2672655236.9539738     
   2688395522.4097376     
   2711790149.7060757     
   2742839177.4882302     
   2705344869.0836468     
   2602743898.7216244     
   2508031072.1716342     
   2422133412.5729866     
   2346376076.4296098     
   2688834187.8253236     
   2604279602.9275680     
   2530643728.0081067     
   2468501021.5628371     
   2418605568.5979838     
   2689757131.1679959     
   2619707269.2668223     
   2563311708.9725137     
   2520839391.6782098     
   2492612923.3674169     
   2707924513.4242463     
   2647449852.8353105     
   2603202116.7130251     
   2575245158.8065023     
   2563645883.5136538     
   2742839177.4882302     
   2685873685.7219739     
   2647741960.0927649     
   2628447512.1882739     
   2627997107.2252178     
   1137060947.4369879     
   1335268544.0636120     
   1533757683.4228425     
   1732528365.4191217     
   1931580590.1578133     
   1207246651.6877503     
   1399080999.9676807     
   1590475877.3649080     
   1780656665.1525571     
   1969166182.5727165     
   1393722517.0609276     
   1571006561.6018717     
   1749285740.4723551     
   1926561713.5373554     
   2101587753.1574769     
   1653855746.1255560     
   1820218270.9652207     
   1988277363.3477297     
   2155344102.2447081     
   2319665834.5444770     
   1955348723.1631131     
   2119302362.7897749     
   2284622454.4875326     
   2448357662.6762609     
   2608556293.7838292     
   1931580590.1578133     
   2058532355.3814414     
   2180132873.3158827     
   2296382144.3959723     
   2407280169.6267600     
   1969166182.5727165     
   2086558488.6082063     
   2201125049.2010169     
   2312790077.2303486     
   2421501126.8740344     
   2101587753.1574769     
   2205503491.4355145     
   2309311799.1346078     
   2412774198.0394325     
   2515722924.7268319     
   2319665834.5444770     
   2406829704.1367526     
   2496376259.5402546     
   2587911161.7450743     
   2681156662.1823211     
   2608556293.7838292     
   2676613865.0929370     
   2749082231.9644184     
   2825444175.5303559     
   2905341745.1929636     
   2407280169.6267600     
   2442503621.8160362     
   2483459893.9974971     
   2530148986.4924569     
   2582570902.3564391     
   2421501126.8740344     
   2454580191.2758784     
   2492335983.0860233     
   2534773004.2913070     
   2581896438.8808212     
   2515722924.7268319     
   2543437894.7484760     
   2574758418.8471975     
   2609689363.7265639     
   2648239366.5886068     
   2681156662.1823211     
   2701871292.5892272     
   2725113787.0470786     
   2750871833.2474637     
   2779142243.1838522     
   2905341745.1929636     
   2918918703.1635365     
   2933967089.2844133     
   2950437547.9811454     
   2968296040.8869419     
   2582570902.3564391     
   2593384750.6628098     
   2609134918.8799133     
   2629821414.1937385     
   2655444258.4414711     
   2581896438.8808212     
   2587765171.7859292     
   2599532980.4926152     
   2617208121.7183652     
   2640801163.5207338     
   2648239366.5886068     
   2645816195.1303105     
   2650066689.3286290     
   2661028630.4102254     
   2678749681.2303867     
   2779142243.1838522     
   2765202906.5207238     
   2758469197.2796302     
   2759027484.6963649     
   2766989110.0866828     
   2968296040.8869419     
   2940051176.9814558     
   2919285660.9919348     
   2906140318.7308021     
   2900804592.9165649     
   2655444258.4414711     
   2642819070.8924890     
   2638571578.8795619     
   2642701761.7346783     
   2655209617.6742949     
   2640801163.5207338     
   2626742669.0852666     
   2620781707.7033153     
   2622933986.0223956     
   2633215868.9337916     
   2678749681.2303867     
   2659984647.9461794     
   2648935714.6893997     
   2645660761.5736313     
   2650221248.9020801     
   2766989110.0866828     
   2740766254.0678153     
   2721770529.4151006     
   2710115857.0203166     
   2705925786.1257200     
   2900804592.9165649     
   2865086547.7419558     
   2836005509.2761517     
   2813730198.9381499     
   2798448023.8291750     
   2655209617.6742949     
   2645826062.2351723     
   2644258142.5949793     
   2650505866.8216386     
   2664569243.7702289     
   2633215868.9337916     
   2621856059.7937522     
   2618390631.4231377     
   2622832704.5422306     
   2635195464.0354805     
   2650221248.9020801     
   2633997784.5993400     
   2625701834.3735232     
   2625386387.7716675     
   2633105366.0890265     
   2705925786.1257200     
   2682151336.3142190     
   2666266218.3997250     
   2658386114.9053741     
   2658630839.8489871     
   2798448023.8291750     
   2764823012.9386683     
   2738954131.4265451     
   2721033717.0431652     
   2711265337.2687573     
   2664569243.7702289     
   2672655236.9539738     
   2688395522.4097376     
   2711790149.7060757     
   2742839177.4882302     
   2635195464.0354805     
   2641951992.9925728     
   2656595863.3590927     
   2679137901.9889483     
   2709588201.1836190     
   2633105366.0890265     
   2635730679.3159499     
   2646508045.6117883     
   2665485521.8871903     
   2692708263.0992713     
   2658630839.8489871     
   2654344521.2637615     
   2658480720.6786056     
   2671153681.1191168     
   2692472356.3748589     
   2711265337.2687573     
   2697469770.9676561     
   2692333380.7368279     
   2696064833.2189770     
   2708867253.6409078     
   2742839177.4882302     
   2685873685.7219739     
   2647741960.0927649     
   2628447512.1882739     
   2627997107.2252178     
   2709588201.1836190     
   2648172125.2096109     
   2603126184.2697668     
   2574531566.8025742     
   2562487895.1920295     
   2692708263.0992713     
   2621936053.5714407     
   2565155529.0193205     
   2522621292.5331483     
   2494642211.4319658     
   2692472356.3748589     
   2608470379.1746922     
   2535987736.8273830     
   2475504398.5984793     
   2427627069.3946419     
   2708867253.6409078     
   2608974216.7026238     
   2517910328.9098821     
   2436383322.4976702     
   2365343430.2564092     
   1955348723.1631131     
   2119302362.7897749     
   2284622454.4875326     
   2448357662.6762609     
   2608556293.7838292     
   2298850612.9684944     
   2449436319.3635411     
   2604750144.0775223     
   2762874294.0631762     
   2922382457.1756101     
   2694840003.7631769     
   2830501685.5786524     
   2973476944.6384830     
   3122684431.5710077     
   3277213719.6966496     
   3138097020.4693489     
   3255538997.1211109     
   3382395404.7283707     
   3518194108.3140154     
   3662474645.7867880     
   3625127256.8150601     
   3719753641.0047574     
   3825625138.1107421     
   3942670679.6836452     
   4070790999.4463053     
   2608556293.7838292     
   2676613865.0929370     
   2749082231.9644184     
   2825444175.5303559     
   2905341745.1929636     
   2922382457.1756101     
   2975471508.9492807     
   3030721849.9285917     
   3087446346.3037543     
   3145108517.4140239     
   3277213719.6966496     
   3320687188.2885561     
   3364377160.0708909     
   3407461703.4869256     
   3449263168.8917890     
   3662474645.7867880     
   3702198226.7772942     
   3740549779.2693067     
   3776637921.2632918     
   3809718438.6748133     
   4070790999.4463053     
   4112613027.4211364     
   4151825263.9830904     
   4187542525.6068811     
   4219041783.1930099     
   2905341745.1929636     
   2918918703.1635365     
   2933967089.2844133     
   2950437547.9811454     
   2968296040.8869419     
   3145108517.4140239     
   3140087145.3411498     
   3138645520.6237988     
   3140681193.6956639     
   3146180471.2759886     
   3449263168.8917890     
   3421793078.0131149     
   3399250875.3031573     
   3381392848.6623755     
   3368194372.4999638     
   3809718438.6748133     
   3755662859.1646252     
   3707314361.3490391     
   3664167919.1040826     
   3626104283.7975821     
   4219041783.1930099     
   4134019479.9204893     
   4055131211.4065409     
   3981476028.2925582     
   3912716589.5182400     
   2968296040.8869419     
   2940051176.9814558     
   2919285660.9919348     
   2906140318.7308021     
   2900804592.9165649     
   3146180471.2759886     
   3104270332.2683568     
   3068831771.8710456     
   3040078075.8721490     
   3018271362.4235082     
   3368194372.4999638     
   3312366030.8774333     
   3262072845.2125878     
   3217564277.0158758     
   3179139298.1516280     
   3626104283.7975821     
   3556714906.3243089     
   3492031981.8595781     
   3432310217.8999176     
   3377853013.0720725     
   3912716589.5182400     
   3830468386.5112476     
   3752228088.6267362     
   3678234298.7949581     
   3608771609.2195554     
   2900804592.9165649     
   2865086547.7419558     
   2836005509.2761517     
   2813730198.9381499     
   2798448023.8291750     
   3018271362.4235082     
   2970307695.1170602     
   2928927818.5307736     
   2894367404.8001013     
   2866893535.8810863     
   3179139298.1516280     
   3117672580.0250087     
   3062592669.2445064     
   3014193635.0205708     
   2972817479.0503836     
   3377853013.0720725     
   3301940902.0356112     
   3232106775.3870635     
   3168687893.7452478     
   3112087595.4563022     
   3608771609.2195554     
   3517696220.6763921     
   3432315351.7270641     
   3352992044.9386449     
   3280172979.6098952     
   2798448023.8291750     
   2764823012.9386683     
   2738954131.4265451     
   2721033717.0431652     
   2711265337.2687573     
   2866893535.8810863     
   2822777691.2644873     
   2785667241.5296431     
   2755818196.2168164     
   2733506644.2603765     
   2972817479.0503836     
   2917298446.5700932     
   2867973169.3585505     
   2825141487.7699914     
   2789133639.3534422     
   3112087595.4563022     
   3044894058.1948609     
   2983054142.3604646     
   2926885298.0989084     
   2876744353.0191360     
   3280172979.6098952     
   3201532648.8964515     
   3127417882.4145703     
   3058138524.8774753     
   2994049165.5345588     
   2711265337.2687573     
   2697469770.9676561     
   2692333380.7368279     
   2696064833.2189770     
   2708867253.6409078     
   2733506644.2603765     
   2706725955.0890269     
   2688183560.9317579     
   2678206342.4351945     
   2677125534.3320394     
   2789133639.3534422     
   2747428259.7467136     
   2713348436.7747264     
   2687336053.8966517     
   2669858444.8003898     
   2876744353.0191360     
   2818928308.8284283     
   2767920566.5844707     
   2724251353.3730316     
   2688506751.2115107     
   2994049165.5345588     
   2919659874.3551426     
   2851088706.3059587     
   2788909316.6131601     
   2733784719.7386045     
   2708867253.6409078     
   2608974216.7026238     
   2517910328.9098821     
   2436383322.4976702     
   2365343430.2564092     
   2677125534.3320394     
   2562496230.4565315     
   2459673980.0519605     
   2369185877.2786531     
   2291626247.4397640     
   2669858444.8003898     
   2543398844.1947103     
   2432153398.3803988     
   2336976015.4408360     
   2258943667.6226764     
   2688506751.2115107     
   2551390427.7271528     
   2433411025.0308871     
   2336381430.3777337     
   2262831093.8809872     
   2733784719.7386045     
   2585342242.7963438     
   2460636147.3674674     
   2363194390.5106649     
   2298040994.8032632     
   3625127256.8150601     
   3719753641.0047574     
   3825625138.1107421     
   3942670679.6836452     
   4070790999.4463053     
   4134261397.9006343     
   4224474383.1121526     
   4320597918.1803379     
   4420971299.2144747     
   4524136820.8816128     
   4643524839.3279839     
   4755621501.7629681     
   4868829543.9750872     
   4980515301.7445478     
   5088755607.8211327     
   5151400270.7972307     
   5311372793.7633238     
   5467962649.1268368     
   5618281149.8089113     
   5760870242.5549984     
   5657625075.1518888     
   5890892074.9281607     
   6116502989.0790339     
   6332010774.4292946     
   6537204772.5867643     
   4070790999.4463053     
   4112613027.4211364     
   4151825263.9830904     
   4187542525.6068811     
   4219041783.1930099     
   4524136820.8816128     
   4539367864.7958221     
   4559306959.8129883     
   4581479920.3043356     
   4604164750.9839134     
   5088755607.8211327     
   5054468388.3463020     
   5030716456.7390623     
   5012294914.2405205     
   4996005446.3251810     
   5760870242.5549984     
   5652589529.6981030     
   5560312301.1674013     
   5474972177.9677477     
   5391035256.9368801     
   6537204772.5867643     
   6329139898.2546082     
   6143245967.5534773     
   5965597498.4907169     
   5787193040.3838768     
   4219041783.1930099     
   4134019479.9204893     
   4055131211.4065409     
   3981476028.2925582     
   3912716589.5182400     
   4604164750.9839134     
   4495586195.5656166     
   4391092088.4642982     
   4290340028.1887035     
   4193208948.5793300     
   4996005446.3251810     
   4869108405.6294870     
   4745465254.1565437     
   4625038095.4594135     
   4507857642.8281860     
   5391035256.9368801     
   5250578924.6988621     
   5113585679.7854214     
   4980102261.5595427     
   4850236311.2926388     
   5787193040.3838768     
   5637305761.8463964     
   5492018844.0927134     
   5351253403.2649174     
   5215093364.7576599     
   3912716589.5182400     
   3830468386.5112476     
   3752228088.6267362     
   3678234298.7949581     
   3608771609.2195554     
   4193208948.5793300     
   4098133292.9895644     
   4005875772.7093205     
   3916646510.3613901     
   3830718683.6620302     
   4507857642.8281860     
   4399628904.2388678     
   4292978415.1069341     
   4188051644.6969237     
   4085079239.7384696     
   4850236311.2926388     
   4728855683.1586466     
   4607829993.0011816     
   4487213501.6990614     
   4367170541.4613953     
   5215093364.7576599     
   5080768775.7386465     
   4945642766.3538246     
   4809661906.7486715     
   4672909856.5858402     
   3608771609.2195554     
   3517696220.6763921     
   3432315351.7270641     
   3352992044.9386449     
   3280172979.6098952     
   3830718683.6620302     
   3723016665.8414602     
   3620355240.6497750     
   3523079282.5103989     
   3431625265.8052621     
   4085079239.7384696     
   3961218900.3328319     
   3841822680.5975647     
   3727197457.8847108     
   3617746845.6045423     
   4367170541.4613953     
   4227620203.6937351     
   4092051967.8841834     
   3960724443.5703101     
   3833995996.6758528     
   4672909856.5858402     
   4518067829.1174059     
   4366823407.5481234     
   4219383793.2193394     
   4076058009.5066237     
   3280172979.6098952     
   3201532648.8964515     
   3127417882.4145703     
   3058138524.8774753     
   2994049165.5345588     
   3431625265.8052621     
   3340257615.0933061     
   3253039935.7799320     
   3170276099.4352865     
   3092324684.1208615     
   3617746845.6045423     
   3514024963.2082500     
   3414072942.7057595     
   3318177851.9464550     
   3226690232.0883889     
   3833995996.6758528     
   3718237692.6813979     
   3605890848.2492199     
   3497220437.8897424     
   3392562452.1437759     
   4076058009.5066237     
   3948470837.0278850     
   3823972611.9112048     
   3702805622.2967496     
   3585289957.4356365     
   2994049165.5345588     
   2919659874.3551426     
   2851088706.3059587     
   2788909316.6131601     
   2733784719.7386045     
   3092324684.1208615     
   3002452585.9685888     
   2915852628.5605760     
   2832923170.2975121     
   2754143497.9093480     
   3226690232.0883889     
   3125354622.0331693     
   3025117682.0345597     
   2926175350.1112394     
   2828776056.6972294     
   3392562452.1437759     
   3284446044.1072803     
   3175772380.6241555     
   3066579612.0420361     
   2956931016.0621886     
   3585289957.4356365     
   3475315357.7609777     
   3363692476.3412662     
   3250389173.6983008     
   3135390667.0218945     
   2733784719.7386045     
   2585342242.7963438     
   2460636147.3674674     
   2363194390.5106649     
   2298040994.8032632     
   2754143497.9093480     
   2579720333.0404835     
   2420851938.7924132     
   2280128610.3192425     
   2161080237.5142779     
   2828776056.6972294     
   2629782756.5341501     
   2437188404.2624063     
   2252135803.2014737     
   2076183180.8972943     
   2956931016.0621886     
   2741024131.6500020     
   2523169347.5743146     
   2303369416.9766202     
   2081722760.5830514     
   3135390667.0218945     
   2915151311.4488397     
   2687510055.7741280     
   2453002649.4179220     
   2213040111.3390870     
   5657625075.1518888     
   5890892074.9281607     
   6116502989.0790339     
   6332010774.4292946     
   6537204772.5867643     
   6491404883.4121380     
   6586757632.6953955     
   6757462591.8166418     
   6961451759.3713493     
   7172066121.5000725     
   7982216618.8880978     
   7734864543.6884098     
   7669118192.8318005     
   7669688049.7325516     
   7666642479.5906143     
   10130501544.653891     
   9322054536.5833035     
   8826282795.6856003     
   8443376940.5173225     
   8035528316.4736319     
   12936343410.031607     
   11341038028.926275     
   10210122633.681351     
   9272288090.4548302     
   8303084431.9055576     
   6537204772.5867643     
   6329139898.2546082     
   6143245967.5534773     
   5965597498.4907169     
   5787193040.3838768     
   7172066121.5000725     
   6911302235.6272755     
   6658382054.8548737     
   6409437933.5536394     
   6161323158.8559866     
   7666642479.5906143     
   7381340593.3672504     
   7101346276.4152966     
   6826740550.9756603     
   6557725374.0987101     
   8035528316.4736319     
   7746905683.2453442     
   7473846343.3233223     
   7214406140.7918081     
   6968591221.4723902     
   8303084431.9055576     
   8020560591.4675474     
   7780024090.4827147     
   7570805003.3301582     
   7387923309.5548868     
   5787193040.3838768     
   5637305761.8463964     
   5492018844.0927134     
   5351253403.2649174     
   5215093364.7576599     
   6161323158.8559866     
   6012451285.4447937     
   5865305801.0706587     
   5719936680.8470144     
   5576420093.1825361     
   6557725374.0987101     
   6406372619.3255405     
   6253740245.9382219     
   6099812127.4164162     
   5944628057.4955721     
   6968591221.4723902     
   6812656173.6452141     
   6652389391.1673374     
   6487522579.1623011     
   6318005974.1033306     
   7387923309.5548868     
   7226328897.1052876     
   7057420337.0835419     
   6880508618.8088856     
   6695393309.4860458     
   5215093364.7576599     
   5080768775.7386465     
   4945642766.3538246     
   4809661906.7486715     
   4672909856.5858402     
   5576420093.1825361     
   5427124008.4422398     
   5278039202.8260965     
   5129176046.9385414     
   4980618693.1595135     
   5944628057.4955721     
   5779078861.1316509     
   5614757529.3967171     
   5451699886.9729538     
   5290005451.3753004     
   6318005974.1033306     
   6134255828.2119274     
   5952748792.6133385     
   5773525247.4224930     
   5596724868.5609674     
   6695393309.4860458     
   6490949103.8973370     
   6289770478.1640959     
   6091897579.3425655     
   5897545648.2990665     
   4672909856.5858402     
   4518067829.1174059     
   4366823407.5481234     
   4219383793.2193394     
   4076058009.5066237     
   4980618693.1595135     
   4817602132.5344973     
   4656374984.1365690     
   4497088686.8145523     
   4339940362.7631416     
   5290005451.3753004     
   5122470809.2568560     
   4955374161.1428318     
   4788785978.3363171     
   4622789351.9955254     
   5596724868.5609674     
   5428876171.4180803     
   5260491583.7548923     
   5091560761.8757467     
   4922078561.2068386     
   5897545648.2990665     
   5733944252.4512005     
   5569148637.0749788     
   5403083752.0978031     
   5235697874.4366102     
   4076058009.5066237     
   3948470837.0278850     
   3823972611.9112048     
   3702805622.2967496     
   3585289957.4356365     
   4339940362.7631416     
   4199124396.2918601     
   4061072380.5470600     
   3926020368.9623489     
   3794295993.0626173     
   4622789351.9955254     
   4467254002.8707352     
   4314060374.9892702     
   4163430633.9562144     
   4015691908.6303191     
   4922078561.2068386     
   4750341017.0260763     
   4580444033.8148832     
   4412587236.3502216     
   4247087410.8298249     
   5235697874.4366102     
   5046294120.8023939     
   4858167488.7641487     
   4671485789.9499073     
   4486544351.5342712     
   3585289957.4356365     
   3475315357.7609777     
   3363692476.3412662     
   3250389173.6983008     
   3135390667.0218945     
   3794295993.0626173     
   3679818395.6081200     
   3566419941.3532248     
   3454276302.6468973     
   3343651970.9558725     
   4015691908.6303191     
   3882922247.7573271     
   3752724896.5204887     
   3625641740.8876915     
   3502556885.0027170     
   4247087410.8298249     
   4081792204.0820136     
   3919467079.7794533     
   3761196936.7459483     
   3608871007.4778094     
   4486544351.5342712     
   4274418584.0640173     
   4064676611.7658567     
   3859077443.6787319     
   3660897395.6004996     
   3135390667.0218945     
   2915151311.4488397     
   2687510055.7741280     
   2453002649.4179220     
   2213040111.3390870     
   3343651970.9558725     
   3125525794.1415710     
   2903487070.0241551     
   2680407611.4759159     
   2462739174.6676908     
   3502556885.0027170     
   3245562615.5404220     
   2986752270.4465084     
   2735024018.4249682     
   2509817388.3907409     
   3608871007.4778094     
   3273149275.4210110     
   2935268068.4996901     
   2613114667.4541254     
   2349383768.8803883     
   3660897395.6004996     
   3208214691.4051714     
   2749241838.9578648     
   2313130946.2887611     
   1985072752.6576777     
 </DataArray>
 <DataArray  type="Float64" Name="strain" NumberOfComponents="3" format="ascii">
  0.20350300895985587        0.0000000000000000       0.12540082423351917     
  0.18666474655513457       -2.7320685258789001E-002   7.4343708735194983E-002
  0.16982648415041326       -4.4671294378263615E-002   3.5127648666924832E-002
  0.15298822174569193       -5.2051827358423841E-002   7.7526440287087051E-003
  0.13614995934097063       -4.9462284199269679E-002  -7.7813051794533988E-003
  0.15986041626993031        0.0000000000000000        9.6449223922188076E-002
  0.15318053607734039       -2.1841650062641684E-002   6.2687704483017553E-002
  0.14650065588475045       -3.6171645662134738E-002   3.7401894038055765E-002
  0.13982077569216053       -4.2989986798479166E-002   2.0591792587302694E-002
  0.13314089549957062       -4.2296673471674956E-002   1.2257400130758378E-002
  0.12645522755584954        0.0000000000000000        7.4205869645087172E-002
  0.12656838313954569       -1.6362614866494367E-002   5.5281524588904528E-002
  0.12668153872324187       -2.7671996946005868E-002   4.1467542091085330E-002
  0.12679469430693804       -3.3928146238534497E-002   3.2763922151629585E-002
  0.12690784989063422       -3.5131062744080233E-002   2.9170664770537320E-002
  0.10328744281761353        0.0000000000000000        5.8670761402216463E-002
  0.10682828774175052       -1.0883579670347053E-002   5.2125169052855941E-002
  0.11036913266588748       -1.9172348229876991E-002   4.7324592826013610E-002
  0.11390997759002448       -2.4866305678589818E-002   4.4269032721689416E-002
  0.11745082251416146       -2.7965452016485537E-002   4.2958488739883435E-002
   9.0357062055222287E-002   0.0000000000000000        4.9843899193575951E-002
   9.3960249883954794E-002  -5.4045444741997366E-003   5.3218637874871799E-002
   9.7563437712687315E-002  -1.0672699513748118E-002   5.4973046242840537E-002
  0.10116662554141984       -1.5804465118645146E-002   5.5107124297482171E-002
  0.10476981337015236       -2.0799841288890814E-002   5.3620872038796688E-002
  0.13614995934097063       -4.9462284199269679E-002  -7.7813051794533988E-003
  0.13295755547023733       -4.2932509892457851E-002  -3.3712719891326945E-003
  0.12976515159950405       -3.8492349429645134E-002  -3.8751206566771737E-004
  0.12657274772877070       -3.6141802810831417E-002   1.1699745909414978E-003
  0.12338034385803745       -3.5880870036016810E-002   1.3011879806950344E-003
  0.13314089549957062       -4.2296673471674956E-002   1.2257400130758378E-002
  0.12891222907309954       -3.8435356886136016E-002   1.2200831369821596E-002
  0.12468356264662848       -3.5749688246276154E-002   1.1498010764264932E-002
  0.12045489622015741       -3.4239667552095385E-002   1.0148938314088553E-002
  0.11622622979368633       -3.3905294803593777E-002   8.1536140192923351E-003
  0.12690784989063422       -3.5131062744080233E-002   2.9170664770537320E-002
  0.12242294233066128       -3.3938203879814145E-002   2.5561459956662980E-002
  0.11793803477068834       -3.3007027062907174E-002   2.2086024720404752E-002
  0.11345312721071543       -3.2337532293359401E-002   1.8744359061762604E-002
  0.10896821965074252       -3.1929719571170717E-002   1.5536462980736535E-002
  0.11745082251416146       -2.7965452016485537E-002   4.2958488739883435E-002
  0.11348969524292259       -2.9441050873492278E-002   3.6710613771391565E-002
  0.10952856797168371       -3.0264365879538214E-002   3.1376529802751650E-002
  0.10556744070044481       -3.0435397034623345E-002   2.6956236833963684E-002
  0.10160631342920595       -2.9954144338747629E-002   2.3449734865027834E-002
  0.10476981337015236       -2.0799841288890814E-002   5.3620872038796688E-002
  0.10211248780988343       -2.4943897867170422E-002   4.5648292814007160E-002
   9.9455162249614495E-002  -2.7521704696169252E-002   3.9369526011305570E-002
   9.6797836689345551E-002  -2.8533261775887279E-002   3.4784571630691888E-002
   9.4140511129076634E-002  -2.7978569106324583E-002   3.1893429672166074E-002
  0.12338034385803745       -3.5880870036016810E-002   1.3011879806950344E-003
  0.12038505034864971       -3.6363750989069563E-002   6.2119739662400142E-004
  0.11738975683926194       -3.6244645553857813E-002   1.6703684512217598E-004
  0.11439446332987416       -3.5523553730381893E-002  -6.1293673810781935E-005
  0.11139916982048642       -3.4200475518641305E-002  -6.3794160174657222E-005
  0.11622622979368633       -3.3905294803593777E-002   8.1536140192923351E-003
  0.11343928508016789       -3.3970556263693580E-002   7.8414290782991419E-003
  0.11065234036664938       -3.3659438195317207E-002   7.7201116964753999E-003
  0.10786539565313089       -3.2971940598464589E-002   7.7896618738212756E-003
  0.10507845093961243       -3.1908063473135684E-002   8.0500796103365468E-003
  0.10896821965074252       -3.1929719571170717E-002   1.5536462980736535E-002
  0.10635466125969377       -3.1577361538317604E-002   1.5366476823032965E-002
  0.10374110286864503       -3.1074230836776462E-002   1.5352395751099437E-002
  0.10112754447759630       -3.0420327466547291E-002   1.5494219764935837E-002
   9.8513986086547517E-002  -2.9615651427630146E-002   1.5791948864542216E-002
  0.10160631342920595       -2.9954144338747629E-002   2.3449734865027834E-002
   9.9131178887227375E-002  -2.9184166812941597E-002   2.3196340630825669E-002
   9.6656044345248854E-002  -2.8489023478235787E-002   2.3063889008994032E-002
   9.4180909803270318E-002  -2.7868714334630073E-002   2.3052379999532708E-002
   9.1705775261291755E-002  -2.7323239382124567E-002   2.3161813602441919E-002
   9.4140511129076634E-002  -2.7978569106324583E-002   3.1893429672166074E-002
   9.1768837962768787E-002  -2.6790972087565645E-002   3.1331020501677187E-002
   8.9397164796460898E-002  -2.5903816119695087E-002   3.0854591470159141E-002
   8.7025491630153037E-002  -2.5317101202712848E-002   3.0464142577612114E-002
   8.4653818463845204E-002  -2.5030827336618988E-002   3.0159673824036004E-002
  0.11139916982048642       -3.4200475518641305E-002  -6.3794160174657222E-005
  0.10810869267420753       -3.2696432018304633E-002   1.5696042393237297E-004
  0.10481821552792864       -3.1432444329039966E-002   6.8256959734039335E-004
  0.10152773838164975       -3.0408512450847289E-002   1.5130333600495705E-003
   9.8237261235370854E-002  -2.9624636383726755E-002   2.6483517120597933E-003
  0.10507845093961243       -3.1908063473135684E-002   8.0500796103365468E-003
  0.10208063363478220       -3.0717541201935025E-002   7.8333209504982820E-003
   9.9082816329951945E-002  -2.9650108167466785E-002   7.8970273842562111E-003
   9.6084999025121687E-002  -2.8705764369731285E-002   8.2411989116105352E-003
   9.3087181720291512E-002  -2.7884509808728197E-002   8.8658355325613725E-003
   9.8513986086547517E-002  -2.9615651427630146E-002   1.5791948864542216E-002
   9.5784439127461318E-002  -2.8738650385565445E-002   1.5254643535097853E-002
   9.3054892168375106E-002  -2.7867772005893826E-002   1.4973413803545207E-002
   9.0325345209288893E-002  -2.7003016288615171E-002   1.4948259669884265E-002
   8.7595798250202597E-002  -2.6144383233729612E-002   1.5179181134114997E-002
   9.1705775261291755E-002  -2.7323239382124567E-002   2.3161813602441919E-002
   8.9220109152244931E-002  -2.6759759569195907E-002   2.2420928177731166E-002
   8.6734443043198078E-002  -2.6085435844320812E-002   2.1911728855207438E-002
   8.4248776934151184E-002  -2.5300268207499168E-002   2.1634215634870699E-002
   8.1763110825104374E-002  -2.4404256658731041E-002   2.1588388516721024E-002
   8.4653818463845204E-002  -2.5030827336618988E-002   3.0159673824036004E-002
   8.2387643709133013E-002  -2.4780868752826271E-002   2.9332174878398315E-002
   8.0121468954420863E-002  -2.4303099682747693E-002   2.8711972539242944E-002
   7.7855294199708686E-002  -2.3597520126383054E-002   2.8299066806569885E-002
   7.5589119444996522E-002  -2.2664130083732498E-002   2.8093457680379214E-002
   9.8237261235370854E-002  -2.9624636383726755E-002   2.6483517120597933E-003
   9.5487769518178778E-002  -2.8910575118901605E-002   3.4959455640576897E-003
   9.2738277800986674E-002  -2.8096087647595983E-002   4.2091025003521410E-003
   8.9988786083794584E-002  -2.7181173969809545E-002   4.7878225209439795E-003
   8.7239294366602493E-002  -2.6165834085542294E-002   5.2321056258330945E-003
   9.3087181720291512E-002  -2.7884509808728197E-002   8.8658355325613725E-003
   9.0248486436804415E-002  -2.7100191577702937E-002   9.4921801705861453E-003
   8.7409791153317373E-002  -2.6266656769900962E-002   1.0074554591724211E-002
   8.4571095869830304E-002  -2.5383905385322574E-002   1.0612958795975069E-002
   8.1732400586343290E-002  -2.4451937423967451E-002   1.1107392783339110E-002
   8.7595798250202597E-002  -2.6144383233729612E-002   1.5179181134114997E-002
   8.4758366099236621E-002  -2.5289808036504102E-002   1.5533066928463082E-002
   8.1920933948270575E-002  -2.4437225892206212E-002   1.5933449204740234E-002
   7.9083501797304570E-002  -2.3586636800835711E-002   1.6380327962946157E-002
   7.6246069646338510E-002  -2.2738040762392553E-002   1.6873703203081347E-002
   8.1763110825104374E-002  -2.4404256658731041E-002   2.1588388516721024E-002
   7.9017408505475367E-002  -2.3479424495305490E-002   2.1618605837688185E-002
   7.6271706185846333E-002  -2.2607795014511382E-002   2.1785786339400176E-002
   7.3526003866217299E-002  -2.1789368216348852E-002   2.2089930021857402E-002
   7.0780301546588265E-002  -2.1024144100817793E-002   2.2531036885059641E-002
   7.5589119444996522E-002  -2.2664130083732498E-002   2.8093457680379214E-002
   7.3025613655520516E-002  -2.1669040954106711E-002   2.7748796898261235E-002
   7.0462107866044510E-002  -2.0778364136816559E-002   2.7631565995704474E-002
   6.7898602076568518E-002  -1.9992099631861868E-002   2.7741764972708423E-002
   6.5335096287092498E-002  -1.9310247439242922E-002   2.8079393829273602E-002
   8.7239294366602493E-002  -2.6165834085542294E-002   5.2321056258330945E-003
   8.4092748845297327E-002  -2.5128128412044037E-002   5.2663105983160041E-003
   8.0946203323992216E-002  -2.4146117366564357E-002   5.6053251201366172E-003
   7.7799657802687106E-002  -2.3219800949103225E-002   6.2491491912949337E-003
   7.4653112281381939E-002  -2.2349179159661059E-002   7.1977828117909537E-003
   8.1732400586343290E-002  -2.4451937423967451E-002   1.1107392783339110E-002
   7.8874457167709827E-002  -2.3523590100957892E-002   1.1089876908667529E-002
   7.6016513749076281E-002  -2.2651700631417110E-002   1.1344755690000874E-002
   7.3158570330442776E-002  -2.1836269015343975E-002   1.1872029127340422E-002
   7.0300626911809327E-002  -2.1077295252739936E-002   1.2671697220685618E-002
   7.6246069646338510E-002  -2.2738040762392553E-002   1.6873703203081347E-002
   7.3644313437044681E-002  -2.1919051789872135E-002   1.6803703255804714E-002
   7.1042557227750963E-002  -2.1157283896269752E-002   1.6973683071202089E-002
   6.8440801018457162E-002  -2.0452737081585168E-002   1.7383642649272828E-002
   6.5839044809163333E-002  -1.9805411345818702E-002   1.8033581990017339E-002
   7.0780301546588265E-002  -2.1024144100817793E-002   2.2531036885059641E-002
   6.8402317653302153E-002  -2.0314513478786295E-002   2.2407789639728649E-002
   6.6024333760016068E-002  -1.9662867161122338E-002   2.2492107263739569E-002
   6.3646349866729970E-002  -1.9069205147826139E-002   2.2783989757092178E-002
   6.1268365973443858E-002  -1.8533527438897635E-002   2.3283437119786525E-002
   6.5335096287092498E-002  -1.9310247439242922E-002   2.8079393829273602E-002
   6.3148469816482117E-002  -1.8709975167700260E-002   2.7902136060438842E-002
   6.0961843345871736E-002  -1.8168450425975147E-002   2.7900028267613591E-002
   5.8775216875261327E-002  -1.7685673214067027E-002   2.8073070450798321E-002
   5.6588590404650974E-002  -1.7261643531976401E-002   2.8421262609992726E-002
   7.4653112281381939E-002  -2.2349179159661059E-002   7.1977828117909537E-003
   7.1043100931876768E-002  -2.1479703806879413E-002   7.3855506122706416E-003
   6.7433089582371653E-002  -2.0556826699400205E-002   8.5029627663630869E-003
   6.3823078232866481E-002  -1.9580547837223829E-002   1.0550019274069594E-002
   6.0213066883361366E-002  -1.8550867220349931E-002   1.3526720135389358E-002
   7.0300626911809327E-002  -2.1077295252739936E-002   1.2671697220685618E-002
   6.7496838203719434E-002  -2.0316399528414408E-002   1.2683798341696972E-002
   6.4693049495629457E-002  -1.9495202027179526E-002   1.3378700391925152E-002
   6.1889260787539549E-002  -1.8613702749034691E-002   1.4756403371370283E-002
   5.9085472079449586E-002  -1.7671901693980141E-002   1.6816907280032822E-002
   6.5839044809163333E-002  -1.9805411345818702E-002   1.8033581990017339E-002
   6.3594635318092160E-002  -1.9153095249949986E-002   1.7876916453773289E-002
   6.1350225827020960E-002  -1.8433577354958944E-002   1.8156208422349399E-002
   5.9105816335949690E-002  -1.7646857660845883E-002   1.8871457895746090E-002
   5.6861406844878559E-002  -1.6792936167610406E-002   2.0022664873963397E-002
   6.1268365973443858E-002  -1.8533527438897635E-002   2.3283437119786525E-002
   5.9336492274994948E-002  -1.7989790971485384E-002   2.2964904948499093E-002
   5.7404618576546086E-002  -1.7371952682738424E-002   2.2835486857635447E-002
   5.5472744878097169E-002  -1.6680012572657020E-002   2.2895182847196376E-002
   5.3540871179648307E-002  -1.5913970641240643E-002   2.3143992917180868E-002
   5.6588590404650974E-002  -1.7261643531976401E-002   2.8421262609992726E-002
   5.4722409074427880E-002  -1.6826486693020615E-002   2.7947763825874550E-002
   5.2856227744204842E-002  -1.6310328010518071E-002   2.7416535697784017E-002
   5.0990046413981818E-002  -1.5713167484467896E-002   2.6827578225721127E-002
   4.9123865083758711E-002  -1.5035005114870936E-002   2.6180891409685658E-002
   6.0213066883361366E-002  -1.8550867220349931E-002   1.3526720135389358E-002
   5.2599034482767815E-002  -1.6592746778154810E-002   1.2560020443110442E-002
   4.4985002082174375E-002  -1.2831148440015400E-002   1.3910201579618142E-002
   3.7370969681580907E-002  -7.2660722059308333E-003   1.7577263544912264E-002
   2.9756937280987383E-002   1.0248192409800794E-004   2.3561206338993834E-002
   5.9085472079449586E-002  -1.7671901693980141E-002   1.6816907280032822E-002
   5.3472301867217020E-002  -1.5975961134042260E-002   1.6063446081069854E-002
   4.7859131654984510E-002  -1.2832043341247129E-002   1.6994828430041464E-002
   4.2245961442751973E-002  -8.2401483155948099E-003   1.9611054326948679E-002
   3.6632791230519324E-002  -2.2002760570862812E-003   2.3912123771790528E-002
   5.6861406844878559E-002  -1.6792936167610406E-002   2.0022664873963397E-002
   5.2617061540155330E-002  -1.5359175489929267E-002   1.9126941505228229E-002
   4.8372716235432087E-002  -1.2832938242478872E-002   1.9284024403576641E-002
   4.4128370930708753E-002  -9.2142244252594561E-003   2.0493913569008253E-002
   3.9884025625985586E-002  -4.5030340382710143E-003   2.2756609001523764E-002
   5.3540871179648307E-002  -1.5913970641240643E-002   2.3143992917180868E-002
   5.0033313501582757E-002  -1.4742389845816273E-002   2.1750506715585947E-002
   4.6525755823517215E-002  -1.2833833143710720E-002   2.0777789500222837E-002
   4.3018198145451700E-002  -1.0188300534923657E-002   2.0225841271091873E-002
   3.9510640467386129E-002  -6.8057920194554145E-003   2.0094662028192545E-002
   4.9123865083758711E-002  -1.5035005114870936E-002   2.6180891409685658E-002
   4.5721057751499372E-002  -1.4125604201703557E-002   2.3934141712143031E-002
   4.2318250419240033E-002  -1.2834728044942303E-002   2.1476123719980617E-002
   3.8915443086980653E-002  -1.1162376644587985E-002   1.8806837433198595E-002
   3.5512635754721411E-002  -9.1085500006398146E-003   1.5926282851797202E-002
   9.0357062055222287E-002   0.0000000000000000        4.9843899193575951E-002
   9.3960249883954794E-002  -5.4045444741997366E-003   5.3218637874871799E-002
   9.7563437712687315E-002  -1.0672699513748118E-002   5.4973046242840537E-002
  0.10116662554141984       -1.5804465118645146E-002   5.5107124297482171E-002
  0.10476981337015236       -2.0799841288890814E-002   5.3620872038796688E-002
   8.2423088739681433E-002   0.0000000000000000        4.4792465926643682E-002
   8.4635141549787934E-002  -4.5749855464947949E-003   4.8275147333666620E-002
   8.6847194359894422E-002  -9.0396875013009359E-003   5.0595889016764629E-002
   8.9059247170000924E-002  -1.3394105864418422E-002   5.1754690975937677E-002
   9.1271299980107412E-002  -1.7638240635847260E-002   5.1751553211185783E-002
   7.4244526341996617E-002   0.0000000000000000        4.0583644508897711E-002
   7.5523834722879241E-002  -3.7454266187898536E-003   4.4148162798685046E-002
   7.6803143103761878E-002  -7.4066754888537541E-003   4.7009131953949602E-002
   7.8082451484644488E-002  -1.0983746610191702E-002   4.9166551974691358E-002
   7.9361759865527126E-002  -1.4476639982803696E-002   5.0620422860910355E-002
   6.5821374862167784E-002   0.0000000000000000        3.7217434940338023E-002
   6.6626329403228698E-002  -2.9158676910849106E-003   4.0837684269927059E-002
   6.7431283944289641E-002  -5.7736634764065705E-003   4.4212775054395463E-002
   6.8236238485350570E-002  -8.5733873559649780E-003   4.7342707293743243E-002
   6.9041193026411499E-002  -1.1315039329760133E-002   5.0227480987970433E-002
   5.7153634300194968E-002   0.0000000000000000        3.4693837220964634E-002
   5.7942625590836350E-002  -2.0863087633799697E-003   3.8343711747392650E-002
   5.8731616881477752E-002  -4.1406514639593904E-003   4.2206818318102211E-002
   5.9520608172119141E-002  -6.1630281017382594E-003   4.6283156933093324E-002
   6.0309599462760544E-002  -8.1534386767165741E-003   5.0572727592365974E-002
  0.10476981337015236       -2.0799841288890814E-002   5.3620872038796688E-002
  0.10211248780988343       -2.4943897867170422E-002   4.5648292814007160E-002
   9.9455162249614495E-002  -2.7521704696169252E-002   3.9369526011305570E-002
   9.6797836689345551E-002  -2.8533261775887279E-002   3.4784571630691888E-002
   9.4140511129076634E-002  -2.7978569106324583E-002   3.1893429672166074E-002
   9.1271299980107412E-002  -1.7638240635847260E-002   5.1751553211185783E-002
   9.0069519756017694E-002  -2.1216167728504008E-002   4.6523870933520395E-002
   8.8867739531927961E-002  -2.3571963055305262E-002   4.2513466906125487E-002
   8.7665959307838270E-002  -2.4705626616251003E-002   3.9720341129001177E-002
   8.6464179083748524E-002  -2.4617158411341253E-002   3.8144493602147292E-002
   7.9361759865527126E-002  -1.4476639982803696E-002   5.0620422860910355E-002
   7.9138990805799239E-002  -1.7488437589837591E-002   4.7793519546943788E-002
   7.8916221746071338E-002  -1.9622221414441275E-002   4.5707360311430377E-002
   7.8693452686343437E-002  -2.0877991456614703E-002   4.4361945154370128E-002
   7.8470683626615523E-002  -2.1255747716357916E-002   4.3757274075762992E-002
   6.9041193026411499E-002  -1.1315039329760133E-002   5.0227480987970433E-002
   6.9320900959228077E-002  -1.3760707451171181E-002   4.9457238654277418E-002
   6.9600608892044613E-002  -1.5672479773577282E-002   4.8951206227220212E-002
   6.9880316824861191E-002  -1.7050356296978406E-002   4.8709383706798740E-002
   7.0160024757677741E-002  -1.7894337021374575E-002   4.8731771093013056E-002
   6.0309599462760544E-002  -8.1534386767165741E-003   5.0572727592365974E-002
   6.0615250216304165E-002  -1.0032977312504753E-002   5.1515028255521275E-002
   6.0920900969847785E-002  -1.1722738132713292E-002   5.2245004653494943E-002
   6.1226551723391420E-002  -1.3222721137342108E-002   5.2762656786287054E-002
   6.1532202476935041E-002  -1.4532926326391249E-002   5.3067984653897476E-002
   9.4140511129076634E-002  -2.7978569106324583E-002   3.1893429672166074E-002
   9.1768837962768787E-002  -2.6790972087565645E-002   3.1331020501677187E-002
   8.9397164796460898E-002  -2.5903816119695087E-002   3.0854591470159141E-002
   8.7025491630153037E-002  -2.5317101202712848E-002   3.0464142577612114E-002
   8.4653818463845204E-002  -2.5030827336618988E-002   3.0159673824036004E-002
   8.6464179083748524E-002  -2.4617158411341253E-002   3.8144493602147292E-002
   8.4222593577127802E-002  -2.3980194413694360E-002   3.7096237924934973E-002
   8.1981008070507067E-002  -2.3468370596428794E-002   3.6222177428126071E-002
   7.9739422563886359E-002  -2.3081686959544465E-002   3.5522312111720369E-002
   7.7497837057265637E-002  -2.2820143503041401E-002   3.4996641975718126E-002
   7.8470683626615523E-002  -2.1255747716357916E-002   4.3757274075762992E-002
   7.6447400821114425E-002  -2.1169416739823102E-002   4.2398472762334216E-002
   7.4424118015613258E-002  -2.1032925073162470E-002   4.1302081670741314E-002
   7.2400835210112133E-002  -2.0846272716376037E-002   4.0468100800984272E-002
   7.0377552404610993E-002  -2.0609459669463787E-002   3.9896530153062972E-002
   7.0160024757677741E-002  -1.7894337021374575E-002   4.8731771093013056E-002
   6.8443259694728614E-002  -1.8358639065951816E-002   4.7237725013875076E-002
   6.6726494631779487E-002  -1.8597479549896170E-002   4.6094304198005261E-002
   6.5009729568830374E-002  -1.8610858473207627E-002   4.5301508645403783E-002
   6.3292964505881247E-002  -1.8398775835886158E-002   4.4859338356070526E-002
   6.1532202476935041E-002  -1.4532926326391249E-002   5.3067984653897476E-002
   6.0210170197970383E-002  -1.5547861392080569E-002   5.1613994679557296E-002
   5.8888137919005747E-002  -1.6162034026629867E-002   5.0598845009917799E-002
   5.7566105640041082E-002  -1.6375444230039244E-002   5.0022535644978938E-002
   5.6244073361076438E-002  -1.6188092002308599E-002   4.9885066584740859E-002
   8.4653818463845204E-002  -2.5030827336618988E-002   3.0159673824036004E-002
   8.2387643709133013E-002  -2.4780868752826271E-002   2.9332174878398315E-002
   8.0121468954420863E-002  -2.4303099682747693E-002   2.8711972539242944E-002
   7.7855294199708686E-002  -2.3597520126383054E-002   2.8299066806569885E-002
   7.5589119444996522E-002  -2.2664130083732498E-002   2.8093457680379214E-002
   7.7497837057265637E-002  -2.2820143503041401E-002   3.4996641975718126E-002
   7.5434857626095919E-002  -2.2536968885816744E-002   3.4398844995120637E-002
   7.3371878194926243E-002  -2.2085391766767638E-002   3.4000142055125741E-002
   7.1308898763756554E-002  -2.1465412145894133E-002   3.3800533155733337E-002
   6.9245919332586878E-002  -2.0677030023196180E-002   3.3800018296943624E-002
   7.0377552404610993E-002  -2.0609459669463787E-002   3.9896530153062972E-002
   6.8509565731104033E-002  -2.0293069018807182E-002   3.9469027153044144E-002
   6.6641579057597017E-002  -1.9867683850787663E-002   3.9232415627748207E-002
   6.4773592384090029E-002  -1.9333304165405227E-002   3.9186695577175051E-002
   6.2905605710583054E-002  -1.8689929962659904E-002   3.9331867001324648E-002
   6.3292964505881247E-002  -1.8398775835886158E-002   4.4859338356070526E-002
   6.1611768024157201E-002  -1.8049169151797610E-002   4.4542721352168954E-002
   5.9930571542433156E-002  -1.7649975934807660E-002   4.4408793257110307E-002
   5.8249375060709117E-002  -1.7201196184916327E-002   4.4457554070894793E-002
   5.6568178578985065E-002  -1.6702829902123649E-002   4.4689003793522336E-002
   5.6244073361076438E-002  -1.6188092002308599E-002   4.9885066584740859E-002
   5.4741464505255563E-002  -1.5805269284788051E-002   4.9619927592494881E-002
   5.3238855649434667E-002  -1.5432268018827657E-002   4.9529274943212138E-002
   5.1736246793613785E-002  -1.5069088204427449E-002   4.9613108636892736E-002
   5.0233637937792897E-002  -1.4715729841587338E-002   4.9871428673536555E-002
   7.5589119444996522E-002  -2.2664130083732498E-002   2.8093457680379214E-002
   7.3025613655520516E-002  -2.1669040954106711E-002   2.7748796898261235E-002
   7.0462107866044510E-002  -2.0778364136816559E-002   2.7631565995704474E-002
   6.7898602076568518E-002  -1.9992099631861868E-002   2.7741764972708423E-002
   6.5335096287092498E-002  -1.9310247439242922E-002   2.8079393829273602E-002
   6.9245919332586878E-002  -2.0677030023196180E-002   3.3800018296943624E-002
   6.6910838068295869E-002  -1.9840335065900688E-002   3.3371144078373022E-002
   6.4575756804004875E-002  -1.9075416941234678E-002   3.3171689030611518E-002
   6.2240675539713866E-002  -1.8382275649197970E-002   3.3201653153658833E-002
   5.9905594275422885E-002  -1.7760911189790674E-002   3.3461036447515302E-002
   6.2905605710583054E-002  -1.8689929962659904E-002   3.9331867001324648E-002
   6.0800938262725049E-002  -1.8011629177694694E-002   3.8851414826007548E-002
   5.8696270814867009E-002  -1.7372469745652767E-002   3.8602371112747530E-002
   5.6591603367008997E-002  -1.6772451666533954E-002   3.8584735861544421E-002
   5.4486935919150978E-002  -1.6211574940338425E-002   3.8798509072398318E-002
   5.6568178578985065E-002  -1.6702829902123649E-002   4.4689003793522336E-002
   5.4695914238808055E-002  -1.6182923289488754E-002   4.4189609141165008E-002
   5.2823649898630982E-002  -1.5669522550070841E-002   4.3923612242112588E-002
   5.0951385558453959E-002  -1.5162627683869941E-002   4.3891013096365235E-002
   4.9079121218276893E-002  -1.4662238690886148E-002   4.4091811703922734E-002
   5.0233637937792897E-002  -1.4715729841587338E-002   4.9871428673536555E-002
   4.8595765996544832E-002  -1.4354217401282732E-002   4.9385727023845138E-002
   4.6957894055296739E-002  -1.3966575354488996E-002   4.9135412418706628E-002
   4.5320022114048654E-002  -1.3552803701206003E-002   4.9120484858121073E-002
   4.3682150172800582E-002  -1.3112902441433927E-002   4.9340944342088522E-002
   6.5335096287092498E-002  -1.9310247439242922E-002   2.8079393829273602E-002
   6.3148469816482117E-002  -1.8709975167700260E-002   2.7902136060438842E-002
   6.0961843345871736E-002  -1.8168450425975147E-002   2.7900028267613591E-002
   5.8775216875261327E-002  -1.7685673214067027E-002   2.8073070450798321E-002
   5.6588590404650974E-002  -1.7261643531976401E-002   2.8421262609992726E-002
   5.9905594275422885E-002  -1.7760911189790674E-002   3.3461036447515302E-002
   5.7891846439152753E-002  -1.7197517161463560E-002   3.3240895212734656E-002
   5.5878098602882620E-002  -1.6678287162667865E-002   3.3191361270624622E-002
   5.3864350766612515E-002  -1.6203221193403165E-002   3.3312434621185598E-002
   5.1850602930342354E-002  -1.5772319253669675E-002   3.3604115264417311E-002
   5.4486935919150978E-002  -1.6211574940338425E-002   3.8798509072398318E-002
   5.2641524033882260E-002  -1.5685059155226957E-002   3.8550067871957777E-002
   5.0796112148613529E-002  -1.5188123899360639E-002   3.8467691280849189E-002
   4.8950700263344742E-002  -1.4720769172739193E-002   3.8551379299072652E-002
   4.7105288378076066E-002  -1.4282994975362923E-002   3.8801131926627846E-002
   4.9079121218276893E-002  -1.4662238690886148E-002   4.4091811703922734E-002
   4.7397502600670639E-002  -1.4172601148990251E-002   4.3829654038108505E-002
   4.5715883983064351E-002  -1.3697960636053413E-002   4.3729018298287355E-002
   4.4034265365458111E-002  -1.3238317152075317E-002   4.3789904484459144E-002
   4.2352646747851802E-002  -1.2793670697056156E-002   4.4012312596624026E-002
   4.3682150172800582E-002  -1.3112902441433927E-002   4.9340944342088522E-002
   4.2159782139517876E-002  -1.2660143142753655E-002   4.9079653711186777E-002
   4.0637414106235184E-002  -1.2207797372746118E-002   4.8975342322939042E-002
   3.9115046072952499E-002  -1.1755865131411383E-002   4.9028010177345621E-002
   3.7592678039669786E-002  -1.1304346418749445E-002   4.9237657274406266E-002
   5.6588590404650974E-002  -1.7261643531976401E-002   2.8421262609992726E-002
   5.4722409074427880E-002  -1.6826486693020615E-002   2.7947763825874550E-002
   5.2856227744204842E-002  -1.6310328010518071E-002   2.7416535697784017E-002
   5.0990046413981818E-002  -1.5713167484467896E-002   2.6827578225721127E-002
   4.9123865083758711E-002  -1.5035005114870936E-002   2.6180891409685658E-002
   5.1850602930342354E-002  -1.5772319253669675E-002   3.3604115264417311E-002
   4.9958705034962220E-002  -1.5325409859207551E-002   3.3233892572424401E-002
   4.8066807139582057E-002  -1.4802321525756987E-002   3.2869966094089625E-002
   4.6174909244201909E-002  -1.4203054253317884E-002   3.2512335829412931E-002
   4.4283011348821760E-002  -1.3527608041890349E-002   3.2161001778394538E-002
   4.7105288378076066E-002  -1.4282994975362923E-002   3.8801131926627846E-002
   4.5251699475169285E-002  -1.3824333025394236E-002   3.8529362422201466E-002
   4.3398110572262526E-002  -1.3294315040995958E-002   3.8327914689063741E-002
   4.1544521669355794E-002  -1.2692941022167760E-002   3.8196788727214770E-002
   3.9690932766449000E-002  -1.2020210968909734E-002   3.8135984536654524E-002
   4.2352646747851802E-002  -1.2793670697056156E-002   4.4012312596624026E-002
   4.0601392395049021E-002  -1.2323256191581020E-002   4.3834173375205482E-002
   3.8850138042246213E-002  -1.1786308556235067E-002   4.3790381482706246E-002
   3.7098883689443453E-002  -1.1182827791017581E-002   4.3880936919126062E-002
   3.5347629336640679E-002  -1.0512813895929132E-002   4.4105839684465353E-002
   3.7592678039669786E-002  -1.1304346418749445E-002   4.9237657274406266E-002
   3.6007783794601483E-002  -1.0822179357767803E-002   4.9148325431436823E-002
   3.4422889549533167E-002  -1.0278302071473885E-002   4.9257366475017134E-002
   3.2837995304464872E-002  -9.6727145598676061E-003   4.9564780405147432E-002
   3.1253101059396549E-002  -9.0054168229485865E-003   5.0070567221827289E-002
   4.9123865083758711E-002  -1.5035005114870936E-002   2.6180891409685658E-002
   4.5721057751499372E-002  -1.4125604201703557E-002   2.3934141712143031E-002
   4.2318250419240033E-002  -1.2834728044942303E-002   2.1476123719980617E-002
   3.8915443086980653E-002  -1.1162376644587985E-002   1.8806837433198595E-002
   3.5512635754721411E-002  -9.1085500006398146E-003   1.5926282851797202E-002
   4.4283011348821760E-002  -1.3527608041890349E-002   3.2161001778394538E-002
   4.0760180577460059E-002  -1.2742689210147207E-002   3.0516392861551472E-002
   3.7237349806098399E-002  -1.1815004076761892E-002   2.8843005361123303E-002
   3.3714519034736691E-002  -1.0744552641734031E-002   2.7140839277110099E-002
   3.0191688263375038E-002  -9.5313349050636376E-003   2.5409894609512595E-002
   3.9690932766449000E-002  -1.2020210968909734E-002   3.8135984536654524E-002
   3.6230568267019661E-002  -1.1359774218591273E-002   3.6854807458559791E-002
   3.2770203767590302E-002  -1.0795280108581419E-002   3.5727341507914949E-002
   2.9309839268160904E-002  -1.0326728638880242E-002   3.4753586684719714E-002
   2.5849474768731645E-002  -9.9541198094875716E-003   3.3933542988973886E-002
   3.5347629336640679E-002  -1.0512813895929132E-002   4.4105839684465353E-002
   3.2132220820178192E-002  -9.9768592270351869E-003   4.2949385503168472E-002
   2.8916812303715816E-002  -9.7755561404010323E-003   4.2129132160355416E-002
   2.5701403787253354E-002  -9.9089046360262591E-003   4.1645079656026811E-002
   2.2485995270791058E-002  -1.0376904713911506E-002   4.1497227990182489E-002
   3.1253101059396549E-002  -9.0054168229485865E-003   5.0070567221827289E-002
   2.8465138236935694E-002  -8.5939442354791007E-003   4.8800126995376725E-002
   2.5677175414474868E-002  -8.7558321722205484E-003   4.8048377318444996E-002
   2.2889212592013972E-002  -9.4910806331726140E-003   4.7815318191031644E-002
   2.0101249769553131E-002  -1.0799689618335329E-002   4.8100949613137711E-002
   5.7153634300194968E-002   0.0000000000000000        3.4693837220964634E-002
   5.7942625590836350E-002  -2.0863087633799697E-003   3.8343711747392650E-002
   5.8731616881477752E-002  -4.1406514639593904E-003   4.2206818318102211E-002
   5.9520608172119141E-002  -6.1630281017382594E-003   4.6283156933093324E-002
   6.0309599462760544E-002  -8.1534386767165741E-003   5.0572727592365974E-002
   4.8653536431713704E-002   0.0000000000000000        3.2790552281579816E-002
   4.9590684892494664E-002  -1.7109309037990628E-003   3.6964556614583560E-002
   5.0527833353275639E-002  -3.4351674472174656E-003   4.1221643243584911E-002
   5.1464981814056614E-002  -5.1727096302552119E-003   4.5561812168583883E-002
   5.2402130274837588E-002  -6.9235574529122818E-003   4.9985063389580475E-002
   4.0733313032359525E-002   0.0000000000000000        3.1285281052985850E-002
   4.1688468914996134E-002  -1.3355530442181580E-003   3.5938143490145430E-002
   4.2643624797632743E-002  -2.7296834304755442E-003   4.0543938475018700E-002
   4.3598780680269358E-002  -4.1823911587721601E-003   4.5102666007605638E-002
   4.4553936562905974E-002  -5.6936762291080033E-003   4.9614326087906259E-002
   3.3392964102132439E-002   0.0000000000000000        3.0178023535182726E-002
   3.4235977658340765E-002  -9.6017518463725250E-004   3.5264472374078273E-002
   3.5078991214549084E-002  -2.0241994137336237E-003   4.0173704012403541E-002
   3.5922004770757403E-002  -3.1920726872891104E-003   4.4905718450158574E-002
   3.6765018326965729E-002  -4.4637950053037249E-003   4.9460515687343339E-002
   2.6632489641032445E-002   0.0000000000000000        2.9468779728170462E-002
   2.7233211122528543E-002  -5.8479732505634704E-004   3.4943543266382063E-002
   2.7833932604024638E-002  -1.3187153969916997E-003   4.0110939855739471E-002
   2.8434654085520733E-002  -2.2017542158060607E-003   4.4970969496242685E-002
   2.9035375567016831E-002  -3.2339137814994326E-003   4.9523632187891700E-002
   6.0309599462760544E-002  -8.1534386767165741E-003   5.0572727592365974E-002
   6.0615250216304165E-002  -1.0032977312504753E-002   5.1515028255521275E-002
   6.0920900969847785E-002  -1.1722738132713292E-002   5.2245004653494943E-002
   6.1226551723391420E-002  -1.3222721137342108E-002   5.2762656786287054E-002
   6.1532202476935041E-002  -1.4532926326391249E-002   5.3067984653897476E-002
   5.2402130274837588E-002  -6.9235574529122818E-003   4.9985063389580475E-002
   5.2534085662582851E-002  -8.5881315112396415E-003   5.1213083920039627E-002
   5.2666041050328113E-002  -1.0066852401288195E-002   5.2306037984083696E-002
   5.2797996438073390E-002  -1.1359720123057937E-002   5.3263925581712661E-002
   5.2929951825818645E-002  -1.2466734676548880E-002   5.4086746712926542E-002
   4.4553936562905974E-002  -5.6936762291080033E-003   4.9614326087906259E-002
   4.4589454383619408E-002  -7.1432857099745072E-003   5.1124141838368380E-002
   4.4624972204332841E-002  -8.4109666698630996E-003   5.2576148921181953E-002
   4.4660490025046268E-002  -9.4967191087737650E-003   5.3970347336346931E-002
   4.4696007845759708E-002  -1.0400543026706524E-002   5.5306737083863369E-002
   3.6765018326965729E-002  -4.4637950053037249E-003   4.9460515687343339E-002
   3.6781356379413835E-002  -5.6984399087093686E-003   5.1248202010507553E-002
   3.6797694431861955E-002  -6.7550809384379898E-003   5.3055337464789729E-002
   3.6814032484310075E-002  -7.6337180944895892E-003   5.4881922050189824E-002
   3.6830370536758188E-002  -8.3343513768641617E-003   5.6727955766707902E-002
   2.9035375567016831E-002  -3.2339137814994326E-003   4.9523632187891700E-002
   2.9109791649966150E-002  -4.2535941074442552E-003   5.1585264436457112E-002
   2.9184207732915475E-002  -5.0991952070129111E-003   5.3743603614907036E-002
   2.9258623815864786E-002  -5.7707170802054212E-003   5.5998649723241381E-002
   2.9333039898814112E-002  -6.2681597270218062E-003   5.8350402761460175E-002
   6.1532202476935041E-002  -1.4532926326391249E-002   5.3067984653897476E-002
   6.0210170197970383E-002  -1.5547861392080569E-002   5.1613994679557296E-002
   5.8888137919005747E-002  -1.6162034026629867E-002   5.0598845009917799E-002
   5.7566105640041082E-002  -1.6375444230039244E-002   5.0022535644978938E-002
   5.6244073361076438E-002  -1.6188092002308599E-002   4.9885066584740859E-002
   5.2929951825818645E-002  -1.2466734676548880E-002   5.4086746712926542E-002
   5.1996854942371315E-002  -1.3322835223335272E-002   5.3309527138595561E-002
   5.1063758058923964E-002  -1.3862960924991279E-002   5.2871338050598522E-002
   5.0130661175476633E-002  -1.4087111781517002E-002   5.2772179448935343E-002
   4.9197564292029296E-002  -1.3995287792912328E-002   5.3012051333606203E-002
   4.4696007845759708E-002  -1.0400543026706524E-002   5.5306737083863369E-002
   4.4052036539462908E-002  -1.1097809054589977E-002   5.5121500323531962E-002
   4.3408065233166135E-002  -1.1563887823352719E-002   5.5175484231167728E-002
   4.2764093926869341E-002  -1.1798779332994775E-002   5.5468688806770701E-002
   4.2120122620572548E-002  -1.1802483583516106E-002   5.6001114050340806E-002
   3.6830370536758188E-002  -8.3343513768641617E-003   5.6727955766707902E-002
   3.6375714989245203E-002  -8.8727828858447093E-003   5.7049914234366443E-002
   3.5921059441732205E-002  -9.2648147217141603E-003   5.7511283551625443E-002
   3.5466403894219227E-002  -9.5104468844725669E-003   5.8112063718484853E-002
   3.5011748346706242E-002  -9.6096793741198734E-003   5.8852254734944619E-002
   2.9333039898814112E-002  -6.2681597270218062E-003   5.8350402761460175E-002
   2.8967890291718167E-002  -6.6477567170993741E-003   5.9094768871099074E-002
   2.8602740684622225E-002  -6.9657416200755769E-003   5.9878736011971564E-002
   2.8237591077526276E-002  -7.2221144359503140E-003   6.0702304184077745E-002
   2.7872441470430331E-002  -7.4168751647236270E-003   6.1565473387417621E-002
   5.6244073361076438E-002  -1.6188092002308599E-002   4.9885066584740859E-002
   5.4741464505255563E-002  -1.5805269284788051E-002   4.9619927592494881E-002
   5.3238855649434667E-002  -1.5432268018827657E-002   4.9529274943212138E-002
   5.1736246793613785E-002  -1.5069088204427449E-002   4.9613108636892736E-002
   5.0233637937792897E-002  -1.4715729841587338E-002   4.9871428673536555E-002
   4.9197564292029296E-002  -1.3995287792912328E-002   5.3012051333606203E-002
   4.7875929953803652E-002  -1.3738750217446201E-002   5.2724283352098882E-002
   4.6554295615578001E-002  -1.3468760313387288E-002   5.2623978062818731E-002
   4.5232661277352378E-002  -1.3185318080735808E-002   5.2711135465765960E-002
   4.3911026939126754E-002  -1.2888423519491543E-002   5.2985755560940234E-002
   4.2120122620572548E-002  -1.1802483583516106E-002   5.6001114050340806E-002
   4.0992439149206084E-002  -1.1672231150104358E-002   5.5713990859725060E-002
   3.9864755677839647E-002  -1.1505252607947032E-002   5.5627306710600302E-002
   3.8737072206473211E-002  -1.1301547957044172E-002   5.5741061602966775E-002
   3.7609388735106740E-002  -1.1061117197395734E-002   5.6055255536824493E-002
   3.5011748346706242E-002  -9.6096793741198734E-003   5.8852254734944619E-002
   3.4090992091462914E-002  -9.6057120827625249E-003   5.8589050115373131E-002
   3.3170235836219600E-002  -9.5417449025066783E-003   5.8539260886556775E-002
   3.2249479580976279E-002  -9.4177778333525194E-003   5.8702887048495536E-002
   3.1328723325732950E-002  -9.2338108752999595E-003   5.9079928601189387E-002
   2.7872441470430331E-002  -7.4168751647236270E-003   6.1565473387417621E-002
   2.7171588780574088E-002  -7.5391930154206921E-003   6.1349461119043339E-002
   2.6470736090717824E-002  -7.5782371970663821E-003   6.1359840590688115E-002
   2.5769883400861570E-002  -7.5340077096608888E-003   6.1596611802351917E-002
   2.5069030711005316E-002  -7.4065045532041296E-003   6.2059774754034736E-002
   5.0233637937792897E-002  -1.4715729841587338E-002   4.9871428673536555E-002
   4.8595765996544832E-002  -1.4354217401282732E-002   4.9385727023845138E-002
   4.6957894055296739E-002  -1.3966575354488996E-002   4.9135412418706628E-002
   4.5320022114048654E-002  -1.3552803701206003E-002   4.9120484858121073E-002
   4.3682150172800582E-002  -1.3112902441433927E-002   4.9340944342088522E-002
   4.3911026939126754E-002  -1.2888423519491543E-002   5.2985755560940234E-002
   4.2502545860599872E-002  -1.2572553182206361E-002   5.2540344939052450E-002
   4.1094064782073052E-002  -1.2232183621431747E-002   5.2318328998054303E-002
   3.9685583703546204E-002  -1.1867314837168089E-002   5.2319707737945434E-002
   3.8277102625019349E-002  -1.1477946829414998E-002   5.2544481158726120E-002
   3.7609388735106740E-002  -1.1061117197395734E-002   5.6055255536824493E-002
   3.6418306155637674E-002  -1.0790888963129908E-002   5.5648505559740463E-002
   3.5227223576168615E-002  -1.0497791888374641E-002   5.5453157899882519E-002
   3.4036140996699590E-002  -1.0181825973130092E-002   5.5469212557250631E-002
   3.2845058417230476E-002  -9.8429912173961798E-003   5.5696669531844850E-002
   3.1328723325732950E-002  -9.2338108752999595E-003   5.9079928601189387E-002
   3.0343046881658210E-002  -9.0092247440534540E-003   5.8710208885909165E-002
   2.9357370437583491E-002  -8.7634001553175463E-003   5.8539899124191656E-002
   2.8371693993508754E-002  -8.4963371090921083E-003   5.8568999316036714E-002
   2.7386017549434032E-002  -8.2080356053773895E-003   5.8797509461444492E-002
   2.5069030711005316E-002  -7.4065045532041296E-003   6.2059774754034736E-002
   2.4276768038661467E-002  -7.2275605249770697E-003   6.1725454917558570E-002
   2.3484505366317632E-002  -7.0290084222603411E-003   6.1578552670981501E-002
   2.2692242693973779E-002  -6.8108482450541658E-003   6.1619068014303655E-002
   2.1899980021629947E-002  -6.5730799933584882E-003   6.1847000947524877E-002
   4.3682150172800582E-002  -1.3112902441433927E-002   4.9340944342088522E-002
   4.2159782139517876E-002  -1.2660143142753655E-002   4.9079653711186777E-002
   4.0637414106235184E-002  -1.2207797372746118E-002   4.8975342322939042E-002
   3.9115046072952499E-002  -1.1755865131411383E-002   4.9028010177345621E-002
   3.7592678039669786E-002  -1.1304346418749445E-002   4.9237657274406266E-002
   3.8277102625019349E-002  -1.1477946829414998E-002   5.2544481158726120E-002
   3.6917631958212724E-002  -1.1074532302153633E-002   5.2263702135066120E-002
   3.5558161291406126E-002  -1.0667523959364558E-002   5.2151738601704190E-002
   3.4198690624599529E-002  -1.0256921801048192E-002   5.2208590558640300E-002
   3.2839219957792917E-002  -9.8427258272041906E-003   5.2434258005874368E-002
   3.2845058417230476E-002  -9.8429912173961798E-003   5.5696669531844850E-002
   3.1660321364543928E-002  -9.4889214615537232E-003   5.5400409459626820E-002
   3.0475584311857377E-002  -9.1272505459832273E-003   5.5284801125350912E-002
   2.9290847259170839E-002  -8.7579784706850027E-003   5.5349844529016978E-002
   2.8106110206484271E-002  -8.3811052356588811E-003   5.5595539670625096E-002
   2.7386017549434032E-002  -8.2080356053773895E-003   5.8797509461444492E-002
   2.6387850358511461E-002  -7.9033106209537574E-003   5.8489775684868864E-002
   2.5389683167588908E-002  -7.5869771326018375E-003   5.8374529893879160E-002
   2.4391515976666358E-002  -7.2590351403219238E-003   5.8451772088475469E-002
   2.3393348785743784E-002  -6.9194846441135438E-003   5.8721502268657980E-002
   2.1899980021629947E-002  -6.5730799933584882E-003   6.1847000947524877E-002
   2.1100218940115351E-002  -6.3176997803538193E-003   6.1531800810792098E-002
   2.0300457858600747E-002  -6.0467037192203643E-003   6.1420924907289204E-002
   1.9500696777086140E-002  -5.7600918099586021E-003   6.1514373237016140E-002
   1.8700935695571533E-002  -5.4578640525682620E-003   6.1812145799973017E-002
   3.7592678039669786E-002  -1.1304346418749445E-002   4.9237657274406266E-002
   3.6007783794601483E-002  -1.0822179357767803E-002   4.9148325431436823E-002
   3.4422889549533167E-002  -1.0278302071473885E-002   4.9257366475017134E-002
   3.2837995304464872E-002  -9.6727145598676061E-003   4.9564780405147432E-002
   3.1253101059396549E-002  -9.0054168229485865E-003   5.0070567221827289E-002
   3.2839219957792917E-002  -9.8427258272041906E-003   5.2434258005874368E-002
   3.1452718028400814E-002  -9.4014395985281829E-003   5.2421442382324240E-002
   3.0066216099008704E-002  -8.9095666757154635E-003   5.2607038503576703E-002
   2.8679714169616576E-002  -8.3671070587662405E-003   5.2991046369631672E-002
   2.7293212240224490E-002  -7.7740607476801671E-003   5.3573465980489343E-002
   2.8106110206484271E-002  -8.3811052356588811E-003   5.5595539670625096E-002
   2.6918039451021190E-002  -7.9806998392884243E-003   5.5648116735318359E-002
   2.5729968695558155E-002  -7.5408312799569929E-003   5.5899144403066849E-002
   2.4541897940095085E-002  -7.0614995576647657E-003   5.6348622673871127E-002
   2.3353827184632039E-002  -6.5427046724114979E-003   5.6996551547730770E-002
   2.3393348785743784E-002  -6.9194846441135438E-003   5.8721502268657980E-002
   2.2403748062462654E-002  -6.5599600800487351E-003   5.8828348490418764E-002
   2.1414147339181497E-002  -6.1720958841986577E-003   5.9133684173487973E-002
   2.0424546615900374E-002  -5.7558920565634010E-003   5.9637509317865343E-002
   1.9434945892619206E-002  -5.3113485971428426E-003   6.0339823923551347E-002
   1.8700935695571533E-002  -5.4578640525682620E-003   6.1812145799973017E-002
   1.7909843862725164E-002  -5.1392203208089904E-003   6.1962137647625926E-002
   1.7118752029878788E-002  -4.8033604884400311E-003   6.2310657814839854E-002
   1.6327660197032422E-002  -4.4502845554621299E-003   6.2857706301615066E-002
   1.5536568364186029E-002  -4.0799925218742983E-003   6.3603283107951381E-002
   3.1253101059396549E-002  -9.0054168229485865E-003   5.0070567221827289E-002
   2.8465138236935694E-002  -8.5939442354791007E-003   4.8800126995376725E-002
   2.5677175414474868E-002  -8.7558321722205484E-003   4.8048377318444996E-002
   2.2889212592013972E-002  -9.4910806331726140E-003   4.7815318191031644E-002
   2.0101249769553131E-002  -1.0799689618335329E-002   4.8100949613137711E-002
   2.7293212240224490E-002  -7.7740607476801671E-003   5.3573465980489343E-002
   2.4983775802956104E-002  -7.3394195363774561E-003   5.1812986644334758E-002
   2.2674339365687746E-002  -7.2721752187783900E-003   5.0490869529046301E-002
   2.0364902928419346E-002  -7.5723277948826946E-003   4.9607114634624194E-002
   1.8055466491150973E-002  -8.2398772646903318E-003   4.9161721961067828E-002
   2.3353827184632039E-002  -6.5427046724114979E-003   5.6996551547730770E-002
   2.1442588803903387E-002  -6.0848948372758671E-003   5.4951996732379618E-002
   1.9531350423174797E-002  -5.7885182653364467E-003   5.3265475809241895E-002
   1.7620112042446231E-002  -5.6535749565928568E-003   5.1936988778317525E-002
   1.5708873661717568E-002  -5.6800649110455570E-003   5.0966535639606569E-002
   1.9434945892619206E-002  -5.3113485971428426E-003   6.0339823923551347E-002
   1.7841577239777574E-002  -4.8303701381742503E-003   5.8217157259511196E-002
   1.6248208586935972E-002  -4.3048613118943403E-003   5.6372196159031662E-002
   1.4654839934094294E-002  -3.7348221183031447E-003   5.4804940622112754E-002
   1.3061471281252703E-002  -3.1202525574006157E-003   5.3515390648754130E-002
   1.5536568364186029E-002  -4.0799925218742983E-003   6.3603283107951381E-002
   1.4180741110578654E-002  -3.5758454390726335E-003   6.1608468225729240E-002
   1.2824913856971258E-002  -2.8212043584524005E-003   5.9811030578415247E-002
   1.1469086603363893E-002  -1.8160692800131689E-003   5.8210970166009290E-002
   1.0113259349756487E-002  -5.6044020375578540E-004   5.6808286988510703E-002
   2.6632489641032445E-002   0.0000000000000000        2.9468779728170462E-002
   2.7233211122528543E-002  -5.8479732505634704E-004   3.4943543266382063E-002
   2.7833932604024638E-002  -1.3187153969916997E-003   4.0110939855739471E-002
   2.8434654085520733E-002  -2.2017542158060607E-003   4.4970969496242685E-002
   2.9035375567016831E-002  -3.2339137814994326E-003   4.9523632187891700E-002
   2.0115050369353432E-002   0.0000000000000000        2.9022276567498201E-002
   2.0447706243195536E-002  -4.3866789868657243E-004   3.4312078454226465E-002
   2.0780362117037644E-002  -9.8913285529092770E-004   3.9373116074500947E-002
   2.1113017990879751E-002  -1.6513948698130658E-003   4.4205389428321647E-002
   2.1445673864721859E-002  -2.4254539422529885E-003   4.8808898515688544E-002
   1.3503807007389276E-002   0.0000000000000000        2.8703240988715101E-002
   1.3646999955977800E-002  -2.9253847231679999E-004   3.3845404912921269E-002
   1.3790192904566323E-002  -6.5955031359015825E-004   3.8837407253074038E-002
   1.3933385853154845E-002  -1.1010355238200743E-003   4.3679248009173444E-002
   1.4076578801743369E-002  -1.6169941030065478E-003   4.8370927181219464E-002
   6.7987595551399858E-003   0.0000000000000000        2.8511672991821155E-002
   6.8310922608753296E-003  -1.4640904594702647E-004   3.3543522642466440E-002
   6.8634249666106734E-003  -3.2996777188938663E-004   3.8503813391458752E-002
   6.8957576723460189E-003  -5.5067617782708113E-004   4.3392545238798083E-002
   6.9280903780813636E-003  -8.0853426376010368E-004   4.8209718184484440E-002
  -9.1987394442057113E-008   0.0000000000000000        2.8447572576816377E-002
  -1.6842111870939147E-008  -2.7961957725381598E-007   3.3406431642862014E-002
   5.8303170701263021E-008  -3.8523018861674752E-007   3.8372334489655067E-002
   1.3344845327292309E-007  -3.1683183408792726E-007   4.3345281117195544E-002
   2.0859373584371579E-007  -7.4424513659548941E-008   4.8325271525483479E-002
   2.9035375567016831E-002  -3.2339137814994326E-003   4.9523632187891700E-002
   2.9109791649966150E-002  -4.2535941074442552E-003   5.1585264436457112E-002
   2.9184207732915475E-002  -5.0991952070129111E-003   5.3743603614907036E-002
   2.9258623815864786E-002  -5.7707170802054212E-003   5.5998649723241381E-002
   2.9333039898814112E-002  -6.2681597270218062E-003   5.8350402761460175E-002
   2.1445673864721859E-002  -2.4254539422529885E-003   4.8808898515688544E-002
   2.1587973480915398E-002  -3.1901805496102843E-003   5.1214584614159821E-002
   2.1730273097108944E-002  -3.8244451688845089E-003   5.3659330849235062E-002
   2.1872572713302486E-002  -4.3282478000756840E-003   5.6143137220914303E-002
   2.2014872329496029E-002  -4.7015884431837740E-003   5.8666003729197488E-002
   1.4076578801743369E-002  -1.6169941030065478E-003   4.8370927181219464E-002
   1.4229115157900648E-002  -2.1267669917763199E-003   5.1077049891303503E-002
   1.4381651514057929E-002  -2.5496951307561067E-003   5.3764585944711021E-002
   1.4534187870215206E-002  -2.8857785199459256E-003   5.6433535341442034E-002
   1.4686724226372487E-002  -3.1350171593457661E-003   5.9083898081496534E-002
   6.9280903780813636E-003  -8.0853426376010368E-004   4.8209718184484440E-002
   7.0332166809218945E-003  -1.0633534339423453E-003   5.1172660267888137E-002
   7.1383429837624263E-003  -1.2749450926276976E-003   5.4059368901334830E-002
   7.2434692866029582E-003  -1.4433092398161778E-003   5.6869844084824553E-002
   7.3485955894434900E-003  -1.5684458755077461E-003   5.9604085818357293E-002
   2.0859373584371579E-007  -7.4424513659548941E-008   4.8325271525483479E-002
   2.7804997914130866E-007   6.0123891612758051E-008   5.1501415743913766E-002
   3.4750622243825101E-007  -1.9505449930495161E-007   5.4543679719106578E-002
   4.1696246573421757E-007  -8.3995968642720624E-007   5.7452063451061922E-002
   4.8641870903191886E-007  -1.8745916697260334E-006   6.0226566939779777E-002
   2.9333039898814112E-002  -6.2681597270218062E-003   5.8350402761460175E-002
   2.8967890291718167E-002  -6.6477567170993741E-003   5.9094768871099074E-002
   2.8602740684622225E-002  -6.9657416200755769E-003   5.9878736011971564E-002
   2.8237591077526276E-002  -7.2221144359503140E-003   6.0702304184077745E-002
   2.7872441470430331E-002  -7.4168751647236270E-003   6.1565473387417621E-002
   2.2014872329496029E-002  -4.7015884431837740E-003   5.8666003729197488E-002
   2.1702301957614960E-002  -4.9864899784981820E-003   5.9467381666315058E-002
   2.1389731585733880E-002  -5.2249752863081471E-003   6.0334317042628656E-002
   2.1077161213852811E-002  -5.4170443666137274E-003   6.1266809858138281E-002
   2.0764590841971738E-002  -5.5626972194148944E-003   6.2264860112844100E-002
   1.4686724226372487E-002  -3.1350171593457661E-003   5.9083898081496534E-002
   1.4452689497668704E-002  -3.3252232398969465E-003   5.9927091986495720E-002
   1.4218654768964917E-002  -3.4842089525407181E-003   6.0861799738653369E-002
   1.3984620040261131E-002  -3.6119742972771278E-003   6.1888021337969508E-002
   1.3750585311557345E-002  -3.7085192741061548E-003   6.3005756784444117E-002
   7.3485955894434900E-003  -1.5684458755077461E-003   5.9604085818357293E-002
   7.2190529118794037E-003  -1.6639565012956633E-003   6.0473899831641052E-002
   7.0895102343153209E-003  -1.7434426187733026E-003   6.1461184100045758E-002
   6.9599675567512329E-003  -1.8069042279405070E-003   6.2565938623571349E-002
   6.8304248791871526E-003  -1.8543413287974188E-003   6.3788163402217865E-002
   4.8641870903191886E-007  -1.8745916697260334E-006   6.0226566939779777E-002
   1.3922002470622211E-006  -2.6897626944806519E-006   6.1107805201751159E-002
   2.2979817850951254E-006  -2.6762850058696663E-006   6.2132470126805846E-002
   3.2037633231288970E-006  -1.8341586039373123E-006   6.3300561714943845E-002
   4.1095448611583318E-006  -1.6338348866884456E-007   6.4612079966165234E-002
   2.7872441470430331E-002  -7.4168751647236270E-003   6.1565473387417621E-002
   2.7171588780574088E-002  -7.5391930154206921E-003   6.1349461119043339E-002
   2.6470736090717824E-002  -7.5782371970663821E-003   6.1359840590688115E-002
   2.5769883400861570E-002  -7.5340077096608888E-003   6.1596611802351917E-002
   2.5069030711005316E-002  -7.4065045532041296E-003   6.2059774754034736E-002
   2.0764590841971738E-002  -5.5626972194148944E-003   6.2264860112844100E-002
   2.0277268347340605E-002  -5.6541595067680778E-003   6.2202450683941493E-002
   1.9789945852709490E-002  -5.6836568907296485E-003   6.2340709905470179E-002
   1.9302623358078374E-002  -5.6511893712995432E-003   6.2679637777430089E-002
   1.8815300863447244E-002  -5.5567569484778756E-003   6.3219234299821195E-002
   1.3750585311557345E-002  -3.7085192741061548E-003   6.3005756784444117E-002
   1.3451069922563536E-002  -3.7691259981155051E-003   6.3075641429353665E-002
   1.3151554533569721E-002  -3.7890765843928576E-003   6.3320471635106651E-002
   1.2852039144575906E-002  -3.7683710329382250E-003   6.3740247401702962E-002
   1.2552523755582096E-002  -3.7070093437516216E-003   6.4334968729142711E-002
   6.8304248791871526E-003  -1.8543413287974188E-003   6.3788163402217865E-002
   6.6929935062428319E-003  -1.8840924894629393E-003   6.3969033355279856E-002
   6.5555621332985155E-003  -1.8944962780561231E-003   6.4299125779597441E-002
   6.4181307603541982E-003  -1.8855526945769209E-003   6.4778440675170620E-002
   6.2806993874098835E-003  -1.8572617390253537E-003   6.5406978041999353E-002
   4.1095448611583318E-006  -1.6338348866884456E-007   6.4612079966165234E-002
   3.0390983785152231E-006   9.4101918964029085E-007   6.4882626461720050E-002
   1.9686518958755839E-006   8.4028280649545151E-008   6.5276672338942660E-002
   8.9820541323247516E-007  -2.7343562155656212E-006   6.5794217597832980E-002
  -1.7224106940716410E-007  -7.5141342990858728E-006   6.6435262238391163E-002
   2.5069030711005316E-002  -7.4065045532041296E-003   6.2059774754034736E-002
   2.4276768038661467E-002  -7.2275605249770697E-003   6.1725454917558570E-002
   2.3484505366317632E-002  -7.0290084222603411E-003   6.1578552670981501E-002
   2.2692242693973779E-002  -6.8108482450541658E-003   6.1619068014303655E-002
   2.1899980021629947E-002  -6.5730799933584882E-003   6.1847000947524877E-002
   1.8815300863447244E-002  -5.5567569484778756E-003   6.3219234299821195E-002
   1.8213228306431482E-002  -5.4237179379693079E-003   6.2896067901702712E-002
   1.7611155749415710E-002  -5.2754306554784886E-003   6.2765864144341155E-002
   1.7009083192399944E-002  -5.1118951010054904E-003   6.2828623027736633E-002
   1.6407010635384182E-002  -4.9331112745502337E-003   6.3084344551889271E-002
   1.2552523755582096E-002  -3.7070093437516216E-003   6.4334968729142711E-002
   1.2146186364752246E-002  -3.6198753509616086E-003   6.4018595966874578E-002
   1.1739848973922386E-002  -3.5218528886966360E-003   6.3900730896221364E-002
   1.1333511583092527E-002  -3.4129419569567318E-003   6.3981373517182985E-002
   1.0927174192262679E-002  -3.2931425557420069E-003   6.4260523829759275E-002
   6.2806993874098835E-003  -1.8572617390253537E-003   6.5406978041999353E-002
   6.0756422136237723E-003  -1.8160327639538225E-003   6.5093039113074389E-002
   5.8705850398376568E-003  -1.7682751219147280E-003   6.4983152926622045E-002
   5.6655278660515404E-003  -1.7139888129080426E-003   6.5077319482642365E-002
   5.4604706922654319E-003  -1.6531738369337662E-003   6.5375538781135417E-002
  -1.7224106940716410E-007  -7.5141342990858728E-006   6.6435262238391163E-002
   1.5958530460540021E-006  -1.2190176946147435E-005   6.6119397340301950E-002
   3.3639471615186378E-006  -1.4697355132896328E-005   6.6013130235543241E-002
   5.1320412769824061E-006  -1.5035668859261428E-005   6.6116460924114939E-002
   6.9001353924444397E-006  -1.3205118125525495E-005   6.6429389406017336E-002
   2.1899980021629947E-002  -6.5730799933584882E-003   6.1847000947524877E-002
   2.1100218940115351E-002  -6.3176997803538193E-003   6.1531800810792098E-002
   2.0300457858600747E-002  -6.0467037192203643E-003   6.1420924907289204E-002
   1.9500696777086140E-002  -5.7600918099586021E-003   6.1514373237016140E-002
   1.8700935695571533E-002  -5.4578640525682620E-003   6.1812145799973017E-002
   1.6407010635384182E-002  -4.9331112745502337E-003   6.3084344551889271E-002
   1.5810475178472359E-002  -4.7407805154119353E-003   6.2794909470409638E-002
   1.5213939721560540E-002  -4.5366041628896944E-003   6.2707601404905791E-002
   1.4617404264648711E-002  -4.3205822169835716E-003   6.2822420355377440E-002
   1.4020868807736897E-002  -4.0927146776935097E-003   6.3139366321824708E-002
   1.0927174192262679E-002  -3.2931425557420069E-003   6.4260523829759275E-002
   1.0531667142699319E-002  -3.1638612504701485E-003   6.3993083548788493E-002
   1.0136160093135957E-002  -3.0265046065589135E-003   6.3925573066539038E-002
   9.7406530435725919E-003  -2.8810726240085967E-003   6.4057992383010798E-002
   9.3451459940092248E-003  -2.7275653028187852E-003   6.4390341498203926E-002
   5.4604706922654319E-003  -1.6531738369337662E-003   6.5375538781135417E-002
   5.2637948327962144E-003  -1.5869419855283687E-003   6.5126323045928608E-002
   5.0671189733270013E-003  -1.5164050502281881E-003   6.5074839892188818E-002
   4.8704431138577803E-003  -1.4415630310335385E-003   6.5221089319916006E-002
   4.6737672543885724E-003  -1.3624159279441023E-003   6.5565071329110255E-002
   6.9001353924444397E-006  -1.3205118125525495E-005   6.6429389406017336E-002
   6.8582487630641786E-006  -1.0022720586533307E-005   6.6194627961829955E-002
   6.8163621336769786E-006  -6.3054938974627106E-006   6.6155401881855369E-002
   6.7744755042915134E-006  -2.0534380586467726E-006   6.6311711166093440E-002
   6.7325888749095175E-006   2.7334469306916631E-006   6.6663555814544140E-002
   1.8700935695571533E-002  -5.4578640525682620E-003   6.1812145799973017E-002
   1.7909843862725164E-002  -5.1392203208089904E-003   6.1962137647625926E-002
   1.7118752029878788E-002  -4.8033604884400311E-003   6.2310657814839854E-002
   1.6327660197032422E-002  -4.4502845554621299E-003   6.2857706301615066E-002
   1.5536568364186029E-002  -4.0799925218742983E-003   6.3603283107951381E-002
   1.4020868807736897E-002  -4.0927146776935097E-003   6.3139366321824708E-002
   1.3427425915020642E-002  -3.8522172963054990E-003   6.3308137959864258E-002
   1.2833983022304381E-002  -3.5983058241049748E-003   6.3673679158602864E-002
   1.2240540129588119E-002  -3.3309802610924782E-003   6.4235989918040526E-002
   1.1647097236871864E-002  -3.0502406072673849E-003   6.4995070238177410E-002
   9.3451459940092248E-003  -2.7275653028187852E-003   6.4390341498203926E-002
   8.9475932825609471E-003  -2.5652142718018689E-003   6.4574090916833027E-002
   8.5500405711126642E-003  -2.3932511597698145E-003   6.4952851137299150E-002
   8.1524878596643917E-003  -2.2116759667227728E-003   6.5526622159602033E-002
   7.7549351482161070E-003  -2.0204886926604160E-003   6.6295403983741813E-002
   4.6737672543885724E-003  -1.3624159279441023E-003   6.5565071329110255E-002
   4.4703459653461100E-003  -1.2782112472984747E-003   6.5759996518531885E-002
   4.2669246763036451E-003  -1.1881964954346506E-003   6.6148173750928269E-002
   4.0635033872611880E-003  -1.0923716723530387E-003   6.6729603026299433E-002
   3.8600820982187178E-003  -9.9073677805347482E-004   6.7504284344645282E-002
   6.7325888749095175E-006   2.7334469306916631E-006   6.6663555814544140E-002
  -4.3160366238817471E-006   8.7917772052525933E-006   6.6865854764960986E-002
  -1.5364662122679951E-005   1.6858168900540926E-005   6.7259646999490497E-002
  -2.6413287621471215E-005   2.6932622016535845E-005   6.7844932518132589E-002
  -3.7461913120269419E-005   3.9015136553466334E-005   6.8621711320887346E-002
   1.5536568364186029E-002  -4.0799925218742983E-003   6.3603283107951381E-002
   1.4180741110578654E-002  -3.5758454390726335E-003   6.1608468225729240E-002
   1.2824913856971258E-002  -2.8212043584524005E-003   5.9811030578415247E-002
   1.1469086603363893E-002  -1.8160692800131689E-003   5.8210970166009290E-002
   1.0113259349756487E-002  -5.6044020375578540E-004   5.6808286988510703E-002
   1.1647097236871864E-002  -3.0502406072673849E-003   6.4995070238177410E-002
   1.0522874636180866E-002  -2.6724546950133432E-003   6.3247378024554407E-002
   9.3986520354898823E-003  -2.1139903567135993E-003   6.1765517881856608E-002
   8.2744294347988565E-003  -1.3748475923682328E-003   6.0549489810083540E-002
   7.1502068341078862E-003  -4.5502640197669919E-004   5.9599293809235010E-002
   7.7549351482161070E-003  -2.0204886926604160E-003   6.6295403983741813E-002
   6.9307720364585393E-003  -1.7690639509542194E-003   6.4725018866945330E-002
   6.1066089247009594E-003  -1.4067763549750201E-003   6.3488920657090692E-002
   5.2824458129433942E-003  -9.3362590472293588E-004   6.2587109354178008E-002
   4.4582827011858117E-003  -3.4961260019783502E-004   6.2019584958207197E-002
   3.8600820982187178E-003  -9.9073677805347482E-004   6.7504284344645282E-002
   3.4044333114116171E-003  -8.6567320689501237E-004   6.6041390752902066E-002
   2.9487845246045116E-003  -6.9956235323627436E-004   6.4981238904117833E-002
   2.4931357377974044E-003  -4.9240421707765283E-004   6.4323828798292668E-002
   2.0374869509903193E-003  -2.4419879841880432E-004   6.4069160435426556E-002
  -3.7461913120269419E-005   3.9015136553466334E-005   6.8621711320887346E-002
  -5.6141538959858517E-005   3.7717537164139170E-005   6.7196493682424641E-002
  -7.4821164799451084E-005   7.6516485024158420E-006   6.6242472622938031E-002
  -9.3500790639029774E-005  -5.1182529432577950E-005   6.5759648142427657E-002
  -1.1218041647863275E-004  -1.3878499663988464E-004   6.5748020240892879E-002
  -9.1987394442057113E-008   0.0000000000000000        2.8447572576816377E-002
  -1.6842111870939147E-008  -2.7961957725381598E-007   3.3406431642862014E-002
   5.8303170701263021E-008  -3.8523018861674752E-007   3.8372334489655067E-002
   1.3344845327292309E-007  -3.1683183408792726E-007   4.3345281117195544E-002
   2.0859373584371579E-007  -7.4424513659548941E-008   4.8325271525483479E-002
  -6.7989564160589652E-003   0.0000000000000000        2.8511094673860662E-002
  -6.8311454347769855E-003   1.4607508588407574E-004   3.3543175385401462E-002
  -6.8633344534950068E-003   3.2947870723874870E-004   3.8503683988193649E-002
  -6.8955234722130263E-003   5.5021086406401628E-004   4.3392620482237229E-002
  -6.9277124909310484E-003   8.0827155635988020E-004   4.8209984867532182E-002
  -1.3504042526698540E-002   0.0000000000000000        2.8702394213113935E-002
  -1.3647111598913197E-002   2.9242979134540400E-004   3.3844851096654610E-002
  -1.3790180671127850E-002   6.5934264466610895E-004   3.8837119981950614E-002
  -1.3933249743342509E-002   1.1007385599621153E-003   4.3679200869001976E-002
  -1.4076318815557164E-002   1.6166175372334234E-003   4.8371093757808681E-002
  -2.0115350319313170E-002   0.0000000000000000        2.9021471194576171E-002
  -2.0447915334520502E-002   4.3878449680673378E-004   3.4311458776621423E-002
  -2.0780480349727841E-002   9.8920658209347180E-004   3.9372642470925978E-002
  -2.1113045364935173E-002   1.6512662558602169E-003   4.4205022277489833E-002
  -2.1445610380142508E-002   2.4249635181069649E-003   4.8808598196312961E-002
  -2.6632879793902851E-002   0.0000000000000000        2.9468325618247394E-002
  -2.7233556641598908E-002   5.8513920226806182E-004   3.4942998425301929E-002
  -2.7834233489294966E-002   1.3190705195208347E-003   4.0110251455119719E-002
  -2.8434910336991019E-002   2.2017939517583185E-003   4.4970084707700760E-002
  -2.9035587184687083E-002   3.2333094989805090E-003   4.9522498183045056E-002
   2.0859373584371579E-007  -7.4424513659548941E-008   4.8325271525483479E-002
   2.7804997914130866E-007   6.0123891612758051E-008   5.1501415743913766E-002
   3.4750622243825101E-007  -1.9505449930495161E-007   5.4543679719106578E-002
   4.1696246573421757E-007  -8.3995968642720624E-007   5.7452063451061922E-002
   4.8641870903191886E-007  -1.8745916697260334E-006   6.0226566939779777E-002
  -6.9277124909310484E-003   8.0827155635988020E-004   4.8209984867532182E-002
  -7.0327107584589165E-003   1.0631762482139918E-003   5.1172241233894397E-002
  -7.1377090259867873E-003   1.2744404037139960E-003   5.4058242395951757E-002
  -7.2427072935146572E-003   1.4420640228599070E-003   5.6867988353704289E-002
  -7.3477055610425279E-003   1.5660471056517106E-003   5.9601479107151939E-002
  -1.4076318815557164E-002   1.6166175372334234E-003   4.8371093757808681E-002
  -1.4228759767923579E-002   2.1262923725363773E-003   5.1076211462544936E-002
  -1.4381200720290001E-002   2.5490758619273178E-003   5.3762699001908956E-002
  -1.4533641672656418E-002   2.8849680054062409E-003   5.6430556375900720E-002
  -1.4686082625022837E-002   3.1339688029731472E-003   5.9079783584520248E-002
  -2.1445610380142508E-002   2.4249635181069649E-003   4.8808598196312961E-002
  -2.1587868978414856E-002   3.1894084968587593E-003   5.1213326429865348E-002
  -2.1730127576687203E-002   3.8237113201406324E-003   5.3657049536978078E-002
  -2.1872386174959544E-002   4.3278719879525683E-003   5.6139767517651214E-002
  -2.2014644773231895E-002   4.7018905002945977E-003   5.8661480371884719E-002
  -2.9035587184687083E-002   3.2333094989805090E-003   4.9522498183045056E-002
  -2.9110038389932737E-002   4.2525246211811410E-003   5.1583586135855633E-002
  -2.9184489595178390E-002   5.0983467783539465E-003   5.3741294001159207E-002
  -2.9258940800424044E-002   5.7707759704989110E-003   5.5995621778955777E-002
  -2.9333392005669694E-002   6.2698121976160273E-003   5.8346569469245359E-002
   4.8641870903191886E-007  -1.8745916697260334E-006   6.0226566939779777E-002
   1.3922002470622211E-006  -2.6897626944806519E-006   6.1107805201751159E-002
   2.2979817850951254E-006  -2.6762850058696663E-006   6.2132470126805846E-002
   3.2037633231288970E-006  -1.8341586039373123E-006   6.3300561714943845E-002
   4.1095448611583318E-006  -1.6338348866884456E-007   6.4612079966165234E-002
  -7.3477055610425279E-003   1.5660471056517106E-003   5.9601479107151939E-002
  -7.2164831155561351E-003   1.6606063406713750E-003   6.0472233030521183E-002
  -7.0852606700697370E-003   1.7399584165009446E-003   6.1460193618703869E-002
  -6.9540382245833442E-003   1.8041033331403396E-003   6.2565360871699963E-002
  -6.8228157790969478E-003   1.8530410905895911E-003   6.3787734789509401E-002
  -1.4686082625022837E-002   3.1339688029731472E-003   5.9079783584520248E-002
  -1.4450763513858000E-002   3.3239024440372602E-003   5.9924017361383933E-002
  -1.4215444402693168E-002   3.4825931180077433E-003   6.0859237804791085E-002
  -1.3980125291528334E-002   3.6100408248846299E-003   6.1885444914741676E-002
  -1.3744806180363497E-002   3.7062455646678719E-003   6.3002638691235804E-002
  -2.2014644773231895E-002   4.7018905002945977E-003   5.8661480371884719E-002
  -2.1701448994658541E-002   4.9871985474031237E-003   5.9463158194339338E-002
  -2.1388253216085191E-002   5.2252278195145359E-003   6.0329602685067520E-002
  -2.1075057437511837E-002   5.4159783166288994E-003   6.1260813844069249E-002
  -2.0761861658938487E-002   5.5594500387461422E-003   6.2256791671344548E-002
  -2.9333392005669694E-002   6.2698121976160273E-003   5.8346569469245359E-002
  -2.8968539557957751E-002   6.6504946507690114E-003   5.9089655529387455E-002
  -2.8603687110245801E-002   6.9678625210213511E-003   5.9871288259533154E-002
  -2.8238834662533862E-002   7.2219158083731885E-003   6.0691467659682509E-002
  -2.7873982214821909E-002   7.4126545128244126E-003   6.1550193729835501E-002
   4.1095448611583318E-006  -1.6338348866884456E-007   6.4612079966165234E-002
   3.0390983785152231E-006   9.4101918964029085E-007   6.4882626461720050E-002
   1.9686518958755839E-006   8.4028280649545151E-008   6.5276672338942660E-002
   8.9820541323247516E-007  -2.7343562155656212E-006   6.5794217597832980E-002
  -1.7224106940716410E-007  -7.5141342990858728E-006   6.6435262238391163E-002
  -6.8228157790969478E-003   1.8530410905895911E-003   6.3787734789509401E-002
  -6.6874064555745311E-003   1.8842629011426790E-003   6.3965103531998302E-002
  -6.5519971320521109E-003   1.8952599770934581E-003   6.4291932432829574E-002
  -6.4165878085296864E-003   1.8860323184420498E-003   6.4768221492003217E-002
  -6.2811784850072740E-003   1.8565799251882842E-003   6.5393970709519161E-002
  -1.3744806180363497E-002   3.7062455646678719E-003   6.3002638691235804E-002
  -1.3446956310161422E-002   3.7675847830956968E-003   6.3068566339643847E-002
  -1.3149106439959354E-002   3.7904359259062683E-003   6.3309914923068811E-002
  -1.2851256569757278E-002   3.7747989930996240E-003   6.3726684441510750E-002
  -1.2553406699555205E-002   3.7206739846756681E-003   6.4318874894969652E-002
  -2.0761861658938487E-002   5.5594500387461422E-003   6.2256791671344548E-002
  -2.0275610465382163E-002   5.6509066650487390E-003   6.2193014884656700E-002
  -1.9789359271825856E-002   5.6856118747191332E-003   6.2330619809660315E-002
  -1.9303108078269533E-002   5.6635656677572191E-003   6.2669606446355511E-002
  -1.8816856884713219E-002   5.5847680441630174E-003   6.3209974794742260E-002
  -2.7873982214821909E-002   7.4126545128244126E-003   6.1550193729835501E-002
  -2.7173368921236757E-002   7.5342285470017395E-003   6.1338449167036735E-002
  -2.6472755627651608E-002   7.5807878235318801E-003   6.1354047092604114E-002
  -2.5772142334066446E-002   7.5523323424148119E-003   6.1596987506537630E-002
  -2.5071529040481298E-002   7.4488621036504499E-003   6.2067270408837277E-002
  -1.7224106940716410E-007  -7.5141342990858728E-006   6.6435262238391163E-002
   1.5958530460540021E-006  -1.2190176946147435E-005   6.6119397340301950E-002
   3.3639471615186378E-006  -1.4697355132896328E-005   6.6013130235543241E-002
   5.1320412769824061E-006  -1.5035668859261428E-005   6.6116460924114939E-002
   6.9001353924444397E-006  -1.3205118125525495E-005   6.6429389406017336E-002
  -6.2811784850072740E-003   1.8565799251882842E-003   6.5393970709519161E-002
  -6.0727883869495314E-003   1.8142382330808005E-003   6.5082215552109302E-002
  -5.8643982888917845E-003   1.7663426778683489E-003   6.4974106609253457E-002
  -5.6560081908340436E-003   1.7128932595506519E-003   6.5069643880951725E-002
  -5.4476180927762949E-003   1.6538899781279870E-003   6.5368827367204008E-002
  -1.2553406699555205E-002   3.7206739846756681E-003   6.4318874894969652E-002
  -1.2144346176331608E-002   3.6406666431078594E-003   6.4003506750673581E-002
  -1.1735285653108010E-002   3.5473827108695351E-003   6.3885833242155271E-002
  -1.1326225129884408E-002   3.4408221879607308E-003   6.3965854369414571E-002
  -1.0917164606660817E-002   3.3209850743814995E-003   6.4243570132451522E-002
  -1.8816856884713219E-002   5.5847680441630174E-003   6.3209974794742260E-002
  -1.8213077515100193E-002   5.4670950531348489E-003   6.2883270935994787E-002
  -1.7609298145487156E-002   5.3284227438708063E-003   6.2748310134248531E-002
  -1.7005518775874133E-002   5.1687511163708653E-003   6.2805092389503520E-002
  -1.6401739406261096E-002   4.9880801706350397E-003   6.3053617701759768E-002
  -2.5071529040481298E-002   7.4488621036504499E-003   6.2067270408837277E-002
  -2.4278982403255260E-002   7.2935234631618662E-003   6.1721508108072975E-002
  -2.3486435766029226E-002   7.1094627768719734E-003   6.1561537285533444E-002
  -2.2693889128803189E-002   6.8966800447808219E-003   6.1587357941218716E-002
  -2.1901342491577158E-002   6.6551752668885245E-003   6.1798970075128801E-002
   6.9001353924444397E-006  -1.3205118125525495E-005   6.6429389406017336E-002
   6.8582487630641786E-006  -1.0022720586533307E-005   6.6194627961829955E-002
   6.8163621336769786E-006  -6.3054938974627106E-006   6.6155401881855369E-002
   6.7744755042915134E-006  -2.0534380586467726E-006   6.6311711166093440E-002
   6.7325888749095175E-006   2.7334469306916631E-006   6.6663555814544140E-002
  -5.4476180927762949E-003   1.6538899781279870E-003   6.5368827367204008E-002
  -5.2509475216999165E-003   1.5906371841628436E-003   6.5119009564379229E-002
  -5.0542769506235260E-003   1.5244392282180441E-003   6.5067081312753294E-002
  -4.8576063795471363E-003   1.4552961102933665E-003   6.5213042612326175E-002
  -4.6609358084707571E-003   1.3832078303890882E-003   6.5556893463097898E-002
  -1.0917164606660817E-002   3.3209850743814995E-003   6.4243570132451522E-002
  -1.0521427390892473E-002   3.1912970889122760E-003   6.3975215979859348E-002
  -1.0125690175124123E-002   3.0551839503334399E-003   6.3907105565452316E-002
  -9.7299529593557789E-003   2.9126456586451577E-003   6.4039238889230354E-002
  -9.3342157435874346E-003   2.7636822138474293E-003   6.4371615951193395E-002
  -1.6401739406261096E-002   4.9880801706350397E-003   6.3053617701759768E-002
  -1.5804581358814608E-002   4.7919569936616252E-003   6.2763247208270548E-002
  -1.5207423311368099E-002   4.5859286724490023E-003   6.2675474639952683E-002
  -1.4610265263921602E-002   4.3699952069970599E-003   6.2790299996806048E-002
  -1.4013107216475107E-002   4.1441565973056871E-003   6.3107723278830713E-002
  -2.1901342491577158E-002   6.6551752668885245E-003   6.1798970075128801E-002
  -2.1100409425466322E-002   6.3926168984110854E-003   6.1483103249612758E-002
  -2.0299476359355473E-002   6.1166733945643981E-003   6.1372188536254230E-002
  -1.9498543293244630E-002   5.8273447553488650E-003   6.1466225935053048E-002
  -1.8697610227133794E-002   5.5246309807642224E-003   6.1765215446009436E-002
   6.7325888749095175E-006   2.7334469306916631E-006   6.6663555814544140E-002
  -4.3160366238817471E-006   8.7917772052525933E-006   6.6865854764960986E-002
  -1.5364662122679951E-005   1.6858168900540926E-005   6.7259646999490497E-002
  -2.6413287621471215E-005   2.6932622016535845E-005   6.7844932518132589E-002
  -3.7461913120269419E-005   3.9015136553466334E-005   6.8621711320887346E-002
  -4.6609358084707571E-003   1.3832078303890882E-003   6.5556893463097898E-002
  -4.4777642806103565E-003   1.3085391670842883E-003   6.5756203973290323E-002
  -4.2945927527499716E-003   1.2316548989584619E-003   6.6152461506088417E-002
  -4.1114212248895754E-003   1.1525550260116021E-003   6.6745666061492265E-002
  -3.9282496970291791E-003   1.0712395482435078E-003   6.7535817639502005E-002
  -9.3342157435874346E-003   2.7636822138474293E-003   6.4371615951193395E-002
  -8.9513703238746616E-003   2.6082865569633795E-003   6.4563714354919255E-002
  -8.5685249041618783E-003   2.4464516290164245E-003   6.4958213519744221E-002
  -8.1856794844491088E-003   2.2781774300065540E-003   6.5555113445667973E-002
  -7.8028340647363342E-003   2.1034639599336602E-003   6.6354414132690887E-002
  -1.4013107216475107E-002   4.1441565973056871E-003   6.3107723278830713E-002
  -1.3425134166416757E-002   3.9080339468424152E-003   6.3288385909848199E-002
  -1.2837161116358423E-002   3.6612483590744219E-003   6.3676903040457936E-002
  -1.2249188066300071E-002   3.4037998340017295E-003   6.4273274670659949E-002
  -1.1661215016241733E-002   3.1356883716237016E-003   6.5077500800453922E-002
  -1.8697610227133794E-002   5.5246309807642224E-003   6.1765215446009436E-002
  -1.7899055808236686E-002   5.2077813367215620E-003   6.1930218638076850E-002
  -1.7100501389339572E-002   4.8760450891323637E-003   6.2308530068229590E-002
  -1.6301946970442467E-002   4.5294222379965304E-003   6.2900149736467681E-002
  -1.5503392551545356E-002   4.1679127833139096E-003   6.3705077642791152E-002
  -3.7461913120269419E-005   3.9015136553466334E-005   6.8621711320887346E-002
  -5.6141538959858517E-005   3.7717537164139170E-005   6.7196493682424641E-002
  -7.4821164799451084E-005   7.6516485024158420E-006   6.6242472622938031E-002
  -9.3500790639029774E-005  -5.1182529432577950E-005   6.5759648142427657E-002
  -1.1218041647863275E-004  -1.3878499663988464E-004   6.5748020240892879E-002
  -3.9282496970291791E-003   1.0712395482435078E-003   6.7535817639502005E-002
  -3.5073261492423822E-003   9.5421538198411926E-004   6.6046224981174267E-002
  -3.0864026014555887E-003   7.6798944356336329E-004   6.4964642091123292E-002
  -2.6654790536687796E-003   5.1256173298108373E-004   6.4291068969348816E-002
  -2.2445555058819913E-003   1.8793225023716609E-004   6.4025505615851630E-002
  -7.8028340647363342E-003   2.1034639599336602E-003   6.6354414132690887E-002
  -7.0054941540224330E-003   1.8707132268040716E-003   6.4760012971609396E-002
  -6.2081542433085396E-003   1.5283272386244218E-003   6.3510434768105417E-002
  -5.4108143325946444E-003   1.0763059953944956E-003   6.2605679522178992E-002
  -4.6134744218807588E-003   5.1464949711421681E-004   6.2045747233829884E-002
  -1.1661215016241733E-002   3.1356883716237016E-003   6.5077500800453922E-002
  -1.0550645553300021E-002   2.7872110716241488E-003   6.3337857653729998E-002
  -9.4400760903583063E-003   2.2886650336854802E-003   6.1879850653884134E-002
  -8.3295066274166000E-003   1.6400502578078104E-003   6.0703479800916491E-002
  -7.2189371644748659E-003   8.4136674399132305E-004   5.9808745094827143E-002
  -1.5503392551545356E-002   4.1679127833139096E-003   6.3705077642791152E-002
  -1.4142780347075133E-002   3.7037089164439485E-003   6.1779759027536074E-002
  -1.2782168142604893E-002   3.0490028287464416E-003   6.0072889748459840E-002
  -1.1421555938134638E-002   2.2037945202213784E-003   5.8584469805562547E-002
  -1.0060943733664438E-002   1.1680839908683183E-003   5.7314499198843682E-002
  -2.6632879793902851E-002   0.0000000000000000        2.9468325618247394E-002
  -2.7233556641598908E-002   5.8513920226806182E-004   3.4942998425301929E-002
  -2.7834233489294966E-002   1.3190705195208347E-003   4.0110251455119719E-002
  -2.8434910336991019E-002   2.2017939517583185E-003   4.4970084707700760E-002
  -2.9035587184687083E-002   3.2333094989805090E-003   4.9522498183045056E-002
  -3.3393409636985977E-002   0.0000000000000000        3.0177993617979841E-002
  -3.4236437967580489E-002   9.6041799328940112E-004   3.5264176860453404E-002
  -3.5079466298175009E-002   2.0244862637792448E-003   4.0173076914366793E-002
  -3.5922494628769522E-002   3.1922048114695302E-003   4.4904693779720006E-002
  -3.6765522959364035E-002   4.4635736363602511E-003   4.9459027456513052E-002
  -4.0733718535080926E-002   0.0000000000000000        3.1285511327625755E-002
  -4.1688961759897322E-002   1.3356967843107422E-003   3.5938063167734083E-002
  -4.2644204984713732E-002   2.7299020080376549E-003   4.0543468407958812E-002
  -4.3599448209530135E-002   4.1826156711807436E-003   4.5101727048299921E-002
  -4.4554691434346545E-002   5.6938377737399976E-003   4.9612839088757452E-002
  -4.8653806488187706E-002   0.0000000000000000        3.2790878747185156E-002
  -4.9591128018549431E-002   1.7109755753320819E-003   3.6964657347143978E-002
  -5.0528449548911156E-002   3.4353177522960681E-003   4.1221425935895763E-002
  -5.1465771079272873E-002   5.1730265308919561E-003   4.5561184513440524E-002
  -5.2403092609634605E-002   6.9241019111197415E-003   4.9983933079778241E-002
  -5.7153673496306304E-002   0.0000000000000000        3.4694095876658018E-002
  -5.7942936743536788E-002   2.0862543663534234E-003   3.8343959398683070E-002
  -5.8732199990767266E-002   4.1407334965544752E-003   4.2206949498177652E-002
  -5.9521463237997729E-002   6.1634373906031704E-003   4.6283066175141774E-002
  -6.0310726485228207E-002   8.1543660484994871E-003   5.0572309429575427E-002
  -2.9035587184687083E-002   3.2333094989805090E-003   4.9522498183045056E-002
  -2.9110038389932737E-002   4.2525246211811410E-003   5.1583586135855633E-002
  -2.9184489595178390E-002   5.0983467783539465E-003   5.3741294001159207E-002
  -2.9258940800424044E-002   5.7707759704989110E-003   5.5995621778955777E-002
  -2.9333392005669694E-002   6.2698121976160273E-003   5.8346569469245359E-002
  -3.6765522959364035E-002   4.4635736363602511E-003   4.9459027456513052E-002
  -3.6781940121847150E-002   5.6979503221539114E-003   5.1246783079076423E-002
  -3.6798357284330258E-002   6.7546924525530476E-003   5.3053986874671888E-002
  -3.6814774446813373E-002   7.6338000275575990E-003   5.4880638843299412E-002
  -3.6831191609296487E-002   8.3352730471675934E-003   5.6726738984959044E-002
  -4.4554691434346545E-002   5.6938377737399976E-003   4.9612839088757452E-002
  -4.4590246293528042E-002   7.1433760231267018E-003   5.1123020790706901E-002
  -4.4625801152709532E-002   8.4110381267521357E-003   5.2575478926227520E-002
  -4.4661356011891029E-002   9.4968240846162871E-003   5.3970213495319282E-002
  -4.4696910871072519E-002   1.0400733896719184E-002   5.5307224497982192E-002
  -5.2403092609634605E-002   6.9241019111197415E-003   4.9983933079778241E-002
  -5.2534956904975387E-002   8.5888017240994957E-003   5.1212299270747046E-002
  -5.2666821200316176E-002   1.0067383800951244E-002   5.2305770155826090E-002
  -5.2798685495656972E-002   1.1359848141675004E-002   5.3264345735015393E-002
  -5.2930549790997747E-002   1.2466194746270741E-002   5.4088026008314929E-002
  -6.0310726485228207E-002   8.1543660484994871E-003   5.0572309429575427E-002
  -6.0616071956189212E-002   1.0034227425072272E-002   5.1514618519196878E-002
  -6.0921417427150217E-002   1.1723729475150334E-002   5.2244860563467631E-002
  -6.1226762898111228E-002   1.3222872198733682E-002   5.2763035562387733E-002
  -6.1532108369072240E-002   1.4531655595822333E-002   5.3069143515957144E-002
  -2.9333392005669694E-002   6.2698121976160273E-003   5.8346569469245359E-002
  -2.8968539557957751E-002   6.6504946507690114E-003   5.9089655529387455E-002
  -2.8603687110245801E-002   6.9678625210213511E-003   5.9871288259533154E-002
  -2.8238834662533862E-002   7.2219158083731885E-003   6.0691467659682509E-002
  -2.7873982214821909E-002   7.4126545128244126E-003   6.1550193729835501E-002
  -3.6831191609296487E-002   8.3352730471675934E-003   5.6726738984959044E-002
  -3.6377719759937421E-002   8.8743348757286261E-003   5.7046726913793380E-002
  -3.5924247910578362E-002   9.2662088775862274E-003   5.7505406975918320E-002
  -3.5470776061219303E-002   9.5108950527404076E-003   5.8102779171333850E-002
  -3.5017304211860258E-002   9.6083934011911287E-003   5.8838843500039956E-002
  -4.4696910871072519E-002   1.0400733896719184E-002   5.5307224497982192E-002
  -4.4054674156779383E-002   1.1098175100688298E-002   5.5120241051705945E-002
  -4.3412437442486233E-002   1.1564555234151088E-002   5.5172095202007256E-002
  -4.2770200728193090E-002   1.1799874297107642E-002   5.5462786948886116E-002
  -4.2127964013899948E-002   1.1804132289557873E-002   5.5992316292342532E-002
  -5.2930549790997747E-002   1.2466194746270741E-002   5.4088026008314929E-002
  -5.1999402748483581E-002   1.3322015325647928E-002   5.3310197943125207E-002
  -5.1068255705969394E-002   1.3862901590715978E-002   5.2871352937799987E-002
  -5.0137108663455221E-002   1.4088853541474841E-002   5.2771490992339305E-002
  -4.9205961620941027E-002   1.3999871177924589E-002   5.3010612106743162E-002
  -6.1532108369072240E-002   1.4531655595822333E-002   5.3069143515957144E-002
  -6.0211905535050042E-002   1.5545855550607598E-002   5.1616597588051073E-002
  -5.8891702701027851E-002   1.6161247947280868E-002   5.0603180183296528E-002
  -5.7571499867005667E-002   1.6377832785842084E-002   5.0028891301693412E-002
  -5.6251297032983462E-002   1.6195610066291333E-002   4.9893730943241899E-002
  -2.7873982214821909E-002   7.4126545128244126E-003   6.1550193729835501E-002
  -2.7173368921236757E-002   7.5342285470017395E-003   6.1338449167036735E-002
  -2.6472755627651608E-002   7.5807878235318801E-003   6.1354047092604114E-002
  -2.5772142334066446E-002   7.5523323424148119E-003   6.1596987506537630E-002
  -2.5071529040481298E-002   7.4488621036504499E-003   6.2067270408837277E-002
  -3.5017304211860258E-002   9.6083934011911287E-003   5.8838843500039956E-002
  -3.4095855781639831E-002   9.6035984818066411E-003   5.8587047047201843E-002
  -3.3174407351419410E-002   9.5414048534549975E-003   5.8549578379268087E-002
  -3.2252958921198983E-002   9.4218125161363141E-003   5.8726437496238723E-002
  -3.1331510490978563E-002   9.2448214698505338E-003   5.9117624398113799E-002
  -4.2127964013899948E-002   1.1804132289557873E-002   5.5992316292342532E-002
  -4.0998695150505991E-002   1.1672968416611494E-002   5.5718083998145131E-002
  -3.9869426287112028E-002   1.1502021883378146E-002   5.5645164785390389E-002
  -3.8740157423718093E-002   1.1291292689857846E-002   5.5773558654078341E-002
  -3.7610888560324136E-002   1.1040780836050604E-002   5.6103265604208884E-002
  -4.9205961620941027E-002   1.3999871177924589E-002   5.3010612106743162E-002
  -4.7881887027835281E-002   1.3742338351416399E-002   5.2731560019866633E-002
  -4.6557812434729534E-002   1.3462638913301279E-002   5.2640806310971025E-002
  -4.5233737841623774E-002   1.3160772863579459E-002   5.2738350980056289E-002
  -4.3909663248518041E-002   1.2836740202250708E-002   5.3024194027122648E-002
  -5.6251297032983462E-002   1.6195610066291333E-002   4.9893730943241899E-002
  -5.4745431413627657E-002   1.5811708286221270E-002   4.9627475112366343E-002
  -5.3239565794271845E-002   1.5423255943224440E-002   4.9536502956010017E-002
  -5.1733700174916013E-002   1.5030253037300899E-002   4.9620814474172853E-002
  -5.0227834555560222E-002   1.4632699568450758E-002   4.9880409666854919E-002
  -2.5071529040481298E-002   7.4488621036504499E-003   6.2067270408837277E-002
  -2.4278982403255260E-002   7.2935234631618662E-003   6.1721508108072975E-002
  -2.3486435766029226E-002   7.1094627768719734E-003   6.1561537285533444E-002
  -2.2693889128803189E-002   6.8966800447808219E-003   6.1587357941218716E-002
  -2.1901342491577158E-002   6.6551752668885245E-003   6.1798970075128801E-002
  -3.1331510490978563E-002   9.2448214698505338E-003   5.9117624398113799E-002
  -3.0347056377003481E-002   9.0271869211816652E-003   5.8732276306225281E-002
  -2.9362602263028361E-002   8.7856640767137936E-003   5.8544951689610172E-002
  -2.8378148149053244E-002   8.5202529364469034E-003   5.8555650548268334E-002
  -2.7393694035078131E-002   8.2309535003811107E-003   5.8764372882199878E-002
  -3.7610888560324136E-002   1.1040780836050604E-002   5.6103265604208884E-002
  -3.6422294972551422E-002   1.0760850379201548E-002   5.5683165471198469E-002
  -3.5233701384778701E-002   1.0461865376555638E-002   5.5473320810509957E-002
  -3.4045107797005994E-002   1.0143825828113011E-002   5.5473731622143349E-002
  -3.2856514209233266E-002   9.8067317338736415E-003   5.5684397906098596E-002
  -4.3909663248518041E-002   1.2836740202250708E-002   5.3024194027122648E-002
  -4.2504698189899145E-002   1.2494513837221319E-002   5.2574175602992559E-002
  -4.1099733131280264E-002   1.2138066676397526E-002   5.2346644648232903E-002
  -3.9694768072661368E-002   1.1767398719779023E-002   5.2341601162843747E-002
  -3.8289803014042507E-002   1.1382509967366228E-002   5.2559045146825009E-002
  -5.0227834555560222E-002   1.4632699568450758E-002   4.9880409666854919E-002
  -4.8594266029046637E-002   1.4228177295241243E-002   4.9405306701607449E-002
  -4.6960697502533032E-002   1.3814267976239261E-002   4.9164923202778960E-002
  -4.5327128976019454E-002   1.3390971611445136E-002   4.9159259170369438E-002
  -4.3693560449505869E-002   1.2958288200858759E-002   4.9388314604378980E-002
  -2.1901342491577158E-002   6.6551752668885245E-003   6.1798970075128801E-002
  -2.1100409425466322E-002   6.3926168984110854E-003   6.1483103249612758E-002
  -2.0299476359355473E-002   6.1166733945643981E-003   6.1372188536254230E-002
  -1.9498543293244630E-002   5.8273447553488650E-003   6.1466225935053048E-002
  -1.8697610227133794E-002   5.5246309807642224E-003   6.1765215446009436E-002
  -2.7393694035078131E-002   8.2309535003811107E-003   5.8764372882199878E-002
  -2.6394064569261848E-002   7.9239770181921548E-003   5.8459356247669778E-002
  -2.5394435103445530E-002   7.6055347395560940E-003   5.8346780300393031E-002
  -2.4394805637629201E-002   7.2756266644728833E-003   5.8426645040369887E-002
  -2.3395176171812922E-002   6.9342527929426856E-003   5.8698950467600208E-002
  -3.2856514209233266E-002   9.8067317338736415E-003   5.5684397906098596E-002
  -3.1670699768615397E-002   9.4553371379733075E-003   5.5392150801476178E-002
  -3.0484885327997566E-002   9.0943960845477900E-003   5.5279832959203398E-002
  -2.9299070887379701E-002   8.7239085735970126E-003   5.5347444379280228E-002
  -2.8113256446761829E-002   8.3438746051211210E-003   5.5594985061706459E-002
  -3.8289803014042507E-002   1.1382509967366228E-002   5.2559045146825009E-002
  -3.6930315023527047E-002   1.0986697257754391E-002   5.2281486911032293E-002
  -3.5570827033011551E-002   1.0583257429539375E-002   5.2171346512685221E-002
  -3.4211339042496069E-002   1.0172190482721197E-002   5.2228623951783834E-002
  -3.2851851051980623E-002   9.7534964172995703E-003   5.2453319228328035E-002
  -4.3693560449505869E-002   1.2958288200858759E-002   4.9388314604378980E-002
  -4.2172910333996713E-002   1.2518057377535557E-002   4.9127364576337790E-002
  -4.0652260218487529E-002   1.2072118774531210E-002   4.9021320960838499E-002
  -3.9131610102978366E-002   1.1620472391845139E-002   4.9070183757880845E-002
  -3.7610959987469203E-002   1.1163118229478075E-002   4.9273952967464951E-002
  -1.8697610227133794E-002   5.5246309807642224E-003   6.1765215446009436E-002
  -1.7899055808236686E-002   5.2077813367215620E-003   6.1930218638076850E-002
  -1.7100501389339572E-002   4.8760450891323637E-003   6.2308530068229590E-002
  -1.6301946970442467E-002   4.5294222379965304E-003   6.2900149736467681E-002
  -1.5503392551545356E-002   4.1679127833139096E-003   6.3705077642791152E-002
  -2.3395176171812922E-002   6.9342527929426856E-003   5.8698950467600208E-002
  -2.2386603773214993E-002   6.5728915678399946E-003   5.8818451313891185E-002
  -2.1378031374617058E-002   6.1830214320396232E-003   5.9144679881498324E-002
  -2.0369458976019113E-002   5.7646423855418592E-003   5.9677636170421669E-002
  -1.9360886577421202E-002   5.3177544283464218E-003   6.0417320180661316E-002
  -2.8113256446761829E-002   8.3438746051211210E-003   5.5594985061706459E-002
  -2.6901246585232189E-002   7.9380017989583440E-003   5.5655361255069993E-002
  -2.5689236723702567E-002   7.4899977749470492E-003   5.5915884652980571E-002
  -2.4477226862172959E-002   6.9998625330872435E-003   5.6376555255438360E-002
  -2.3265217000643303E-002   6.4675960733790172E-003   5.7037373062443289E-002
  -3.2851851051980623E-002   9.7534964172995703E-003   5.2453319228328035E-002
  -3.1442984244288354E-002   9.3031120300767628E-003   5.2440948461613207E-002
  -3.0034117436596092E-002   8.7969741178543920E-003   5.2622144382676352E-002
  -2.8625250628903812E-002   8.2350826806327666E-003   5.2996906991517517E-002
  -2.7216383821211561E-002   7.6174377184115155E-003   5.3565236288136919E-002
  -3.7610959987469203E-002   1.1163118229478075E-002   4.9273952967464951E-002
  -3.6011816750383424E-002   1.0668222261195071E-002   4.9175212933520840E-002
  -3.4412673513297652E-002   1.0103950460761679E-002   4.9263459070585602E-002
  -3.2813530276211852E-002   9.4703028281779983E-003   4.9538691378659433E-002
  -3.1214387039126101E-002   8.7672793634441804E-003   5.0000909857742248E-002
  -1.5503392551545356E-002   4.1679127833139096E-003   6.3705077642791152E-002
  -1.4142780347075133E-002   3.7037089164439485E-003   6.1779759027536074E-002
  -1.2782168142604893E-002   3.0490028287464416E-003   6.0072889748459840E-002
  -1.1421555938134638E-002   2.2037945202213784E-003   5.8584469805562547E-002
  -1.0060943733664438E-002   1.1680839908683183E-003   5.7314499198843682E-002
  -1.9360886577421202E-002   5.3177544283464218E-003   6.0417320180661316E-002
  -1.7745573325054616E-002   4.8511788824990021E-003   5.8380732636060556E-002
  -1.6130260072687960E-002   4.3737370700452777E-003   5.6635097851073540E-002
  -1.4514946820321348E-002   3.8854289909853144E-003   5.5180415825700588E-002
  -1.2899633567954774E-002   3.3862546453190534E-003   5.4016686559941407E-002
  -2.3265217000643303E-002   6.4675960733790172E-003   5.7037373062443289E-002
  -2.1322699276945228E-002   5.9986488485540279E-003   5.5069152542718089E-002
  -1.9380181553247181E-002   5.6984713113441623E-003   5.3464388206041970E-002
  -1.7437663829549119E-002   5.5670634617494153E-003   5.2223080052414717E-002
  -1.5495146105851062E-002   5.6044252997698996E-003   5.1345228081836614E-002
  -2.7216383821211561E-002   7.6174377184115155E-003   5.3565236288136919E-002
  -2.4874158202747090E-002   7.1461188146089011E-003   5.1845018747508853E-002
  -2.2531932584282585E-002   7.0232055526430782E-003   5.0560760813364899E-002
  -2.0189706965818035E-002   7.2486979325136003E-003   4.9712462485704767E-002
  -1.7847481347353603E-002   7.8225959542206902E-003   4.9300123764528775E-002
  -3.1214387039126101E-002   8.7672793634441804E-003   5.0000909857742248E-002
  -2.8399950102460089E-002   8.2935887806639408E-003   4.8708331250432779E-002
  -2.5585513165794119E-002   8.3479397939418415E-003   4.7924215673042420E-002
  -2.2771076229128058E-002   8.9303324032776084E-003   4.7648563125570961E-002
  -1.9956639292462108E-002   1.0040766608671481E-002   4.7881373608018585E-002
  -5.7153673496306304E-002   0.0000000000000000        3.4694095876658018E-002
  -5.7942936743536788E-002   2.0862543663534234E-003   3.8343959398683070E-002
  -5.8732199990767266E-002   4.1407334965544752E-003   4.2206949498177652E-002
  -5.9521463237997729E-002   6.1634373906031704E-003   4.6283066175141774E-002
  -6.0310726485228207E-002   8.1543660484994871E-003   5.0572309429575427E-002
  -6.5821198095873223E-002   0.0000000000000000        3.7217579330441133E-002
  -6.6626476390424141E-002   2.9158474072761981E-003   4.0837899965854796E-002
  -6.7431754684975059E-002   5.7737397828315435E-003   4.4213063929158032E-002
  -6.8237032979525977E-002   8.5736771266660371E-003   4.7343071220350856E-002
  -6.9042311274076895E-002   1.1315659438779683E-002   5.0227921839433240E-002
  -7.4244258823324943E-002   0.0000000000000000        4.0583745722931268E-002
  -7.5523835414776253E-002   3.7454404481989741E-003   4.4148343676165061E-002
  -7.6803412006227575E-002   7.4067460691086126E-003   4.7009501707708470E-002
  -7.8082988597678898E-002   1.0983916862728905E-002   4.9167219817561503E-002
  -7.9362565189130208E-002   1.4476952829059867E-002   5.0621498005724165E-002
  -8.2422855678661464E-002   0.0000000000000000        4.4792595054128422E-002
  -8.4635013816593149E-002   4.5750334891217492E-003   4.8275290529613851E-002
  -8.6847171954524807E-002   9.0397523553856773E-003   5.0596262833828939E-002
  -8.9059330092456479E-002   1.3394156598791774E-002   5.1755511966773700E-002
  -9.1271488230388151E-002   1.7638246219340067E-002   5.1753037928448119E-002
  -9.0356988661882770E-002   0.0000000000000000        4.9844127324032587E-002
  -9.3960011595874762E-002   5.4046265300445248E-003   5.3218740526201173E-002
  -9.7563034529866755E-002   1.0672758641662748E-002   5.4973347307519474E-002
 -0.10116605746385873        1.5804396334854642E-002   5.5107947667987475E-002
 -0.10476908039785074        2.0799539609620249E-002   5.3622541607605191E-002
  -6.0310726485228207E-002   8.1543660484994871E-003   5.0572309429575427E-002
  -6.0616071956189212E-002   1.0034227425072272E-002   5.1514618519196878E-002
  -6.0921417427150217E-002   1.1723729475150334E-002   5.2244860563467631E-002
  -6.1226762898111228E-002   1.3222872198733682E-002   5.2763035562387733E-002
  -6.1532108369072240E-002   1.4531655595822333E-002   5.3069143515957144E-002
  -6.9042311274076895E-002   1.1315659438779683E-002   5.0227921839433240E-002
  -6.9321574290761440E-002   1.3761527661846008E-002   4.9457395066042971E-002
  -6.9600837307445984E-002   1.5673122738538582E-002   4.8951100246556301E-002
  -6.9880100324130515E-002   1.7050444668857360E-002   4.8709037380973243E-002
  -7.0159363340815087E-002   1.7893493452802396E-002   4.8731206469293756E-002
  -7.9362565189130208E-002   1.4476952829059867E-002   5.0621498005724165E-002
  -7.9139446752284001E-002   1.7488827898619753E-002   4.7794221549443093E-002
  -7.8916328315437809E-002   1.9622516001926812E-002   4.5707476046319924E-002
  -7.8693209878591588E-002   2.0878017138981055E-002   4.4361261496354651E-002
  -7.8470091441745424E-002   2.1255331309782462E-002   4.3755577899547246E-002
  -9.1271488230388151E-002   1.7638246219340067E-002   5.1753037928448119E-002
  -9.0069689340756931E-002   2.1216128135393499E-002   4.6525097969397217E-002
  -8.8867890451125683E-002   2.3571909265315043E-002   4.2513987962758508E-002
  -8.7666091561494450E-002   2.4705589609104708E-002   3.9719707908532000E-002
  -8.6464292671863216E-002   2.4617169166762543E-002   3.8142257806717643E-002
 -0.10476908039785074        2.0799539609620249E-002   5.3622541607605191E-002
 -0.10211230205618019        2.4943428372167249E-002   4.5650024325905411E-002
  -9.9455523714509608E-002   2.7521302528703280E-002   3.9370635995872087E-002
  -9.6798745372839043E-002   2.8533162079228420E-002   3.4784376617505226E-002
  -9.4141967031168478E-002   2.7979007023742598E-002   3.1891246190804821E-002
  -6.1532108369072240E-002   1.4531655595822333E-002   5.3069143515957144E-002
  -6.0211905535050042E-002   1.5545855550607598E-002   5.1616597588051073E-002
  -5.8891702701027851E-002   1.6161247947280868E-002   5.0603180183296528E-002
  -5.7571499867005667E-002   1.6377832785842084E-002   5.0028891301693412E-002
  -5.6251297032983462E-002   1.6195610066291333E-002   4.9893730943241899E-002
  -7.0159363340815087E-002   1.7893493452802396E-002   4.8731206469293756E-002
  -6.8443924975679971E-002   1.8357173184840630E-002   4.7239658162385748E-002
  -6.6728486610544868E-002   1.8596387959439027E-002   4.6099452394552036E-002
  -6.5013048245409766E-002   1.8611137776597612E-002   4.5310589165792656E-002
  -6.3297609880274636E-002   1.8401422636316361E-002   4.4873068476107648E-002
  -7.8470091441745424E-002   2.1255331309782462E-002   4.3755577899547246E-002
  -7.6447203529574528E-002   2.1168490819073633E-002   4.2399369814309404E-002
  -7.4424315617403675E-002   2.1031527971597193E-002   4.1306718284068754E-002
  -7.2401427705232807E-002   2.0844442767353026E-002   4.0477623308825261E-002
  -7.0378539793061912E-002   2.0607235206341307E-002   3.9912084888579016E-002
  -8.6464292671863216E-002   2.4617169166762543E-002   3.8142257806717643E-002
  -8.4221741196733743E-002   2.3979808453306651E-002   3.7095732543822167E-002
  -8.1979189721604284E-002   2.3466667983755341E-002   3.6224977851846717E-002
  -7.9736638246474811E-002   2.3077747758108554E-002   3.5529993730791354E-002
  -7.7494086771345311E-002   2.2813047776366266E-002   3.5010780180655982E-002
  -9.4141967031168478E-002   2.7979007023742598E-002   3.1891246190804821E-002
  -9.1767537977157601E-002   2.6791126087539668E-002   3.1328746350923975E-002
  -8.9393108923146655E-002   2.5901807995913538E-002   3.0854231097885963E-002
  -8.7018679869135751E-002   2.5311052748863989E-002   3.0467700431690801E-002
  -8.4644250815124833E-002   2.5018860346391267E-002   3.0169154352338509E-002
  -5.6251297032983462E-002   1.6195610066291333E-002   4.9893730943241899E-002
  -5.4745431413627657E-002   1.5811708286221270E-002   4.9627475112366343E-002
  -5.3239565794271845E-002   1.5423255943224440E-002   4.9536502956010017E-002
  -5.1733700174916013E-002   1.5030253037300899E-002   4.9620814474172853E-002
  -5.0227834555560222E-002   1.4632699568450758E-002   4.9880409666854919E-002
  -6.3297609880274636E-002   1.8401422636316361E-002   4.4873068476107648E-002
  -6.1612928413106630E-002   1.8050980108121895E-002   4.4544957562372423E-002
  -5.9928246945938610E-002   1.7643547761540902E-002   4.4399194669742362E-002
  -5.8243565478770583E-002   1.7179125596573350E-002   4.4435779798217515E-002
  -5.6558884011602577E-002   1.6657713613219299E-002   4.4654712947797978E-002
  -7.0378539793061912E-002   2.0607235206341307E-002   3.9912084888579016E-002
  -6.8507978131495673E-002   2.0290251930022523E-002   3.9469679636524181E-002
  -6.6637416469929447E-002   1.9863839579857365E-002   3.9216686752160661E-002
  -6.4766854808363181E-002   1.9327998155845749E-002   3.9153106235488289E-002
  -6.2896293146796914E-002   1.8682727657987758E-002   3.9278938086507245E-002
  -7.7494086771345311E-002   2.2813047776366266E-002   3.5010780180655982E-002
  -7.5430580568794828E-002   2.2529523751923179E-002   3.4401641334821716E-002
  -7.3367074366244331E-002   2.2084131398173772E-002   3.3988979203264741E-002
  -7.1303568163693834E-002   2.1476870715118092E-002   3.3772793785985002E-002
  -6.9240061961143309E-002   2.0707741702756285E-002   3.3753085082982623E-002
  -8.4644250815124833E-002   2.5018860346391267E-002   3.0169154352338509E-002
  -8.2380735725004053E-002   2.4768795573823776E-002   2.9340842657264971E-002
  -8.0117220634883274E-002   2.4304423216490265E-002   2.8716072023054810E-002
  -7.7853705544762494E-002   2.3625743274390536E-002   2.8294842449707831E-002
  -7.5590190454641715E-002   2.2732755747524730E-002   2.8077153937224153E-002
  -5.0227834555560222E-002   1.4632699568450758E-002   4.9880409666854919E-002
  -4.8594266029046637E-002   1.4228177295241243E-002   4.9405306701607449E-002
  -4.6960697502533032E-002   1.3814267976239261E-002   4.9164923202778960E-002
  -4.5327128976019454E-002   1.3390971611445136E-002   4.9159259170369438E-002
  -4.3693560449505869E-002   1.2958288200858759E-002   4.9388314604378980E-002
  -5.6558884011602577E-002   1.6657713613219299E-002   4.4654712947797978E-002
  -5.4691244696907802E-002   1.6115452690285512E-002   4.4175554071877995E-002
  -5.2823605382213049E-002   1.5588483706578532E-002   4.3929817305901460E-002
  -5.0955966067518267E-002   1.5076806662098700E-002   4.3917502649868281E-002
  -4.9088326752823486E-002   1.4580421556845830E-002   4.4138610103778370E-002
  -6.2896293146796914E-002   1.8682727657987758E-002   3.9278938086507245E-002
  -6.0795880400396622E-002   1.8002728085329718E-002   3.8820402284934122E-002
  -5.8695467653996337E-002   1.7362699436917851E-002   3.8593991236828662E-002
  -5.6595054907596018E-002   1.6762641712752289E-002   3.8599704942190990E-002
  -5.4494642161195712E-002   1.6202554912832901E-002   3.8837543401021080E-002
  -6.9240061961143309E-002   2.0707741702756285E-002   3.3753085082982623E-002
  -6.6908173139513055E-002   1.9890003480373956E-002   3.3339851340775495E-002
  -6.4576284317882843E-002   1.9136915167257160E-002   3.3157444995560448E-002
  -6.2244395496252602E-002   1.8448476763405840E-002   3.3205866047337662E-002
  -5.9912506674622390E-002   1.7824688268820055E-002   3.3485114496106784E-002
  -7.5590190454641715E-002   2.2732755747524730E-002   2.8077153937224153E-002
  -7.3028122914257199E-002   2.1777278875418291E-002   2.7733901239402337E-002
  -7.0466055373872627E-002   2.0911130897596421E-002   2.7620178582096963E-002
  -6.7903987833488125E-002   2.0134311814059412E-002   2.7735985965308164E-002
  -6.5341920293103567E-002   1.9446821624807042E-002   2.8081323389035795E-002
  -4.3693560449505869E-002   1.2958288200858759E-002   4.9388314604378980E-002
  -4.2172910333996713E-002   1.2518057377535557E-002   4.9127364576337790E-002
  -4.0652260218487529E-002   1.2072118774531210E-002   4.9021320960838499E-002
  -3.9131610102978366E-002   1.1620472391845139E-002   4.9070183757880845E-002
  -3.7610959987469203E-002   1.1163118229478075E-002   4.9273952967464951E-002
  -4.9088326752823486E-002   1.4580421556845830E-002   4.4138610103778370E-002
  -4.7409743217303429E-002   1.4097278140691588E-002   4.3871879807796610E-002
  -4.5731159681783345E-002   1.3625326163507805E-002   4.3766109939294792E-002
  -4.4052576146263261E-002   1.3164565625294096E-002   4.3821300498273145E-002
  -4.2373992610743212E-002   1.2714996526050959E-002   4.4037451484731649E-002
  -5.4494642161195712E-002   1.6202554912832901E-002   3.8837543401021080E-002
  -5.2652071190726311E-002   1.5676498903847660E-002   3.8581932055750050E-002
  -5.0809500220256931E-002   1.5178533552484455E-002   3.8493335152897476E-002
  -4.8966929249787530E-002   1.4708658858743163E-002   3.8571752692463449E-002
  -4.7124358279318157E-002   1.4266874822623926E-002   3.8817184674447919E-002
  -5.9912506674622390E-002   1.7824688268820055E-002   3.3485114496106784E-002
  -5.7899894254265290E-002   1.7255719667003740E-002   3.3257521320198380E-002
  -5.5887281833908210E-002   1.6731740941461161E-002   3.3202996601646717E-002
  -5.3874669413551124E-002   1.6252752092192173E-002   3.3321540340451983E-002
  -5.1862056993194086E-002   1.5818753119196879E-002   3.3613152536614052E-002
  -6.5341920293103567E-002   1.9446821624807042E-002   2.8081323389035795E-002
  -6.3153212407920406E-002   1.8834940430159791E-002   2.7898647601141441E-002
  -6.0964504522737259E-002   1.8284948330437742E-002   2.7895094285542377E-002
  -5.8775796637554133E-002   1.7796845325641252E-002   2.8070663442238547E-002
  -5.6587088752370951E-002   1.7370631415769777E-002   2.8425355071230063E-002
  -3.7610959987469203E-002   1.1163118229478075E-002   4.9273952967464951E-002
  -3.6011816750383424E-002   1.0668222261195071E-002   4.9175212933520840E-002
  -3.4412673513297652E-002   1.0103950460761679E-002   4.9263459070585602E-002
  -3.2813530276211852E-002   9.4703028281779983E-003   4.9538691378659433E-002
  -3.1214387039126101E-002   8.7672793634441804E-003   5.0000909857742248E-002
  -4.2373992610743212E-002   1.2714996526050959E-002   4.4037451484731649E-002
  -4.0618418644785791E-002   1.2235347596025625E-002   4.3850459497006611E-002
  -3.8862844678828376E-002   1.1684347565465561E-002   4.3789342796015901E-002
  -3.7107270712870961E-002   1.1061996434370756E-002   4.3854101381759603E-002
  -3.5351696746913533E-002   1.0368294202741546E-002   4.4044735254237466E-002
  -4.7124358279318157E-002   1.4266874822623926E-002   3.8817184674447919E-002
  -4.5273464468763736E-002   1.3802472930856208E-002   3.8539965464557860E-002
  -4.3422570658209383E-002   1.3264744670169387E-002   3.8327510657127320E-002
  -4.1571676847654962E-002   1.2653690040563624E-002   3.8179820252156549E-002
  -3.9720783037100617E-002   1.1969309042038884E-002   3.8096894249645366E-002
  -5.1862056993194086E-002   1.5818753119196879E-002   3.3613152536614052E-002
  -4.9976954222317418E-002   1.5369598265686776E-002   3.3243730836174518E-002
  -4.8091851451440716E-002   1.4845141774873269E-002   3.2877962653919832E-002
  -4.6206748680564055E-002   1.4245383646756381E-002   3.2515847989850175E-002
  -4.4321645909687395E-002   1.3570323881336124E-002   3.2157386843965421E-002
  -5.6587088752370951E-002   1.7370631415769777E-002   2.8425355071230063E-002
  -5.4728887905446638E-002   1.6936723600517345E-002   2.7961755611856598E-002
  -5.2870687058522367E-002   1.6425538879577081E-002   2.7440698786393436E-002
  -5.1012486211598047E-002   1.5837077252949163E-002   2.6862184594840618E-002
  -4.9154285364673783E-002   1.5171338720633643E-002   2.6226213037198132E-002
  -3.1214387039126101E-002   8.7672793634441804E-003   5.0000909857742248E-002
  -2.8399950102460089E-002   8.2935887806639408E-003   4.8708331250432779E-002
  -2.5585513165794119E-002   8.3479397939418415E-003   4.7924215673042420E-002
  -2.2771076229128058E-002   8.9303324032776084E-003   4.7648563125570961E-002
  -1.9956639292462108E-002   1.0040766608671481E-002   4.7881373608018585E-002
  -3.5351696746913533E-002   1.0368294202741546E-002   4.4044735254237466E-002
  -3.2119690166588687E-002   9.7916186956195361E-003   4.2846209751072090E-002
  -2.8887683586263778E-002   9.5203477380470247E-003   4.1974360505305397E-002
  -2.5655677005938887E-002   9.5544813300241019E-003   4.1429187516937582E-002
  -2.2423670425614023E-002   9.8940194715506635E-003   4.1210690785968507E-002
  -3.9720783037100617E-002   1.1969309042038884E-002   3.8096894249645366E-002
  -3.6252993585637092E-002   1.1289648610575048E-002   3.6769784804115413E-002
  -3.2785204134173615E-002   1.0692755682152312E-002   3.5587564843464127E-002
  -2.9317414682710076E-002   1.0178630256770649E-002   3.4550234367691085E-002
  -2.5849625231246551E-002   9.7472723344299572E-003   3.3657793376796641E-002
  -4.4321645909687395E-002   1.3570323881336124E-002   3.2157386843965421E-002
  -4.0799860359605547E-002   1.2787678525530602E-002   3.0479056409562562E-002
  -3.7278074809523623E-002   1.1865163626257547E-002   2.8763828687517930E-002
  -3.3756289259441644E-002   1.0802779183517224E-002   2.7011703677831806E-002
  -3.0234503709359845E-002   9.6005251973091954E-003   2.5222681380503598E-002
  -4.9154285364673783E-002   1.5171338720633643E-002   2.6226213037198132E-002
  -4.5760290488493671E-002   1.4285708440486100E-002   2.3974024567413821E-002
  -4.2366295612313712E-002   1.3037571570362685E-002   2.1503152037467582E-002
  -3.8972300736133635E-002   1.1426928110263610E-002   1.8813595447359263E-002
  -3.5578305859953585E-002   9.4537780601884336E-003   1.5905354797088878E-002
  -9.0356988661882770E-002   0.0000000000000000        4.9844127324032587E-002
  -9.3960011595874762E-002   5.4046265300445248E-003   5.3218740526201173E-002
  -9.7563034529866755E-002   1.0672758641662748E-002   5.4973347307519474E-002
 -0.10116605746385873        1.5804396334854642E-002   5.5107947667987475E-002
 -0.10476908039785074        2.0799539609620249E-002   5.3622541607605191E-002
 -0.10328741638572433        0.0000000000000000        5.8670965346209088E-002
 -0.10682790081679401        1.0883430648837841E-002   5.2125451253323969E-002
 -0.11036838524786369        1.9172117985160730E-002   4.7325020587133802E-002
 -0.11390886967893334        2.4866062008968681E-002   4.4269673347638552E-002
 -0.11744935411000303        2.7965262720261699E-002   4.2959409534838192E-002
 -0.12645489746292154        0.0000000000000000        7.4205731934223210E-002
 -0.12656775354352373        1.6362234767631153E-002   5.5281841652195768E-002
 -0.12668060962412583        2.7671477328658725E-002   4.1468124644408473E-002
 -0.12679346570472799        3.3927727683082720E-002   3.2764580910861318E-002
 -0.12690632178533012        3.5130985830903141E-002   2.9171210451554318E-002
 -0.15985943189347446        0.0000000000000000        9.6448427088074953E-002
 -0.15317956977606384        2.1841038886424455E-002   6.2687911722816556E-002
 -0.14649970765865325        3.6170836672156717E-002   3.7402659479343514E-002
 -0.13981984554124263        4.2989393357196745E-002   2.0592670357655846E-002
 -0.13313998342383204        4.2296708941544581E-002   1.2257944357753507E-002
 -0.20350101967738304        0.0000000000000000       0.12539905080776434     
 -0.18666334951441446        2.7319843005217778E-002   7.4343661465186353E-002
 -0.16982567935144591        4.4670196015654702E-002   3.5128625091938946E-002
 -0.15298800918847735        5.2051059031310791E-002   7.7539416880220841E-003
 -0.13615033902550877        4.9462432052186034E-002  -7.7803887465642194E-003
 -0.10476908039785074        2.0799539609620249E-002   5.3622541607605191E-002
 -0.10211230205618019        2.4943428372167249E-002   4.5650024325905411E-002
  -9.9455523714509608E-002   2.7521302528703280E-002   3.9370635995872087E-002
  -9.6798745372839043E-002   2.8533162079228420E-002   3.4784376617505226E-002
  -9.4141967031168478E-002   2.7979007023742598E-002   3.1891246190804821E-002
 -0.11744935411000303        2.7965262720261699E-002   4.2959409534838192E-002
 -0.11348913717439503        2.9440926645948013E-002   3.6711335499879899E-002
 -0.10952892023878702        3.0264260312935921E-002   3.1377009701130040E-002
 -0.10556870330317901        3.0435263721225351E-002   2.6956432138588570E-002
 -0.10160848636757105        2.9953936870816392E-002   2.3449602812255499E-002
 -0.12690632178533012        3.5130985830903141E-002   2.9171210451554318E-002
 -0.12242204697124275        3.3938424919728774E-002   2.5561264010650005E-002
 -0.11793777215715534        3.3007218097168535E-002   2.2085685090496025E-002
 -0.11345349734306796        3.2337365363222355E-002   1.8744473691092504E-002
 -0.10896922252898057        3.1928866717890220E-002   1.5537629812439250E-002
 -0.13313998342383204        4.2296708941544581E-002   1.2257944357753507E-002
 -0.12891103144672328        3.8435923193509594E-002   1.2199809858215701E-002
 -0.12468207946961457        3.5750175881401149E-002   1.1496662163970153E-002
 -0.12045312749250588        3.4239467005219314E-002   1.0148501275017001E-002
 -0.11622417551539713        3.3903796564964027E-002   8.1553271913560477E-003
 -0.13615033902550877        4.9462432052186034E-002  -7.7803887465642194E-003
 -0.13295609060083674        4.2933421467290331E-002  -3.3730269574229650E-003
 -0.12976184217616471        3.8493133665633811E-002  -3.9005907844761288E-004
 -0.12656759375149274        3.6141568647216307E-002   1.1685148903620908E-003
 -0.12337334532682068        3.5878726412037820E-002   1.3026949490060058E-003
  -9.4141967031168478E-002   2.7979007023742598E-002   3.1891246190804821E-002
  -9.1767537977157601E-002   2.6791126087539668E-002   3.1328746350923975E-002
  -8.9393108923146655E-002   2.5901807995913538E-002   3.0854231097885963E-002
  -8.7018679869135751E-002   2.5311052748863989E-002   3.0467700431690801E-002
  -8.4644250815124833E-002   2.5018860346391267E-002   3.0169154352338509E-002
 -0.10160848636757105        2.9953936870816392E-002   2.3449602812255499E-002
  -9.9129637505699503E-002   2.9183402861254877E-002   2.3195560760870391E-002
  -9.6650788643827978E-002   2.8486784792086800E-002   2.3062373738363617E-002
  -9.4171939781956426E-002   2.7864082663312091E-002   2.3050041744735243E-002
  -9.1693090920084874E-002   2.7315296474930681E-002   2.3158564779985180E-002
 -0.10896922252898057        3.1928866717890220E-002   1.5537629812439250E-002
 -0.10635308341721293        3.1575679634970127E-002   1.5367398645366598E-002
 -0.10373694430544535        3.1071761588260065E-002   1.5350892949207745E-002
 -0.10112080519367772        3.0417112577760096E-002   1.5488112723962793E-002
  -9.8504666081910122E-002   2.9611732603470074E-002   1.5779057969631579E-002
 -0.11622417551539713        3.3903796564964027E-002   8.1553271913560477E-003
 -0.11343787571169794        3.3967956408685343E-002   7.8442600044125368E-003
 -0.11065157590799875        3.3656738384433407E-002   7.7197887304183222E-003
 -0.10786527610429955        3.2970142492208081E-002   7.7819133693732999E-003
 -0.10507897630060034        3.1908168732009565E-002   8.0306339212776745E-003
 -0.12337334532682068        3.5878726412037820E-002   1.3026949490060058E-003
 -0.12038401438915439        3.6360233182400600E-002   6.2614483800814413E-004
 -0.11739468345148817        3.6241715180606635E-002   1.6906108199512410E-004
 -0.11440535251382192        3.5523172406656214E-002  -6.8556319033069926E-005
 -0.11141602157615565        3.4204604860548882E-002  -8.6707365076432730E-005
  -8.4644250815124833E-002   2.5018860346391267E-002   3.0169154352338509E-002
  -8.2380735725004053E-002   2.4768795573823776E-002   2.9340842657264971E-002
  -8.0117220634883274E-002   2.4304423216490265E-002   2.8716072023054810E-002
  -7.7853705544762494E-002   2.3625743274390536E-002   2.8294842449707831E-002
  -7.5590190454641715E-002   2.2732755747524730E-002   2.8077153937224153E-002
  -9.1693090920084874E-002   2.7315296474930681E-002   2.3158564779985180E-002
  -8.9212611445828330E-002   2.6752503837794636E-002   2.2422823139984741E-002
  -8.6732131971571716E-002   2.6087782362756062E-002   2.1917469207392654E-002
  -8.4251652497315088E-002   2.5321132049814617E-002   2.1642502982208961E-002
  -8.1771173023058558E-002   2.4452552898970803E-002   2.1597924464433579E-002
  -9.8504666081910122E-002   2.9611732603470074E-002   1.5779057969631579E-002
  -9.5780375576972637E-002   2.8736212101765551E-002   1.5248265131567750E-002
  -9.3056085072035111E-002   2.7871141509021882E-002   1.4974706647457254E-002
  -9.0331794567097584E-002   2.7016520825238779E-002   1.4958382517300223E-002
  -8.7607504062160169E-002   2.6172350050416779E-002   1.5199292741096555E-002
 -0.10507897630060034        3.1908168732009565E-002   8.0306339212776745E-003
 -0.10208402811843688        3.0719920365736383E-002   7.8171686320137046E-003
  -9.9089079936273416E-002   2.9654500655287776E-002   7.8877843432484315E-003
  -9.6094131754109968E-002   2.8711909600663124E-002   8.2424810549814823E-003
  -9.3099183571946562E-002   2.7892147201862803E-002   8.8812587672131623E-003
 -0.11141602157615565        3.4204604860548882E-002  -8.6707365076432730E-005
 -0.10812356907022119        3.2703628629707326E-002   1.2953364132306522E-004
 -0.10483111656428670        3.1437859801553433E-002   6.5670229476627595E-004
 -0.10153866405835220        3.0407298376087046E-002   1.4947985952530191E-003
  -9.8246211552417750E-002   2.9611944353308883E-002   2.6438225427833362E-003
  -7.5590190454641715E-002   2.2732755747524730E-002   2.8077153937224153E-002
  -7.3028122914257199E-002   2.1777278875418291E-002   2.7733901239402337E-002
  -7.0466055373872627E-002   2.0911130897596421E-002   2.7620178582096963E-002
  -6.7903987833488125E-002   2.0134311814059412E-002   2.7735985965308164E-002
  -6.5341920293103567E-002   1.9446821624807042E-002   2.8081323389035795E-002
  -8.1771173023058558E-002   2.4452552898970803E-002   2.1597924464433579E-002
  -7.9024472602185425E-002   2.3554437139991363E-002   2.1620518393857230E-002
  -7.6277772181312278E-002   2.2699177002643692E-002   2.1782848043741691E-002
  -7.3531071760439132E-002   2.1886772486928056E-002   2.2084913414086835E-002
  -7.0784371339565999E-002   2.1117223592843903E-002   2.2526714504892742E-002
  -8.7607504062160169E-002   2.6172350050416779E-002   1.5199292741096555E-002
  -8.4765965080854155E-002   2.5331595404564498E-002   1.5541260025112864E-002
  -8.1924426099548212E-002   2.4487223107690959E-002   1.5933168709534196E-002
  -7.9082887118242226E-002   2.3639233159796529E-002   1.6375018794360333E-002
  -7.6241348136936310E-002   2.2787625560880820E-002   1.6866810279591360E-002
  -9.3099183571946562E-002   2.7892147201862803E-002   8.8812587672131623E-003
  -9.0252600350263557E-002   2.7108753669137658E-002   9.4961261331691950E-003
  -8.7406017128580565E-002   2.6275269212738477E-002   1.0071140579474318E-002
  -8.4559433906897546E-002   2.5391693832665062E-002   1.0606302106128691E-002
  -8.1712850685214652E-002   2.4458027528917597E-002   1.1101610713132135E-002
  -9.8246211552417750E-002   2.9611944353308883E-002   2.6438225427833362E-003
  -9.5484378410413517E-002   2.8885911933710678E-002   3.4851167180260101E-003
  -9.2722545268409284E-002   2.8063315317785623E-002   4.1967636535623354E-003
  -8.9960712126405051E-002   2.7144154505533816E-002   4.7787633493915002E-003
  -8.7198878984400818E-002   2.6128429496954486E-002   5.2311158055144413E-003
  -6.5341920293103567E-002   1.9446821624807042E-002   2.8081323389035795E-002
  -6.3153212407920406E-002   1.8834940430159791E-002   2.7898647601141441E-002
  -6.0964504522737259E-002   1.8284948330437742E-002   2.7895094285542377E-002
  -5.8775796637554133E-002   1.7796845325641252E-002   2.8070663442238547E-002
  -5.6587088752370951E-002   1.7370631415769777E-002   2.8425355071230063E-002
  -7.0784371339565999E-002   2.1117223592843903E-002   2.2526714504892742E-002
  -6.8401860908695419E-002   2.0399174062744801E-002   2.2405209140114374E-002
  -6.6019350477824756E-002   1.9741267638983845E-002   2.2492186394415623E-002
  -6.3636840046954038E-002   1.9143504321561110E-002   2.2787646267796585E-002
  -6.1254329616083528E-002   1.8605884110476256E-002   2.3291588760257331E-002
  -7.6241348136936310E-002   2.2787625560880820E-002   1.6866810279591360E-002
  -7.3635675013593888E-002   2.1963407695329909E-002   1.6804729349341935E-002
  -7.1030001890251340E-002   2.1197586947529955E-002   1.6980491184956446E-002
  -6.8424328766908918E-002   2.0490163317481026E-002   1.7394095786435023E-002
  -6.5818655643566426E-002   1.9841136805182791E-002   1.8045543153777488E-002
  -8.1712850685214652E-002   2.4458027528917597E-002   1.1101610713132135E-002
  -7.8854654722615880E-002   2.3527641327914996E-002   1.1097208228823936E-002
  -7.5996458760017149E-002   2.2653906256076061E-002   1.1360008657164458E-002
  -7.3138262797418419E-002   2.1836822313401078E-002   1.1890011998153361E-002
  -7.0280066834819660E-002   2.1076389499889325E-002   1.2687218251790710E-002
  -8.7198878984400818E-002   2.6128429496954486E-002   5.2311158055144413E-003
  -8.4058800035761494E-002   2.5091874960500082E-002   5.2826457785608016E-003
  -8.0918721087122059E-002   2.4110225564622084E-002   5.6307388110401618E-003
  -7.7778642138482651E-002   2.3183481309320776E-002   6.2753949029521784E-003
  -7.4638563189843299E-002   2.2311642194595804E-002   7.2166140542970769E-003
  -5.6587088752370951E-002   1.7370631415769777E-002   2.8425355071230063E-002
  -5.4728887905446638E-002   1.6936723600517345E-002   2.7961755611856598E-002
  -5.2870687058522367E-002   1.6425538879577081E-002   2.7440698786393436E-002
  -5.1012486211598047E-002   1.5837077252949163E-002   2.6862184594840618E-002
  -4.9154285364673783E-002   1.5171338720633643E-002   2.6226213037198132E-002
  -6.1254329616083528E-002   1.8605884110476256E-002   2.3291588760257331E-002
  -5.9330523237348679E-002   1.8062854978214554E-002   2.2979848107823858E-002
  -5.7406716858613781E-002   1.7448864897260788E-002   2.2856775885101266E-002
  -5.5482910479878939E-002   1.6763913867614933E-002   2.2922372092089541E-002
  -5.3559104101144048E-002   1.6008001889276868E-002   2.3176636728788502E-002
  -6.5818655643566426E-002   1.9841136805182791E-002   1.8045543153777488E-002
  -6.3583117937220476E-002   1.9188986355911986E-002   1.7891977265279718E-002
  -6.1347580230874568E-002   1.8472190914944446E-002   1.8173205602293276E-002
  -5.9112042524528653E-002   1.7690750482280707E-002   1.8889228164818170E-002
  -5.6876504818182690E-002   1.6844665057920066E-002   2.0040044952854288E-002
  -7.0280066834819660E-002   2.1076389499889325E-002   1.2687218251790710E-002
  -6.7486672005062157E-002   2.0315117733609112E-002   1.2698143084224355E-002
  -6.4693277175304570E-002   1.9495516932627906E-002   1.3389987937969422E-002
  -6.1899882345547046E-002   1.8617587096946088E-002   1.4762752813026678E-002
  -5.9106487515789501E-002   1.7681328226563500E-002   1.6816437709395542E-002
  -7.4638563189843299E-002   2.2311642194595804E-002   7.2166140542970769E-003
  -7.1041185440873678E-002   2.1441249111306460E-002   7.3983455646572382E-003
  -6.7443807691903945E-002   2.0518842950311977E-002   8.5071228921298758E-003
  -6.3846429942934269E-002   1.9544423711612066E-002   1.0542946036714858E-002
  -6.0249052193964592E-002   1.8517991395206601E-002   1.3505814998412302E-002
  -4.9154285364673783E-002   1.5171338720633643E-002   2.6226213037198132E-002
  -4.5760290488493671E-002   1.4285708440486100E-002   2.3974024567413821E-002
  -4.2366295612313712E-002   1.3037571570362685E-002   2.1503152037467582E-002
  -3.8972300736133635E-002   1.1426928110263610E-002   1.8813595447359263E-002
  -3.5578305859953585E-002   9.4537780601884336E-003   1.5905354797088878E-002
  -5.3559104101144048E-002   1.6008001889276868E-002   2.3176636728788502E-002
  -5.0065874460718890E-002   1.4853596136868985E-002   2.1785518508131374E-002
  -4.6572644820293684E-002   1.2973163785013439E-002   2.0811553876126515E-002
  -4.3079415179868505E-002   1.0366704833710241E-002   2.0254742832773995E-002
  -3.9586185539443264E-002   7.0342192829595529E-003   2.0115085378073938E-002
  -5.6876504818182690E-002   1.6844665057920066E-002   2.0040044952854288E-002
  -5.2648202764697949E-002   1.5421483833251676E-002   1.9146476971852608E-002
  -4.8419900711213257E-002   1.2908755999663964E-002   1.9305900228317539E-002
  -4.4191598657728516E-002   9.3064815571569249E-003   2.0518314722249038E-002
  -3.9963296604243692E-002   4.6146605057306722E-003   2.2783720453647460E-002
  -5.9106487515789501E-002   1.7681328226563500E-002   1.6816437709395542E-002
  -5.3507275400430945E-002   1.5989371529634575E-002   1.6056899958577595E-002
  -4.7908063285072446E-002   1.2844348214314769E-002   1.6986191094040412E-002
  -4.2308851169713842E-002   8.2462582806039145E-003   1.9604311115784645E-002
  -3.6709639054355404E-002   2.1951017285017915E-003   2.3911260023809167E-002
  -6.0249052193964592E-002   1.8517991395206601E-002   1.3505814998412302E-002
  -5.2643092367917865E-002   1.6557259226017251E-002   1.2516787468306201E-002
  -4.5037132541871194E-002   1.2779940428965381E-002   1.3852426473295459E-002
  -3.7431172715824551E-002   7.1860350040502188E-003   1.7512732013380029E-002
  -2.9825212889777797E-002  -2.2445704872708916E-004   2.3497704088559779E-002
 </DataArray>
 </PointData>
 </Piece>
 <Piece  NumberOfPoints="          1600 "  NumberOfCells="         1024 ">
 <Points>
 <DataArray  type="Float64" NumberOfComponents="3"  format="ascii" >
  0.50000000000000000        0.0000000000000000        0.0000000000000000     
  0.53125000000000000        0.0000000000000000        0.0000000000000000     
  0.56250000000000000        0.0000000000000000        0.0000000000000000     
  0.59375000000000000        0.0000000000000000        0.0000000000000000     
  0.62500000000000000        0.0000000000000000        0.0000000000000000     
  0.50000000000000000        3.1250000000000000E-002   0.0000000000000000     
  0.53125000000000000        3.1250000000000000E-002   0.0000000000000000     
  0.56250000000000000        3.1250000000000000E-002   0.0000000000000000     
  0.59375000000000000        3.1250000000000000E-002   0.0000000000000000     
  0.62500000000000000        3.1250000000000000E-002   0.0000000000000000     
  0.50000000000000000        6.2500000000000000E-002   0.0000000000000000     
  0.53125000000000000        6.2500000000000000E-002   0.0000000000000000     
  0.56250000000000000        6.2500000000000000E-002   0.0000000000000000     
  0.59375000000000000        6.2500000000000000E-002   0.0000000000000000     
  0.62500000000000000        6.2500000000000000E-002   0.0000000000000000     
  0.50000000000000000        9.3750000000000000E-002   0.0000000000000000     
  0.53125000000000000        9.3750000000000000E-002   0.0000000000000000     
  0.56250000000000000        9.3750000000000000E-002   0.0000000000000000     
  0.59375000000000000        9.3750000000000000E-002   0.0000000000000000     
  0.62500000000000000        9.3750000000000000E-002   0.0000000000000000     
  0.50000000000000000       0.12500000000000000        0.0000000000000000     
  0.53125000000000000       0.12500000000000000        0.0000000000000000     
  0.56250000000000000       0.12500000000000000        0.0000000000000000     
  0.59375000000000000       0.12500000000000000        0.0000000000000000     
  0.62500000000000000       0.12500000000000000        0.0000000000000000     
  0.62500000000000000        0.0000000000000000        0.0000000000000000     
  0.65625000000000000        0.0000000000000000        0.0000000000000000     
  0.68750000000000000        0.0000000000000000        0.0000000000000000     
  0.71875000000000000        0.0000000000000000        0.0000000000000000     
  0.75000000000000000        0.0000000000000000        0.0000000000000000     
  0.62500000000000000        3.1250000000000000E-002   0.0000000000000000     
  0.65625000000000000        3.1250000000000000E-002   0.0000000000000000     
  0.68750000000000000        3.1250000000000000E-002   0.0000000000000000     
  0.71875000000000000        3.1250000000000000E-002   0.0000000000000000     
  0.75000000000000000        3.1250000000000000E-002   0.0000000000000000     
  0.62500000000000000        6.2500000000000000E-002   0.0000000000000000     
  0.65625000000000000        6.2500000000000000E-002   0.0000000000000000     
  0.68750000000000000        6.2500000000000000E-002   0.0000000000000000     
  0.71875000000000000        6.2500000000000000E-002   0.0000000000000000     
  0.75000000000000000        6.2500000000000000E-002   0.0000000000000000     
  0.62500000000000000        9.3750000000000000E-002   0.0000000000000000     
  0.65625000000000000        9.3750000000000000E-002   0.0000000000000000     
  0.68750000000000000        9.3750000000000000E-002   0.0000000000000000     
  0.71875000000000000        9.3750000000000000E-002   0.0000000000000000     
  0.75000000000000000        9.3750000000000000E-002   0.0000000000000000     
  0.62500000000000000       0.12500000000000000        0.0000000000000000     
  0.65625000000000000       0.12500000000000000        0.0000000000000000     
  0.68750000000000000       0.12500000000000000        0.0000000000000000     
  0.71875000000000000       0.12500000000000000        0.0000000000000000     
  0.75000000000000000       0.12500000000000000        0.0000000000000000     
  0.75000000000000000        0.0000000000000000        0.0000000000000000     
  0.78125000000000000        0.0000000000000000        0.0000000000000000     
  0.81250000000000000        0.0000000000000000        0.0000000000000000     
  0.84375000000000000        0.0000000000000000        0.0000000000000000     
  0.87500000000000000        0.0000000000000000        0.0000000000000000     
  0.75000000000000000        3.1250000000000000E-002   0.0000000000000000     
  0.78125000000000000        3.1250000000000000E-002   0.0000000000000000     
  0.81250000000000000        3.1250000000000000E-002   0.0000000000000000     
  0.84375000000000000        3.1250000000000000E-002   0.0000000000000000     
  0.87500000000000000        3.1250000000000000E-002   0.0000000000000000     
  0.75000000000000000        6.2500000000000000E-002   0.0000000000000000     
  0.78125000000000000        6.2500000000000000E-002   0.0000000000000000     
  0.81250000000000000        6.2500000000000000E-002   0.0000000000000000     
  0.84375000000000000        6.2500000000000000E-002   0.0000000000000000     
  0.87500000000000000        6.2500000000000000E-002   0.0000000000000000     
  0.75000000000000000        9.3750000000000000E-002   0.0000000000000000     
  0.78125000000000000        9.3750000000000000E-002   0.0000000000000000     
  0.81250000000000000        9.3750000000000000E-002   0.0000000000000000     
  0.84375000000000000        9.3750000000000000E-002   0.0000000000000000     
  0.87500000000000000        9.3750000000000000E-002   0.0000000000000000     
  0.75000000000000000       0.12500000000000000        0.0000000000000000     
  0.78125000000000000       0.12500000000000000        0.0000000000000000     
  0.81250000000000000       0.12500000000000000        0.0000000000000000     
  0.84375000000000000       0.12500000000000000        0.0000000000000000     
  0.87500000000000000       0.12500000000000000        0.0000000000000000     
  0.87500000000000000        0.0000000000000000        0.0000000000000000     
  0.90625000000000000        0.0000000000000000        0.0000000000000000     
  0.93750000000000000        0.0000000000000000        0.0000000000000000     
  0.96875000000000000        0.0000000000000000        0.0000000000000000     
   1.0000000000000000        0.0000000000000000        0.0000000000000000     
  0.87500000000000000        3.1250000000000000E-002   0.0000000000000000     
  0.90625000000000000        3.1250000000000000E-002   0.0000000000000000     
  0.93750000000000000        3.1250000000000000E-002   0.0000000000000000     
  0.96875000000000000        3.1250000000000000E-002   0.0000000000000000     
   1.0000000000000000        3.1250000000000000E-002   0.0000000000000000     
  0.87500000000000000        6.2500000000000000E-002   0.0000000000000000     
  0.90625000000000000        6.2500000000000000E-002   0.0000000000000000     
  0.93750000000000000        6.2500000000000000E-002   0.0000000000000000     
  0.96875000000000000        6.2500000000000000E-002   0.0000000000000000     
   1.0000000000000000        6.2500000000000000E-002   0.0000000000000000     
  0.87500000000000000        9.3750000000000000E-002   0.0000000000000000     
  0.90625000000000000        9.3750000000000000E-002   0.0000000000000000     
  0.93750000000000000        9.3750000000000000E-002   0.0000000000000000     
  0.96875000000000000        9.3750000000000000E-002   0.0000000000000000     
   1.0000000000000000        9.3750000000000000E-002   0.0000000000000000     
  0.87500000000000000       0.12500000000000000        0.0000000000000000     
  0.90625000000000000       0.12500000000000000        0.0000000000000000     
  0.93750000000000000       0.12500000000000000        0.0000000000000000     
  0.96875000000000000       0.12500000000000000        0.0000000000000000     
   1.0000000000000000       0.12500000000000000        0.0000000000000000     
   1.0000000000000000        0.0000000000000000        0.0000000000000000     
   1.0312500000000000        0.0000000000000000        0.0000000000000000     
   1.0625000000000000        0.0000000000000000        0.0000000000000000     
   1.0937500000000000        0.0000000000000000        0.0000000000000000     
   1.1250000000000000        0.0000000000000000        0.0000000000000000     
   1.0000000000000000        3.1250000000000000E-002   0.0000000000000000     
   1.0312500000000000        3.1250000000000000E-002   0.0000000000000000     
   1.0625000000000000        3.1250000000000000E-002   0.0000000000000000     
   1.0937500000000000        3.1250000000000000E-002   0.0000000000000000     
   1.1250000000000000        3.1250000000000000E-002   0.0000000000000000     
   1.0000000000000000        6.2500000000000000E-002   0.0000000000000000     
   1.0312500000000000        6.2500000000000000E-002   0.0000000000000000     
   1.0625000000000000        6.2500000000000000E-002   0.0000000000000000     
   1.0937500000000000        6.2500000000000000E-002   0.0000000000000000     
   1.1250000000000000        6.2500000000000000E-002   0.0000000000000000     
   1.0000000000000000        9.3750000000000000E-002   0.0000000000000000     
   1.0312500000000000        9.3750000000000000E-002   0.0000000000000000     
   1.0625000000000000        9.3750000000000000E-002   0.0000000000000000     
   1.0937500000000000        9.3750000000000000E-002   0.0000000000000000     
   1.1250000000000000        9.3750000000000000E-002   0.0000000000000000     
   1.0000000000000000       0.12500000000000000        0.0000000000000000     
   1.0312500000000000       0.12500000000000000        0.0000000000000000     
   1.0625000000000000       0.12500000000000000        0.0000000000000000     
   1.0937500000000000       0.12500000000000000        0.0000000000000000     
   1.1250000000000000       0.12500000000000000        0.0000000000000000     
   1.1250000000000000        0.0000000000000000        0.0000000000000000     
   1.1562500000000000        0.0000000000000000        0.0000000000000000     
   1.1875000000000000        0.0000000000000000        0.0000000000000000     
   1.2187500000000000        0.0000000000000000        0.0000000000000000     
   1.2500000000000000        0.0000000000000000        0.0000000000000000     
   1.1250000000000000        3.1250000000000000E-002   0.0000000000000000     
   1.1562500000000000        3.1250000000000000E-002   0.0000000000000000     
   1.1875000000000000        3.1250000000000000E-002   0.0000000000000000     
   1.2187500000000000        3.1250000000000000E-002   0.0000000000000000     
   1.2500000000000000        3.1250000000000000E-002   0.0000000000000000     
   1.1250000000000000        6.2500000000000000E-002   0.0000000000000000     
   1.1562500000000000        6.2500000000000000E-002   0.0000000000000000     
   1.1875000000000000        6.2500000000000000E-002   0.0000000000000000     
   1.2187500000000000        6.2500000000000000E-002   0.0000000000000000     
   1.2500000000000000        6.2500000000000000E-002   0.0000000000000000     
   1.1250000000000000        9.3750000000000000E-002   0.0000000000000000     
   1.1562500000000000        9.3750000000000000E-002   0.0000000000000000     
   1.1875000000000000        9.3750000000000000E-002   0.0000000000000000     
   1.2187500000000000        9.3750000000000000E-002   0.0000000000000000     
   1.2500000000000000        9.3750000000000000E-002   0.0000000000000000     
   1.1250000000000000       0.12500000000000000        0.0000000000000000     
   1.1562500000000000       0.12500000000000000        0.0000000000000000     
   1.1875000000000000       0.12500000000000000        0.0000000000000000     
   1.2187500000000000       0.12500000000000000        0.0000000000000000     
   1.2500000000000000       0.12500000000000000        0.0000000000000000     
   1.2500000000000000        0.0000000000000000        0.0000000000000000     
   1.2812500000000000        0.0000000000000000        0.0000000000000000     
   1.3125000000000000        0.0000000000000000        0.0000000000000000     
   1.3437500000000000        0.0000000000000000        0.0000000000000000     
   1.3750000000000000        0.0000000000000000        0.0000000000000000     
   1.2500000000000000        3.1250000000000000E-002   0.0000000000000000     
   1.2812500000000000        3.1250000000000000E-002   0.0000000000000000     
   1.3125000000000000        3.1250000000000000E-002   0.0000000000000000     
   1.3437500000000000        3.1250000000000000E-002   0.0000000000000000     
   1.3750000000000000        3.1250000000000000E-002   0.0000000000000000     
   1.2500000000000000        6.2500000000000000E-002   0.0000000000000000     
   1.2812500000000000        6.2500000000000000E-002   0.0000000000000000     
   1.3125000000000000        6.2500000000000000E-002   0.0000000000000000     
   1.3437500000000000        6.2500000000000000E-002   0.0000000000000000     
   1.3750000000000000        6.2500000000000000E-002   0.0000000000000000     
   1.2500000000000000        9.3750000000000000E-002   0.0000000000000000     
   1.2812500000000000        9.3750000000000000E-002   0.0000000000000000     
   1.3125000000000000        9.3750000000000000E-002   0.0000000000000000     
   1.3437500000000000        9.3750000000000000E-002   0.0000000000000000     
   1.3750000000000000        9.3750000000000000E-002   0.0000000000000000     
   1.2500000000000000       0.12500000000000000        0.0000000000000000     
   1.2812500000000000       0.12500000000000000        0.0000000000000000     
   1.3125000000000000       0.12500000000000000        0.0000000000000000     
   1.3437500000000000       0.12500000000000000        0.0000000000000000     
   1.3750000000000000       0.12500000000000000        0.0000000000000000     
   1.3750000000000000        0.0000000000000000        0.0000000000000000     
   1.4062500000000000        0.0000000000000000        0.0000000000000000     
   1.4375000000000000        0.0000000000000000        0.0000000000000000     
   1.4687500000000000        0.0000000000000000        0.0000000000000000     
   1.5000000000000000        0.0000000000000000        0.0000000000000000     
   1.3750000000000000        3.1250000000000000E-002   0.0000000000000000     
   1.4062500000000000        3.1250000000000000E-002   0.0000000000000000     
   1.4375000000000000        3.1250000000000000E-002   0.0000000000000000     
   1.4687500000000000        3.1250000000000000E-002   0.0000000000000000     
   1.5000000000000000        3.1250000000000000E-002   0.0000000000000000     
   1.3750000000000000        6.2500000000000000E-002   0.0000000000000000     
   1.4062500000000000        6.2500000000000000E-002   0.0000000000000000     
   1.4375000000000000        6.2500000000000000E-002   0.0000000000000000     
   1.4687500000000000        6.2500000000000000E-002   0.0000000000000000     
   1.5000000000000000        6.2500000000000000E-002   0.0000000000000000     
   1.3750000000000000        9.3750000000000000E-002   0.0000000000000000     
   1.4062500000000000        9.3750000000000000E-002   0.0000000000000000     
   1.4375000000000000        9.3750000000000000E-002   0.0000000000000000     
   1.4687500000000000        9.3750000000000000E-002   0.0000000000000000     
   1.5000000000000000        9.3750000000000000E-002   0.0000000000000000     
   1.3750000000000000       0.12500000000000000        0.0000000000000000     
   1.4062500000000000       0.12500000000000000        0.0000000000000000     
   1.4375000000000000       0.12500000000000000        0.0000000000000000     
   1.4687500000000000       0.12500000000000000        0.0000000000000000     
   1.5000000000000000       0.12500000000000000        0.0000000000000000     
  0.50000000000000000       0.12500000000000000        0.0000000000000000     
  0.53125000000000000       0.12500000000000000        0.0000000000000000     
  0.56250000000000000       0.12500000000000000        0.0000000000000000     
  0.59375000000000000       0.12500000000000000        0.0000000000000000     
  0.62500000000000000       0.12500000000000000        0.0000000000000000     
  0.50000000000000000       0.15625000000000000        0.0000000000000000     
  0.53125000000000000       0.15625000000000000        0.0000000000000000     
  0.56250000000000000       0.15625000000000000        0.0000000000000000     
  0.59375000000000000       0.15625000000000000        0.0000000000000000     
  0.62500000000000000       0.15625000000000000        0.0000000000000000     
  0.50000000000000000       0.18750000000000000        0.0000000000000000     
  0.53125000000000000       0.18750000000000000        0.0000000000000000     
  0.56250000000000000       0.18750000000000000        0.0000000000000000     
  0.59375000000000000       0.18750000000000000        0.0000000000000000     
  0.62500000000000000       0.18750000000000000        0.0000000000000000     
  0.50000000000000000       0.21875000000000000        0.0000000000000000     
  0.53125000000000000       0.21875000000000000        0.0000000000000000     
  0.56250000000000000       0.21875000000000000        0.0000000000000000     
  0.59375000000000000       0.21875000000000000        0.0000000000000000     
  0.62500000000000000       0.21875000000000000        0.0000000000000000     
  0.50000000000000000       0.25000000000000000        0.0000000000000000     
  0.53125000000000000       0.25000000000000000        0.0000000000000000     
  0.56250000000000000       0.25000000000000000        0.0000000000000000     
  0.59375000000000000       0.25000000000000000        0.0000000000000000     
  0.62500000000000000       0.25000000000000000        0.0000000000000000     
  0.62500000000000000       0.12500000000000000        0.0000000000000000     
  0.65625000000000000       0.12500000000000000        0.0000000000000000     
  0.68750000000000000       0.12500000000000000        0.0000000000000000     
  0.71875000000000000       0.12500000000000000        0.0000000000000000     
  0.75000000000000000       0.12500000000000000        0.0000000000000000     
  0.62500000000000000       0.15625000000000000        0.0000000000000000     
  0.65625000000000000       0.15625000000000000        0.0000000000000000     
  0.68750000000000000       0.15625000000000000        0.0000000000000000     
  0.71875000000000000       0.15625000000000000        0.0000000000000000     
  0.75000000000000000       0.15625000000000000        0.0000000000000000     
  0.62500000000000000       0.18750000000000000        0.0000000000000000     
  0.65625000000000000       0.18750000000000000        0.0000000000000000     
  0.68750000000000000       0.18750000000000000        0.0000000000000000     
  0.71875000000000000       0.18750000000000000        0.0000000000000000     
  0.75000000000000000       0.18750000000000000        0.0000000000000000     
  0.62500000000000000       0.21875000000000000        0.0000000000000000     
  0.65625000000000000       0.21875000000000000        0.0000000000000000     
  0.68750000000000000       0.21875000000000000        0.0000000000000000     
  0.71875000000000000       0.21875000000000000        0.0000000000000000     
  0.75000000000000000       0.21875000000000000        0.0000000000000000     
  0.62500000000000000       0.25000000000000000        0.0000000000000000     
  0.65625000000000000       0.25000000000000000        0.0000000000000000     
  0.68750000000000000       0.25000000000000000        0.0000000000000000     
  0.71875000000000000       0.25000000000000000        0.0000000000000000     
  0.75000000000000000       0.25000000000000000        0.0000000000000000     
  0.75000000000000000       0.12500000000000000        0.0000000000000000     
  0.78125000000000000       0.12500000000000000        0.0000000000000000     
  0.81250000000000000       0.12500000000000000        0.0000000000000000     
  0.84375000000000000       0.12500000000000000        0.0000000000000000     
  0.87500000000000000       0.12500000000000000        0.0000000000000000     
  0.75000000000000000       0.15625000000000000        0.0000000000000000     
  0.78125000000000000       0.15625000000000000        0.0000000000000000     
  0.81250000000000000       0.15625000000000000        0.0000000000000000     
  0.84375000000000000       0.15625000000000000        0.0000000000000000     
  0.87500000000000000       0.15625000000000000        0.0000000000000000     
  0.75000000000000000       0.18750000000000000        0.0000000000000000     
  0.78125000000000000       0.18750000000000000        0.0000000000000000     
  0.81250000000000000       0.18750000000000000        0.0000000000000000     
  0.84375000000000000       0.18750000000000000        0.0000000000000000     
  0.87500000000000000       0.18750000000000000        0.0000000000000000     
  0.75000000000000000       0.21875000000000000        0.0000000000000000     
  0.78125000000000000       0.21875000000000000        0.0000000000000000     
  0.81250000000000000       0.21875000000000000        0.0000000000000000     
  0.84375000000000000       0.21875000000000000        0.0000000000000000     
  0.87500000000000000       0.21875000000000000        0.0000000000000000     
  0.75000000000000000       0.25000000000000000        0.0000000000000000     
  0.78125000000000000       0.25000000000000000        0.0000000000000000     
  0.81250000000000000       0.25000000000000000        0.0000000000000000     
  0.84375000000000000       0.25000000000000000        0.0000000000000000     
  0.87500000000000000       0.25000000000000000        0.0000000000000000     
  0.87500000000000000       0.12500000000000000        0.0000000000000000     
  0.90625000000000000       0.12500000000000000        0.0000000000000000     
  0.93750000000000000       0.12500000000000000        0.0000000000000000     
  0.96875000000000000       0.12500000000000000        0.0000000000000000     
   1.0000000000000000       0.12500000000000000        0.0000000000000000     
  0.87500000000000000       0.15625000000000000        0.0000000000000000     
  0.90625000000000000       0.15625000000000000        0.0000000000000000     
  0.93750000000000000       0.15625000000000000        0.0000000000000000     
  0.96875000000000000       0.15625000000000000        0.0000000000000000     
   1.0000000000000000       0.15625000000000000        0.0000000000000000     
  0.87500000000000000       0.18750000000000000        0.0000000000000000     
  0.90625000000000000       0.18750000000000000        0.0000000000000000     
  0.93750000000000000       0.18750000000000000        0.0000000000000000     
  0.96875000000000000       0.18750000000000000        0.0000000000000000     
   1.0000000000000000       0.18750000000000000        0.0000000000000000     
  0.87500000000000000       0.21875000000000000        0.0000000000000000     
  0.90625000000000000       0.21875000000000000        0.0000000000000000     
  0.93750000000000000       0.21875000000000000        0.0000000000000000     
  0.96875000000000000       0.21875000000000000        0.0000000000000000     
   1.0000000000000000       0.21875000000000000        0.0000000000000000     
  0.87500000000000000       0.25000000000000000        0.0000000000000000     
  0.90625000000000000       0.25000000000000000        0.0000000000000000     
  0.93750000000000000       0.25000000000000000        0.0000000000000000     
  0.96875000000000000       0.25000000000000000        0.0000000000000000     
   1.0000000000000000       0.25000000000000000        0.0000000000000000     
   1.0000000000000000       0.12500000000000000        0.0000000000000000     
   1.0312500000000000       0.12500000000000000        0.0000000000000000     
   1.0625000000000000       0.12500000000000000        0.0000000000000000     
   1.0937500000000000       0.12500000000000000        0.0000000000000000     
   1.1250000000000000       0.12500000000000000        0.0000000000000000     
   1.0000000000000000       0.15625000000000000        0.0000000000000000     
   1.0312500000000000       0.15625000000000000        0.0000000000000000     
   1.0625000000000000       0.15625000000000000        0.0000000000000000     
   1.0937500000000000       0.15625000000000000        0.0000000000000000     
   1.1250000000000000       0.15625000000000000        0.0000000000000000     
   1.0000000000000000       0.18750000000000000        0.0000000000000000     
   1.0312500000000000       0.18750000000000000        0.0000000000000000     
   1.0625000000000000       0.18750000000000000        0.0000000000000000     
   1.0937500000000000       0.18750000000000000        0.0000000000000000     
   1.1250000000000000       0.18750000000000000        0.0000000000000000     
   1.0000000000000000       0.21875000000000000        0.0000000000000000     
   1.0312500000000000       0.21875000000000000        0.0000000000000000     
   1.0625000000000000       0.21875000000000000        0.0000000000000000     
   1.0937500000000000       0.21875000000000000        0.0000000000000000     
   1.1250000000000000       0.21875000000000000        0.0000000000000000     
   1.0000000000000000       0.25000000000000000        0.0000000000000000     
   1.0312500000000000       0.25000000000000000        0.0000000000000000     
   1.0625000000000000       0.25000000000000000        0.0000000000000000     
   1.0937500000000000       0.25000000000000000        0.0000000000000000     
   1.1250000000000000       0.25000000000000000        0.0000000000000000     
   1.1250000000000000       0.12500000000000000        0.0000000000000000     
   1.1562500000000000       0.12500000000000000        0.0000000000000000     
   1.1875000000000000       0.12500000000000000        0.0000000000000000     
   1.2187500000000000       0.12500000000000000        0.0000000000000000     
   1.2500000000000000       0.12500000000000000        0.0000000000000000     
   1.1250000000000000       0.15625000000000000        0.0000000000000000     
   1.1562500000000000       0.15625000000000000        0.0000000000000000     
   1.1875000000000000       0.15625000000000000        0.0000000000000000     
   1.2187500000000000       0.15625000000000000        0.0000000000000000     
   1.2500000000000000       0.15625000000000000        0.0000000000000000     
   1.1250000000000000       0.18750000000000000        0.0000000000000000     
   1.1562500000000000       0.18750000000000000        0.0000000000000000     
   1.1875000000000000       0.18750000000000000        0.0000000000000000     
   1.2187500000000000       0.18750000000000000        0.0000000000000000     
   1.2500000000000000       0.18750000000000000        0.0000000000000000     
   1.1250000000000000       0.21875000000000000        0.0000000000000000     
   1.1562500000000000       0.21875000000000000        0.0000000000000000     
   1.1875000000000000       0.21875000000000000        0.0000000000000000     
   1.2187500000000000       0.21875000000000000        0.0000000000000000     
   1.2500000000000000       0.21875000000000000        0.0000000000000000     
   1.1250000000000000       0.25000000000000000        0.0000000000000000     
   1.1562500000000000       0.25000000000000000        0.0000000000000000     
   1.1875000000000000       0.25000000000000000        0.0000000000000000     
   1.2187500000000000       0.25000000000000000        0.0000000000000000     
   1.2500000000000000       0.25000000000000000        0.0000000000000000     
   1.2500000000000000       0.12500000000000000        0.0000000000000000     
   1.2812500000000000       0.12500000000000000        0.0000000000000000     
   1.3125000000000000       0.12500000000000000        0.0000000000000000     
   1.3437500000000000       0.12500000000000000        0.0000000000000000     
   1.3750000000000000       0.12500000000000000        0.0000000000000000     
   1.2500000000000000       0.15625000000000000        0.0000000000000000     
   1.2812500000000000       0.15625000000000000        0.0000000000000000     
   1.3125000000000000       0.15625000000000000        0.0000000000000000     
   1.3437500000000000       0.15625000000000000        0.0000000000000000     
   1.3750000000000000       0.15625000000000000        0.0000000000000000     
   1.2500000000000000       0.18750000000000000        0.0000000000000000     
   1.2812500000000000       0.18750000000000000        0.0000000000000000     
   1.3125000000000000       0.18750000000000000        0.0000000000000000     
   1.3437500000000000       0.18750000000000000        0.0000000000000000     
   1.3750000000000000       0.18750000000000000        0.0000000000000000     
   1.2500000000000000       0.21875000000000000        0.0000000000000000     
   1.2812500000000000       0.21875000000000000        0.0000000000000000     
   1.3125000000000000       0.21875000000000000        0.0000000000000000     
   1.3437500000000000       0.21875000000000000        0.0000000000000000     
   1.3750000000000000       0.21875000000000000        0.0000000000000000     
   1.2500000000000000       0.25000000000000000        0.0000000000000000     
   1.2812500000000000       0.25000000000000000        0.0000000000000000     
   1.3125000000000000       0.25000000000000000        0.0000000000000000     
   1.3437500000000000       0.25000000000000000        0.0000000000000000     
   1.3750000000000000       0.25000000000000000        0.0000000000000000     
   1.3750000000000000       0.12500000000000000        0.0000000000000000     
   1.4062500000000000       0.12500000000000000        0.0000000000000000     
   1.4375000000000000       0.12500000000000000        0.0000000000000000     
   1.4687500000000000       0.12500000000000000        0.0000000000000000     
   1.5000000000000000       0.12500000000000000        0.0000000000000000     
   1.3750000000000000       0.15625000000000000        0.0000000000000000     
   1.4062500000000000       0.15625000000000000        0.0000000000000000     
   1.4375000000000000       0.15625000000000000        0.0000000000000000     
   1.4687500000000000       0.15625000000000000        0.0000000000000000     
   1.5000000000000000       0.15625000000000000        0.0000000000000000     
   1.3750000000000000       0.18750000000000000        0.0000000000000000     
   1.4062500000000000       0.18750000000000000        0.0000000000000000     
   1.4375000000000000       0.18750000000000000        0.0000000000000000     
   1.4687500000000000       0.18750000000000000        0.0000000000000000     
   1.5000000000000000       0.18750000000000000        0.0000000000000000     
   1.3750000000000000       0.21875000000000000        0.0000000000000000     
   1.4062500000000000       0.21875000000000000        0.0000000000000000     
   1.4375000000000000       0.21875000000000000        0.0000000000000000     
   1.4687500000000000       0.21875000000000000        0.0000000000000000     
   1.5000000000000000       0.21875000000000000        0.0000000000000000     
   1.3750000000000000       0.25000000000000000        0.0000000000000000     
   1.4062500000000000       0.25000000000000000        0.0000000000000000     
   1.4375000000000000       0.25000000000000000        0.0000000000000000     
   1.4687500000000000       0.25000000000000000        0.0000000000000000     
   1.5000000000000000       0.25000000000000000        0.0000000000000000     
  0.50000000000000000       0.25000000000000000        0.0000000000000000     
  0.53125000000000000       0.25000000000000000        0.0000000000000000     
  0.56250000000000000       0.25000000000000000        0.0000000000000000     
  0.59375000000000000       0.25000000000000000        0.0000000000000000     
  0.62500000000000000       0.25000000000000000        0.0000000000000000     
  0.50000000000000000       0.28125000000000000        0.0000000000000000     
  0.53125000000000000       0.28125000000000000        0.0000000000000000     
  0.56250000000000000       0.28125000000000000        0.0000000000000000     
  0.59375000000000000       0.28125000000000000        0.0000000000000000     
  0.62500000000000000       0.28125000000000000        0.0000000000000000     
  0.50000000000000000       0.31250000000000000        0.0000000000000000     
  0.53125000000000000       0.31250000000000000        0.0000000000000000     
  0.56250000000000000       0.31250000000000000        0.0000000000000000     
  0.59375000000000000       0.31250000000000000        0.0000000000000000     
  0.62500000000000000       0.31250000000000000        0.0000000000000000     
  0.50000000000000000       0.34375000000000000        0.0000000000000000     
  0.53125000000000000       0.34375000000000000        0.0000000000000000     
  0.56250000000000000       0.34375000000000000        0.0000000000000000     
  0.59375000000000000       0.34375000000000000        0.0000000000000000     
  0.62500000000000000       0.34375000000000000        0.0000000000000000     
  0.50000000000000000       0.37500000000000000        0.0000000000000000     
  0.53125000000000000       0.37500000000000000        0.0000000000000000     
  0.56250000000000000       0.37500000000000000        0.0000000000000000     
  0.59375000000000000       0.37500000000000000        0.0000000000000000     
  0.62500000000000000       0.37500000000000000        0.0000000000000000     
  0.62500000000000000       0.25000000000000000        0.0000000000000000     
  0.65625000000000000       0.25000000000000000        0.0000000000000000     
  0.68750000000000000       0.25000000000000000        0.0000000000000000     
  0.71875000000000000       0.25000000000000000        0.0000000000000000     
  0.75000000000000000       0.25000000000000000        0.0000000000000000     
  0.62500000000000000       0.28125000000000000        0.0000000000000000     
  0.65625000000000000       0.28125000000000000        0.0000000000000000     
  0.68750000000000000       0.28125000000000000        0.0000000000000000     
  0.71875000000000000       0.28125000000000000        0.0000000000000000     
  0.75000000000000000       0.28125000000000000        0.0000000000000000     
  0.62500000000000000       0.31250000000000000        0.0000000000000000     
  0.65625000000000000       0.31250000000000000        0.0000000000000000     
  0.68750000000000000       0.31250000000000000        0.0000000000000000     
  0.71875000000000000       0.31250000000000000        0.0000000000000000     
  0.75000000000000000       0.31250000000000000        0.0000000000000000     
  0.62500000000000000       0.34375000000000000        0.0000000000000000     
  0.65625000000000000       0.34375000000000000        0.0000000000000000     
  0.68750000000000000       0.34375000000000000        0.0000000000000000     
  0.71875000000000000       0.34375000000000000        0.0000000000000000     
  0.75000000000000000       0.34375000000000000        0.0000000000000000     
  0.62500000000000000       0.37500000000000000        0.0000000000000000     
  0.65625000000000000       0.37500000000000000        0.0000000000000000     
  0.68750000000000000       0.37500000000000000        0.0000000000000000     
  0.71875000000000000       0.37500000000000000        0.0000000000000000     
  0.75000000000000000       0.37500000000000000        0.0000000000000000     
  0.75000000000000000       0.25000000000000000        0.0000000000000000     
  0.78125000000000000       0.25000000000000000        0.0000000000000000     
  0.81250000000000000       0.25000000000000000        0.0000000000000000     
  0.84375000000000000       0.25000000000000000        0.0000000000000000     
  0.87500000000000000       0.25000000000000000        0.0000000000000000     
  0.75000000000000000       0.28125000000000000        0.0000000000000000     
  0.78125000000000000       0.28125000000000000        0.0000000000000000     
  0.81250000000000000       0.28125000000000000        0.0000000000000000     
  0.84375000000000000       0.28125000000000000        0.0000000000000000     
  0.87500000000000000       0.28125000000000000        0.0000000000000000     
  0.75000000000000000       0.31250000000000000        0.0000000000000000     
  0.78125000000000000       0.31250000000000000        0.0000000000000000     
  0.81250000000000000       0.31250000000000000        0.0000000000000000     
  0.84375000000000000       0.31250000000000000        0.0000000000000000     
  0.87500000000000000       0.31250000000000000        0.0000000000000000     
  0.75000000000000000       0.34375000000000000        0.0000000000000000     
  0.78125000000000000       0.34375000000000000        0.0000000000000000     
  0.81250000000000000       0.34375000000000000        0.0000000000000000     
  0.84375000000000000       0.34375000000000000        0.0000000000000000     
  0.87500000000000000       0.34375000000000000        0.0000000000000000     
  0.75000000000000000       0.37500000000000000        0.0000000000000000     
  0.78125000000000000       0.37500000000000000        0.0000000000000000     
  0.81250000000000000       0.37500000000000000        0.0000000000000000     
  0.84375000000000000       0.37500000000000000        0.0000000000000000     
  0.87500000000000000       0.37500000000000000        0.0000000000000000     
  0.87500000000000000       0.25000000000000000        0.0000000000000000     
  0.90625000000000000       0.25000000000000000        0.0000000000000000     
  0.93750000000000000       0.25000000000000000        0.0000000000000000     
  0.96875000000000000       0.25000000000000000        0.0000000000000000     
   1.0000000000000000       0.25000000000000000        0.0000000000000000     
  0.87500000000000000       0.28125000000000000        0.0000000000000000     
  0.90625000000000000       0.28125000000000000        0.0000000000000000     
  0.93750000000000000       0.28125000000000000        0.0000000000000000     
  0.96875000000000000       0.28125000000000000        0.0000000000000000     
   1.0000000000000000       0.28125000000000000        0.0000000000000000     
  0.87500000000000000       0.31250000000000000        0.0000000000000000     
  0.90625000000000000       0.31250000000000000        0.0000000000000000     
  0.93750000000000000       0.31250000000000000        0.0000000000000000     
  0.96875000000000000       0.31250000000000000        0.0000000000000000     
   1.0000000000000000       0.31250000000000000        0.0000000000000000     
  0.87500000000000000       0.34375000000000000        0.0000000000000000     
  0.90625000000000000       0.34375000000000000        0.0000000000000000     
  0.93750000000000000       0.34375000000000000        0.0000000000000000     
  0.96875000000000000       0.34375000000000000        0.0000000000000000     
   1.0000000000000000       0.34375000000000000        0.0000000000000000     
  0.87500000000000000       0.37500000000000000        0.0000000000000000     
  0.90625000000000000       0.37500000000000000        0.0000000000000000     
  0.93750000000000000       0.37500000000000000        0.0000000000000000     
  0.96875000000000000       0.37500000000000000        0.0000000000000000     
   1.0000000000000000       0.37500000000000000        0.0000000000000000     
   1.0000000000000000       0.25000000000000000        0.0000000000000000     
   1.0312500000000000       0.25000000000000000        0.0000000000000000     
   1.0625000000000000       0.25000000000000000        0.0000000000000000     
   1.0937500000000000       0.25000000000000000        0.0000000000000000     
   1.1250000000000000       0.25000000000000000        0.0000000000000000     
   1.0000000000000000       0.28125000000000000        0.0000000000000000     
   1.0312500000000000       0.28125000000000000        0.0000000000000000     
   1.0625000000000000       0.28125000000000000        0.0000000000000000     
   1.0937500000000000       0.28125000000000000        0.0000000000000000     
   1.1250000000000000       0.28125000000000000        0.0000000000000000     
   1.0000000000000000       0.31250000000000000        0.0000000000000000     
   1.0312500000000000       0.31250000000000000        0.0000000000000000     
   1.0625000000000000       0.31250000000000000        0.0000000000000000     
   1.0937500000000000       0.31250000000000000        0.0000000000000000     
   1.1250000000000000       0.31250000000000000        0.0000000000000000     
   1.0000000000000000       0.34375000000000000        0.0000000000000000     
   1.0312500000000000       0.34375000000000000        0.0000000000000000     
   1.0625000000000000       0.34375000000000000        0.0000000000000000     
   1.0937500000000000       0.34375000000000000        0.0000000000000000     
   1.1250000000000000       0.34375000000000000        0.0000000000000000     
   1.0000000000000000       0.37500000000000000        0.0000000000000000     
   1.0312500000000000       0.37500000000000000        0.0000000000000000     
   1.0625000000000000       0.37500000000000000        0.0000000000000000     
   1.0937500000000000       0.37500000000000000        0.0000000000000000     
   1.1250000000000000       0.37500000000000000        0.0000000000000000     
   1.1250000000000000       0.25000000000000000        0.0000000000000000     
   1.1562500000000000       0.25000000000000000        0.0000000000000000     
   1.1875000000000000       0.25000000000000000        0.0000000000000000     
   1.2187500000000000       0.25000000000000000        0.0000000000000000     
   1.2500000000000000       0.25000000000000000        0.0000000000000000     
   1.1250000000000000       0.28125000000000000        0.0000000000000000     
   1.1562500000000000       0.28125000000000000        0.0000000000000000     
   1.1875000000000000       0.28125000000000000        0.0000000000000000     
   1.2187500000000000       0.28125000000000000        0.0000000000000000     
   1.2500000000000000       0.28125000000000000        0.0000000000000000     
   1.1250000000000000       0.31250000000000000        0.0000000000000000     
   1.1562500000000000       0.31250000000000000        0.0000000000000000     
   1.1875000000000000       0.31250000000000000        0.0000000000000000     
   1.2187500000000000       0.31250000000000000        0.0000000000000000     
   1.2500000000000000       0.31250000000000000        0.0000000000000000     
   1.1250000000000000       0.34375000000000000        0.0000000000000000     
   1.1562500000000000       0.34375000000000000        0.0000000000000000     
   1.1875000000000000       0.34375000000000000        0.0000000000000000     
   1.2187500000000000       0.34375000000000000        0.0000000000000000     
   1.2500000000000000       0.34375000000000000        0.0000000000000000     
   1.1250000000000000       0.37500000000000000        0.0000000000000000     
   1.1562500000000000       0.37500000000000000        0.0000000000000000     
   1.1875000000000000       0.37500000000000000        0.0000000000000000     
   1.2187500000000000       0.37500000000000000        0.0000000000000000     
   1.2500000000000000       0.37500000000000000        0.0000000000000000     
   1.2500000000000000       0.25000000000000000        0.0000000000000000     
   1.2812500000000000       0.25000000000000000        0.0000000000000000     
   1.3125000000000000       0.25000000000000000        0.0000000000000000     
   1.3437500000000000       0.25000000000000000        0.0000000000000000     
   1.3750000000000000       0.25000000000000000        0.0000000000000000     
   1.2500000000000000       0.28125000000000000        0.0000000000000000     
   1.2812500000000000       0.28125000000000000        0.0000000000000000     
   1.3125000000000000       0.28125000000000000        0.0000000000000000     
   1.3437500000000000       0.28125000000000000        0.0000000000000000     
   1.3750000000000000       0.28125000000000000        0.0000000000000000     
   1.2500000000000000       0.31250000000000000        0.0000000000000000     
   1.2812500000000000       0.31250000000000000        0.0000000000000000     
   1.3125000000000000       0.31250000000000000        0.0000000000000000     
   1.3437500000000000       0.31250000000000000        0.0000000000000000     
   1.3750000000000000       0.31250000000000000        0.0000000000000000     
   1.2500000000000000       0.34375000000000000        0.0000000000000000     
   1.2812500000000000       0.34375000000000000        0.0000000000000000     
   1.3125000000000000       0.34375000000000000        0.0000000000000000     
   1.3437500000000000       0.34375000000000000        0.0000000000000000     
   1.3750000000000000       0.34375000000000000        0.0000000000000000     
   1.2500000000000000       0.37500000000000000        0.0000000000000000     
   1.2812500000000000       0.37500000000000000        0.0000000000000000     
   1.3125000000000000       0.37500000000000000        0.0000000000000000     
   1.3437500000000000       0.37500000000000000        0.0000000000000000     
   1.3750000000000000       0.37500000000000000        0.0000000000000000     
   1.3750000000000000       0.25000000000000000        0.0000000000000000     
   1.4062500000000000       0.25000000000000000        0.0000000000000000     
   1.4375000000000000       0.25000000000000000        0.0000000000000000     
   1.4687500000000000       0.25000000000000000        0.0000000000000000     
   1.5000000000000000       0.25000000000000000        0.0000000000000000     
   1.3750000000000000       0.28125000000000000        0.0000000000000000     
   1.4062500000000000       0.28125000000000000        0.0000000000000000     
   1.4375000000000000       0.28125000000000000        0.0000000000000000     
   1.4687500000000000       0.28125000000000000        0.0000000000000000     
   1.5000000000000000       0.28125000000000000        0.0000000000000000     
   1.3750000000000000       0.31250000000000000        0.0000000000000000     
   1.4062500000000000       0.31250000000000000        0.0000000000000000     
   1.4375000000000000       0.31250000000000000        0.0000000000000000     
   1.4687500000000000       0.31250000000000000        0.0000000000000000     
   1.5000000000000000       0.31250000000000000        0.0000000000000000     
   1.3750000000000000       0.34375000000000000        0.0000000000000000     
   1.4062500000000000       0.34375000000000000        0.0000000000000000     
   1.4375000000000000       0.34375000000000000        0.0000000000000000     
   1.4687500000000000       0.34375000000000000        0.0000000000000000     
   1.5000000000000000       0.34375000000000000        0.0000000000000000     
   1.3750000000000000       0.37500000000000000        0.0000000000000000     
   1.4062500000000000       0.37500000000000000        0.0000000000000000     
   1.4375000000000000       0.37500000000000000        0.0000000000000000     
   1.4687500000000000       0.37500000000000000        0.0000000000000000     
   1.5000000000000000       0.37500000000000000        0.0000000000000000     
  0.50000000000000000       0.37500000000000000        0.0000000000000000     
  0.53125000000000000       0.37500000000000000        0.0000000000000000     
  0.56250000000000000       0.37500000000000000        0.0000000000000000     
  0.59375000000000000       0.37500000000000000        0.0000000000000000     
  0.62500000000000000       0.37500000000000000        0.0000000000000000     
  0.50000000000000000       0.40625000000000000        0.0000000000000000     
  0.53125000000000000       0.40625000000000000        0.0000000000000000     
  0.56250000000000000       0.40625000000000000        0.0000000000000000     
  0.59375000000000000       0.40625000000000000        0.0000000000000000     
  0.62500000000000000       0.40625000000000000        0.0000000000000000     
  0.50000000000000000       0.43750000000000000        0.0000000000000000     
  0.53125000000000000       0.43750000000000000        0.0000000000000000     
  0.56250000000000000       0.43750000000000000        0.0000000000000000     
  0.59375000000000000       0.43750000000000000        0.0000000000000000     
  0.62500000000000000       0.43750000000000000        0.0000000000000000     
  0.50000000000000000       0.46875000000000000        0.0000000000000000     
  0.53125000000000000       0.46875000000000000        0.0000000000000000     
  0.56250000000000000       0.46875000000000000        0.0000000000000000     
  0.59375000000000000       0.46875000000000000        0.0000000000000000     
  0.62500000000000000       0.46875000000000000        0.0000000000000000     
  0.50000000000000000       0.50000000000000000        0.0000000000000000     
  0.53125000000000000       0.50000000000000000        0.0000000000000000     
  0.56250000000000000       0.50000000000000000        0.0000000000000000     
  0.59375000000000000       0.50000000000000000        0.0000000000000000     
  0.62500000000000000       0.50000000000000000        0.0000000000000000     
  0.62500000000000000       0.37500000000000000        0.0000000000000000     
  0.65625000000000000       0.37500000000000000        0.0000000000000000     
  0.68750000000000000       0.37500000000000000        0.0000000000000000     
  0.71875000000000000       0.37500000000000000        0.0000000000000000     
  0.75000000000000000       0.37500000000000000        0.0000000000000000     
  0.62500000000000000       0.40625000000000000        0.0000000000000000     
  0.65625000000000000       0.40625000000000000        0.0000000000000000     
  0.68750000000000000       0.40625000000000000        0.0000000000000000     
  0.71875000000000000       0.40625000000000000        0.0000000000000000     
  0.75000000000000000       0.40625000000000000        0.0000000000000000     
  0.62500000000000000       0.43750000000000000        0.0000000000000000     
  0.65625000000000000       0.43750000000000000        0.0000000000000000     
  0.68750000000000000       0.43750000000000000        0.0000000000000000     
  0.71875000000000000       0.43750000000000000        0.0000000000000000     
  0.75000000000000000       0.43750000000000000        0.0000000000000000     
  0.62500000000000000       0.46875000000000000        0.0000000000000000     
  0.65625000000000000       0.46875000000000000        0.0000000000000000     
  0.68750000000000000       0.46875000000000000        0.0000000000000000     
  0.71875000000000000       0.46875000000000000        0.0000000000000000     
  0.75000000000000000       0.46875000000000000        0.0000000000000000     
  0.62500000000000000       0.50000000000000000        0.0000000000000000     
  0.65625000000000000       0.50000000000000000        0.0000000000000000     
  0.68750000000000000       0.50000000000000000        0.0000000000000000     
  0.71875000000000000       0.50000000000000000        0.0000000000000000     
  0.75000000000000000       0.50000000000000000        0.0000000000000000     
  0.75000000000000000       0.37500000000000000        0.0000000000000000     
  0.78125000000000000       0.37500000000000000        0.0000000000000000     
  0.81250000000000000       0.37500000000000000        0.0000000000000000     
  0.84375000000000000       0.37500000000000000        0.0000000000000000     
  0.87500000000000000       0.37500000000000000        0.0000000000000000     
  0.75000000000000000       0.40625000000000000        0.0000000000000000     
  0.78125000000000000       0.40625000000000000        0.0000000000000000     
  0.81250000000000000       0.40625000000000000        0.0000000000000000     
  0.84375000000000000       0.40625000000000000        0.0000000000000000     
  0.87500000000000000       0.40625000000000000        0.0000000000000000     
  0.75000000000000000       0.43750000000000000        0.0000000000000000     
  0.78125000000000000       0.43750000000000000        0.0000000000000000     
  0.81250000000000000       0.43750000000000000        0.0000000000000000     
  0.84375000000000000       0.43750000000000000        0.0000000000000000     
  0.87500000000000000       0.43750000000000000        0.0000000000000000     
  0.75000000000000000       0.46875000000000000        0.0000000000000000     
  0.78125000000000000       0.46875000000000000        0.0000000000000000     
  0.81250000000000000       0.46875000000000000        0.0000000000000000     
  0.84375000000000000       0.46875000000000000        0.0000000000000000     
  0.87500000000000000       0.46875000000000000        0.0000000000000000     
  0.75000000000000000       0.50000000000000000        0.0000000000000000     
  0.78125000000000000       0.50000000000000000        0.0000000000000000     
  0.81250000000000000       0.50000000000000000        0.0000000000000000     
  0.84375000000000000       0.50000000000000000        0.0000000000000000     
  0.87500000000000000       0.50000000000000000        0.0000000000000000     
  0.87500000000000000       0.37500000000000000        0.0000000000000000     
  0.90625000000000000       0.37500000000000000        0.0000000000000000     
  0.93750000000000000       0.37500000000000000        0.0000000000000000     
  0.96875000000000000       0.37500000000000000        0.0000000000000000     
   1.0000000000000000       0.37500000000000000        0.0000000000000000     
  0.87500000000000000       0.40625000000000000        0.0000000000000000     
  0.90625000000000000       0.40625000000000000        0.0000000000000000     
  0.93750000000000000       0.40625000000000000        0.0000000000000000     
  0.96875000000000000       0.40625000000000000        0.0000000000000000     
   1.0000000000000000       0.40625000000000000        0.0000000000000000     
  0.87500000000000000       0.43750000000000000        0.0000000000000000     
  0.90625000000000000       0.43750000000000000        0.0000000000000000     
  0.93750000000000000       0.43750000000000000        0.0000000000000000     
  0.96875000000000000       0.43750000000000000        0.0000000000000000     
   1.0000000000000000       0.43750000000000000        0.0000000000000000     
  0.87500000000000000       0.46875000000000000        0.0000000000000000     
  0.90625000000000000       0.46875000000000000        0.0000000000000000     
  0.93750000000000000       0.46875000000000000        0.0000000000000000     
  0.96875000000000000       0.46875000000000000        0.0000000000000000     
   1.0000000000000000       0.46875000000000000        0.0000000000000000     
  0.87500000000000000       0.50000000000000000        0.0000000000000000     
  0.90625000000000000       0.50000000000000000        0.0000000000000000     
  0.93750000000000000       0.50000000000000000        0.0000000000000000     
  0.96875000000000000       0.50000000000000000        0.0000000000000000     
   1.0000000000000000       0.50000000000000000        0.0000000000000000     
   1.0000000000000000       0.37500000000000000        0.0000000000000000     
   1.0312500000000000       0.37500000000000000        0.0000000000000000     
   1.0625000000000000       0.37500000000000000        0.0000000000000000     
   1.0937500000000000       0.37500000000000000        0.0000000000000000     
   1.1250000000000000       0.37500000000000000        0.0000000000000000     
   1.0000000000000000       0.40625000000000000        0.0000000000000000     
   1.0312500000000000       0.40625000000000000        0.0000000000000000     
   1.0625000000000000       0.40625000000000000        0.0000000000000000     
   1.0937500000000000       0.40625000000000000        0.0000000000000000     
   1.1250000000000000       0.40625000000000000        0.0000000000000000     
   1.0000000000000000       0.43750000000000000        0.0000000000000000     
   1.0312500000000000       0.43750000000000000        0.0000000000000000     
   1.0625000000000000       0.43750000000000000        0.0000000000000000     
   1.0937500000000000       0.43750000000000000        0.0000000000000000     
   1.1250000000000000       0.43750000000000000        0.0000000000000000     
   1.0000000000000000       0.46875000000000000        0.0000000000000000     
   1.0312500000000000       0.46875000000000000        0.0000000000000000     
   1.0625000000000000       0.46875000000000000        0.0000000000000000     
   1.0937500000000000       0.46875000000000000        0.0000000000000000     
   1.1250000000000000       0.46875000000000000        0.0000000000000000     
   1.0000000000000000       0.50000000000000000        0.0000000000000000     
   1.0312500000000000       0.50000000000000000        0.0000000000000000     
   1.0625000000000000       0.50000000000000000        0.0000000000000000     
   1.0937500000000000       0.50000000000000000        0.0000000000000000     
   1.1250000000000000       0.50000000000000000        0.0000000000000000     
   1.1250000000000000       0.37500000000000000        0.0000000000000000     
   1.1562500000000000       0.37500000000000000        0.0000000000000000     
   1.1875000000000000       0.37500000000000000        0.0000000000000000     
   1.2187500000000000       0.37500000000000000        0.0000000000000000     
   1.2500000000000000       0.37500000000000000        0.0000000000000000     
   1.1250000000000000       0.40625000000000000        0.0000000000000000     
   1.1562500000000000       0.40625000000000000        0.0000000000000000     
   1.1875000000000000       0.40625000000000000        0.0000000000000000     
   1.2187500000000000       0.40625000000000000        0.0000000000000000     
   1.2500000000000000       0.40625000000000000        0.0000000000000000     
   1.1250000000000000       0.43750000000000000        0.0000000000000000     
   1.1562500000000000       0.43750000000000000        0.0000000000000000     
   1.1875000000000000       0.43750000000000000        0.0000000000000000     
   1.2187500000000000       0.43750000000000000        0.0000000000000000     
   1.2500000000000000       0.43750000000000000        0.0000000000000000     
   1.1250000000000000       0.46875000000000000        0.0000000000000000     
   1.1562500000000000       0.46875000000000000        0.0000000000000000     
   1.1875000000000000       0.46875000000000000        0.0000000000000000     
   1.2187500000000000       0.46875000000000000        0.0000000000000000     
   1.2500000000000000       0.46875000000000000        0.0000000000000000     
   1.1250000000000000       0.50000000000000000        0.0000000000000000     
   1.1562500000000000       0.50000000000000000        0.0000000000000000     
   1.1875000000000000       0.50000000000000000        0.0000000000000000     
   1.2187500000000000       0.50000000000000000        0.0000000000000000     
   1.2500000000000000       0.50000000000000000        0.0000000000000000     
   1.2500000000000000       0.37500000000000000        0.0000000000000000     
   1.2812500000000000       0.37500000000000000        0.0000000000000000     
   1.3125000000000000       0.37500000000000000        0.0000000000000000     
   1.3437500000000000       0.37500000000000000        0.0000000000000000     
   1.3750000000000000       0.37500000000000000        0.0000000000000000     
   1.2500000000000000       0.40625000000000000        0.0000000000000000     
   1.2812500000000000       0.40625000000000000        0.0000000000000000     
   1.3125000000000000       0.40625000000000000        0.0000000000000000     
   1.3437500000000000       0.40625000000000000        0.0000000000000000     
   1.3750000000000000       0.40625000000000000        0.0000000000000000     
   1.2500000000000000       0.43750000000000000        0.0000000000000000     
   1.2812500000000000       0.43750000000000000        0.0000000000000000     
   1.3125000000000000       0.43750000000000000        0.0000000000000000     
   1.3437500000000000       0.43750000000000000        0.0000000000000000     
   1.3750000000000000       0.43750000000000000        0.0000000000000000     
   1.2500000000000000       0.46875000000000000        0.0000000000000000     
   1.2812500000000000       0.46875000000000000        0.0000000000000000     
   1.3125000000000000       0.46875000000000000        0.0000000000000000     
   1.3437500000000000       0.46875000000000000        0.0000000000000000     
   1.3750000000000000       0.46875000000000000        0.0000000000000000     
   1.2500000000000000       0.50000000000000000        0.0000000000000000     
   1.2812500000000000       0.50000000000000000        0.0000000000000000     
   1.3125000000000000       0.50000000000000000        0.0000000000000000     
   1.3437500000000000       0.50000000000000000        0.0000000000000000     
   1.3750000000000000       0.50000000000000000        0.0000000000000000     
   1.3750000000000000       0.37500000000000000        0.0000000000000000     
   1.4062500000000000       0.37500000000000000        0.0000000000000000     
   1.4375000000000000       0.37500000000000000        0.0000000000000000     
   1.4687500000000000       0.37500000000000000        0.0000000000000000     
   1.5000000000000000       0.37500000000000000        0.0000000000000000     
   1.3750000000000000       0.40625000000000000        0.0000000000000000     
   1.4062500000000000       0.40625000000000000        0.0000000000000000     
   1.4375000000000000       0.40625000000000000        0.0000000000000000     
   1.4687500000000000       0.40625000000000000        0.0000000000000000     
   1.5000000000000000       0.40625000000000000        0.0000000000000000     
   1.3750000000000000       0.43750000000000000        0.0000000000000000     
   1.4062500000000000       0.43750000000000000        0.0000000000000000     
   1.4375000000000000       0.43750000000000000        0.0000000000000000     
   1.4687500000000000       0.43750000000000000        0.0000000000000000     
   1.5000000000000000       0.43750000000000000        0.0000000000000000     
   1.3750000000000000       0.46875000000000000        0.0000000000000000     
   1.4062500000000000       0.46875000000000000        0.0000000000000000     
   1.4375000000000000       0.46875000000000000        0.0000000000000000     
   1.4687500000000000       0.46875000000000000        0.0000000000000000     
   1.5000000000000000       0.46875000000000000        0.0000000000000000     
   1.3750000000000000       0.50000000000000000        0.0000000000000000     
   1.4062500000000000       0.50000000000000000        0.0000000000000000     
   1.4375000000000000       0.50000000000000000        0.0000000000000000     
   1.4687500000000000       0.50000000000000000        0.0000000000000000     
   1.5000000000000000       0.50000000000000000        0.0000000000000000     
  0.50000000000000000       0.50000000000000000        0.0000000000000000     
  0.53125000000000000       0.50000000000000000        0.0000000000000000     
  0.56250000000000000       0.50000000000000000        0.0000000000000000     
  0.59375000000000000       0.50000000000000000        0.0000000000000000     
  0.62500000000000000       0.50000000000000000        0.0000000000000000     
  0.50000000000000000       0.53125000000000000        0.0000000000000000     
  0.53125000000000000       0.53125000000000000        0.0000000000000000     
  0.56250000000000000       0.53125000000000000        0.0000000000000000     
  0.59375000000000000       0.53125000000000000        0.0000000000000000     
  0.62500000000000000       0.53125000000000000        0.0000000000000000     
  0.50000000000000000       0.56250000000000000        0.0000000000000000     
  0.53125000000000000       0.56250000000000000        0.0000000000000000     
  0.56250000000000000       0.56250000000000000        0.0000000000000000     
  0.59375000000000000       0.56250000000000000        0.0000000000000000     
  0.62500000000000000       0.56250000000000000        0.0000000000000000     
  0.50000000000000000       0.59375000000000000        0.0000000000000000     
  0.53125000000000000       0.59375000000000000        0.0000000000000000     
  0.56250000000000000       0.59375000000000000        0.0000000000000000     
  0.59375000000000000       0.59375000000000000        0.0000000000000000     
  0.62500000000000000       0.59375000000000000        0.0000000000000000     
  0.50000000000000000       0.62500000000000000        0.0000000000000000     
  0.53125000000000000       0.62500000000000000        0.0000000000000000     
  0.56250000000000000       0.62500000000000000        0.0000000000000000     
  0.59375000000000000       0.62500000000000000        0.0000000000000000     
  0.62500000000000000       0.62500000000000000        0.0000000000000000     
  0.62500000000000000       0.50000000000000000        0.0000000000000000     
  0.65625000000000000       0.50000000000000000        0.0000000000000000     
  0.68750000000000000       0.50000000000000000        0.0000000000000000     
  0.71875000000000000       0.50000000000000000        0.0000000000000000     
  0.75000000000000000       0.50000000000000000        0.0000000000000000     
  0.62500000000000000       0.53125000000000000        0.0000000000000000     
  0.65625000000000000       0.53125000000000000        0.0000000000000000     
  0.68750000000000000       0.53125000000000000        0.0000000000000000     
  0.71875000000000000       0.53125000000000000        0.0000000000000000     
  0.75000000000000000       0.53125000000000000        0.0000000000000000     
  0.62500000000000000       0.56250000000000000        0.0000000000000000     
  0.65625000000000000       0.56250000000000000        0.0000000000000000     
  0.68750000000000000       0.56250000000000000        0.0000000000000000     
  0.71875000000000000       0.56250000000000000        0.0000000000000000     
  0.75000000000000000       0.56250000000000000        0.0000000000000000     
  0.62500000000000000       0.59375000000000000        0.0000000000000000     
  0.65625000000000000       0.59375000000000000        0.0000000000000000     
  0.68750000000000000       0.59375000000000000        0.0000000000000000     
  0.71875000000000000       0.59375000000000000        0.0000000000000000     
  0.75000000000000000       0.59375000000000000        0.0000000000000000     
  0.62500000000000000       0.62500000000000000        0.0000000000000000     
  0.65625000000000000       0.62500000000000000        0.0000000000000000     
  0.68750000000000000       0.62500000000000000        0.0000000000000000     
  0.71875000000000000       0.62500000000000000        0.0000000000000000     
  0.75000000000000000       0.62500000000000000        0.0000000000000000     
  0.75000000000000000       0.50000000000000000        0.0000000000000000     
  0.78125000000000000       0.50000000000000000        0.0000000000000000     
  0.81250000000000000       0.50000000000000000        0.0000000000000000     
  0.84375000000000000       0.50000000000000000        0.0000000000000000     
  0.87500000000000000       0.50000000000000000        0.0000000000000000     
  0.75000000000000000       0.53125000000000000        0.0000000000000000     
  0.78125000000000000       0.53125000000000000        0.0000000000000000     
  0.81250000000000000       0.53125000000000000        0.0000000000000000     
  0.84375000000000000       0.53125000000000000        0.0000000000000000     
  0.87500000000000000       0.53125000000000000        0.0000000000000000     
  0.75000000000000000       0.56250000000000000        0.0000000000000000     
  0.78125000000000000       0.56250000000000000        0.0000000000000000     
  0.81250000000000000       0.56250000000000000        0.0000000000000000     
  0.84375000000000000       0.56250000000000000        0.0000000000000000     
  0.87500000000000000       0.56250000000000000        0.0000000000000000     
  0.75000000000000000       0.59375000000000000        0.0000000000000000     
  0.78125000000000000       0.59375000000000000        0.0000000000000000     
  0.81250000000000000       0.59375000000000000        0.0000000000000000     
  0.84375000000000000       0.59375000000000000        0.0000000000000000     
  0.87500000000000000       0.59375000000000000        0.0000000000000000     
  0.75000000000000000       0.62500000000000000        0.0000000000000000     
  0.78125000000000000       0.62500000000000000        0.0000000000000000     
  0.81250000000000000       0.62500000000000000        0.0000000000000000     
  0.84375000000000000       0.62500000000000000        0.0000000000000000     
  0.87500000000000000       0.62500000000000000        0.0000000000000000     
  0.87500000000000000       0.50000000000000000        0.0000000000000000     
  0.90625000000000000       0.50000000000000000        0.0000000000000000     
  0.93750000000000000       0.50000000000000000        0.0000000000000000     
  0.96875000000000000       0.50000000000000000        0.0000000000000000     
   1.0000000000000000       0.50000000000000000        0.0000000000000000     
  0.87500000000000000       0.53125000000000000        0.0000000000000000     
  0.90625000000000000       0.53125000000000000        0.0000000000000000     
  0.93750000000000000       0.53125000000000000        0.0000000000000000     
  0.96875000000000000       0.53125000000000000        0.0000000000000000     
   1.0000000000000000       0.53125000000000000        0.0000000000000000     
  0.87500000000000000       0.56250000000000000        0.0000000000000000     
  0.90625000000000000       0.56250000000000000        0.0000000000000000     
  0.93750000000000000       0.56250000000000000        0.0000000000000000     
  0.96875000000000000       0.56250000000000000        0.0000000000000000     
   1.0000000000000000       0.56250000000000000        0.0000000000000000     
  0.87500000000000000       0.59375000000000000        0.0000000000000000     
  0.90625000000000000       0.59375000000000000        0.0000000000000000     
  0.93750000000000000       0.59375000000000000        0.0000000000000000     
  0.96875000000000000       0.59375000000000000        0.0000000000000000     
   1.0000000000000000       0.59375000000000000        0.0000000000000000     
  0.87500000000000000       0.62500000000000000        0.0000000000000000     
  0.90625000000000000       0.62500000000000000        0.0000000000000000     
  0.93750000000000000       0.62500000000000000        0.0000000000000000     
  0.96875000000000000       0.62500000000000000        0.0000000000000000     
   1.0000000000000000       0.62500000000000000        0.0000000000000000     
   1.0000000000000000       0.50000000000000000        0.0000000000000000     
   1.0312500000000000       0.50000000000000000        0.0000000000000000     
   1.0625000000000000       0.50000000000000000        0.0000000000000000     
   1.0937500000000000       0.50000000000000000        0.0000000000000000     
   1.1250000000000000       0.50000000000000000        0.0000000000000000     
   1.0000000000000000       0.53125000000000000        0.0000000000000000     
   1.0312500000000000       0.53125000000000000        0.0000000000000000     
   1.0625000000000000       0.53125000000000000        0.0000000000000000     
   1.0937500000000000       0.53125000000000000        0.0000000000000000     
   1.1250000000000000       0.53125000000000000        0.0000000000000000     
   1.0000000000000000       0.56250000000000000        0.0000000000000000     
   1.0312500000000000       0.56250000000000000        0.0000000000000000     
   1.0625000000000000       0.56250000000000000        0.0000000000000000     
   1.0937500000000000       0.56250000000000000        0.0000000000000000     
   1.1250000000000000       0.56250000000000000        0.0000000000000000     
   1.0000000000000000       0.59375000000000000        0.0000000000000000     
   1.0312500000000000       0.59375000000000000        0.0000000000000000     
   1.0625000000000000       0.59375000000000000        0.0000000000000000     
   1.0937500000000000       0.59375000000000000        0.0000000000000000     
   1.1250000000000000       0.59375000000000000        0.0000000000000000     
   1.0000000000000000       0.62500000000000000        0.0000000000000000     
   1.0312500000000000       0.62500000000000000        0.0000000000000000     
   1.0625000000000000       0.62500000000000000        0.0000000000000000     
   1.0937500000000000       0.62500000000000000        0.0000000000000000     
   1.1250000000000000       0.62500000000000000        0.0000000000000000     
   1.1250000000000000       0.50000000000000000        0.0000000000000000     
   1.1562500000000000       0.50000000000000000        0.0000000000000000     
   1.1875000000000000       0.50000000000000000        0.0000000000000000     
   1.2187500000000000       0.50000000000000000        0.0000000000000000     
   1.2500000000000000       0.50000000000000000        0.0000000000000000     
   1.1250000000000000       0.53125000000000000        0.0000000000000000     
   1.1562500000000000       0.53125000000000000        0.0000000000000000     
   1.1875000000000000       0.53125000000000000        0.0000000000000000     
   1.2187500000000000       0.53125000000000000        0.0000000000000000     
   1.2500000000000000       0.53125000000000000        0.0000000000000000     
   1.1250000000000000       0.56250000000000000        0.0000000000000000     
   1.1562500000000000       0.56250000000000000        0.0000000000000000     
   1.1875000000000000       0.56250000000000000        0.0000000000000000     
   1.2187500000000000       0.56250000000000000        0.0000000000000000     
   1.2500000000000000       0.56250000000000000        0.0000000000000000     
   1.1250000000000000       0.59375000000000000        0.0000000000000000     
   1.1562500000000000       0.59375000000000000        0.0000000000000000     
   1.1875000000000000       0.59375000000000000        0.0000000000000000     
   1.2187500000000000       0.59375000000000000        0.0000000000000000     
   1.2500000000000000       0.59375000000000000        0.0000000000000000     
   1.1250000000000000       0.62500000000000000        0.0000000000000000     
   1.1562500000000000       0.62500000000000000        0.0000000000000000     
   1.1875000000000000       0.62500000000000000        0.0000000000000000     
   1.2187500000000000       0.62500000000000000        0.0000000000000000     
   1.2500000000000000       0.62500000000000000        0.0000000000000000     
   1.2500000000000000       0.50000000000000000        0.0000000000000000     
   1.2812500000000000       0.50000000000000000        0.0000000000000000     
   1.3125000000000000       0.50000000000000000        0.0000000000000000     
   1.3437500000000000       0.50000000000000000        0.0000000000000000     
   1.3750000000000000       0.50000000000000000        0.0000000000000000     
   1.2500000000000000       0.53125000000000000        0.0000000000000000     
   1.2812500000000000       0.53125000000000000        0.0000000000000000     
   1.3125000000000000       0.53125000000000000        0.0000000000000000     
   1.3437500000000000       0.53125000000000000        0.0000000000000000     
   1.3750000000000000       0.53125000000000000        0.0000000000000000     
   1.2500000000000000       0.56250000000000000        0.0000000000000000     
   1.2812500000000000       0.56250000000000000        0.0000000000000000     
   1.3125000000000000       0.56250000000000000        0.0000000000000000     
   1.3437500000000000       0.56250000000000000        0.0000000000000000     
   1.3750000000000000       0.56250000000000000        0.0000000000000000     
   1.2500000000000000       0.59375000000000000        0.0000000000000000     
   1.2812500000000000       0.59375000000000000        0.0000000000000000     
   1.3125000000000000       0.59375000000000000        0.0000000000000000     
   1.3437500000000000       0.59375000000000000        0.0000000000000000     
   1.3750000000000000       0.59375000000000000        0.0000000000000000     
   1.2500000000000000       0.62500000000000000        0.0000000000000000     
   1.2812500000000000       0.62500000000000000        0.0000000000000000     
   1.3125000000000000       0.62500000000000000        0.0000000000000000     
   1.3437500000000000       0.62500000000000000        0.0000000000000000     
   1.3750000000000000       0.62500000000000000        0.0000000000000000     
   1.3750000000000000       0.50000000000000000        0.0000000000000000     
   1.4062500000000000       0.50000000000000000        0.0000000000000000     
   1.4375000000000000       0.50000000000000000        0.0000000000000000     
   1.4687500000000000       0.50000000000000000        0.0000000000000000     
   1.5000000000000000       0.50000000000000000        0.0000000000000000     
   1.3750000000000000       0.53125000000000000        0.0000000000000000     
   1.4062500000000000       0.53125000000000000        0.0000000000000000     
   1.4375000000000000       0.53125000000000000        0.0000000000000000     
   1.4687500000000000       0.53125000000000000        0.0000000000000000     
   1.5000000000000000       0.53125000000000000        0.0000000000000000     
   1.3750000000000000       0.56250000000000000        0.0000000000000000     
   1.4062500000000000       0.56250000000000000        0.0000000000000000     
   1.4375000000000000       0.56250000000000000        0.0000000000000000     
   1.4687500000000000       0.56250000000000000        0.0000000000000000     
   1.5000000000000000       0.56250000000000000        0.0000000000000000     
   1.3750000000000000       0.59375000000000000        0.0000000000000000     
   1.4062500000000000       0.59375000000000000        0.0000000000000000     
   1.4375000000000000       0.59375000000000000        0.0000000000000000     
   1.4687500000000000       0.59375000000000000        0.0000000000000000     
   1.5000000000000000       0.59375000000000000        0.0000000000000000     
   1.3750000000000000       0.62500000000000000        0.0000000000000000     
   1.4062500000000000       0.62500000000000000        0.0000000000000000     
   1.4375000000000000       0.62500000000000000        0.0000000000000000     
   1.4687500000000000       0.62500000000000000        0.0000000000000000     
   1.5000000000000000       0.62500000000000000        0.0000000000000000     
  0.50000000000000000       0.62500000000000000        0.0000000000000000     
  0.53125000000000000       0.62500000000000000        0.0000000000000000     
  0.56250000000000000       0.62500000000000000        0.0000000000000000     
  0.59375000000000000       0.62500000000000000        0.0000000000000000     
  0.62500000000000000       0.62500000000000000        0.0000000000000000     
  0.50000000000000000       0.65625000000000000        0.0000000000000000     
  0.53125000000000000       0.65625000000000000        0.0000000000000000     
  0.56250000000000000       0.65625000000000000        0.0000000000000000     
  0.59375000000000000       0.65625000000000000        0.0000000000000000     
  0.62500000000000000       0.65625000000000000        0.0000000000000000     
  0.50000000000000000       0.68750000000000000        0.0000000000000000     
  0.53125000000000000       0.68750000000000000        0.0000000000000000     
  0.56250000000000000       0.68750000000000000        0.0000000000000000     
  0.59375000000000000       0.68750000000000000        0.0000000000000000     
  0.62500000000000000       0.68750000000000000        0.0000000000000000     
  0.50000000000000000       0.71875000000000000        0.0000000000000000     
  0.53125000000000000       0.71875000000000000        0.0000000000000000     
  0.56250000000000000       0.71875000000000000        0.0000000000000000     
  0.59375000000000000       0.71875000000000000        0.0000000000000000     
  0.62500000000000000       0.71875000000000000        0.0000000000000000     
  0.50000000000000000       0.75000000000000000        0.0000000000000000     
  0.53125000000000000       0.75000000000000000        0.0000000000000000     
  0.56250000000000000       0.75000000000000000        0.0000000000000000     
  0.59375000000000000       0.75000000000000000        0.0000000000000000     
  0.62500000000000000       0.75000000000000000        0.0000000000000000     
  0.62500000000000000       0.62500000000000000        0.0000000000000000     
  0.65625000000000000       0.62500000000000000        0.0000000000000000     
  0.68750000000000000       0.62500000000000000        0.0000000000000000     
  0.71875000000000000       0.62500000000000000        0.0000000000000000     
  0.75000000000000000       0.62500000000000000        0.0000000000000000     
  0.62500000000000000       0.65625000000000000        0.0000000000000000     
  0.65625000000000000       0.65625000000000000        0.0000000000000000     
  0.68750000000000000       0.65625000000000000        0.0000000000000000     
  0.71875000000000000       0.65625000000000000        0.0000000000000000     
  0.75000000000000000       0.65625000000000000        0.0000000000000000     
  0.62500000000000000       0.68750000000000000        0.0000000000000000     
  0.65625000000000000       0.68750000000000000        0.0000000000000000     
  0.68750000000000000       0.68750000000000000        0.0000000000000000     
  0.71875000000000000       0.68750000000000000        0.0000000000000000     
  0.75000000000000000       0.68750000000000000        0.0000000000000000     
  0.62500000000000000       0.71875000000000000        0.0000000000000000     
  0.65625000000000000       0.71875000000000000        0.0000000000000000     
  0.68750000000000000       0.71875000000000000        0.0000000000000000     
  0.71875000000000000       0.71875000000000000        0.0000000000000000     
  0.75000000000000000       0.71875000000000000        0.0000000000000000     
  0.62500000000000000       0.75000000000000000        0.0000000000000000     
  0.65625000000000000       0.75000000000000000        0.0000000000000000     
  0.68750000000000000       0.75000000000000000        0.0000000000000000     
  0.71875000000000000       0.75000000000000000        0.0000000000000000     
  0.75000000000000000       0.75000000000000000        0.0000000000000000     
  0.75000000000000000       0.62500000000000000        0.0000000000000000     
  0.78125000000000000       0.62500000000000000        0.0000000000000000     
  0.81250000000000000       0.62500000000000000        0.0000000000000000     
  0.84375000000000000       0.62500000000000000        0.0000000000000000     
  0.87500000000000000       0.62500000000000000        0.0000000000000000     
  0.75000000000000000       0.65625000000000000        0.0000000000000000     
  0.78125000000000000       0.65625000000000000        0.0000000000000000     
  0.81250000000000000       0.65625000000000000        0.0000000000000000     
  0.84375000000000000       0.65625000000000000        0.0000000000000000     
  0.87500000000000000       0.65625000000000000        0.0000000000000000     
  0.75000000000000000       0.68750000000000000        0.0000000000000000     
  0.78125000000000000       0.68750000000000000        0.0000000000000000     
  0.81250000000000000       0.68750000000000000        0.0000000000000000     
  0.84375000000000000       0.68750000000000000        0.0000000000000000     
  0.87500000000000000       0.68750000000000000        0.0000000000000000     
  0.75000000000000000       0.71875000000000000        0.0000000000000000     
  0.78125000000000000       0.71875000000000000        0.0000000000000000     
  0.81250000000000000       0.71875000000000000        0.0000000000000000     
  0.84375000000000000       0.71875000000000000        0.0000000000000000     
  0.87500000000000000       0.71875000000000000        0.0000000000000000     
  0.75000000000000000       0.75000000000000000        0.0000000000000000     
  0.78125000000000000       0.75000000000000000        0.0000000000000000     
  0.81250000000000000       0.75000000000000000        0.0000000000000000     
  0.84375000000000000       0.75000000000000000        0.0000000000000000     
  0.87500000000000000       0.75000000000000000        0.0000000000000000     
  0.87500000000000000       0.62500000000000000        0.0000000000000000     
  0.90625000000000000       0.62500000000000000        0.0000000000000000     
  0.93750000000000000       0.62500000000000000        0.0000000000000000     
  0.96875000000000000       0.62500000000000000        0.0000000000000000     
   1.0000000000000000       0.62500000000000000        0.0000000000000000     
  0.87500000000000000       0.65625000000000000        0.0000000000000000     
  0.90625000000000000       0.65625000000000000        0.0000000000000000     
  0.93750000000000000       0.65625000000000000        0.0000000000000000     
  0.96875000000000000       0.65625000000000000        0.0000000000000000     
   1.0000000000000000       0.65625000000000000        0.0000000000000000     
  0.87500000000000000       0.68750000000000000        0.0000000000000000     
  0.90625000000000000       0.68750000000000000        0.0000000000000000     
  0.93750000000000000       0.68750000000000000        0.0000000000000000     
  0.96875000000000000       0.68750000000000000        0.0000000000000000     
   1.0000000000000000       0.68750000000000000        0.0000000000000000     
  0.87500000000000000       0.71875000000000000        0.0000000000000000     
  0.90625000000000000       0.71875000000000000        0.0000000000000000     
  0.93750000000000000       0.71875000000000000        0.0000000000000000     
  0.96875000000000000       0.71875000000000000        0.0000000000000000     
   1.0000000000000000       0.71875000000000000        0.0000000000000000     
  0.87500000000000000       0.75000000000000000        0.0000000000000000     
  0.90625000000000000       0.75000000000000000        0.0000000000000000     
  0.93750000000000000       0.75000000000000000        0.0000000000000000     
  0.96875000000000000       0.75000000000000000        0.0000000000000000     
   1.0000000000000000       0.75000000000000000        0.0000000000000000     
   1.0000000000000000       0.62500000000000000        0.0000000000000000     
   1.0312500000000000       0.62500000000000000        0.0000000000000000     
   1.0625000000000000       0.62500000000000000        0.0000000000000000     
   1.0937500000000000       0.62500000000000000        0.0000000000000000     
   1.1250000000000000       0.62500000000000000        0.0000000000000000     
   1.0000000000000000       0.65625000000000000        0.0000000000000000     
   1.0312500000000000       0.65625000000000000        0.0000000000000000     
   1.0625000000000000       0.65625000000000000        0.0000000000000000     
   1.0937500000000000       0.65625000000000000        0.0000000000000000     
   1.1250000000000000       0.65625000000000000        0.0000000000000000     
   1.0000000000000000       0.68750000000000000        0.0000000000000000     
   1.0312500000000000       0.68750000000000000        0.0000000000000000     
   1.0625000000000000       0.68750000000000000        0.0000000000000000     
   1.0937500000000000       0.68750000000000000        0.0000000000000000     
   1.1250000000000000       0.68750000000000000        0.0000000000000000     
   1.0000000000000000       0.71875000000000000        0.0000000000000000     
   1.0312500000000000       0.71875000000000000        0.0000000000000000     
   1.0625000000000000       0.71875000000000000        0.0000000000000000     
   1.0937500000000000       0.71875000000000000        0.0000000000000000     
   1.1250000000000000       0.71875000000000000        0.0000000000000000     
   1.0000000000000000       0.75000000000000000        0.0000000000000000     
   1.0312500000000000       0.75000000000000000        0.0000000000000000     
   1.0625000000000000       0.75000000000000000        0.0000000000000000     
   1.0937500000000000       0.75000000000000000        0.0000000000000000     
   1.1250000000000000       0.75000000000000000        0.0000000000000000     
   1.1250000000000000       0.62500000000000000        0.0000000000000000     
   1.1562500000000000       0.62500000000000000        0.0000000000000000     
   1.1875000000000000       0.62500000000000000        0.0000000000000000     
   1.2187500000000000       0.62500000000000000        0.0000000000000000     
   1.2500000000000000       0.62500000000000000        0.0000000000000000     
   1.1250000000000000       0.65625000000000000        0.0000000000000000     
   1.1562500000000000       0.65625000000000000        0.0000000000000000     
   1.1875000000000000       0.65625000000000000        0.0000000000000000     
   1.2187500000000000       0.65625000000000000        0.0000000000000000     
   1.2500000000000000       0.65625000000000000        0.0000000000000000     
   1.1250000000000000       0.68750000000000000        0.0000000000000000     
   1.1562500000000000       0.68750000000000000        0.0000000000000000     
   1.1875000000000000       0.68750000000000000        0.0000000000000000     
   1.2187500000000000       0.68750000000000000        0.0000000000000000     
   1.2500000000000000       0.68750000000000000        0.0000000000000000     
   1.1250000000000000       0.71875000000000000        0.0000000000000000     
   1.1562500000000000       0.71875000000000000        0.0000000000000000     
   1.1875000000000000       0.71875000000000000        0.0000000000000000     
   1.2187500000000000       0.71875000000000000        0.0000000000000000     
   1.2500000000000000       0.71875000000000000        0.0000000000000000     
   1.1250000000000000       0.75000000000000000        0.0000000000000000     
   1.1562500000000000       0.75000000000000000        0.0000000000000000     
   1.1875000000000000       0.75000000000000000        0.0000000000000000     
   1.2187500000000000       0.75000000000000000        0.0000000000000000     
   1.2500000000000000       0.75000000000000000        0.0000000000000000     
   1.2500000000000000       0.62500000000000000        0.0000000000000000     
   1.2812500000000000       0.62500000000000000        0.0000000000000000     
   1.3125000000000000       0.62500000000000000        0.0000000000000000     
   1.3437500000000000       0.62500000000000000        0.0000000000000000     
   1.3750000000000000       0.62500000000000000        0.0000000000000000     
   1.2500000000000000       0.65625000000000000        0.0000000000000000     
   1.2812500000000000       0.65625000000000000        0.0000000000000000     
   1.3125000000000000       0.65625000000000000        0.0000000000000000     
   1.3437500000000000       0.65625000000000000        0.0000000000000000     
   1.3750000000000000       0.65625000000000000        0.0000000000000000     
   1.2500000000000000       0.68750000000000000        0.0000000000000000     
   1.2812500000000000       0.68750000000000000        0.0000000000000000     
   1.3125000000000000       0.68750000000000000        0.0000000000000000     
   1.3437500000000000       0.68750000000000000        0.0000000000000000     
   1.3750000000000000       0.68750000000000000        0.0000000000000000     
   1.2500000000000000       0.71875000000000000        0.0000000000000000     
   1.2812500000000000       0.71875000000000000        0.0000000000000000     
   1.3125000000000000       0.71875000000000000        0.0000000000000000     
   1.3437500000000000       0.71875000000000000        0.0000000000000000     
   1.3750000000000000       0.71875000000000000        0.0000000000000000     
   1.2500000000000000       0.75000000000000000        0.0000000000000000     
   1.2812500000000000       0.75000000000000000        0.0000000000000000     
   1.3125000000000000       0.75000000000000000        0.0000000000000000     
   1.3437500000000000       0.75000000000000000        0.0000000000000000     
   1.3750000000000000       0.75000000000000000        0.0000000000000000     
   1.3750000000000000       0.62500000000000000        0.0000000000000000     
   1.4062500000000000       0.62500000000000000        0.0000000000000000     
   1.4375000000000000       0.62500000000000000        0.0000000000000000     
   1.4687500000000000       0.62500000000000000        0.0000000000000000     
   1.5000000000000000       0.62500000000000000        0.0000000000000000     
   1.3750000000000000       0.65625000000000000        0.0000000000000000     
   1.4062500000000000       0.65625000000000000        0.0000000000000000     
   1.4375000000000000       0.65625000000000000        0.0000000000000000     
   1.4687500000000000       0.65625000000000000        0.0000000000000000     
   1.5000000000000000       0.65625000000000000        0.0000000000000000     
   1.3750000000000000       0.68750000000000000        0.0000000000000000     
   1.4062500000000000       0.68750000000000000        0.0000000000000000     
   1.4375000000000000       0.68750000000000000        0.0000000000000000     
   1.4687500000000000       0.68750000000000000        0.0000000000000000     
   1.5000000000000000       0.68750000000000000        0.0000000000000000     
   1.3750000000000000       0.71875000000000000        0.0000000000000000     
   1.4062500000000000       0.71875000000000000        0.0000000000000000     
   1.4375000000000000       0.71875000000000000        0.0000000000000000     
   1.4687500000000000       0.71875000000000000        0.0000000000000000     
   1.5000000000000000       0.71875000000000000        0.0000000000000000     
   1.3750000000000000       0.75000000000000000        0.0000000000000000     
   1.4062500000000000       0.75000000000000000        0.0000000000000000     
   1.4375000000000000       0.75000000000000000        0.0000000000000000     
   1.4687500000000000       0.75000000000000000        0.0000000000000000     
   1.5000000000000000       0.75000000000000000        0.0000000000000000     
  0.50000000000000000       0.75000000000000000        0.0000000000000000     
  0.53125000000000000       0.75000000000000000        0.0000000000000000     
  0.56250000000000000       0.75000000000000000        0.0000000000000000     
  0.59375000000000000       0.75000000000000000        0.0000000000000000     
  0.62500000000000000       0.75000000000000000        0.0000000000000000     
  0.50000000000000000       0.78125000000000000        0.0000000000000000     
  0.53125000000000000       0.78125000000000000        0.0000000000000000     
  0.56250000000000000       0.78125000000000000        0.0000000000000000     
  0.59375000000000000       0.78125000000000000        0.0000000000000000     
  0.62500000000000000       0.78125000000000000        0.0000000000000000     
  0.50000000000000000       0.81250000000000000        0.0000000000000000     
  0.53125000000000000       0.81250000000000000        0.0000000000000000     
  0.56250000000000000       0.81250000000000000        0.0000000000000000     
  0.59375000000000000       0.81250000000000000        0.0000000000000000     
  0.62500000000000000       0.81250000000000000        0.0000000000000000     
  0.50000000000000000       0.84375000000000000        0.0000000000000000     
  0.53125000000000000       0.84375000000000000        0.0000000000000000     
  0.56250000000000000       0.84375000000000000        0.0000000000000000     
  0.59375000000000000       0.84375000000000000        0.0000000000000000     
  0.62500000000000000       0.84375000000000000        0.0000000000000000     
  0.50000000000000000       0.87500000000000000        0.0000000000000000     
  0.53125000000000000       0.87500000000000000        0.0000000000000000     
  0.56250000000000000       0.87500000000000000        0.0000000000000000     
  0.59375000000000000       0.87500000000000000        0.0000000000000000     
  0.62500000000000000       0.87500000000000000        0.0000000000000000     
  0.62500000000000000       0.75000000000000000        0.0000000000000000     
  0.65625000000000000       0.75000000000000000        0.0000000000000000     
  0.68750000000000000       0.75000000000000000        0.0000000000000000     
  0.71875000000000000       0.75000000000000000        0.0000000000000000     
  0.75000000000000000       0.75000000000000000        0.0000000000000000     
  0.62500000000000000       0.78125000000000000        0.0000000000000000     
  0.65625000000000000       0.78125000000000000        0.0000000000000000     
  0.68750000000000000       0.78125000000000000        0.0000000000000000     
  0.71875000000000000       0.78125000000000000        0.0000000000000000     
  0.75000000000000000       0.78125000000000000        0.0000000000000000     
  0.62500000000000000       0.81250000000000000        0.0000000000000000     
  0.65625000000000000       0.81250000000000000        0.0000000000000000     
  0.68750000000000000       0.81250000000000000        0.0000000000000000     
  0.71875000000000000       0.81250000000000000        0.0000000000000000     
  0.75000000000000000       0.81250000000000000        0.0000000000000000     
  0.62500000000000000       0.84375000000000000        0.0000000000000000     
  0.65625000000000000       0.84375000000000000        0.0000000000000000     
  0.68750000000000000       0.84375000000000000        0.0000000000000000     
  0.71875000000000000       0.84375000000000000        0.0000000000000000     
  0.75000000000000000       0.84375000000000000        0.0000000000000000     
  0.62500000000000000       0.87500000000000000        0.0000000000000000     
  0.65625000000000000       0.87500000000000000        0.0000000000000000     
  0.68750000000000000       0.87500000000000000        0.0000000000000000     
  0.71875000000000000       0.87500000000000000        0.0000000000000000     
  0.75000000000000000       0.87500000000000000        0.0000000000000000     
  0.75000000000000000       0.75000000000000000        0.0000000000000000     
  0.78125000000000000       0.75000000000000000        0.0000000000000000     
  0.81250000000000000       0.75000000000000000        0.0000000000000000     
  0.84375000000000000       0.75000000000000000        0.0000000000000000     
  0.87500000000000000       0.75000000000000000        0.0000000000000000     
  0.75000000000000000       0.78125000000000000        0.0000000000000000     
  0.78125000000000000       0.78125000000000000        0.0000000000000000     
  0.81250000000000000       0.78125000000000000        0.0000000000000000     
  0.84375000000000000       0.78125000000000000        0.0000000000000000     
  0.87500000000000000       0.78125000000000000        0.0000000000000000     
  0.75000000000000000       0.81250000000000000        0.0000000000000000     
  0.78125000000000000       0.81250000000000000        0.0000000000000000     
  0.81250000000000000       0.81250000000000000        0.0000000000000000     
  0.84375000000000000       0.81250000000000000        0.0000000000000000     
  0.87500000000000000       0.81250000000000000        0.0000000000000000     
  0.75000000000000000       0.84375000000000000        0.0000000000000000     
  0.78125000000000000       0.84375000000000000        0.0000000000000000     
  0.81250000000000000       0.84375000000000000        0.0000000000000000     
  0.84375000000000000       0.84375000000000000        0.0000000000000000     
  0.87500000000000000       0.84375000000000000        0.0000000000000000     
  0.75000000000000000       0.87500000000000000        0.0000000000000000     
  0.78125000000000000       0.87500000000000000        0.0000000000000000     
  0.81250000000000000       0.87500000000000000        0.0000000000000000     
  0.84375000000000000       0.87500000000000000        0.0000000000000000     
  0.87500000000000000       0.87500000000000000        0.0000000000000000     
  0.87500000000000000       0.75000000000000000        0.0000000000000000     
  0.90625000000000000       0.75000000000000000        0.0000000000000000     
  0.93750000000000000       0.75000000000000000        0.0000000000000000     
  0.96875000000000000       0.75000000000000000        0.0000000000000000     
   1.0000000000000000       0.75000000000000000        0.0000000000000000     
  0.87500000000000000       0.78125000000000000        0.0000000000000000     
  0.90625000000000000       0.78125000000000000        0.0000000000000000     
  0.93750000000000000       0.78125000000000000        0.0000000000000000     
  0.96875000000000000       0.78125000000000000        0.0000000000000000     
   1.0000000000000000       0.78125000000000000        0.0000000000000000     
  0.87500000000000000       0.81250000000000000        0.0000000000000000     
  0.90625000000000000       0.81250000000000000        0.0000000000000000     
  0.93750000000000000       0.81250000000000000        0.0000000000000000     
  0.96875000000000000       0.81250000000000000        0.0000000000000000     
   1.0000000000000000       0.81250000000000000        0.0000000000000000     
  0.87500000000000000       0.84375000000000000        0.0000000000000000     
  0.90625000000000000       0.84375000000000000        0.0000000000000000     
  0.93750000000000000       0.84375000000000000        0.0000000000000000     
  0.96875000000000000       0.84375000000000000        0.0000000000000000     
   1.0000000000000000       0.84375000000000000        0.0000000000000000     
  0.87500000000000000       0.87500000000000000        0.0000000000000000     
  0.90625000000000000       0.87500000000000000        0.0000000000000000     
  0.93750000000000000       0.87500000000000000        0.0000000000000000     
  0.96875000000000000       0.87500000000000000        0.0000000000000000     
   1.0000000000000000       0.87500000000000000        0.0000000000000000     
   1.0000000000000000       0.75000000000000000        0.0000000000000000     
   1.0312500000000000       0.75000000000000000        0.0000000000000000     
   1.0625000000000000       0.75000000000000000        0.0000000000000000     
   1.0937500000000000       0.75000000000000000        0.0000000000000000     
   1.1250000000000000       0.75000000000000000        0.0000000000000000     
   1.0000000000000000       0.78125000000000000        0.0000000000000000     
   1.0312500000000000       0.78125000000000000        0.0000000000000000     
   1.0625000000000000       0.78125000000000000        0.0000000000000000     
   1.0937500000000000       0.78125000000000000        0.0000000000000000     
   1.1250000000000000       0.78125000000000000        0.0000000000000000     
   1.0000000000000000       0.81250000000000000        0.0000000000000000     
   1.0312500000000000       0.81250000000000000        0.0000000000000000     
   1.0625000000000000       0.81250000000000000        0.0000000000000000     
   1.0937500000000000       0.81250000000000000        0.0000000000000000     
   1.1250000000000000       0.81250000000000000        0.0000000000000000     
   1.0000000000000000       0.84375000000000000        0.0000000000000000     
   1.0312500000000000       0.84375000000000000        0.0000000000000000     
   1.0625000000000000       0.84375000000000000        0.0000000000000000     
   1.0937500000000000       0.84375000000000000        0.0000000000000000     
   1.1250000000000000       0.84375000000000000        0.0000000000000000     
   1.0000000000000000       0.87500000000000000        0.0000000000000000     
   1.0312500000000000       0.87500000000000000        0.0000000000000000     
   1.0625000000000000       0.87500000000000000        0.0000000000000000     
   1.0937500000000000       0.87500000000000000        0.0000000000000000     
   1.1250000000000000       0.87500000000000000        0.0000000000000000     
   1.1250000000000000       0.75000000000000000        0.0000000000000000     
   1.1562500000000000       0.75000000000000000        0.0000000000000000     
   1.1875000000000000       0.75000000000000000        0.0000000000000000     
   1.2187500000000000       0.75000000000000000        0.0000000000000000     
   1.2500000000000000       0.75000000000000000        0.0000000000000000     
   1.1250000000000000       0.78125000000000000        0.0000000000000000     
   1.1562500000000000       0.78125000000000000        0.0000000000000000     
   1.1875000000000000       0.78125000000000000        0.0000000000000000     
   1.2187500000000000       0.78125000000000000        0.0000000000000000     
   1.2500000000000000       0.78125000000000000        0.0000000000000000     
   1.1250000000000000       0.81250000000000000        0.0000000000000000     
   1.1562500000000000       0.81250000000000000        0.0000000000000000     
   1.1875000000000000       0.81250000000000000        0.0000000000000000     
   1.2187500000000000       0.81250000000000000        0.0000000000000000     
   1.2500000000000000       0.81250000000000000        0.0000000000000000     
   1.1250000000000000       0.84375000000000000        0.0000000000000000     
   1.1562500000000000       0.84375000000000000        0.0000000000000000     
   1.1875000000000000       0.84375000000000000        0.0000000000000000     
   1.2187500000000000       0.84375000000000000        0.0000000000000000     
   1.2500000000000000       0.84375000000000000        0.0000000000000000     
   1.1250000000000000       0.87500000000000000        0.0000000000000000     
   1.1562500000000000       0.87500000000000000        0.0000000000000000     
   1.1875000000000000       0.87500000000000000        0.0000000000000000     
   1.2187500000000000       0.87500000000000000        0.0000000000000000     
   1.2500000000000000       0.87500000000000000        0.0000000000000000     
   1.2500000000000000       0.75000000000000000        0.0000000000000000     
   1.2812500000000000       0.75000000000000000        0.0000000000000000     
   1.3125000000000000       0.75000000000000000        0.0000000000000000     
   1.3437500000000000       0.75000000000000000        0.0000000000000000     
   1.3750000000000000       0.75000000000000000        0.0000000000000000     
   1.2500000000000000       0.78125000000000000        0.0000000000000000     
   1.2812500000000000       0.78125000000000000        0.0000000000000000     
   1.3125000000000000       0.78125000000000000        0.0000000000000000     
   1.3437500000000000       0.78125000000000000        0.0000000000000000     
   1.3750000000000000       0.78125000000000000        0.0000000000000000     
   1.2500000000000000       0.81250000000000000        0.0000000000000000     
   1.2812500000000000       0.81250000000000000        0.0000000000000000     
   1.3125000000000000       0.81250000000000000        0.0000000000000000     
   1.3437500000000000       0.81250000000000000        0.0000000000000000     
   1.3750000000000000       0.81250000000000000        0.0000000000000000     
   1.2500000000000000       0.84375000000000000        0.0000000000000000     
   1.2812500000000000       0.84375000000000000        0.0000000000000000     
   1.3125000000000000       0.84375000000000000        0.0000000000000000     
   1.3437500000000000       0.84375000000000000        0.0000000000000000     
   1.3750000000000000       0.84375000000000000        0.0000000000000000     
   1.2500000000000000       0.87500000000000000        0.0000000000000000     
   1.2812500000000000       0.87500000000000000        0.0000000000000000     
   1.3125000000000000       0.87500000000000000        0.0000000000000000     
   1.3437500000000000       0.87500000000000000        0.0000000000000000     
   1.3750000000000000       0.87500000000000000        0.0000000000000000     
   1.3750000000000000       0.75000000000000000        0.0000000000000000     
   1.4062500000000000       0.75000000000000000        0.0000000000000000     
   1.4375000000000000       0.75000000000000000        0.0000000000000000     
   1.4687500000000000       0.75000000000000000        0.0000000000000000     
   1.5000000000000000       0.75000000000000000        0.0000000000000000     
   1.3750000000000000       0.78125000000000000        0.0000000000000000     
   1.4062500000000000       0.78125000000000000        0.0000000000000000     
   1.4375000000000000       0.78125000000000000        0.0000000000000000     
   1.4687500000000000       0.78125000000000000        0.0000000000000000     
   1.5000000000000000       0.78125000000000000        0.0000000000000000     
   1.3750000000000000       0.81250000000000000        0.0000000000000000     
   1.4062500000000000       0.81250000000000000        0.0000000000000000     
   1.4375000000000000       0.81250000000000000        0.0000000000000000     
   1.4687500000000000       0.81250000000000000        0.0000000000000000     
   1.5000000000000000       0.81250000000000000        0.0000000000000000     
   1.3750000000000000       0.84375000000000000        0.0000000000000000     
   1.4062500000000000       0.84375000000000000        0.0000000000000000     
   1.4375000000000000       0.84375000000000000        0.0000000000000000     
   1.4687500000000000       0.84375000000000000        0.0000000000000000     
   1.5000000000000000       0.84375000000000000        0.0000000000000000     
   1.3750000000000000       0.87500000000000000        0.0000000000000000     
   1.4062500000000000       0.87500000000000000        0.0000000000000000     
   1.4375000000000000       0.87500000000000000        0.0000000000000000     
   1.4687500000000000       0.87500000000000000        0.0000000000000000     
   1.5000000000000000       0.87500000000000000        0.0000000000000000     
  0.50000000000000000       0.87500000000000000        0.0000000000000000     
  0.53125000000000000       0.87500000000000000        0.0000000000000000     
  0.56250000000000000       0.87500000000000000        0.0000000000000000     
  0.59375000000000000       0.87500000000000000        0.0000000000000000     
  0.62500000000000000       0.87500000000000000        0.0000000000000000     
  0.50000000000000000       0.90625000000000000        0.0000000000000000     
  0.53125000000000000       0.90625000000000000        0.0000000000000000     
  0.56250000000000000       0.90625000000000000        0.0000000000000000     
  0.59375000000000000       0.90625000000000000        0.0000000000000000     
  0.62500000000000000       0.90625000000000000        0.0000000000000000     
  0.50000000000000000       0.93750000000000000        0.0000000000000000     
  0.53125000000000000       0.93750000000000000        0.0000000000000000     
  0.56250000000000000       0.93750000000000000        0.0000000000000000     
  0.59375000000000000       0.93750000000000000        0.0000000000000000     
  0.62500000000000000       0.93750000000000000        0.0000000000000000     
  0.50000000000000000       0.96875000000000000        0.0000000000000000     
  0.53125000000000000       0.96875000000000000        0.0000000000000000     
  0.56250000000000000       0.96875000000000000        0.0000000000000000     
  0.59375000000000000       0.96875000000000000        0.0000000000000000     
  0.62500000000000000       0.96875000000000000        0.0000000000000000     
  0.50000000000000000        1.0000000000000000        0.0000000000000000     
  0.53125000000000000        1.0000000000000000        0.0000000000000000     
  0.56250000000000000        1.0000000000000000        0.0000000000000000     
  0.59375000000000000        1.0000000000000000        0.0000000000000000     
  0.62500000000000000        1.0000000000000000        0.0000000000000000     
  0.62500000000000000       0.87500000000000000        0.0000000000000000     
  0.65625000000000000       0.87500000000000000        0.0000000000000000     
  0.68750000000000000       0.87500000000000000        0.0000000000000000     
  0.71875000000000000       0.87500000000000000        0.0000000000000000     
  0.75000000000000000       0.87500000000000000        0.0000000000000000     
  0.62500000000000000       0.90625000000000000        0.0000000000000000     
  0.65625000000000000       0.90625000000000000        0.0000000000000000     
  0.68750000000000000       0.90625000000000000        0.0000000000000000     
  0.71875000000000000       0.90625000000000000        0.0000000000000000     
  0.75000000000000000       0.90625000000000000        0.0000000000000000     
  0.62500000000000000       0.93750000000000000        0.0000000000000000     
  0.65625000000000000       0.93750000000000000        0.0000000000000000     
  0.68750000000000000       0.93750000000000000        0.0000000000000000     
  0.71875000000000000       0.93750000000000000        0.0000000000000000     
  0.75000000000000000       0.93750000000000000        0.0000000000000000     
  0.62500000000000000       0.96875000000000000        0.0000000000000000     
  0.65625000000000000       0.96875000000000000        0.0000000000000000     
  0.68750000000000000       0.96875000000000000        0.0000000000000000     
  0.71875000000000000       0.96875000000000000        0.0000000000000000     
  0.75000000000000000       0.96875000000000000        0.0000000000000000     
  0.62500000000000000        1.0000000000000000        0.0000000000000000     
  0.65625000000000000        1.0000000000000000        0.0000000000000000     
  0.68750000000000000        1.0000000000000000        0.0000000000000000     
  0.71875000000000000        1.0000000000000000        0.0000000000000000     
  0.75000000000000000        1.0000000000000000        0.0000000000000000     
  0.75000000000000000       0.87500000000000000        0.0000000000000000     
  0.78125000000000000       0.87500000000000000        0.0000000000000000     
  0.81250000000000000       0.87500000000000000        0.0000000000000000     
  0.84375000000000000       0.87500000000000000        0.0000000000000000     
  0.87500000000000000       0.87500000000000000        0.0000000000000000     
  0.75000000000000000       0.90625000000000000        0.0000000000000000     
  0.78125000000000000       0.90625000000000000        0.0000000000000000     
  0.81250000000000000       0.90625000000000000        0.0000000000000000     
  0.84375000000000000       0.90625000000000000        0.0000000000000000     
  0.87500000000000000       0.90625000000000000        0.0000000000000000     
  0.75000000000000000       0.93750000000000000        0.0000000000000000     
  0.78125000000000000       0.93750000000000000        0.0000000000000000     
  0.81250000000000000       0.93750000000000000        0.0000000000000000     
  0.84375000000000000       0.93750000000000000        0.0000000000000000     
  0.87500000000000000       0.93750000000000000        0.0000000000000000     
  0.75000000000000000       0.96875000000000000        0.0000000000000000     
  0.78125000000000000       0.96875000000000000        0.0000000000000000     
  0.81250000000000000       0.96875000000000000        0.0000000000000000     
  0.84375000000000000       0.96875000000000000        0.0000000000000000     
  0.87500000000000000       0.96875000000000000        0.0000000000000000     
  0.75000000000000000        1.0000000000000000        0.0000000000000000     
  0.78125000000000000        1.0000000000000000        0.0000000000000000     
  0.81250000000000000        1.0000000000000000        0.0000000000000000     
  0.84375000000000000        1.0000000000000000        0.0000000000000000     
  0.87500000000000000        1.0000000000000000        0.0000000000000000     
  0.87500000000000000       0.87500000000000000        0.0000000000000000     
  0.90625000000000000       0.87500000000000000        0.0000000000000000     
  0.93750000000000000       0.87500000000000000        0.0000000000000000     
  0.96875000000000000       0.87500000000000000        0.0000000000000000     
   1.0000000000000000       0.87500000000000000        0.0000000000000000     
  0.87500000000000000       0.90625000000000000        0.0000000000000000     
  0.90625000000000000       0.90625000000000000        0.0000000000000000     
  0.93750000000000000       0.90625000000000000        0.0000000000000000     
  0.96875000000000000       0.90625000000000000        0.0000000000000000     
   1.0000000000000000       0.90625000000000000        0.0000000000000000     
  0.87500000000000000       0.93750000000000000        0.0000000000000000     
  0.90625000000000000       0.93750000000000000        0.0000000000000000     
  0.93750000000000000       0.93750000000000000        0.0000000000000000     
  0.96875000000000000       0.93750000000000000        0.0000000000000000     
   1.0000000000000000       0.93750000000000000        0.0000000000000000     
  0.87500000000000000       0.96875000000000000        0.0000000000000000     
  0.90625000000000000       0.96875000000000000        0.0000000000000000     
  0.93750000000000000       0.96875000000000000        0.0000000000000000     
  0.96875000000000000       0.96875000000000000        0.0000000000000000     
   1.0000000000000000       0.96875000000000000        0.0000000000000000     
  0.87500000000000000        1.0000000000000000        0.0000000000000000     
  0.90625000000000000        1.0000000000000000        0.0000000000000000     
  0.93750000000000000        1.0000000000000000        0.0000000000000000     
  0.96875000000000000        1.0000000000000000        0.0000000000000000     
   1.0000000000000000        1.0000000000000000        0.0000000000000000     
   1.0000000000000000       0.87500000000000000        0.0000000000000000     
   1.0312500000000000       0.87500000000000000        0.0000000000000000     
   1.0625000000000000       0.87500000000000000        0.0000000000000000     
   1.0937500000000000       0.87500000000000000        0.0000000000000000     
   1.1250000000000000       0.87500000000000000        0.0000000000000000     
   1.0000000000000000       0.90625000000000000        0.0000000000000000     
   1.0312500000000000       0.90625000000000000        0.0000000000000000     
   1.0625000000000000       0.90625000000000000        0.0000000000000000     
   1.0937500000000000       0.90625000000000000        0.0000000000000000     
   1.1250000000000000       0.90625000000000000        0.0000000000000000     
   1.0000000000000000       0.93750000000000000        0.0000000000000000     
   1.0312500000000000       0.93750000000000000        0.0000000000000000     
   1.0625000000000000       0.93750000000000000        0.0000000000000000     
   1.0937500000000000       0.93750000000000000        0.0000000000000000     
   1.1250000000000000       0.93750000000000000        0.0000000000000000     
   1.0000000000000000       0.96875000000000000        0.0000000000000000     
   1.0312500000000000       0.96875000000000000        0.0000000000000000     
   1.0625000000000000       0.96875000000000000        0.0000000000000000     
   1.0937500000000000       0.96875000000000000        0.0000000000000000     
   1.1250000000000000       0.96875000000000000        0.0000000000000000     
   1.0000000000000000        1.0000000000000000        0.0000000000000000     
   1.0312500000000000        1.0000000000000000        0.0000000000000000     
   1.0625000000000000        1.0000000000000000        0.0000000000000000     
   1.0937500000000000        1.0000000000000000        0.0000000000000000     
   1.1250000000000000        1.0000000000000000        0.0000000000000000     
   1.1250000000000000       0.87500000000000000        0.0000000000000000     
   1.1562500000000000       0.87500000000000000        0.0000000000000000     
   1.1875000000000000       0.87500000000000000        0.0000000000000000     
   1.2187500000000000       0.87500000000000000        0.0000000000000000     
   1.2500000000000000       0.87500000000000000        0.0000000000000000     
   1.1250000000000000       0.90625000000000000        0.0000000000000000     
   1.1562500000000000       0.90625000000000000        0.0000000000000000     
   1.1875000000000000       0.90625000000000000        0.0000000000000000     
   1.2187500000000000       0.90625000000000000        0.0000000000000000     
   1.2500000000000000       0.90625000000000000        0.0000000000000000     
   1.1250000000000000       0.93750000000000000        0.0000000000000000     
   1.1562500000000000       0.93750000000000000        0.0000000000000000     
   1.1875000000000000       0.93750000000000000        0.0000000000000000     
   1.2187500000000000       0.93750000000000000        0.0000000000000000     
   1.2500000000000000       0.93750000000000000        0.0000000000000000     
   1.1250000000000000       0.96875000000000000        0.0000000000000000     
   1.1562500000000000       0.96875000000000000        0.0000000000000000     
   1.1875000000000000       0.96875000000000000        0.0000000000000000     
   1.2187500000000000       0.96875000000000000        0.0000000000000000     
   1.2500000000000000       0.96875000000000000        0.0000000000000000     
   1.1250000000000000        1.0000000000000000        0.0000000000000000     
   1.1562500000000000        1.0000000000000000        0.0000000000000000     
   1.1875000000000000        1.0000000000000000        0.0000000000000000     
   1.2187500000000000        1.0000000000000000        0.0000000000000000     
   1.2500000000000000        1.0000000000000000        0.0000000000000000     
   1.2500000000000000       0.87500000000000000        0.0000000000000000     
   1.2812500000000000       0.87500000000000000        0.0000000000000000     
   1.3125000000000000       0.87500000000000000        0.0000000000000000     
   1.3437500000000000       0.87500000000000000        0.0000000000000000     
   1.3750000000000000       0.87500000000000000        0.0000000000000000     
   1.2500000000000000       0.90625000000000000        0.0000000000000000     
   1.2812500000000000       0.90625000000000000        0.0000000000000000     
   1.3125000000000000       0.90625000000000000        0.0000000000000000     
   1.3437500000000000       0.90625000000000000        0.0000000000000000     
   1.3750000000000000       0.90625000000000000        0.0000000000000000     
   1.2500000000000000       0.93750000000000000        0.0000000000000000     
   1.2812500000000000       0.93750000000000000        0.0000000000000000     
   1.3125000000000000       0.93750000000000000        0.0000000000000000     
   1.3437500000000000       0.93750000000000000        0.0000000000000000     
   1.3750000000000000       0.93750000000000000        0.0000000000000000     
   1.2500000000000000       0.96875000000000000        0.0000000000000000     
   1.2812500000000000       0.96875000000000000        0.0000000000000000     
   1.3125000000000000       0.96875000000000000        0.0000000000000000     
   1.3437500000000000       0.96875000000000000        0.0000000000000000     
   1.3750000000000000       0.96875000000000000        0.0000000000000000     
   1.2500000000000000        1.0000000000000000        0.0000000000000000     
   1.2812500000000000        1.0000000000000000        0.0000000000000000     
   1.3125000000000000        1.0000000000000000        0.0000000000000000     
   1.3437500000000000        1.0000000000000000        0.0000000000000000     
   1.3750000000000000        1.0000000000000000        0.0000000000000000     
   1.3750000000000000       0.87500000000000000        0.0000000000000000     
   1.4062500000000000       0.87500000000000000        0.0000000000000000     
   1.4375000000000000       0.87500000000000000        0.0000000000000000     
   1.4687500000000000       0.87500000000000000        0.0000000000000000     
   1.5000000000000000       0.87500000000000000        0.0000000000000000     
   1.3750000000000000       0.90625000000000000        0.0000000000000000     
   1.4062500000000000       0.90625000000000000        0.0000000000000000     
   1.4375000000000000       0.90625000000000000        0.0000000000000000     
   1.4687500000000000       0.90625000000000000        0.0000000000000000     
   1.5000000000000000       0.90625000000000000        0.0000000000000000     
   1.3750000000000000       0.93750000000000000        0.0000000000000000     
   1.4062500000000000       0.93750000000000000        0.0000000000000000     
   1.4375000000000000       0.93750000000000000        0.0000000000000000     
   1.4687500000000000       0.93750000000000000        0.0000000000000000     
   1.5000000000000000       0.93750000000000000        0.0000000000000000     
   1.3750000000000000       0.96875000000000000        0.0000000000000000     
   1.4062500000000000       0.96875000000000000        0.0000000000000000     
   1.4375000000000000       0.96875000000000000        0.0000000000000000     
   1.4687500000000000       0.96875000000000000        0.0000000000000000     
   1.5000000000000000       0.96875000000000000        0.0000000000000000     
   1.3750000000000000        1.0000000000000000        0.0000000000000000     
   1.4062500000000000        1.0000000000000000        0.0000000000000000     
   1.4375000000000000        1.0000000000000000        0.0000000000000000     
   1.4687500000000000        1.0000000000000000        0.0000000000000000     
   1.5000000000000000        1.0000000000000000        0.0000000000000000     
 </DataArray>
 </Points>
 <Cells>
 <DataArray  type="Int32"  Name="connectivity"  format="ascii">
           0           1           6           5
           1           2           7           6
           2           3           8           7
           3           4           9           8
           5           6          11          10
           6           7          12          11
           7           8          13          12
           8           9          14          13
          10          11          16          15
          11          12          17          16
          12          13          18          17
          13          14          19          18
          15          16          21          20
          16          17          22          21
          17          18          23          22
          18          19          24          23
          25          26          31          30
          26          27          32          31
          27          28          33          32
          28          29          34          33
          30          31          36          35
          31          32          37          36
          32          33          38          37
          33          34          39          38
          35          36          41          40
          36          37          42          41
          37          38          43          42
          38          39          44          43
          40          41          46          45
          41          42          47          46
          42          43          48          47
          43          44          49          48
          50          51          56          55
          51          52          57          56
          52          53          58          57
          53          54          59          58
          55          56          61          60
          56          57          62          61
          57          58          63          62
          58          59          64          63
          60          61          66          65
          61          62          67          66
          62          63          68          67
          63          64          69          68
          65          66          71          70
          66          67          72          71
          67          68          73          72
          68          69          74          73
          75          76          81          80
          76          77          82          81
          77          78          83          82
          78          79          84          83
          80          81          86          85
          81          82          87          86
          82          83          88          87
          83          84          89          88
          85          86          91          90
          86          87          92          91
          87          88          93          92
          88          89          94          93
          90          91          96          95
          91          92          97          96
          92          93          98          97
          93          94          99          98
         100         101         106         105
         101         102         107         106
         102         103         108         107
         103         104         109         108
         105         106         111         110
         106         107         112         111
         107         108         113         112
         108         109         114         113
         110         111         116         115
         111         112         117         116
         112         113         118         117
         113         114         119         118
         115         116         121         120
         116         117         122         121
         117         118         123         122
         118         119         124         123
         125         126         131         130
         126         127         132         131
         127         128         133         132
         128         129         134         133
         130         131         136         135
         131         132         137         136
         132         133         138         137
         133         134         139         138
         135         136         141         140
         136         137         142         141
         137         138         143         142
         138         139         144         143
         140         141         146         145
         141         142         147         146
         142         143         148         147
         143         144         149         148
         150         151         156         155
         151         152         157         156
         152         153         158         157
         153         154         159         158
         155         156         161         160
         156         157         162         161
         157         158         163         162
         158         159         164         163
         160         161         166         165
         161         162         167         166
         162         163         168         167
         163         164         169         168
         165         166         171         170
         166         167         172         171
         167         168         173         172
         168         169         174         173
         175         176         181         180
         176         177         182         181
         177         178         183         182
         178         179         184         183
         180         181         186         185
         181         182         187         186
         182         183         188         187
         183         184         189         188
         185         186         191         190
         186         187         192         191
         187         188         193         192
         188         189         194         193
         190         191         196         195
         191         192         197         196
         192         193         198         197
         193         194         199         198
         200         201         206         205
         201         202         207         206
         202         203         208         207
         203         204         209         208
         205         206         211         210
         206         207         212         211
         207         208         213         212
         208         209         214         213
         210         211         216         215
         211         212         217         216
         212         213         218         217
         213         214         219         218
         215         216         221         220
         216         217         222         221
         217         218         223         222
         218         219         224         223
         225         226         231         230
         226         227         232         231
         227         228         233         232
         228         229         234         233
         230         231         236         235
         231         232         237         236
         232         233         238         237
         233         234         239         238
         235         236         241         240
         236         237         242         241
         237         238         243         242
         238         239         244         243
         240         241         246         245
         241         242         247         246
         242         243         248         247
         243         244         249         248
         250         251         256         255
         251         252         257         256
         252         253         258         257
         253         254         259         258
         255         256         261         260
         256         257         262         261
         257         258         263         262
         258         259         264         263
         260         261         266         265
         261         262         267         266
         262         263         268         267
         263         264         269         268
         265         266         271         270
         266         267         272         271
         267         268         273         272
         268         269         274         273
         275         276         281         280
         276         277         282         281
         277         278         283         282
         278         279         284         283
         280         281         286         285
         281         282         287         286
         282         283         288         287
         283         284         289         288
         285         286         291         290
         286         287         292         291
         287         288         293         292
         288         289         294         293
         290         291         296         295
         291         292         297         296
         292         293         298         297
         293         294         299         298
         300         301         306         305
         301         302         307         306
         302         303         308         307
         303         304         309         308
         305         306         311         310
         306         307         312         311
         307         308         313         312
         308         309         314         313
         310         311         316         315
         311         312         317         316
         312         313         318         317
         313         314         319         318
         315         316         321         320
         316         317         322         321
         317         318         323         322
         318         319         324         323
         325         326         331         330
         326         327         332         331
         327         328         333         332
         328         329         334         333
         330         331         336         335
         331         332         337         336
         332         333         338         337
         333         334         339         338
         335         336         341         340
         336         337         342         341
         337         338         343         342
         338         339         344         343
         340         341         346         345
         341         342         347         346
         342         343         348         347
         343         344         349         348
         350         351         356         355
         351         352         357         356
         352         353         358         357
         353         354         359         358
         355         356         361         360
         356         357         362         361
         357         358         363         362
         358         359         364         363
         360         361         366         365
         361         362         367         366
         362         363         368         367
         363         364         369         368
         365         366         371         370
         366         367         372         371
         367         368         373         372
         368         369         374         373
         375         376         381         380
         376         377         382         381
         377         378         383         382
         378         379         384         383
         380         381         386         385
         381         382         387         386
         382         383         388         387
         383         384         389         388
         385         386         391         390
         386         387         392         391
         387         388         393         392
         388         389         394         393
         390         391         396         395
         391         392         397         396
         392         393         398         397
         393         394         399         398
         400         401         406         405
         401         402         407         406
         402         403         408         407
         403         404         409         408
         405         406         411         410
         406         407         412         411
         407         408         413         412
         408         409         414         413
         410         411         416         415
         411         412         417         416
         412         413         418         417
         413         414         419         418
         415         416         421         420
         416         417         422         421
         417         418         423         422
         418         419         424         423
         425         426         431         430
         426         427         432         431
         427         428         433         432
         428         429         434         433
         430         431         436         435
         431         432         437         436
         432         433         438         437
         433         434         439         438
         435         436         441         440
         436         437         442         441
         437         438         443         442
         438         439         444         443
         440         441         446         445
         441         442         447         446
         442         443         448         447
         443         444         449         448
         450         451         456         455
         451         452         457         456
         452         453         458         457
         453         454         459         458
         455         456         461         460
         456         457         462         461
         457         458         463         462
         458         459         464         463
         460         461         466         465
         461         462         467         466
         462         463         468         467
         463         464         469         468
         465         466         471         470
         466         467         472         471
         467         468         473         472
         468         469         474         473
         475         476         481         480
         476         477         482         481
         477         478         483         482
         478         479         484         483
         480         481         486         485
         481         482         487         486
         482         483         488         487
         483         484         489         488
         485         486         491         490
         486         487         492         491
         487         488         493         492
         488         489         494         493
         490         491         496         495
         491         492         497         496
         492         493         498         497
         493         494         499         498
         500         501         506         505
         501         502         507         506
         502         503         508         507
         503         504         509         508
         505         506         511         510
         506         507         512         511
         507         508         513         512
         508         509         514         513
         510         511         516         515
         511         512         517         516
         512         513         518         517
         513         514         519         518
         515         516         521         520
         516         517         522         521
         517         518         523         522
         518         519         524         523
         525         526         531         530
         526         527         532         531
         527         528         533         532
         528         529         534         533
         530         531         536         535
         531         532         537         536
         532         533         538         537
         533         534         539         538
         535         536         541         540
         536         537         542         541
         537         538         543         542
         538         539         544         543
         540         541         546         545
         541         542         547         546
         542         543         548         547
         543         544         549         548
         550         551         556         555
         551         552         557         556
         552         553         558         557
         553         554         559         558
         555         556         561         560
         556         557         562         561
         557         558         563         562
         558         559         564         563
         560         561         566         565
         561         562         567         566
         562         563         568         567
         563         564         569         568
         565         566         571         570
         566         567         572         571
         567         568         573         572
         568         569         574         573
         575         576         581         580
         576         577         582         581
         577         578         583         582
         578         579         584         583
         580         581         586         585
         581         582         587         586
         582         583         588         587
         583         584         589         588
         585         586         591         590
         586         587         592         591
         587         588         593         592
         588         589         594         593
         590         591         596         595
         591         592         597         596
         592         593         598         597
         593         594         599         598
         600         601         606         605
         601         602         607         606
         602         603         608         607
         603         604         609         608
         605         606         611         610
         606         607         612         611
         607         608         613         612
         608         609         614         613
         610         611         616         615
         611         612         617         616
         612         613         618         617
         613         614         619         618
         615         616         621         620
         616         617         622         621
         617         618         623         622
         618         619         624         623
         625         626         631         630
         626         627         632         631
         627         628         633         632
         628         629         634         633
         630         631         636         635
         631         632         637         636
         632         633         638         637
         633         634         639         638
         635         636         641         640
         636         637         642         641
         637         638         643         642
         638         639         644         643
         640         641         646         645
         641         642         647         646
         642         643         648         647
         643         644         649         648
         650         651         656         655
         651         652         657         656
         652         653         658         657
         653         654         659         658
         655         656         661         660
         656         657         662         661
         657         658         663         662
         658         659         664         663
         660         661         666         665
         661         662         667         666
         662         663         668         667
         663         664         669         668
         665         666         671         670
         666         667         672         671
         667         668         673         672
         668         669         674         673
         675         676         681         680
         676         677         682         681
         677         678         683         682
         678         679         684         683
         680         681         686         685
         681         682         687         686
         682         683         688         687
         683         684         689         688
         685         686         691         690
         686         687         692         691
         687         688         693         692
         688         689         694         693
         690         691         696         695
         691         692         697         696
         692         693         698         697
         693         694         699         698
         700         701         706         705
         701         702         707         706
         702         703         708         707
         703         704         709         708
         705         706         711         710
         706         707         712         711
         707         708         713         712
         708         709         714         713
         710         711         716         715
         711         712         717         716
         712         713         718         717
         713         714         719         718
         715         716         721         720
         716         717         722         721
         717         718         723         722
         718         719         724         723
         725         726         731         730
         726         727         732         731
         727         728         733         732
         728         729         734         733
         730         731         736         735
         731         732         737         736
         732         733         738         737
         733         734         739         738
         735         736         741         740
         736         737         742         741
         737         738         743         742
         738         739         744         743
         740         741         746         745
         741         742         747         746
         742         743         748         747
         743         744         749         748
         750         751         756         755
         751         752         757         756
         752         753         758         757
         753         754         759         758
         755         756         761         760
         756         757         762         761
         757         758         763         762
         758         759         764         763
         760         761         766         765
         761         762         767         766
         762         763         768         767
         763         764         769         768
         765         766         771         770
         766         767         772         771
         767         768         773         772
         768         769         774         773
         775         776         781         780
         776         777         782         781
         777         778         783         782
         778         779         784         783
         780         781         786         785
         781         782         787         786
         782         783         788         787
         783         784         789         788
         785         786         791         790
         786         787         792         791
         787         788         793         792
         788         789         794         793
         790         791         796         795
         791         792         797         796
         792         793         798         797
         793         794         799         798
         800         801         806         805
         801         802         807         806
         802         803         808         807
         803         804         809         808
         805         806         811         810
         806         807         812         811
         807         808         813         812
         808         809         814         813
         810         811         816         815
         811         812         817         816
         812         813         818         817
         813         814         819         818
         815         816         821         820
         816         817         822         821
         817         818         823         822
         818         819         824         823
         825         826         831         830
         826         827         832         831
         827         828         833         832
         828         829         834         833
         830         831         836         835
         831         832         837         836
         832         833         838         837
         833         834         839         838
         835         836         841         840
         836         837         842         841
         837         838         843         842
         838         839         844         843
         840         841         846         845
         841         842         847         846
         842         843         848         847
         843         844         849         848
         850         851         856         855
         851         852         857         856
         852         853         858         857
         853         854         859         858
         855         856         861         860
         856         857         862         861
         857         858         863         862
         858         859         864         863
         860         861         866         865
         861         862         867         866
         862         863         868         867
         863         864         869         868
         865         866         871         870
         866         867         872         871
         867         868         873         872
         868         869         874         873
         875         876         881         880
         876         877         882         881
         877         878         883         882
         878         879         884         883
         880         881         886         885
         881         882         887         886
         882         883         888         887
         883         884         889         888
         885         886         891         890
         886         887         892         891
         887         888         893         892
         888         889         894         893
         890         891         896         895
         891         892         897         896
         892         893         898         897
         893         894         899         898
         900         901         906         905
         901         902         907         906
         902         903         908         907
         903         904         909         908
         905         906         911         910
         906         907         912         911
         907         908         913         912
         908         909         914         913
         910         911         916         915
         911         912         917         916
         912         913         918         917
         913         914         919         918
         915         916         921         920
         916         917         922         921
         917         918         923         922
         918         919         924         923
         925         926         931         930
         926         927         932         931
         927         928         933         932
         928         929         934         933
         930         931         936         935
         931         932         937         936
         932         933         938         937
         933         934         939         938
         935         936         941         940
         936         937         942         941
         937         938         943         942
         938         939         944         943
         940         941         946         945
         941         942         947         946
         942         943         948         947
         943         944         949         948
         950         951         956         955
         951         952         957         956
         952         953         958         957
         953         954         959         958
         955         956         961         960
         956         957         962         961
         957         958         963         962
         958         959         964         963
         960         961         966         965
         961         962         967         966
         962         963         968         967
         963         964         969         968
         965         966         971         970
         966         967         972         971
         967         968         973         972
         968         969         974         973
         975         976         981         980
         976         977         982         981
         977         978         983         982
         978         979         984         983
         980         981         986         985
         981         982         987         986
         982         983         988         987
         983         984         989         988
         985         986         991         990
         986         987         992         991
         987         988         993         992
         988         989         994         993
         990         991         996         995
         991         992         997         996
         992         993         998         997
         993         994         999         998
        1000        1001        1006        1005
        1001        1002        1007        1006
        1002        1003        1008        1007
        1003        1004        1009        1008
        1005        1006        1011        1010
        1006        1007        1012        1011
        1007        1008        1013        1012
        1008        1009        1014        1013
        1010        1011        1016        1015
        1011        1012        1017        1016
        1012        1013        1018        1017
        1013        1014        1019        1018
        1015        1016        1021        1020
        1016        1017        1022        1021
        1017        1018        1023        1022
        1018        1019        1024        1023
        1025        1026        1031        1030
        1026        1027        1032        1031
        1027        1028        1033        1032
        1028        1029        1034        1033
        1030        1031        1036        1035
        1031        1032        1037        1036
        1032        1033        1038        1037
        1033        1034        1039        1038
        1035        1036        1041        1040
        1036        1037        1042        1041
        1037        1038        1043        1042
        1038        1039        1044        1043
        1040        1041        1046        1045
        1041        1042        1047        1046
        1042        1043        1048        1047
        1043        1044        1049        1048
        1050        1051        1056        1055
        1051        1052        1057        1056
        1052        1053        1058        1057
        1053        1054        1059        1058
        1055        1056        1061        1060
        1056        1057        1062        1061
        1057        1058        1063        1062
        1058        1059        1064        1063
        1060        1061        1066        1065
        1061        1062        1067        1066
        1062        1063        1068        1067
        1063        1064        1069        1068
        1065        1066        1071        1070
        1066        1067        1072        1071
        1067        1068        1073        1072
        1068        1069        1074        1073
        1075        1076        1081        1080
        1076        1077        1082        1081
        1077        1078        1083        1082
        1078        1079        1084        1083
        1080        1081        1086        1085
        1081        1082        1087        1086
        1082        1083        1088        1087
        1083        1084        1089        1088
        1085        1086        1091        1090
        1086        1087        1092        1091
        1087        1088        1093        1092
        1088        1089        1094        1093
        1090        1091        1096        1095
        1091        1092        1097        1096
        1092        1093        1098        1097
        1093        1094        1099        1098
        1100        1101        1106        1105
        1101        1102        1107        1106
        1102        1103        1108        1107
        1103        1104        1109        1108
        1105        1106        1111        1110
        1106        1107        1112        1111
        1107        1108        1113        1112
        1108        1109        1114        1113
        1110        1111        1116        1115
        1111        1112        1117        1116
        1112        1113        1118        1117
        1113        1114        1119        1118
        1115        1116        1121        1120
        1116        1117        1122        1121
        1117        1118        1123        1122
        1118        1119        1124        1123
        1125        1126        1131        1130
        1126        1127        1132        1131
        1127        1128        1133        1132
        1128        1129        1134        1133
        1130        1131        1136        1135
        1131        1132        1137        1136
        1132        1133        1138        1137
        1133        1134        1139        1138
        1135        1136        1141        1140
        1136        1137        1142        1141
        1137        1138        1143        1142
        1138        1139        1144        1143
        1140        1141        1146        1145
        1141        1142        1147        1146
        1142        1143        1148        1147
        1143        1144        1149        1148
        1150        1151        1156        1155
        1151        1152        1157        1156
        1152        1153        1158        1157
        1153        1154        1159        1158
        1155        1156        1161        1160
        1156        1157        1162        1161
        1157        1158        1163        1162
        1158        1159        1164        1163
        1160        1161        1166        1165
        1161        1162        1167        1166
        1162        1163        1168        1167
        1163        1164        1169        1168
        1165        1166        1171        1170
        1166        1167        1172        1171
        1167        1168        1173        1172
        1168        1169        1174        1173
        1175        1176        1181        1180
        1176        1177        1182        1181
        1177        1178        1183        1182
        1178        1179        1184        1183
        1180        1181        1186        1185
        1181        1182        1187        1186
        1182        1183        1188        1187
        1183        1184        1189        1188
        1185        1186        1191        1190
        1186        1187        1192        1191
        1187        1188        1193        1192
        1188        1189        1194        1193
        1190        1191        1196        1195
        1191        1192        1197        1196
        1192        1193        1198        1197
        1193        1194        1199        1198
        1200        1201        1206        1205
        1201        1202        1207        1206
        1202        1203        1208        1207
        1203        1204        1209        1208
        1205        1206        1211        1210
        1206        1207        1212        1211
        1207        1208        1213        1212
        1208        1209        1214        1213
        1210        1211        1216        1215
        1211        1212        1217        1216
        1212        1213        1218        1217
        1213        1214        1219        1218
        1215        1216        1221        1220
        1216        1217        1222        1221
        1217        1218        1223        1222
        1218        1219        1224        1223
        1225        1226        1231        1230
        1226        1227        1232        1231
        1227        1228        1233        1232
        1228        1229        1234        1233
        1230        1231        1236        1235
        1231        1232        1237        1236
        1232        1233        1238        1237
        1233        1234        1239        1238
        1235        1236        1241        1240
        1236        1237        1242        1241
        1237        1238        1243        1242
        1238        1239        1244        1243
        1240        1241        1246        1245
        1241        1242        1247        1246
        1242        1243        1248        1247
        1243        1244        1249        1248
        1250        1251        1256        1255
        1251        1252        1257        1256
        1252        1253        1258        1257
        1253        1254        1259        1258
        1255        1256        1261        1260
        1256        1257        1262        1261
        1257        1258        1263        1262
        1258        1259        1264        1263
        1260        1261        1266        1265
        1261        1262        1267        1266
        1262        1263        1268        1267
        1263        1264        1269        1268
        1265        1266        1271        1270
        1266        1267        1272        1271
        1267        1268        1273        1272
        1268        1269        1274        1273
        1275        1276        1281        1280
        1276        1277        1282        1281
        1277        1278        1283        1282
        1278        1279        1284        1283
        1280        1281        1286        1285
        1281        1282        1287        1286
        1282        1283        1288        1287
        1283        1284        1289        1288
        1285        1286        1291        1290
        1286        1287        1292        1291
        1287        1288        1293        1292
        1288        1289        1294        1293
        1290        1291        1296        1295
        1291        1292        1297        1296
        1292        1293        1298        1297
        1293        1294        1299        1298
        1300        1301        1306        1305
        1301        1302        1307        1306
        1302        1303        1308        1307
        1303        1304        1309        1308
        1305        1306        1311        1310
        1306        1307        1312        1311
        1307        1308        1313        1312
        1308        1309        1314        1313
        1310        1311        1316        1315
        1311        1312        1317        1316
        1312        1313        1318        1317
        1313        1314        1319        1318
        1315        1316        1321        1320
        1316        1317        1322        1321
        1317        1318        1323        1322
        1318        1319        1324        1323
        1325        1326        1331        1330
        1326        1327        1332        1331
        1327        1328        1333        1332
        1328        1329        1334        1333
        1330        1331        1336        1335
        1331        1332        1337        1336
        1332        1333        1338        1337
        1333        1334        1339        1338
        1335        1336        1341        1340
        1336        1337        1342        1341
        1337        1338        1343        1342
        1338        1339        1344        1343
        1340        1341        1346        1345
        1341        1342        1347        1346
        1342        1343        1348        1347
        1343        1344        1349        1348
        1350        1351        1356        1355
        1351        1352        1357        1356
        1352        1353        1358        1357
        1353        1354        1359        1358
        1355        1356        1361        1360
        1356        1357        1362        1361
        1357        1358        1363        1362
        1358        1359        1364        1363
        1360        1361        1366        1365
        1361        1362        1367        1366
        1362        1363        1368        1367
        1363        1364        1369        1368
        1365        1366        1371        1370
        1366        1367        1372        1371
        1367        1368        1373        1372
        1368        1369        1374        1373
        1375        1376        1381        1380
        1376        1377        1382        1381
        1377        1378        1383        1382
        1378        1379        1384        1383
        1380        1381        1386        1385
        1381        1382        1387        1386
        1382        1383        1388        1387
        1383        1384        1389        1388
        1385        1386        1391        1390
        1386        1387        1392        1391
        1387        1388        1393        1392
        1388        1389        1394        1393
        1390        1391        1396        1395
        1391        1392        1397        1396
        1392        1393        1398        1397
        1393        1394        1399        1398
        1400        1401        1406        1405
        1401        1402        1407        1406
        1402        1403        1408        1407
        1403        1404        1409        1408
        1405        1406        1411        1410
        1406        1407        1412        1411
        1407        1408        1413        1412
        1408        1409        1414        1413
        1410        1411        1416        1415
        1411        1412        1417        1416
        1412        1413        1418        1417
        1413        1414        1419        1418
        1415        1416        1421        1420
        1416        1417        1422        1421
        1417        1418        1423        1422
        1418        1419        1424        1423
        1425        1426        1431        1430
        1426        1427        1432        1431
        1427        1428        1433        1432
        1428        1429        1434        1433
        1430        1431        1436        1435
        1431        1432        1437        1436
        1432        1433        1438        1437
        1433        1434        1439        1438
        1435        1436        1441        1440
        1436        1437        1442        1441
        1437        1438        1443        1442
        1438        1439        1444        1443
        1440        1441        1446        1445
        1441        1442        1447        1446
        1442        1443        1448        1447
        1443        1444        1449        1448
        1450        1451        1456        1455
        1451        1452        1457        1456
        1452        1453        1458        1457
        1453        1454        1459        1458
        1455        1456        1461        1460
        1456        1457        1462        1461
        1457        1458        1463        1462
        1458        1459        1464        1463
        1460        1461        1466        1465
        1461        1462        1467        1466
        1462        1463        1468        1467
        1463        1464        1469        1468
        1465        1466        1471        1470
        1466        1467        1472        1471
        1467        1468        1473        1472
        1468        1469        1474        1473
        1475        1476        1481        1480
        1476        1477        1482        1481
        1477        1478        1483        1482
        1478        1479        1484        1483
        1480        1481        1486        1485
        1481        1482        1487        1486
        1482        1483        1488        1487
        1483        1484        1489        1488
        1485        1486        1491        1490
        1486        1487        1492        1491
        1487        1488        1493        1492
        1488        1489        1494        1493
        1490        1491        1496        1495
        1491        1492        1497        1496
        1492        1493        1498        1497
        1493        1494        1499        1498
        1500        1501        1506        1505
        1501        1502        1507        1506
        1502        1503        1508        1507
        1503        1504        1509        1508
        1505        1506        1511        1510
        1506        1507        1512        1511
        1507        1508        1513        1512
        1508        1509        1514        1513
        1510        1511        1516        1515
        1511        1512        1517        1516
        1512        1513        1518        1517
        1513        1514        1519        1518
        1515        1516        1521        1520
        1516        1517        1522        1521
        1517        1518        1523        1522
        1518        1519        1524        1523
        1525        1526        1531        1530
        1526        1527        1532        1531
        1527        1528        1533        1532
        1528        1529        1534        1533
        1530        1531        1536        1535
        1531        1532        1537        1536
        1532        1533        1538        1537
        1533        1534        1539        1538
        1535        1536        1541        1540
        1536        1537        1542        1541
        1537        1538        1543        1542
        1538        1539        1544        1543
        1540        1541        1546        1545
        1541        1542        1547        1546
        1542        1543        1548        1547
        1543        1544        1549        1548
        1550        1551        1556        1555
        1551        1552        1557        1556
        1552        1553        1558        1557
        1553        1554        1559        1558
        1555        1556        1561        1560
        1556        1557        1562        1561
        1557        1558        1563        1562
        1558        1559        1564        1563
        1560        1561        1566        1565
        1561        1562        1567        1566
        1562        1563        1568        1567
        1563        1564        1569        1568
        1565        1566        1571        1570
        1566        1567        1572        1571
        1567        1568        1573        1572
        1568        1569        1574        1573
        1575        1576        1581        1580
        1576        1577        1582        1581
        1577        1578        1583        1582
        1578        1579        1584        1583
        1580        1581        1586        1585
        1581        1582        1587        1586
        1582        1583        1588        1587
        1583        1584        1589        1588
        1585        1586        1591        1590
        1586        1587        1592        1591
        1587        1588        1593        1592
        1588        1589        1594        1593
        1590        1591        1596        1595
        1591        1592        1597        1596
        1592        1593        1598        1597
        1593        1594        1599        1598
 </DataArray>
 <DataArray  type="Int32"  Name="offsets"  format="ascii"> 
           4
           8
          12
          16
          20
          24
          28
          32
          36
          40
          44
          48
          52
          56
          60
          64
          68
          72
          76
          80
          84
          88
          92
          96
         100
         104
         108
         112
         116
         120
         124
         128
         132
         136
         140
         144
         148
         152
         156
         160
         164
         168
         172
         176
         180
         184
         188
         192
         196
         200
         204
         208
         212
         216
         220
         224
         228
         232
         236
         240
         244
         248
         252
         256
         260
         264
         268
         272
         276
         280
         284
         288
         292
         296
         300
         304
         308
         312
         316
         320
         324
         328
         332
         336
         340
         344
         348
         352
         356
         360
         364
         368
         372
         376
         380
         384
         388
         392
         396
         400
         404
         408
         412
         416
         420
         424
         428
         432
         436
         440
         444
         448
         452
         456
         460
         464
         468
         472
         476
         480
         484
         488
         492
         496
         500
         504
         508
         512
         516
         520
         524
         528
         532
         536
         540
         544
         548
         552
         556
         560
         564
         568
         572
         576
         580
         584
         588
         592
         596
         600
         604
         608
         612
         616
         620
         624
         628
         632
         636
         640
         644
         648
         652
         656
         660
         664
         668
         672
         676
         680
         684
         688
         692
         696
         700
         704
         708
         712
         716
         720
         724
         728
         732
         736
         740
         744
         748
         752
         756
         760
         764
         768
         772
         776
         780
         784
         788
         792
         796
         800
         804
         808
         812
         816
         820
         824
         828
         832
         836
         840
         844
         848
         852
         856
         860
         864
         868
         872
         876
         880
         884
         888
         892
         896
         900
         904
         908
         912
         916
         920
         924
         928
         932
         936
         940
         944
         948
         952
         956
         960
         964
         968
         972
         976
         980
         984
         988
         992
         996
        1000
        1004
        1008
        1012
        1016
        1020
        1024
        1028
        1032
        1036
        1040
        1044
        1048
        1052
        1056
        1060
        1064
        1068
        1072
        1076
        1080
        1084
        1088
        1092
        1096
        1100
        1104
        1108
        1112
        1116
        1120
        1124
        1128
        1132
        1136
        1140
        1144
        1148
        1152
        1156
        1160
        1164
        1168
        1172
        1176
        1180
        1184
        1188
        1192
        1196
        1200
        1204
        1208
        1212
        1216
        1220
        1224
        1228
        1232
        1236
        1240
        1244
        1248
        1252
        1256
        1260
        1264
        1268
        1272
        1276
        1280
        1284
        1288
        1292
        1296
        1300
        1304
        1308
        1312
        1316
        1320
        1324
        1328
        1332
        1336
        1340
        1344
        1348
        1352
        1356
        1360
        1364
        1368
        1372
        1376
        1380
        1384
        1388
        1392
        1396
        1400
        1404
        1408
        1412
        1416
        1420
        1424
        1428
        1432
        1436
        1440
        1444
        1448
        1452
        1456
        1460
        1464
        1468
        1472
        1476
        1480
        1484
        1488
        1492
        1496
        1500
        1504
        1508
        1512
        1516
        1520
        1524
        1528
        1532
        1536
        1540
        1544
        1548
        1552
        1556
        1560
        1564
        1568
        1572
        1576
        1580
        1584
        1588
        1592
        1596
        1600
        1604
        1608
        1612
        1616
        1620
        1624
        1628
        1632
        1636
        1640
        1644
        1648
        1652
        1656
        1660
        1664
        1668
        1672
        1676
        1680
        1684
        1688
        1692
        1696
        1700
        1704
        1708
        1712
        1716
        1720
        1724
        1728
        1732
        1736
        1740
        1744
        1748
        1752
        1756
        1760
        1764
        1768
        1772
        1776
        1780
        1784
        1788
        1792
        1796
        1800
        1804
        1808
        1812
        1816
        1820
        1824
        1828
        1832
        1836
        1840
        1844
        1848
        1852
        1856
        1860
        1864
        1868
        1872
        1876
        1880
        1884
        1888
        1892
        1896
        1900
        1904
        1908
        1912
        1916
        1920
        1924
        1928
        1932
        1936
        1940
        1944
        1948
        1952
        1956
        1960
        1964
        1968
        1972
        1976
        1980
        1984
        1988
        1992
        1996
        2000
        2004
        2008
        2012
        2016
        2020
        2024
        2028
        2032
        2036
        2040
        2044
        2048
        2052
        2056
        2060
        2064
        2068
        2072
        2076
        2080
        2084
        2088
        2092
        2096
        2100
        2104
        2108
        2112
        2116
        2120
        2124
        2128
        2132
        2136
        2140
        2144
        2148
        2152
        2156
        2160
        2164
        2168
        2172
        2176
        2180
        2184
        2188
        2192
        2196
        2200
        2204
        2208
        2212
        2216
        2220
        2224
        2228
        2232
        2236
        2240
        2244
        2248
        2252
        2256
        2260
        2264
        2268
        2272
        2276
        2280
        2284
        2288
        2292
        2296
        2300
        2304
        2308
        2312
        2316
        2320
        2324
        2328
        2332
        2336
        2340
        2344
        2348
        2352
        2356
        2360
        2364
        2368
        2372
        2376
        2380
        2384
        2388
        2392
        2396
        2400
        2404
        2408
        2412
        2416
        2420
        2424
        2428
        2432
        2436
        2440
        2444
        2448
        2452
        2456
        2460
        2464
        2468
        2472
        2476
        2480
        2484
        2488
        2492
        2496
        2500
        2504
        2508
        2512
        2516
        2520
        2524
        2528
        2532
        2536
        2540
        2544
        2548
        2552
        2556
        2560
        2564
        2568
        2572
        2576
        2580
        2584
        2588
        2592
        2596
        2600
        2604
        2608
        2612
        2616
        2620
        2624
        2628
        2632
        2636
        2640
        2644
        2648
        2652
        2656
        2660
        2664
        2668
        2672
        2676
        2680
        2684
        2688
        2692
        2696
        2700
        2704
        2708
        2712
        2716
        2720
        2724
        2728
        2732
        2736
        2740
        2744
        2748
        2752
        2756
        2760
        2764
        2768
        2772
        2776
        2780
        2784
        2788
        2792
        2796
        2800
        2804
        2808
        2812
        2816
        2820
        2824
        2828
        2832
        2836
        2840
        2844
        2848
        2852
        2856
        2860
        2864
        2868
        2872
        2876
        2880
        2884
        2888
        2892
        2896
        2900
        2904
        2908
        2912
        2916
        2920
        2924
        2928
        2932
        2936
        2940
        2944
        2948
        2952
        2956
        2960
        2964
        2968
        2972
        2976
        2980
        2984
        2988
        2992
        2996
        3000
        3004
        3008
        3012
        3016
        3020
        3024
        3028
        3032
        3036
        3040
        3044
        3048
        3052
        3056
        3060
        3064
        3068
        3072
        3076
        3080
        3084
        3088
        3092
        3096
        3100
        3104
        3108
        3112
        3116
        3120
        3124
        3128
        3132
        3136
        3140
        3144
        3148
        3152
        3156
        3160
        3164
        3168
        3172
        3176
        3180
        3184
        3188
        3192
        3196
        3200
        3204
        3208
        3212
        3216
        3220
        3224
        3228
        3232
        3236
        3240
        3244
        3248
        3252
        3256
        3260
        3264
        3268
        3272
        3276
        3280
        3284
        3288
        3292
        3296
        3300
        3304
        3308
        3312
        3316
        3320
        3324
        3328
        3332
        3336
        3340
        3344
        3348
        3352
        3356
        3360
        3364
        3368
        3372
        3376
        3380
        3384
        3388
        3392
        3396
        3400
        3404
        3408
        3412
        3416
        3420
        3424
        3428
        3432
        3436
        3440
        3444
        3448
        3452
        3456
        3460
        3464
        3468
        3472
        3476
        3480
        3484
        3488
        3492
        3496
        3500
        3504
        3508
        3512
        3516
        3520
        3524
        3528
        3532
        3536
        3540
        3544
        3548
        3552
        3556
        3560
        3564
        3568
        3572
        3576
        3580
        3584
        3588
        3592
        3596
        3600
        3604
        3608
        3612
        3616
        3620
        3624
        3628
        3632
        3636
        3640
        3644
        3648
        3652
        3656
        3660
        3664
        3668
        3672
        3676
        3680
        3684
        3688
        3692
        3696
        3700
        3704
        3708
        3712
        3716
        3720
        3724
        3728
        3732
        3736
        3740
        3744
        3748
        3752
        3756
        3760
        3764
        3768
        3772
        3776
        3780
        3784
        3788
        3792
        3796
        3800
        3804
        3808
        3812
        3816
        3820
        3824
        3828
        3832
        3836
        3840
        3844
        3848
        3852
        3856
        3860
        3864
        3868
        3872
        3876
        3880
        3884
        3888
        3892
        3896
        3900
        3904
        3908
        3912
        3916
        3920
        3924
        3928
        3932
        3936
        3940
        3944
        3948
        3952
        3956
        3960
        3964
        3968
        3972
        3976
        3980
        3984
        3988
        3992
        3996
        4000
        4004
        4008
        4012
        4016
        4020
        4024
        4028
        4032
        4036
        4040
        4044
        4048
        4052
        4056
        4060
        4064
        4068
        4072
        4076
        4080
        4084
        4088
        4092
        4096
 </DataArray>
 <DataArray  type="UInt8"  Name="types"  format="ascii">
 9
 9
 9
 9
 9
 9
 9
 9
 9
 9
 9
 9
 9
 9
 9
 9
 9
 9
 9
 9
 9
 9
 9
 9
 9
 9
 9
 9
 9
 9
 9
 9
 9
 9
 9
 9
 9
 9
 9
 9
 9
 9
 9
 9
 9
 9
 9
 9
 9
 9
 9
 9
 9
 9
 9
 9
 9
 9
 9
 9
 9
 9
 9
 9
 9
 9
 9
 9
 9
 9
 9
 9
 9
 9
 9
 9
 9
 9
 9
 9
 9
 9
 9
 9
 9
 9
 9
 9
 9
 9
 9
 9
 9
 9
 9
 9
 9
 9
 9
 9
 9
 9
 9
 9
 9
 9
 9
 9
 9
 9
 9
 9
 9
 9
 9
 9
 9
 9
 9
 9
 9
 9
 9
 9
 9
 9
 9
 9
 9
 9
 9
 9
 9
 9
 9
 9
 9
 9
 9
 9
 9
 9
 9
 9
 9
 9
 9
 9
 9
 9
 9
 9
 9
 9
 9
 9
 9
 9
 9
 9
 9
 9
 9
 9
 9
 9
 9
 9
 9
 9
 9
 9
 9
 9
 9
 9
 9
 9
 9
 9
 9
 9
 9
 9
 9
 9
 9
 9
 9
 9
 9
 9
 9
 9
 9
 9
 9
 9
 9
 9
 9
 9
 9
 9
 9
 9
 9
 9
 9
 9
 9
 9
 9
 9
 9
 9
 9
 9
 9
 9
 9
 9
 9
 9
 9
 9
 9
 9
 9
 9
 9
 9
 9
 9
 9
 9
 9
 9
 9
 9
 9
 9
 9
 9
 9
 9
 9
 9
 9
 9
 9
 9
 9
 9
 9
 9
 9
 9
 9
 9
 9
 9
 9
 9
 9
 9
 9
 9
 9
 9
 9
 9
 9
 9
 9
 9
 9
 9
 9
 9
 9
 9
 9
 9
 9
 9
 9
 9
 9
 9
 9
 9
 9
 9
 9
 9
 9
 9
 9
 9
 9
 9
 9
 9
 9
 9
 9
 9
 9
 9
 9
 9
 9
 9
 9
 9
 9
 9
 9
 9
 9
 9
 9
 9
 9
 9
 9
 9
 9
 9
 9
 9
 9
 9
 9
 9
 9
 9
 9
 9
 9
 9
 9
 9
 9
 9
 9
 9
 9
 9
 9
 9
 9
 9
 9
 9
 9
 9
 9
 9
 9
 9
 9
 9
 9
 9
 9
 9
 9
 9
 9
 9
 9
 9
 9
 9
 9
 9
 9
 9
 9
 9
 9
 9
 9
 9
 9
 9
 9
 9
 9
 9
 9
 9
 9
 9
 9
 9
 9
 9
 9
 9
 9
 9
 9
 9
 9
 9
 9
 9
 9
 9
 9
 9
 9
 9
 9
 9
 9
 9
 9
 9
 9
 9
 9
 9
 9
 9
 9
 9
 9
 9
 9
 9
 9
 9
 9
 9
 9
 9
 9
 9
 9
 9
 9
 9
 9
 9
 9
 9
 9
 9
 9
 9
 9
 9
 9
 9
 9
 9
 9
 9
 9
 9
 9
 9
 9
 9
 9
 9
 9
 9
 9
 9
 9
 9
 9
 9
 9
 9
 9
 9
 9
 9
 9
 9
 9
 9
 9
 9
 9
 9
 9
 9
 9
 9
 9
 9
 9
 9
 9
 9
 9
 9
 9
 9
 9
 9
 9
 9
 9
 9
 9
 9
 9
 9
 9
 9
 9
 9
 9
 9
 9
 9
 9
 9
 9
 9
 9
 9
 9
 9
 9
 9
 9
 9
 9
 9
 9
 9
 9
 9
 9
 9
 9
 9
 9
 9
 9
 9
 9
 9
 9
 9
 9
 9
 9
 9
 9
 9
 9
 9
 9
 9
 9
 9
 9
 9
 9
 9
 9
 9
 9
 9
 9
 9
 9
 9
 9
 9
 9
 9
 9
 9
 9
 9
 9
 9
 9
 9
 9
 9
 9
 9
 9
 9
 9
 9
 9
 9
 9
 9
 9
 9
 9
 9
 9
 9
 9
 9
 9
 9
 9
 9
 9
 9
 9
 9
 9
 9
 9
 9
 9
 9
 9
 9
 9
 9
 9
 9
 9
 9
 9
 9
 9
 9
 9
 9
 9
 9
 9
 9
 9
 9
 9
 9
 9
 9
 9
 9
 9
 9
 9
 9
 9
 9
 9
 9
 9
 9
 9
 9
 9
 9
 9
 9
 9
 9
 9
 9
 9
 9
 9
 9
 9
 9
 9
 9
 9
 9
 9
 9
 9
 9
 9
 9
 9
 9
 9
 9
 9
 9
 9
 9
 9
 9
 9
 9
 9
 9
 9
 9
 9
 9
 9
 9
 9
 9
 9
 9
 9
 9
 9
 9
 9
 9
 9
 9
 9
 9
 9
 9
 9
 9
 9
 9
 9
 9
 9
 9
 9
 9
 9
 9
 9
 9
 9
 9
 9
 9
 9
 9
 9
 9
 9
 9
 9
 9
 9
 9
 9
 9
 9
 9
 9
 9
 9
 9
 9
 9
 9
 9
 9
 9
 9
 9
 9
 9
 9
 9
 9
 9
 9
 9
 9
 9
 9
 9
 9
 9
 9
 9
 9
 9
 9
 9
 9
 9
 9
 9
 9
 9
 9
 9
 9
 9
 9
 9
 9
 9
 9
 9
 9
 9
 9
 9
 9
 9
 9
 9
 9
 9
 9
 9
 9
 9
 9
 9
 9
 9
 9
 9
 9
 9
 9
 9
 9
 9
 9
 9
 9
 9
 9
 9
 9
 9
 9
 9
 9
 9
 9
 9
 9
 9
 9
 9
 9
 9
 9
 9
 9
 9
 9
 9
 9
 9
 9
 9
 9
 9
 9
 9
 9
 9
 9
 9
 9
 9
 9
 9
 9
 9
 9
 9
 9
 9
 9
 9
 9
 9
 9
 9
 9
 9
 9
 9
 9
 9
 9
 9
 9
 9
 9
 9
 9
 9
 9
 9
 9
 9
 9
 9
 9
 9
 9
 9
 9
 9
 9
 9
 9
 9
 9
 9
 9
 9
 9
 9
 9
 9
 9
 9
 9
 9
 9
 9
 9
 9
 9
 9
 9
 9
 9
 9
 9
 9
 9
 9
 9
 9
 9
 9
 9
 9
 9
 9
 9
 9
 9
 9
 9
 9
 9
 9
 9
 9
 9
 9
 9
 9
 9
 9
 9
 9
 9
 9
 9
 9
 9
 9
 9
 9
 9
 9
 9
 9
 9
 9
 9
 9
 9
 9
 9
 9
 9
 9
 9
 9
 9
 9
 9
 9
 9
 9
 9
 9
 9
 9
 9
 9
 9
 9
 9
 9
 9
 9
 9
 9
 9
 9
 9
 9
 9
 9
 9
 9
 9
 9
 9
 9
 9
 9
 9
 9
 </DataArray>
 </Cells> 
 <PointData>
 <DataArray  type="Float64" Name="disp" NumberOfComponents="3" format="ascii">
   6.8338759821128636E-002   6.1261872792365668E-002   0.0000000000000000     
   7.0454984957303429E-002   6.7429092317163847E-002   0.0000000000000000     
   7.2704606341812750E-002   7.3539426999273960E-002   0.0000000000000000     
   7.5087623974656639E-002   7.9592876838695995E-002   0.0000000000000000     
   7.7604037855835042E-002   8.5589441835429936E-002   0.0000000000000000     
   6.1159314306621006E-002   6.1016506199702156E-002   0.0000000000000000     
   6.3665296389870063E-002   6.6912056549404061E-002   0.0000000000000000     
   6.6184810084410198E-002   7.2838857379711255E-002   0.0000000000000000     
   6.8717855390241403E-002   7.8796908690623724E-002   0.0000000000000000     
   7.1264432307363693E-002   8.4786210482141466E-002   0.0000000000000000     
   5.4909268342989620E-002   6.0665961470644028E-002   0.0000000000000000     
   5.7592754045767330E-002   6.6349967410979011E-002   0.0000000000000000     
   6.0215610995293128E-002   7.2136667791899520E-002   0.0000000000000000     
   6.2777839191567014E-002   7.8026062613405542E-002   0.0000000000000000     
   6.5279438634588988E-002   8.4018151875497063E-002   0.0000000000000000     
   4.9588621930234500E-002   6.0210238605191285E-002   0.0000000000000000     
   5.2237357924995217E-002   6.5742824901888708E-002   0.0000000000000000     
   5.4797009074461549E-002   7.1432858235838753E-002   0.0000000000000000     
   5.7267575378633459E-002   7.7280338607041421E-002   0.0000000000000000     
   5.9649056837510948E-002   8.3285266015496726E-002   0.0000000000000000     
   4.5197375068355625E-002   5.9649337603343941E-002   0.0000000000000000     
   4.7599108027553773E-002   6.5090629022133167E-002   0.0000000000000000     
   4.9929004321915466E-002   7.0727428711528983E-002   0.0000000000000000     
   5.2187063951440717E-002   7.6559736671531417E-002   0.0000000000000000     
   5.4373286916129547E-002   8.2587552902140454E-002   0.0000000000000000     
   7.7604037855835042E-002   8.5589441835429936E-002   0.0000000000000000     
   8.0152441309971706E-002   9.1638585342340872E-002   0.0000000000000000     
   8.2631427661690349E-002   9.7849770712293893E-002   0.0000000000000000     
   8.5040996910990929E-002  0.10422299794528900        0.0000000000000000     
   8.7381149057873489E-002  0.11075826704132616        0.0000000000000000     
   7.1264432307363693E-002   8.4786210482141466E-002   0.0000000000000000     
   7.3770368290247468E-002   9.0870939494392761E-002   0.0000000000000000     
   7.6181490793363144E-002   9.7115272467505898E-002   0.0000000000000000     
   7.8497799816710720E-002  0.10351920940148088        0.0000000000000000     
   8.0719295360290183E-002  0.11008275029631767        0.0000000000000000     
   6.5279438634588988E-002   8.4018151875497063E-002   0.0000000000000000     
   6.7696573879018812E-002   9.0140113983881803E-002   0.0000000000000000     
   7.0005409479516167E-002   9.6419127344267441E-002   0.0000000000000000     
   7.2205945436081095E-002  0.10285519195665405        0.0000000000000000     
   7.4298181748713610E-002  0.10944830782104156        0.0000000000000000     
   5.9649056837510948E-002   8.3285266015496726E-002   0.0000000000000000     
   6.1931058076285704E-002   8.9446108810808000E-002   0.0000000000000000     
   6.4103183720149434E-002   9.5761335342578593E-002   0.0000000000000000     
   6.6165433769102125E-002  0.10223094561080855        0.0000000000000000     
   6.8117808223143755E-002  0.10885493961549780        0.0000000000000000     
   5.4373286916129547E-002   8.2587552902140454E-002   0.0000000000000000     
   5.6473820882048192E-002   8.8788923975171324E-002   0.0000000000000000     
   5.8474813515262923E-002   9.5141896462439285E-002   0.0000000000000000     
   6.0376264815773739E-002  0.10164647036394434        0.0000000000000000     
   6.2178174783580634E-002  0.10830264567968644        0.0000000000000000     
   8.7381149057873489E-002  0.11075826704132616        0.0000000000000000     
   8.9641782324848318E-002  0.11744618190646988        0.0000000000000000     
   9.1812794934425679E-002  0.12427734644678473        0.0000000000000000     
   9.3894186886605627E-002  0.13125176066227062        0.0000000000000000     
   9.5885958181388134E-002  0.13836942455292764        0.0000000000000000     
   8.0719295360290183E-002  0.11008275029631767        0.0000000000000000     
   8.2850631548518447E-002  0.11679762499631519        0.0000000000000000     
   8.4896462505812342E-002  0.12365556334577227        0.0000000000000000     
   8.6856788232171883E-002  0.13065656534468895        0.0000000000000000     
   8.8731608727597083E-002  0.13780063099306517        0.0000000000000000     
   7.4298181748713610E-002  0.10944830782104156        0.0000000000000000     
   7.6295706484156373E-002  0.11619098729168506        0.0000000000000000     
   7.8212107709152046E-002  0.12307574272283962        0.0000000000000000     
   8.0047385423700670E-002  0.13010257411450524        0.0000000000000000     
   8.1801539627802206E-002  0.13727148146668194        0.0000000000000000     
   6.8117808223143755E-002  0.10885493961549780        0.0000000000000000     
   6.9977007131762095E-002  0.11562626879257953        0.0000000000000000     
   7.1759730544444830E-002  0.12253788457798677        0.0000000000000000     
   7.3465978461191975E-002  0.12958978697171963        0.0000000000000000     
   7.5095750882003515E-002  0.13678197597377798        0.0000000000000000     
   6.2178174783580634E-002  0.10830264567968644        0.0000000000000000     
   6.3894533491335614E-002  0.11510346949899861        0.0000000000000000     
   6.5539331011690682E-002  0.12204198891121378        0.0000000000000000     
   6.7112567344645796E-002  0.12911820391633200        0.0000000000000000     
   6.8614242490201011E-002  0.13633211451435318        0.0000000000000000     
   9.5885958181388134E-002  0.13836942455292764        0.0000000000000000     
   9.7785706506194697E-002  0.14561444800584974        0.0000000000000000     
   9.9591029548446772E-002  0.15297094090813101        0.0000000000000000     
  0.10130192730814438       0.16043890325977139        0.0000000000000000     
  0.10291839978528754       0.16801833506077088        0.0000000000000000     
   8.8731608727597083E-002  0.13780063099306517        0.0000000000000000     
   9.0520654202462011E-002  0.14507185476924170        0.0000000000000000     
   9.2223654867140722E-002  0.15245433115155921        0.0000000000000000     
   9.3840610721633258E-002  0.15994806014001769        0.0000000000000000     
   9.5371521765939576E-002  0.16755304173461719        0.0000000000000000     
   8.1801539627802206E-002  0.13727148146668194        0.0000000000000000     
   8.3475576633532278E-002  0.14456709703089657        0.0000000000000000     
   8.5070502752966473E-002  0.15197405305867592        0.0000000000000000     
   8.6586317986104777E-002  0.15949234955002001        0.0000000000000000     
   8.8023022332947232E-002  0.16712198650492885        0.0000000000000000     
   7.5095750882003515E-002  0.13678197597377798        0.0000000000000000     
   7.6650473799405525E-002  0.14410017479081430        0.0000000000000000     
   7.8131573205924010E-002  0.15153010662948108        0.0000000000000000     
   7.9539049101558998E-002  0.15907177148977825        0.0000000000000000     
   8.0872901486310475E-002  0.16672516937170589        0.0000000000000000     
   6.8614242490201011E-002  0.13633211451435318        0.0000000000000000     
   7.0045345700081724E-002  0.14367108804899498        0.0000000000000000     
   7.1406866226013319E-002  0.15112249186397470        0.0000000000000000     
   7.2698804067995865E-002  0.15868632595929244        0.0000000000000000     
   7.3921159226029293E-002  0.16636259033494821        0.0000000000000000     
  0.10291839978528754       0.16801833506077088        0.0000000000000000     
  0.10444680763640192       0.17569623042758259        0.0000000000000000     
  0.10589351151801329       0.18345958347665953        0.0000000000000000     
  0.10725851143012158       0.19130839420800180        0.0000000000000000     
  0.10854180737272685       0.19924266262160928        0.0000000000000000     
   9.5371521765939576E-002  0.16755304173461719        0.0000000000000000     
   9.6817325734736462E-002  0.17525669633235946        0.0000000000000000     
   9.8178960362700712E-002  0.18304644433024642        0.0000000000000000     
   9.9456425649832259E-002  0.19092228572827799        0.0000000000000000     
  0.10064972159613113       0.19888422052645427        0.0000000000000000     
   8.8023022332947232E-002  0.16712198650492885        0.0000000000000000     
   8.9378014946473100E-002  0.17485057024293041        0.0000000000000000     
   9.0648694979661729E-002  0.18266570708355276        0.0000000000000000     
   9.1835062432513132E-002  0.19056739702679584        0.0000000000000000     
   9.2937117305027281E-002  0.19855564007265963        0.0000000000000000     
   8.0872901486310475E-002  0.16672516937170589        0.0000000000000000     
   8.2128875271611806E-002  0.17447785215929545        0.0000000000000000     
   8.3302715368896385E-002  0.18231737173657853        0.0000000000000000     
   8.4394421778164239E-002  0.19024372810355522        0.0000000000000000     
   8.5403994499415312E-002  0.19825692126022540        0.0000000000000000     
   7.3921159226029293E-002  0.16636259033494821        0.0000000000000000     
   7.5069906710152581E-002  0.17413854208145452        0.0000000000000000     
   7.6141021530404668E-002  0.18200143828932383        0.0000000000000000     
   7.7134503686785538E-002  0.18995127895855615        0.0000000000000000     
   7.8050353179295207E-002  0.19798806408915151        0.0000000000000000     
  0.10854180737272685       0.19924266262160928        0.0000000000000000     
  0.10974702938800433       0.20726110915505694        0.0000000000000000     
  0.11087780751812923       0.21536245424591954        0.0000000000000000     
  0.11193414176310161       0.22354669789419715        0.0000000000000000     
  0.11291603212292139       0.23181384009988970        0.0000000000000000     
  0.10064972159613113       0.19888422052645427        0.0000000000000000     
  0.10176467831762540       0.20692848480224010        0.0000000000000000     
  0.10280712593034312       0.21505131463310037        0.0000000000000000     
  0.10377706443428429       0.22325271001903518        0.0000000000000000     
  0.10467449382944891       0.23153267096004437        0.0000000000000000     
   9.2937117305027281E-002  0.19855564007265963        0.0000000000000000     
   9.3961178916241464E-002  0.20662510334441930        0.0000000000000000     
   9.4913566585192899E-002  0.21477045396534997        0.0000000000000000     
   9.5794280311881613E-002  0.22299169193545154        0.0000000000000000     
   9.6603320096307579E-002  0.23128881725472411        0.0000000000000000     
   8.5403994499415312E-002  0.19825692126022540        0.0000000000000000     
   8.6336531183852469E-002  0.20635096478159456        0.0000000000000000     
   8.7197129482678548E-002  0.21451987224266822        0.0000000000000000     
   8.7985789395893535E-002  0.22276364364344628        0.0000000000000000     
   8.8702510923497430E-002  0.23108227898392886        0.0000000000000000     
   7.8050353179295207E-002  0.19798806408915151        0.0000000000000000     
   7.8890735120458466E-002  0.20610606911376583        0.0000000000000000     
   7.9657814622800083E-002  0.21429956946505513        0.0000000000000000     
   8.0351591686320098E-002  0.22256856514301934        0.0000000000000000     
   8.0972066311018470E-002  0.23091305614765856        0.0000000000000000     
  0.11291603212292139       0.23181384009988970        0.0000000000000000     
  0.11385110112717325       0.24017975715876633        0.0000000000000000     
  0.11476697130544176       0.24866032536659602        0.0000000000000000     
  0.11566364265772690       0.25725554472337880        0.0000000000000000     
  0.11654111518402871       0.26596541522911471        0.0000000000000000     
  0.10467449382944891       0.23153267096004437        0.0000000000000000     
  0.10550405798307490       0.23991409794194249        0.0000000000000000     
  0.10627040076240020       0.24841989145054388        0.0000000000000000     
  0.10697352216742484       0.25705005148584853        0.0000000000000000     
  0.10761342219814878       0.26580457804785640        0.0000000000000000     
   9.6603320096307579E-002  0.23128881725472411        0.0000000000000000     
   9.7331299897144882E-002  0.23968784890051995        0.0000000000000000     
   9.7968833673067524E-002  0.24821480585019143        0.0000000000000000     
   9.8515921424075545E-002  0.25686968810373856        0.0000000000000000     
   9.8972563150168932E-002  0.26565249566116123        0.0000000000000000     
   8.8702510923497430E-002  0.23108227898392886        0.0000000000000000     
   8.9332826869383181E-002  0.23950101003449872        0.0000000000000000     
   8.9862270037443723E-002  0.24804506856553871        0.0000000000000000     
   9.0290840427679070E-002  0.25671445457704894        0.0000000000000000     
   9.0618538040089180E-002  0.26550916806902930        0.0000000000000000     
   8.0972066311018470E-002  0.23091305614765856        0.0000000000000000     
   8.1508638899789834E-002  0.23935358134387869        0.0000000000000000     
   8.1950709855528797E-002  0.24791067959658569        0.0000000000000000     
   8.2298279178235359E-002  0.25658435090577969        0.0000000000000000     
   8.2551346867909506E-002  0.26537459527146051        0.0000000000000000     
  0.11654111518402871       0.26596541522911471        0.0000000000000000     
  0.11733988442316697       0.27495471373110003        0.0000000000000000     
  0.11800044591396151       0.28438821707663103        0.0000000000000000     
  0.11852279965641234       0.29426592526570788        0.0000000000000000     
  0.11890694565051944       0.30458783829833047        0.0000000000000000     
  0.10761342219814878       0.26580457804785640        0.0000000000000000     
  0.10817119488152185       0.27481572771283130        0.0000000000000000     
  0.10862793424449387       0.28421575705703717        0.0000000000000000     
  0.10898364028706481       0.29400466608047388        0.0000000000000000     
  0.10923831300923470       0.30418245478314149        0.0000000000000000     
   9.8972563150168932E-002  0.26565249566116123        0.0000000000000000     
   9.9349800913866665E-002  0.27466157917507028        0.0000000000000000     
   9.9658676777687680E-002  0.28399528929807633        0.0000000000000000     
   9.9899190741631963E-002  0.29365362603017936        0.0000000000000000     
  0.10007134280569957       0.30363658937137938        0.0000000000000000     
   9.0618538040089180E-002  0.26550916806902930        0.0000000000000000     
   9.0875702520201385E-002  0.27449226811781680        0.0000000000000000     
   9.1092673513542929E-002  0.28372681379974846        0.0000000000000000     
   9.1269451020113843E-002  0.29321280511482428        0.0000000000000000     
   9.1406035039914096E-002  0.30295024206304422        0.0000000000000000     
   8.2551346867909506E-002  0.26537459527146051        0.0000000000000000     
   8.2748899700526027E-002  0.27430779454107096        0.0000000000000000     
   8.2929924452059642E-002  0.28341033056205372        0.0000000000000000     
   8.3094421122510406E-002  0.29268220333440870        0.0000000000000000     
   8.3242389711878279E-002  0.30212341285813593        0.0000000000000000     
   4.5197375068355625E-002   5.9649337603343941E-002   0.0000000000000000     
   4.7599108027553773E-002   6.5090629022133167E-002   0.0000000000000000     
   4.9929004321915466E-002   7.0727428711528983E-002   0.0000000000000000     
   5.2187063951440717E-002   7.6559736671531417E-002   0.0000000000000000     
   5.4373286916129547E-002   8.2587552902140454E-002   0.0000000000000000     
   4.1255545885885689E-002   5.9040720118341460E-002   0.0000000000000000     
   4.3331917279116519E-002   6.4436867194402961E-002   0.0000000000000000     
   4.5370061491293662E-002   7.0052532340332596E-002   0.0000000000000000     
   4.7369978522417124E-002   7.5887715556130345E-002   0.0000000000000000     
   4.9331668372486898E-002   8.1942416841796234E-002   0.0000000000000000     
   3.7283152511357373E-002   5.8441847803423347E-002   0.0000000000000000     
   3.9089698605357083E-002   6.3825026841388743E-002   0.0000000000000000     
   4.0878645336234955E-002   6.9440322243611990E-002   0.0000000000000000     
   4.2649992703990947E-002   7.5287734010093074E-002   0.0000000000000000     
   4.4403740708625086E-002   8.1367262140832036E-002   0.0000000000000000     
   3.3280194944770664E-002   5.7852720658589596E-002   0.0000000000000000     
   3.4872452006275478E-002   6.3255107963090501E-002   0.0000000000000000     
   3.6454755856739317E-002   6.8890798421367180E-002   0.0000000000000000     
   3.8027106496162207E-002   7.4759792033419620E-002   0.0000000000000000     
   3.9589503924544120E-002   8.0862088799247861E-002   0.0000000000000000     
   2.9246673186125588E-002   5.7273338683840207E-002   0.0000000000000000     
   3.0680177481871677E-002   6.2727110559508248E-002   0.0000000000000000     
   3.2098393052806776E-002   6.8403960873598166E-002   0.0000000000000000     
   3.3501319898930876E-002   7.4303889626109995E-002   0.0000000000000000     
   3.4888958020243985E-002   8.0426896817043708E-002   0.0000000000000000     
   5.4373286916129547E-002   8.2587552902140454E-002   0.0000000000000000     
   5.6473820882048192E-002   8.8788923975171324E-002   0.0000000000000000     
   5.8474813515262923E-002   9.5141896462439285E-002   0.0000000000000000     
   6.0376264815773739E-002  0.10164647036394434        0.0000000000000000     
   6.2178174783580634E-002  0.10830264567968644        0.0000000000000000     
   4.9331668372486898E-002   8.1942416841796234E-002   0.0000000000000000     
   5.1231998184635280E-002   8.8181503423886615E-002   0.0000000000000000     
   5.3047835101994609E-002   9.4569842528957851E-002   0.0000000000000000     
   5.4779179124564849E-002  0.10110743415700991        0.0000000000000000     
   5.6426030252346035E-002  0.10779427830804285        0.0000000000000000     
   4.4403740708625086E-002   8.1367262140832036E-002   0.0000000000000000     
   4.6112725872376033E-002   8.7636791103868600E-002   0.0000000000000000     
   4.7749784717482452E-002   9.4054205367242530E-002   0.0000000000000000     
   4.9314917243944344E-002  0.10061950493095381        0.0000000000000000     
   5.0808123451761736E-002  0.10733268979500243        0.0000000000000000     
   3.9589503924544120E-002   8.0862088799247861E-002   0.0000000000000000     
   4.1116003945270416E-002   8.7154787015117280E-002   0.0000000000000000     
   4.2580662361726446E-002   9.3594984977293322E-002   0.0000000000000000     
   4.3983479173912238E-002  0.10018268268577596        0.0000000000000000     
   4.5324454381827750E-002  0.10691788014056522        0.0000000000000000     
   3.4888958020243985E-002   8.0426896817043708E-002   0.0000000000000000     
   3.6241832403318457E-002   8.6735491157632669E-002   0.0000000000000000     
   3.7540468034726618E-002   9.3192181359110227E-002   0.0000000000000000     
   3.8784864914468503E-002   9.9796967421476410E-002   0.0000000000000000     
   3.9975023042544085E-002  0.10654984934473116        0.0000000000000000     
   6.2178174783580634E-002  0.10830264567968644        0.0000000000000000     
   6.3894533491335614E-002  0.11510346949899861        0.0000000000000000     
   6.5539331011690682E-002  0.12204198891121378        0.0000000000000000     
   6.7112567344645796E-002  0.12911820391633200        0.0000000000000000     
   6.8614242490201011E-002  0.13633211451435318        0.0000000000000000     
   5.6426030252346035E-002  0.10779427830804285        0.0000000000000000     
   5.7997429981101724E-002  0.11462331892562007        0.0000000000000000     
   5.9502419806595527E-002  0.12158749995330503        0.0000000000000000     
   6.0940999728827425E-002  0.12868682139109774        0.0000000000000000     
   6.2313169747797444E-002  0.13592128323899816        0.0000000000000000     
   5.0808123451761736E-002  0.10733268979500243        0.0000000000000000     
   5.2234841019285182E-002  0.11418654658712173        0.0000000000000000     
   5.3600507624865304E-002  0.12117386193504498        0.0000000000000000     
   5.4905123268502082E-002  0.12829463583877221        0.0000000000000000     
   5.6148687950195536E-002  0.13554886829830337        0.0000000000000000     
   4.5324454381827750E-002  0.10691788014056522        0.0000000000000000     
   4.6606766605886016E-002  0.11379315248350359        0.0000000000000000     
   4.7833594466500026E-002  0.12080107485643367        0.0000000000000000     
   4.9004937963669788E-002  0.12794164725935542        0.0000000000000000     
   5.0120797097395309E-002  0.13521486969226881        0.0000000000000000     
   3.9975023042544085E-002  0.10654984934473116        0.0000000000000000     
   4.1113206740904198E-002  0.11344313661476568        0.0000000000000000     
   4.2201680331499687E-002  0.12046913871747106        0.0000000000000000     
   4.3240443814330537E-002  0.12762785565284732        0.0000000000000000     
   4.4229497189396748E-002  0.13491928742089446        0.0000000000000000     
   6.8614242490201011E-002  0.13633211451435318        0.0000000000000000     
   7.0045345700081724E-002  0.14367108804899498        0.0000000000000000     
   7.1406866226013319E-002  0.15112249186397470        0.0000000000000000     
   7.2698804067995865E-002  0.15868632595929244        0.0000000000000000     
   7.3921159226029293E-002  0.16636259033494821        0.0000000000000000     
   6.2313169747797444E-002  0.13592128323899816        0.0000000000000000     
   6.3619148706516110E-002  0.14327988901797323        0.0000000000000000     
   6.4859155447994019E-002  0.15075164224898971        0.0000000000000000     
   6.6033189972231163E-002  0.15833654293204769        0.0000000000000000     
   6.7141252279227542E-002  0.16603459106714710        0.0000000000000000     
   5.6148687950195536E-002  0.13554886829830337        0.0000000000000000     
   5.7330839189663967E-002  0.14292662991028385        0.0000000000000000     
   5.8451214506625687E-002  0.15041799127135907        0.0000000000000000     
   5.9509813901080691E-002  0.15802295238152900        0.0000000000000000     
   6.0506637373028999E-002  0.16574151324079364        0.0000000000000000     
   5.0120797097395309E-002  0.13521486969226881        0.0000000000000000     
   5.1180417149525238E-002  0.14261131072592692        0.0000000000000000     
   5.2183043401908290E-002  0.15012153893108279        0.0000000000000000     
   5.3128675854544428E-002  0.15774555430773643        0.0000000000000000     
   5.4017314507433682E-002  0.16548335685588783        0.0000000000000000     
   4.4229497189396748E-002  0.13491928742089446        0.0000000000000000     
   4.5167882586099974E-002  0.14233393146490234        0.0000000000000000     
   4.6054642133841847E-002  0.14986228522816081        0.0000000000000000     
   4.6889775832622389E-002  0.15750434871066996        0.0000000000000000     
   4.7673283682441572E-002  0.16526012191242964        0.0000000000000000     
   7.3921159226029293E-002  0.16636259033494821        0.0000000000000000     
   7.5069906710152581E-002  0.17413854208145452        0.0000000000000000     
   7.6141021530404668E-002  0.18200143828932383        0.0000000000000000     
   7.7134503686785538E-002  0.18995127895855615        0.0000000000000000     
   7.8050353179295207E-002  0.19798806408915151        0.0000000000000000     
   6.7141252279227542E-002  0.16603459106714710        0.0000000000000000     
   6.8180309840983153E-002  0.17383272038030137        0.0000000000000000     
   6.9147330129498058E-002  0.18171786459752384        0.0000000000000000     
   7.0042313144772245E-002  0.18969002371881452        0.0000000000000000     
   7.0865258886805699E-002  0.19774919774417343        0.0000000000000000     
   6.0506637373028999E-002  0.16574151324079364        0.0000000000000000     
   6.1439285242991241E-002  0.17356046742672968        0.0000000000000000     
   6.2305357831488078E-002  0.18146660851691387        0.0000000000000000     
   6.3104855138519489E-002  0.18945993651134613        0.0000000000000000     
   6.3837777164085507E-002  0.19754045141002657        0.0000000000000000     
   5.4017314507433682E-002  0.16548335685588783        0.0000000000000000     
   5.4846832916176827E-002  0.17332178322073949        0.0000000000000000     
   5.5615104636374701E-002  0.18124767004749390        0.0000000000000000     
   5.6322129668027299E-002  0.18926101733615103        0.0000000000000000     
   5.6967908011134612E-002  0.19736182508671091        0.0000000000000000     
   4.7673283682441572E-002  0.16526012191242964        0.0000000000000000     
   4.8402952860539930E-002  0.17311666776233076        0.0000000000000000     
   4.9076570544157962E-002  0.18106104918926391        0.0000000000000000     
   4.9694136733295660E-002  0.18909326619322914        0.0000000000000000     
   5.0255651427953046E-002  0.19721331877422646        0.0000000000000000     
   7.8050353179295207E-002  0.19798806408915151        0.0000000000000000     
   7.8890735120458466E-002  0.20610606911376583        0.0000000000000000     
   7.9657814622800083E-002  0.21429956946505513        0.0000000000000000     
   8.0351591686320098E-002  0.22256856514301934        0.0000000000000000     
   8.0972066311018470E-002  0.23091305614765856        0.0000000000000000     
   7.0865258886805699E-002  0.19774919774417343        0.0000000000000000     
   7.1615211921319533E-002  0.20589004944289138        0.0000000000000000     
   7.2291216814034845E-002  0.21410724158425909        0.0000000000000000     
   7.2893273564951636E-002  0.22240077416827672        0.0000000000000000     
   7.3421382174069891E-002  0.23077064719494411        0.0000000000000000     
   6.3837777164085507E-002  0.19754045141002657        0.0000000000000000     
   6.4501382781695815E-002  0.20570253887092929        0.0000000000000000     
   6.5092930864860149E-002  0.21394058455202847        0.0000000000000000     
   6.5612421413578509E-002  0.22225458845332410        0.0000000000000000     
   6.6059854427850895E-002  0.23064455057481620        0.0000000000000000     
   5.6967908011134612E-002  0.19736182508671091        0.0000000000000000     
   5.7549247701587293E-002  0.20554353739787962        0.0000000000000000     
   5.8062956775276016E-002  0.21379959836836315        0.0000000000000000     
   5.8509035232200760E-002  0.22213000799816160        0.0000000000000000     
   5.8887483072361524E-002  0.23053476628727493        0.0000000000000000     
   5.0255651427953046E-002  0.19721331877422646        0.0000000000000000     
   5.0758806680994001E-002  0.20541304502374233        0.0000000000000000     
   5.1201294545282439E-002  0.21368428303326323        0.0000000000000000     
   5.1583115020818353E-002  0.22202703280278921        0.0000000000000000     
   5.1904268107601750E-002  0.23044129433232019        0.0000000000000000     
   8.0972066311018470E-002  0.23091305614765856        0.0000000000000000     
   8.1508638899789834E-002  0.23935358134387869        0.0000000000000000     
   8.1950709855528797E-002  0.24791067959658569        0.0000000000000000     
   8.2298279178235359E-002  0.25658435090577969        0.0000000000000000     
   8.2551346867909506E-002  0.26537459527146051        0.0000000000000000     
   7.3421382174069891E-002  0.23077064719494411        0.0000000000000000     
   7.3872365635055434E-002  0.23923061009835545        0.0000000000000000     
   7.4243046941574062E-002  0.24779441231260491        0.0000000000000000     
   7.4533426093625746E-002  0.25646205383769244        0.0000000000000000     
   7.4743503091210556E-002  0.26523353467361804        0.0000000000000000     
   6.6059854427850895E-002  0.23064455057481620        0.0000000000000000     
   6.6437636721870585E-002  0.23911714356762453        0.0000000000000000     
   6.6748175109830832E-002  0.24767904008286873        0.0000000000000000     
   6.6991469591731620E-002  0.25633024012054895        0.0000000000000000     
   6.7167520167572964E-002  0.26507074368066502        0.0000000000000000     
   5.8887483072361524E-002  0.23053476628727493        0.0000000000000000     
   5.9204452160235309E-002  0.23901318175168587        0.0000000000000000     
   5.9466094360299114E-002  0.24756456290737724        0.0000000000000000     
   5.9672409672552919E-002  0.25618890975434905        0.0000000000000000     
   5.9823398096996751E-002  0.26488622229260128        0.0000000000000000     
   5.1904268107601750E-002  0.23044129433232019        0.0000000000000000     
   5.2172811950149604E-002  0.23891872465053948        0.0000000000000000     
   5.2396804692978909E-002  0.24745098078613040        0.0000000000000000     
   5.2576246336089677E-002  0.25603806273909291        0.0000000000000000     
   5.2711136879481889E-002  0.26467997050942693        0.0000000000000000     
   8.2551346867909506E-002  0.26537459527146051        0.0000000000000000     
   8.2748899700526027E-002  0.27430779454107096        0.0000000000000000     
   8.2929924452059642E-002  0.28341033056205372        0.0000000000000000     
   8.3094421122510406E-002  0.29268220333440870        0.0000000000000000     
   8.3242389711878279E-002  0.30212341285813593        0.0000000000000000     
   7.4743503091210556E-002  0.26523353467361804        0.0000000000000000     
   7.4914250597207716E-002  0.27410248634365386        0.0000000000000000     
   7.5086641274496574E-002  0.28306254037107181        0.0000000000000000     
   7.5260675123077103E-002  0.29211369675587201        0.0000000000000000     
   7.5436352142949317E-002  0.30125595549805445        0.0000000000000000     
   6.7167520167572964E-002  0.26507074368066502        0.0000000000000000     
   6.7316613352613658E-002  0.27387067142438642        0.0000000000000000     
   6.7479035662112469E-002  0.28270014401288274        0.0000000000000000     
   6.7654787096069396E-002  0.29155916144615385        0.0000000000000000     
   6.7843867654484441E-002  0.30044772372419970        0.0000000000000000     
   5.9823398096996751E-002  0.26488622229260128        0.0000000000000000     
   5.9955987966743791E-002  0.27361234978326876        0.0000000000000000     
   6.0107107614907292E-002  0.28232314148748633        0.0000000000000000     
   6.0276757041487251E-002  0.29101859740525399        0.0000000000000000     
   6.0464936246483664E-002  0.29969871753657173        0.0000000000000000     
   5.2711136879481889E-002  0.26467997050942693        0.0000000000000000     
   5.2832374439598158E-002  0.27332752142030081        0.0000000000000000     
   5.2970857132881091E-002  0.28193153279488270        0.0000000000000000     
   5.3126584959330696E-002  0.29049200463317260        0.0000000000000000     
   5.3299557918946958E-002  0.29900893693517050        0.0000000000000000     
   2.9246673186125588E-002   5.7273338683840207E-002   0.0000000000000000     
   3.0680177481871677E-002   6.2727110559508248E-002   0.0000000000000000     
   3.2098393052806776E-002   6.8403960873598166E-002   0.0000000000000000     
   3.3501319898930876E-002   7.4303889626109995E-002   0.0000000000000000     
   3.4888958020243985E-002   8.0426896817043708E-002   0.0000000000000000     
   2.5266228383045094E-002   5.6753435030995808E-002   0.0000000000000000     
   2.6557810965842685E-002   6.2261760217389106E-002   0.0000000000000000     
   2.7825395865604480E-002   6.7980795447127984E-002   0.0000000000000000     
   2.9068983082330475E-002   7.3910540720212428E-002   0.0000000000000000     
   3.0288572616020679E-002   8.0050996036642480E-002   0.0000000000000000     
   2.1422501683152156E-002   5.6342742851877042E-002   0.0000000000000000     
   2.2550288391885488E-002   6.1879782523480253E-002   0.0000000000000000     
   2.3651603236299598E-002   6.7622287988779659E-002   0.0000000000000000     
   2.4726446216394488E-002   7.3570259247775244E-002   0.0000000000000000     
   2.5774817332170165E-002   7.9723696300467065E-002   0.0000000000000000     
   1.7715493086446772E-002   5.6041262146483910E-002   0.0000000000000000     
   1.8657609760000082E-002   6.1581177477781662E-002   0.0000000000000000     
   1.9577015164892134E-002   6.7328438498553175E-002   0.0000000000000000     
   2.0473709301122925E-002   7.3283045208798470E-002   0.0000000000000000     
   2.1347692168692450E-002   7.9444997608517504E-002   0.0000000000000000     
   1.4145202592928945E-002   5.5848992914816417E-002   0.0000000000000000     
   1.4879775070186474E-002   6.1365945080293346E-002   0.0000000000000000     
   1.5601631651382083E-002   6.7099246976448548E-002   0.0000000000000000     
   1.6310772336515771E-002   7.3048898603282009E-002   0.0000000000000000     
   1.7007197125587535E-002   7.9214899960793728E-002   0.0000000000000000     
   3.4888958020243985E-002   8.0426896817043708E-002   0.0000000000000000     
   3.6241832403318457E-002   8.6735491157632669E-002   0.0000000000000000     
   3.7540468034726618E-002   9.3192181359110227E-002   0.0000000000000000     
   3.8784864914468503E-002   9.9796967421476410E-002   0.0000000000000000     
   3.9975023042544085E-002  0.10654984934473116        0.0000000000000000     
   3.0288572616020679E-002   8.0050996036642480E-002   0.0000000000000000     
   3.1472238957415986E-002   8.6371328532047931E-002   0.0000000000000000     
   3.2608056597257302E-002   9.2840705342058655E-002   0.0000000000000000     
   3.3696025535544634E-002   9.9459126466674652E-002   0.0000000000000000     
   3.4736145772277974E-002  0.10622659190589592        0.0000000000000000     
   2.5774817332170165E-002   7.9723696300467065E-002   0.0000000000000000     
   2.6789251318458877E-002   8.6054724138996258E-002   0.0000000000000000     
   2.7762282910092865E-002   9.2535467755503975E-002   0.0000000000000000     
   2.8693912107072138E-002   9.9165927149990257E-002   0.0000000000000000     
   2.9584138909396682E-002  0.10594610232245504        0.0000000000000000     
   2.1347692168692450E-002   7.9444997608517504E-002   0.0000000000000000     
   2.2192869486447112E-002   8.5785677978477623E-002   0.0000000000000000     
   2.3003146973233295E-002   9.2276468599446174E-002   0.0000000000000000     
   2.3778524629050987E-002   9.8917369471423142E-002   0.0000000000000000     
   2.4519002453900204E-002  0.10570838059440855        0.0000000000000000     
   1.7007197125587535E-002   7.9214899960793728E-002   0.0000000000000000     
   1.7683093461380701E-002   8.5564190050492053E-002   0.0000000000000000     
   1.8330648786678592E-002   9.2063707873885250E-002   0.0000000000000000     
   1.8949863101481206E-002   9.8713453430973402E-002   0.0000000000000000     
   1.9540736405788545E-002  0.10551342672175645        0.0000000000000000     
   3.9975023042544085E-002  0.10654984934473116        0.0000000000000000     
   4.1113206740904198E-002  0.11344313661476568        0.0000000000000000     
   4.2201680331499687E-002  0.12046913871747106        0.0000000000000000     
   4.3240443814330537E-002  0.12762785565284732        0.0000000000000000     
   4.4229497189396748E-002  0.13491928742089446        0.0000000000000000     
   3.4736145772277974E-002  0.10622659190589592        0.0000000000000000     
   3.5730464705977398E-002  0.11313516955738828        0.0000000000000000     
   3.6681029735162983E-002  0.12017692731881766        0.0000000000000000     
   3.7587840859834742E-002  0.12735186519018402        0.0000000000000000     
   3.8450898079992649E-002  0.13465998317148731        0.0000000000000000     
   2.9584138909396682E-002  0.10594610232245504        0.0000000000000000     
   3.0434843782743269E-002  0.11286792188785180        0.0000000000000000     
   3.1247907192788655E-002  0.11992331446113397        0.0000000000000000     
   3.2023329139532826E-002  0.12711228004230152        0.0000000000000000     
   3.2761109622975799E-002  0.13443481863135445        0.0000000000000000     
   2.4519002453900204E-002  0.10570838059440855        0.0000000000000000     
   2.5226343971201812E-002  0.11264139360615621        0.0000000000000000     
   2.5902312704376679E-002  0.11970830014441998        0.0000000000000000     
   2.6546908653424808E-002  0.12690910020919985        0.0000000000000000     
   2.7160131818346193E-002  0.13424379380049584        0.0000000000000000     
   1.9540736405788545E-002  0.10551342672175645        0.0000000000000000     
   2.0104965271353022E-002  0.11245558471230152        0.0000000000000000     
   2.0644246269927065E-002  0.11953188436867571        0.0000000000000000     
   2.1158579401510669E-002  0.12674232569087901        0.0000000000000000     
   2.1647964666103837E-002  0.13408690867891143        0.0000000000000000     
   4.4229497189396748E-002  0.13491928742089446        0.0000000000000000     
   4.5167882586099974E-002  0.14233393146490234        0.0000000000000000     
   4.6054642133841847E-002  0.14986228522816081        0.0000000000000000     
   4.6889775832622389E-002  0.15750434871066996        0.0000000000000000     
   4.7673283682441572E-002  0.16526012191242964        0.0000000000000000     
   3.8450898079992649E-002  0.13465998317148731        0.0000000000000000     
   3.9269147711250424E-002  0.14209150182327757        0.0000000000000000     
   4.0041536069221777E-002  0.14963664170610472        0.0000000000000000     
   4.0768063153906686E-002  0.15729540281996873        0.0000000000000000     
   4.1448728965305180E-002  0.16506778516486967        0.0000000000000000     
   3.2761109622975799E-002  0.13443481863135445        0.0000000000000000     
   3.3460124736838889E-002  0.14188103149712017        0.0000000000000000     
   3.4119250574843454E-002  0.14944101990842606        0.0000000000000000     
   3.4738487136989474E-002  0.15711478386527208        0.0000000000000000     
   3.5317834423276954E-002  0.16490232336765828        0.0000000000000000     
   2.7160131818346193E-002  0.13424379380049584        0.0000000000000000     
   2.7740813662865380E-002  0.14170252048643003        0.0000000000000000     
   2.8287785650706897E-002  0.14927541983512474        0.0000000000000000     
   2.8801047781870745E-002  0.15696249184657987        0.0000000000000000     
   2.9280600056356920E-002  0.16476373652079551        0.0000000000000000     
   2.1647964666103837E-002  0.13408690867891143        0.0000000000000000     
   2.2111214489329872E-002  0.14155596879120727        0.0000000000000000     
   2.2547141296812095E-002  0.14913984148620088        0.0000000000000000     
   2.2955745088550493E-002  0.15683852676389226        0.0000000000000000     
   2.3337025864545072E-002  0.16465202462428138        0.0000000000000000     
   4.7673283682441572E-002  0.16526012191242964        0.0000000000000000     
   4.8402952860539930E-002  0.17311666776233076        0.0000000000000000     
   4.9076570544157962E-002  0.18106104918926391        0.0000000000000000     
   4.9694136733295660E-002  0.18909326619322914        0.0000000000000000     
   5.0255651427953046E-002  0.19721331877422646        0.0000000000000000     
   4.1448728965305180E-002  0.16506778516486967        0.0000000000000000     
   4.2081156303737266E-002  0.17294102239170883        0.0000000000000000     
   4.2662967969522986E-002  0.18090234815138775        0.0000000000000000     
   4.3194163962662353E-002  0.18895176244390632        0.0000000000000000     
   4.3674744283155348E-002  0.19708926526926462        0.0000000000000000     
   3.5317834423276954E-002  0.16490232336765828        0.0000000000000000     
   3.5854954473425564E-002  0.17279074844907910        0.0000000000000000     
   3.6347509327154956E-002  0.18076716914302915        0.0000000000000000     
   3.6795498984465144E-002  0.18883158544950834        0.0000000000000000     
   3.7198923445356122E-002  0.19698399736851679        0.0000000000000000     
   2.9280600056356920E-002  0.16476373652079551        0.0000000000000000     
   2.9724347369604835E-002  0.17266584593444159        0.0000000000000000     
   3.0130194617053872E-002  0.18065551216418818        0.0000000000000000     
   3.0498141798704040E-002  0.18873273521003534        0.0000000000000000     
   3.0828188914555334E-002  0.19689751507198291        0.0000000000000000     
   2.3337025864545072E-002  0.16465202462428138        0.0000000000000000     
   2.3689334992275071E-002  0.17256631484779622        0.0000000000000000     
   2.4011023839219724E-002  0.18056737721486479        0.0000000000000000     
   2.4302092405379040E-002  0.18865521172548705        0.0000000000000000     
   2.4562540690753011E-002  0.19682981837966307        0.0000000000000000     
   5.0255651427953046E-002  0.19721331877422646        0.0000000000000000     
   5.0758806680994001E-002  0.20541304502374233        0.0000000000000000     
   5.1201294545282439E-002  0.21368428303326323        0.0000000000000000     
   5.1583115020818353E-002  0.22202703280278921        0.0000000000000000     
   5.1904268107601750E-002  0.23044129433232019        0.0000000000000000     
   4.3674744283155348E-002  0.19708926526926462        0.0000000000000000     
   4.4103766741533192E-002  0.20530484507781507        0.0000000000000000     
   4.4480289148327058E-002  0.21358849031991009        0.0000000000000000     
   4.4804311503536955E-002  0.22194020099554979        0.0000000000000000     
   4.5075833807162881E-002  0.23035997710473410        0.0000000000000000     
   3.7198923445356122E-002  0.19698399736851679        0.0000000000000000     
   3.7557834904822160E-002  0.20521272088939535        0.0000000000000000     
   3.7872285557857523E-002  0.21350607200148522        0.0000000000000000     
   3.8142275404462217E-002  0.22186405070478635        0.0000000000000000     
   3.8367804444636250E-002  0.23028665699929871        0.0000000000000000     
   3.0828188914555334E-002  0.19689751507198291        0.0000000000000000     
   3.1121011170860895E-002  0.20513667245848324        0.0000000000000000     
   3.1377283773873839E-002  0.21343702807798859        0.0000000000000000     
   3.1597006723594154E-002  0.22179858193049881        0.0000000000000000     
   3.1780180020021871E-002  0.23022133401601397        0.0000000000000000     
   2.4562540690753011E-002  0.19682981837966307        0.0000000000000000     
   2.4793295539649405E-002  0.20507669978507878        0.0000000000000000     
   2.4995283796375986E-002  0.21338135854942014        0.0000000000000000     
   2.5168505460932758E-002  0.22174379467268723        0.0000000000000000     
   2.5312960533319714E-002  0.23016400815487992        0.0000000000000000     
   5.1904268107601750E-002  0.23044129433232019        0.0000000000000000     
   5.2172811950149604E-002  0.23891872465053948        0.0000000000000000     
   5.2396804692978909E-002  0.24745098078613040        0.0000000000000000     
   5.2576246336089677E-002  0.25603806273909291        0.0000000000000000     
   5.2711136879481889E-002  0.26467997050942693        0.0000000000000000     
   4.5075833807162881E-002  0.23035997710473410        0.0000000000000000     
   4.5303530356635070E-002  0.23883241584542081        0.0000000000000000     
   4.5496075449383770E-002  0.24734211441556778        0.0000000000000000     
   4.5653469085408967E-002  0.25588907281517492        0.0000000000000000     
   4.5775711264710667E-002  0.26447329104424239        0.0000000000000000     
   3.8367804444636250E-002  0.23028665699929871        0.0000000000000000     
   3.8557421644713347E-002  0.23875289891756526        0.0000000000000000     
   3.8719675971027233E-002  0.24724178449212900        0.0000000000000000     
   3.8854567423577895E-002  0.25575331372298987        0.0000000000000000     
   3.8962096002365346E-002  0.26428748661014795        0.0000000000000000     
   3.1780180020021871E-002  0.23022133401601397        0.0000000000000000     
   3.1934485814384427E-002  0.23868017386697279        0.0000000000000000     
   3.2067606257909290E-002  0.24714999101581403        0.0000000000000000     
   3.2179541350596461E-002  0.25563078546253759        0.0000000000000000     
   3.2270291092445939E-002  0.26412255720714362        0.0000000000000000     
   2.5312960533319714E-002  0.23016400815487992        0.0000000000000000     
   2.5434722865648296E-002  0.23861424069364343        0.0000000000000000     
   2.5539866310029941E-002  0.24706673398662288        0.0000000000000000     
   2.5628390866464654E-002  0.25552148803381819        0.0000000000000000     
   2.5700296534952434E-002  0.26397850283522939        0.0000000000000000     
   5.2711136879481889E-002  0.26467997050942693        0.0000000000000000     
   5.2832374439598158E-002  0.27332752142030081        0.0000000000000000     
   5.2970857132881091E-002  0.28193153279488270        0.0000000000000000     
   5.3126584959330696E-002  0.29049200463317260        0.0000000000000000     
   5.3299557918946958E-002  0.29900893693517050        0.0000000000000000     
   4.5775711264710667E-002  0.26447329104424239        0.0000000000000000     
   4.5887008240573832E-002  0.27304491087592081        0.0000000000000000     
   4.6011566266283402E-002  0.28155407408336119        0.0000000000000000     
   4.6149385341839405E-002  0.29000078066656348        0.0000000000000000     
   4.6300465467241828E-002  0.29838503062552768        0.0000000000000000     
   3.8962096002365346E-002  0.26428748661014795        0.0000000000000000     
   3.9061124839067880E-002  0.27279324269056704        0.0000000000000000     
   3.9170517065363793E-002  0.28121952150121138        0.0000000000000000     
   3.9290272681253076E-002  0.28956632304208074        0.0000000000000000     
   3.9420391686735737E-002  0.29783364731317513        0.0000000000000000     
   3.2270291092445939E-002  0.26412255720714362        0.0000000000000000     
   3.2354724235080339E-002  0.27257251686423956        0.0000000000000000     
   3.2447709530122257E-002  0.28092787504843308        0.0000000000000000     
   3.2549246977571701E-002  0.28918863175972420        0.0000000000000000     
   3.2659336577428685E-002  0.29735478699811280        0.0000000000000000     
   2.5700296534952434E-002  0.26397850283522939        0.0000000000000000     
   2.5767806428611179E-002  0.27238273339693825        0.0000000000000000     
   2.5843143660558801E-002  0.28067913472502637        0.0000000000000000     
   2.5926308230795302E-002  0.28886770681949386        0.0000000000000000     
   2.6017300139320680E-002  0.29694844968034068        0.0000000000000000     
   1.4145202592928945E-002   5.5848992914816417E-002   0.0000000000000000     
   1.4879775070186474E-002   6.1365945080293346E-002   0.0000000000000000     
   1.5601631651382083E-002   6.7099246976448548E-002   0.0000000000000000     
   1.6310772336515771E-002   7.3048898603282009E-002   0.0000000000000000     
   1.7007197125587535E-002   7.9214899960793728E-002   0.0000000000000000     
   1.0634886351095751E-002   5.5730475712598884E-002   0.0000000000000000     
   1.1159741342415120E-002   6.1215173129239589E-002   0.0000000000000000     
   1.1682472764334586E-002   6.6927470460723781E-002   0.0000000000000000     
   1.2203080616854149E-002   7.2867367707051434E-002   0.0000000000000000     
   1.2721564899973814E-002   7.9034864868222615E-002   0.0000000000000000     
   7.1078005094442741E-003   5.5650251095555679E-002   0.0000000000000000     
   7.4404655966564762E-003   6.1109949422844645E-002   0.0000000000000000     
   7.7765585723147766E-003   6.6805865989636837E-002   0.0000000000000000     
   8.1160794364191786E-003   7.2738000795932262E-002   0.0000000000000000     
   8.4590281889696823E-003   7.8906353841730933E-002   0.0000000000000000     
   3.5639450679745121E-003   5.5608319063686781E-002   0.0000000000000000     
   3.7219478329105415E-003   6.1050273961108521E-002   0.0000000000000000     
   3.8838890753226567E-003   6.6734433563187742E-002   0.0000000000000000     
   4.0497687952108577E-003   7.2660797869924479E-002   0.0000000000000000     
   4.2195869925751419E-003   7.8829366881318710E-002   0.0000000000000000     
   3.3200266864640351E-006   5.5604679616992218E-002   0.0000000000000000     
   4.1880511773189147E-006   6.1036146744031225E-002   0.0000000000000000     
   4.4642733582251921E-006   6.6713173181376512E-002   0.0000000000000000     
   4.1486932291834636E-006   7.2635758929028085E-002   0.0000000000000000     
   3.2413107901938919E-006   7.8803903986985946E-002   0.0000000000000000     
   1.7007197125587535E-002   7.9214899960793728E-002   0.0000000000000000     
   1.7683093461380701E-002   8.5564190050492053E-002   0.0000000000000000     
   1.8330648786678592E-002   9.2063707873885250E-002   0.0000000000000000     
   1.8949863101481206E-002   9.8713453430973402E-002   0.0000000000000000     
   1.9540736405788545E-002  0.10551342672175645        0.0000000000000000     
   1.2721564899973814E-002   7.9034864868222615E-002   0.0000000000000000     
   1.3228180337602941E-002   8.5391257970253015E-002   0.0000000000000000     
   1.3713181653650904E-002   9.1897843039158447E-002   0.0000000000000000     
   1.4176568848117698E-002   9.8554620074938856E-002   0.0000000000000000     
   1.4618341921003326E-002  0.10536158907759428        0.0000000000000000     
   8.4590281889696823E-003   7.8906353841730933E-002   0.0000000000000000     
   8.7963872094571280E-003   8.5267879352974071E-002   0.0000000000000000     
   9.1191388773723594E-003   9.1779531555602895E-002   0.0000000000000000     
   9.4272831927153800E-003   9.8441310449617403E-002   0.0000000000000000     
   9.7208201554861862E-003  0.10525321603501758        0.0000000000000000     
   4.2195869925751419E-003   7.8829366881318710E-002   0.0000000000000000     
   4.3877140769432608E-003   8.5194054198655181E-002   0.0000000000000000     
   4.5485204578429653E-003   9.1708773423218606E-002   0.0000000000000000     
   4.7020061352742526E-003   9.8373524555009001E-002   0.0000000000000000     
   4.8481711092371255E-003  0.10518830759402634        0.0000000000000000     
   3.2413107901938919E-006   7.8803903986985946E-002   0.0000000000000000     
   2.1609400613436212E-006   8.5169782507296371E-002   0.0000000000000000     
   1.3263950627158383E-006   9.1685568642005610E-002   0.0000000000000000     
   7.3767579431589651E-007   9.8351262391113678E-002   0.0000000000000000     
   3.9478225613998746E-007  0.10516686375462057        0.0000000000000000     
   1.9540736405788545E-002  0.10551342672175645        0.0000000000000000     
   2.0104965271353022E-002  0.11245558471230152        0.0000000000000000     
   2.0644246269927065E-002  0.11953188436867571        0.0000000000000000     
   2.1158579401510669E-002  0.12674232569087901        0.0000000000000000     
   2.1647964666103837E-002  0.13408690867891143        0.0000000000000000     
   1.4618341921003326E-002  0.10536158907759428        0.0000000000000000     
   1.5040056436548800E-002  0.11231082278166656        0.0000000000000000     
   1.5443267958995128E-002  0.11939439392169755        0.0000000000000000     
   1.5827976488342312E-002  0.12661230249768732        0.0000000000000000     
   1.6194182024590352E-002  0.13396454850963577        0.0000000000000000     
   9.7208201554861862E-003  0.10525321603501758        0.0000000000000000     
   1.0000966220141036E-002  0.11220743538963020        0.0000000000000000     
   1.0268937841136184E-002  0.11929615559128205        0.0000000000000000     
   1.0524735018471626E-002  0.12651937663997309        0.0000000000000000     
   1.0768357752147366E-002  0.13387709853570337        0.0000000000000000     
   4.8481711092371255E-003  0.10518830759402634        0.0000000000000000     
   4.9876946221297323E-003  0.11214542253619246        0.0000000000000000     
   5.1212559163502265E-003  0.11923716937742912        0.0000000000000000     
   5.2488549918986065E-003  0.12646354811773641        0.0000000000000000     
   5.3704918487748757E-003  0.13382455875711421        0.0000000000000000     
   3.9478225613998746E-007  0.10516686375462057        0.0000000000000000     
   2.4164251488894943E-007  0.11212478422135329        0.0000000000000000     
   2.2218463726297009E-007  0.11921743528013881        0.0000000000000000     
   3.3640862326015210E-007  0.12644481693097717        0.0000000000000000     
   5.8431447288271807E-007  0.13380692917386833        0.0000000000000000     
   2.1647964666103837E-002  0.13408690867891143        0.0000000000000000     
   2.2111214489329872E-002  0.14155596879120727        0.0000000000000000     
   2.2547141296812095E-002  0.14913984148620088        0.0000000000000000     
   2.2955745088550493E-002  0.15683852676389226        0.0000000000000000     
   2.3337025864545072E-002  0.16465202462428138        0.0000000000000000     
   1.6194182024590352E-002  0.13396454850963577        0.0000000000000000     
   1.6540758736921887E-002  0.14144170243589013        0.0000000000000000     
   1.6866580794519557E-002  0.14903433475479747        0.0000000000000000     
   1.7171648197383364E-002  0.15674244546635788        0.0000000000000000     
   1.7455960945513299E-002  0.16456603457057128        0.0000000000000000     
   1.0768357752147366E-002  0.13387709853570337        0.0000000000000000     
   1.0998877926330915E-002  0.14136004744491687        0.0000000000000000     
   1.1215367425189788E-002  0.14895894953405758        0.0000000000000000     
   1.1417826248723985E-002  0.15667380480312545        0.0000000000000000     
   1.1606254396933503E-002  0.16450461325212057        0.0000000000000000     
   5.3704918487748757E-003  0.13382455875711421        0.0000000000000000     
   5.4855720575569585E-003  0.14131100381828751        0.0000000000000000     
   5.5935011888227871E-003  0.14891368582398110        0.0000000000000000     
   5.6942792425723598E-003  0.15663260477419508        0.0000000000000000     
   5.7879062188056765E-003  0.16446776066892932        0.0000000000000000     
   5.8431447288271807E-007  0.13380692917386833        0.0000000000000000     
   8.4113060001681818E-007  0.14129457155600206        0.0000000000000000     
   9.8208541855272259E-007  0.14889854362456817        0.0000000000000000     
   1.0071789284881003E-006  0.15661884537956661        0.0000000000000000     
   9.1641112982604120E-007  0.16445547682099748        0.0000000000000000     
   2.3337025864545072E-002  0.16465202462428138        0.0000000000000000     
   2.3689334992275071E-002  0.17256631484779622        0.0000000000000000     
   2.4011023839219724E-002  0.18056737721486479        0.0000000000000000     
   2.4302092405379040E-002  0.18865521172548705        0.0000000000000000     
   2.4562540690753011E-002  0.19682981837966307        0.0000000000000000     
   1.7455960945513299E-002  0.16456603457057128        0.0000000000000000     
   1.7718388535811591E-002  0.17249032927440028        0.0000000000000000     
   1.7957800465180453E-002  0.18050055678480759        0.0000000000000000     
   1.8174196733619887E-002  0.18859671710179315        0.0000000000000000     
   1.8367577341129891E-002  0.19677881022535690        0.0000000000000000     
   1.1606254396933503E-002  0.16450461325212057        0.0000000000000000     
   1.1779979194589714E-002  0.17243606329951111        0.0000000000000000     
   1.1938327966463989E-002  0.18045284336376519        0.0000000000000000     
   1.2081300712556326E-002  0.18855495344488288        0.0000000000000000     
   1.2208897432866728E-002  0.19674239354286410        0.0000000000000000     
   5.7879062188056765E-003  0.16446776066892932        0.0000000000000000     
   5.8741069686094353E-003  0.17240351692312858        0.0000000000000000     
   5.9526063430703291E-003  0.18042423695173765        0.0000000000000000     
   6.0234043421883597E-003  0.18852992075475630        0.0000000000000000     
   6.0865009659635261E-003  0.19672056833218476        0.0000000000000000     
   9.1641112982604120E-007  0.16445547682099748        0.0000000000000000     
   7.7185787075674181E-007  0.17239269014525280        0.0000000000000000     
   6.3559499947657850E-007  0.18041473754872478        0.0000000000000000     
   5.0762251598460259E-007  0.18852161903141343        0.0000000000000000     
   3.8794042028127487E-007  0.19671333459331874        0.0000000000000000     
   2.4562540690753011E-002  0.19682981837966307        0.0000000000000000     
   2.4793295539649405E-002  0.20507669978507878        0.0000000000000000     
   2.4995283796375986E-002  0.21338135854942014        0.0000000000000000     
   2.5168505460932758E-002  0.22174379467268723        0.0000000000000000     
   2.5312960533319714E-002  0.23016400815487992        0.0000000000000000     
   1.8367577341129891E-002  0.19677881022535690        0.0000000000000000     
   1.8538861128736227E-002  0.20503126361391616        0.0000000000000000     
   1.8688966937464652E-002  0.21333850472588811        0.0000000000000000     
   1.8817894767315171E-002  0.22170053356127278        0.0000000000000000     
   1.8925644618287787E-002  0.23011735012007009        0.0000000000000000     
   1.2208897432866728E-002  0.19674239354286410        0.0000000000000000     
   1.2321881055669889E-002  0.20499882468972977        0.0000000000000000     
   1.2421014509240496E-002  0.21330790791750068        0.0000000000000000     
   1.2506297793578557E-002  0.22166964322617669        0.0000000000000000     
   1.2577730908684064E-002  0.23008403061575794        0.0000000000000000     
   6.0865009659635261E-003  0.19672056833218476        0.0000000000000000     
   6.1423553204503897E-003  0.20497938301251967        0.0000000000000000     
   6.1914265117035162E-003  0.21328956812425770        0.0000000000000000     
   6.2337145397229048E-003  0.22165112366739903        0.0000000000000000     
   6.2692194045085529E-003  0.23006404964194355        0.0000000000000000     
   3.8794042028127487E-007  0.19671333459331874        0.0000000000000000     
   2.8392307773275095E-007  0.20497293858228569        0.0000000000000000     
   2.0294485371364322E-007  0.21328348534615935        0.0000000000000000     
   1.4500574821934382E-007  0.22164497488493973        0.0000000000000000     
   1.1010576125153326E-007  0.23005740719862683        0.0000000000000000     
   2.5312960533319714E-002  0.23016400815487992        0.0000000000000000     
   2.5434722865648296E-002  0.23861424069364343        0.0000000000000000     
   2.5539866310029941E-002  0.24706673398662288        0.0000000000000000     
   2.5628390866464654E-002  0.25552148803381819        0.0000000000000000     
   2.5700296534952434E-002  0.26397850283522939        0.0000000000000000     
   1.8925644618287787E-002  0.23011735012007009        0.0000000000000000     
   1.9016425833565775E-002  0.23855952286159937        0.0000000000000000     
   1.9094447756332435E-002  0.24699762024517996        0.0000000000000000     
   1.9159710386587762E-002  0.25543164227081189        0.0000000000000000     
   1.9212213724331760E-002  0.26386158893849498        0.0000000000000000     
   1.2577730908684064E-002  0.23008403061575794        0.0000000000000000     
   1.2637887753197663E-002  0.23852044383486284        0.0000000000000000     
   1.2689342225759995E-002  0.24694825663210984        0.0000000000000000     
   1.2732094326371063E-002  0.25536746900749896        0.0000000000000000     
   1.2766144055030862E-002  0.26377808096103017        0.0000000000000000     
   6.2692194045085529E-003  0.23006404964194355        0.0000000000000000     
   6.2991086245439611E-003  0.23849700361343379        0.0000000000000000     
   6.3245497183126260E-003  0.24691864314741246        0.0000000000000000     
   6.3455426858145501E-003  0.25532896824387946        0.0000000000000000     
   6.3620875270497318E-003  0.26372797890283478        0.0000000000000000     
   1.1010576125153326E-007  0.23005740719862683        0.0000000000000000     
   8.8447604667174148E-008  0.23848920219731223        0.0000000000000000     
   7.0233990326156424E-008  0.24690877979108777        0.0000000000000000     
   5.5464918227802465E-008  0.25531613997995334        0.0000000000000000     
   4.4140388371759903E-008  0.26371128276390893        0.0000000000000000     
   2.5700296534952434E-002  0.26397850283522939        0.0000000000000000     
   2.5767806428611179E-002  0.27238273339693825        0.0000000000000000     
   2.5843143660558801E-002  0.28067913472502637        0.0000000000000000     
   2.5926308230795302E-002  0.28886770681949386        0.0000000000000000     
   2.6017300139320680E-002  0.29694844968034068        0.0000000000000000     
   1.9212213724331760E-002  0.26386158893849498        0.0000000000000000     
   1.9261938451259307E-002  0.27223021104447026        0.0000000000000000     
   1.9318865249065280E-002  0.28048025938497828        0.0000000000000000     
   1.9382994117749682E-002  0.28861173396001916        0.0000000000000000     
   1.9454325057312514E-002  0.29662463476959283        0.0000000000000000     
   1.2766144055030862E-002  0.26377808096103017        0.0000000000000000     
   1.2798687334623620E-002  0.27212126856264268        0.0000000000000000     
   1.2836920088033561E-002  0.28033820788227570        0.0000000000000000     
   1.2880842315260686E-002  0.28842889891992929        0.0000000000000000     
   1.2930454016304993E-002  0.29639334167560344        0.0000000000000000     
   6.3620875270497318E-003  0.26372797890283478        0.0000000000000000     
   6.3780530787041134E-003  0.27205590595145551        0.0000000000000000     
   6.3973081774636384E-003  0.28025298021691875        0.0000000000000000     
   6.4198528233283050E-003  0.28831920169922443        0.0000000000000000     
   6.4456870162981151E-003  0.29625457039837233        0.0000000000000000     
   4.4140388371759903E-008  0.26371128276390893        0.0000000000000000     
   3.5683500790913841E-008  0.27203412321090886        0.0000000000000000     
   2.9517355513920991E-008  0.28022457638890724        0.0000000000000000     
   2.5641952544603165E-008  0.28828264229790418        0.0000000000000000     
   2.4057291882553788E-008  0.29620832093789973        0.0000000000000000     
   3.3200266864640351E-006   5.5604679616992218E-002   0.0000000000000000     
   4.1880511773189147E-006   6.1036146744031225E-002   0.0000000000000000     
   4.4642733582251921E-006   6.6713173181376512E-002   0.0000000000000000     
   4.1486932291834636E-006   7.2635758929028085E-002   0.0000000000000000     
   3.2413107901938919E-006   7.8803903986985946E-002   0.0000000000000000     
  -3.5574391399915517E-003   5.5627479702068196E-002   0.0000000000000000     
  -3.7138917406578723E-003   6.1060430361926335E-002   0.0000000000000000     
  -3.8753740033526810E-003   6.6738350005034322E-002   0.0000000000000000     
  -4.0418859280759757E-003   7.2661238631392164E-002   0.0000000000000000     
  -4.2134275148277608E-003   7.8829096240999874E-002   0.0000000000000000     
  -7.1016969576312185E-003   5.5664866265510968E-002   0.0000000000000000     
  -7.4333695347097084E-003   6.1115987405107458E-002   0.0000000000000000     
  -7.7692839245842226E-003   6.6806229194992406E-002   0.0000000000000000     
  -8.1094401272547596E-003   7.2735591635165853E-002   0.0000000000000000     
  -8.4538381427213226E-003   7.8904074725627743E-002   0.0000000000000000     
  -1.0629453426232536E-002   5.5716839307320513E-002   0.0000000000000000     
  -1.1154245330978193E-002   6.1202817873574560E-002   0.0000000000000000     
  -1.1677265490336403E-002   6.6916810751250749E-002   0.0000000000000000     
  -1.2198513904307168E-002   7.2858817940349097E-002   0.0000000000000000     
  -1.2717990572890490E-002   7.9028839440869580E-002   0.0000000000000000     
  -1.4140708545795504E-002   5.5783398827496847E-002   0.0000000000000000     
  -1.4876519129463320E-002   6.1320921767327674E-002   0.0000000000000000     
  -1.5599318700609217E-002   6.7070094673809380E-002   0.0000000000000000     
  -1.6309107259233201E-002   7.3030917546941951E-002   0.0000000000000000     
  -1.7005884805335266E-002   7.9203390386725372E-002   0.0000000000000000     
   3.2413107901938919E-006   7.8803903986985946E-002   0.0000000000000000     
   2.1609400613436212E-006   8.5169782507296371E-002   0.0000000000000000     
   1.3263950627158383E-006   9.1685568642005610E-002   0.0000000000000000     
   7.3767579431589651E-007   9.8351262391113678E-002   0.0000000000000000     
   3.9478225613998746E-007  0.10516686375462057        0.0000000000000000     
  -4.2134275148277608E-003   7.8829096240999874E-002   0.0000000000000000     
  -4.3835927414175389E-003   8.5194317957832943E-002   0.0000000000000000     
  -4.5459755856548135E-003   9.1709298905866890E-002   0.0000000000000000     
  -4.7005760475395883E-003   9.8374039085101700E-002   0.0000000000000000     
  -4.8473941270718605E-003  0.10518853849553739        0.0000000000000000     
  -8.4538381427213226E-003   7.8904074725627743E-002   0.0000000000000000     
  -8.7928675077222958E-003   8.5266914229200241E-002   0.0000000000000000     
  -9.1169177589960609E-003   9.1779345908705443E-002   0.0000000000000000     
  -9.4259888965426194E-003   9.8441369764143347E-002   0.0000000000000000     
  -9.7200809203619714E-003  0.10525298579551390        0.0000000000000000     
  -1.2717990572890490E-002   7.9028839440869580E-002   0.0000000000000000     
  -1.3225663358852923E-002   8.5387571321398292E-002   0.0000000000000000     
  -1.3711500124961020E-002   9.1895709650521296E-002   0.0000000000000000     
  -1.4175500871214775E-002   9.8553254428238576E-002   0.0000000000000000     
  -1.4617665597614191E-002  0.10536020565455012        0.0000000000000000     
  -1.7005884805335266E-002   7.9203390386725372E-002   0.0000000000000000     
  -1.7681980294809427E-002   8.5556289234427069E-002   0.0000000000000000     
  -1.8329722683549692E-002   9.2058390131314422E-002   0.0000000000000000     
  -1.8949111971556055E-002   9.8709693077387403E-002   0.0000000000000000     
  -1.9540148158828520E-002  0.10551019807264604        0.0000000000000000     
   3.9478225613998746E-007  0.10516686375462057        0.0000000000000000     
   2.4164251488894943E-007  0.11212478422135329        0.0000000000000000     
   2.2218463726297009E-007  0.11921743528013881        0.0000000000000000     
   3.3640862326015210E-007  0.12644481693097717        0.0000000000000000     
   5.8431447288271807E-007  0.13380692917386833        0.0000000000000000     
  -4.8473941270718605E-003  0.10518853849553739        0.0000000000000000     
  -4.9872150838021732E-003  0.11214529731471368        0.0000000000000000     
  -5.1208241772810661E-003  0.11923681572017032        0.0000000000000000     
  -5.2482214075085408E-003  0.12646309371190731        0.0000000000000000     
  -5.3694067744845964E-003  0.13382413128992460        0.0000000000000000     
  -9.7200809203619714E-003  0.10525298579551390        0.0000000000000000     
  -1.0000497921920131E-002  0.11220673868587461        0.0000000000000000     
  -1.0268543992683114E-002  0.11929517311828287        0.0000000000000000     
  -1.0524219132650918E-002  0.12651828909273871        0.0000000000000000     
  -1.0767523341823539E-002  0.13387608660924205        0.0000000000000000     
  -1.4617665597614191E-002  0.10536020565455012        0.0000000000000000     
  -1.5039606871838990E-002  0.11230910833483607        0.0000000000000000     
  -1.5442937261568881E-002  0.11939250747447648        0.0000000000000000     
  -1.5827656766803869E-002  0.12661040307347132        0.0000000000000000     
  -1.6193765387543951E-002  0.13396279513182069        0.0000000000000000     
  -1.9540148158828520E-002  0.10551019807264604        0.0000000000000000     
  -2.0104541933558741E-002  0.11245240626159805        0.0000000000000000     
  -2.0644003983938369E-002  0.11952881878875111        0.0000000000000000     
  -2.1158534309967402E-002  0.12673943565410525        0.0000000000000000     
  -2.1648132911645836E-002  0.13408425685766051        0.0000000000000000     
   5.8431447288271807E-007  0.13380692917386833        0.0000000000000000     
   8.4113060001681818E-007  0.14129457155600206        0.0000000000000000     
   9.8208541855272259E-007  0.14889854362456817        0.0000000000000000     
   1.0071789284881003E-006  0.15661884537956661        0.0000000000000000     
   9.1641112982604120E-007  0.16445547682099748        0.0000000000000000     
  -5.3694067744845964E-003  0.13382413128992460        0.0000000000000000     
  -5.4840165164475501E-003  0.14131066769468426        0.0000000000000000     
  -5.5916868716357196E-003  0.14891344216664829        0.0000000000000000     
  -5.6924178400491084E-003  0.15663245470581666        0.0000000000000000     
  -5.7862094216877095E-003  0.16446770531218943        0.0000000000000000     
  -1.0767523341823539E-002  0.13387608660924205        0.0000000000000000     
  -1.0997702545493381E-002  0.14135920927095791        0.0000000000000000     
  -1.1214002668952837E-002  0.14895830068105109        0.0000000000000000     
  -1.1416423712201907E-002  0.15667336083952169        0.0000000000000000     
  -1.1604965675240587E-002  0.16450438974636963        0.0000000000000000     
  -1.6193765387543951E-002  0.13396279513182069        0.0000000000000000     
  -1.6540216956537481E-002  0.14144019628482299        0.0000000000000000     
  -1.6865965306532799E-002  0.14903311916777662        0.0000000000000000     
  -1.7171010437529912E-002  0.15674156378068169        0.0000000000000000     
  -1.7455352349528809E-002  0.16456553012353811        0.0000000000000000     
  -2.1648132911645836E-002  0.13408425685766051        0.0000000000000000     
  -2.2111559749579845E-002  0.14155362873627947        0.0000000000000000     
  -2.2547574784375603E-002  0.14913789762682483        0.0000000000000000     
  -2.2956178016033117E-002  0.15683706352929666        0.0000000000000000     
  -2.3337369444552374E-002  0.16465112644369487        0.0000000000000000     
   9.1641112982604120E-007  0.16445547682099748        0.0000000000000000     
   7.7185787075674181E-007  0.17239269014525280        0.0000000000000000     
   6.3559499947657850E-007  0.18041473754872478        0.0000000000000000     
   5.0762251598460259E-007  0.18852161903141343        0.0000000000000000     
   3.8794042028127487E-007  0.19671333459331874        0.0000000000000000     
  -5.7862094216877095E-003  0.16446770531218943        0.0000000000000000     
  -5.8726737834064570E-003  0.17240354308819988        0.0000000000000000     
  -5.9514230920602708E-003  0.18042431713628132        0.0000000000000000     
  -6.0224573476491527E-003  0.18853002745643377        0.0000000000000000     
  -6.0857765501731035E-003  0.19672067404865717        0.0000000000000000     
  -1.1604965675240587E-002  0.16450438974636963        0.0000000000000000     
  -1.1778877601002340E-002  0.17243603587428596        0.0000000000000000     
  -1.1937408532420611E-002  0.18045294769596168        0.0000000000000000     
  -1.2080558469495408E-002  0.18855512521139675        0.0000000000000000     
  -1.2208327412226723E-002  0.19674256842059121        0.0000000000000000     
  -1.7455352349528809E-002  0.16456553012353811        0.0000000000000000     
  -1.7717839594916893E-002  0.17249016850351118        0.0000000000000000     
  -1.7957320726081548E-002  0.18050062922776594        0.0000000000000000     
  -1.8173795743022775E-002  0.18859691229630252        0.0000000000000000     
  -1.8367264645740577E-002  0.19677901770912079        0.0000000000000000     
  -2.3337369444552374E-002  0.16465112644369487        0.0000000000000000     
  -2.3689559765150116E-002  0.17256594097587538        0.0000000000000000     
  -2.4011159673043077E-002  0.18056736173169408        0.0000000000000000     
  -2.4302169168231268E-002  0.18865538871115095        0.0000000000000000     
  -2.4562588250714671E-002  0.19683002191424601        0.0000000000000000     
   3.8794042028127487E-007  0.19671333459331874        0.0000000000000000     
   2.8392307773275095E-007  0.20497293858228569        0.0000000000000000     
   2.0294485371364322E-007  0.21328348534615935        0.0000000000000000     
   1.4500574821934382E-007  0.22164497488493973        0.0000000000000000     
   1.1010576125153326E-007  0.23005740719862683        0.0000000000000000     
  -6.0857765501731035E-003  0.19672067404865717        0.0000000000000000     
  -6.1418251598493439E-003  0.20497947383833609        0.0000000000000000     
  -6.1910476368950895E-003  0.21328964375085502        0.0000000000000000     
  -6.2334439813103507E-003  0.22165118378621390        0.0000000000000000     
  -6.2690141930951179E-003  0.23006409394441274        0.0000000000000000     
  -1.2208327412226723E-002  0.19674256842059121        0.0000000000000000     
  -1.2321463951732101E-002  0.20499897121997901        0.0000000000000000     
  -1.2420716679129078E-002  0.21330802750599412        0.0000000000000000     
  -1.2506085594417658E-002  0.22166973727863654        0.0000000000000000     
  -1.2577570697597835E-002  0.23008410053790632        0.0000000000000000     
  -1.8367264645740577E-002  0.19677901770912079        0.0000000000000000     
  -1.8538632452570536E-002  0.20503143072721439        0.0000000000000000     
  -1.8688804181848248E-002  0.21333863661157670        0.0000000000000000     
  -1.8817779833573699E-002  0.22170063536220772        0.0000000000000000     
  -1.8925559407746897E-002  0.23011742697910748        0.0000000000000000     
  -2.4562588250714671E-002  0.19683002191424601        0.0000000000000000     
  -2.4793330662364662E-002  0.20507685236004222        0.0000000000000000     
  -2.4995310145052598E-002  0.21338147106760272        0.0000000000000000     
  -2.5168526698778480E-002  0.22174387803692736        0.0000000000000000     
  -2.5312980323542306E-002  0.23016407326801622        0.0000000000000000     
   1.1010576125153326E-007  0.23005740719862683        0.0000000000000000     
   8.8447604667174148E-008  0.23848920219731223        0.0000000000000000     
   7.0233990326156424E-008  0.24690877979108777        0.0000000000000000     
   5.5464918227802465E-008  0.25531613997995334        0.0000000000000000     
   4.4140388371759903E-008  0.26371128276390893        0.0000000000000000     
  -6.2690141930951179E-003  0.23006409394441274        0.0000000000000000     
  -6.2989440385674755E-003  0.23849703391034896        0.0000000000000000     
  -6.3244192840455011E-003  0.24691866336891991        0.0000000000000000     
  -6.3454399295291919E-003  0.25532898232012557        0.0000000000000000     
  -6.3620059750185524E-003  0.26372799076396597        0.0000000000000000     
  -1.2577570697597835E-002  0.23008410053790632        0.0000000000000000     
  -1.2637760094919728E-002  0.23852049307639464        0.0000000000000000     
  -1.2689241892633448E-002  0.24694829068669299        0.0000000000000000     
  -1.2732016090739000E-002  0.25536749336880116        0.0000000000000000     
  -1.2766082689236381E-002  0.26377810112271927        0.0000000000000000     
  -1.8925559407746897E-002  0.23011742697910748        0.0000000000000000     
  -1.9016359721452089E-002  0.23855957969544939        0.0000000000000000     
  -1.9094397591773529E-002  0.24699766174440688        0.0000000000000000     
  -1.9159673018711198E-002  0.25543167312598009        0.0000000000000000     
  -1.9212186002265104E-002  0.26386161384016876        0.0000000000000000     
  -2.5312980323542306E-002  0.23016407326801622        0.0000000000000000     
  -2.5434742918164562E-002  0.23861429376751309        0.0000000000000000     
  -2.5539886381465718E-002  0.24706677654206174        0.0000000000000000     
  -2.5628410713445775E-002  0.25552152159166225        0.0000000000000000     
  -2.5700315914104738E-002  0.26397852891631457        0.0000000000000000     
   4.4140388371759903E-008  0.26371128276390893        0.0000000000000000     
   3.5683500790913841E-008  0.27203412321090886        0.0000000000000000     
   2.9517355513920991E-008  0.28022457638890724        0.0000000000000000     
   2.5641952544603165E-008  0.28828264229790418        0.0000000000000000     
   2.4057291882553788E-008  0.29620832093789973        0.0000000000000000     
  -6.3620059750185524E-003  0.26372799076396597        0.0000000000000000     
  -6.3779873583552854E-003  0.27205591818122610        0.0000000000000000     
  -6.3972540173810885E-003  0.28025299405269105        0.0000000000000000     
  -6.4198059520959600E-003  0.28831921837836083        0.0000000000000000     
  -6.4456431624999051E-003  0.29625459115823538        0.0000000000000000     
  -1.2766082689236381E-002  0.26377810112271927        0.0000000000000000     
  -1.2798638554233042E-002  0.27212128870263091        0.0000000000000000     
  -1.2836880551836440E-002  0.28033823086271992        0.0000000000000000     
  -1.2880808682046574E-002  0.28842892760298605        0.0000000000000000     
  -1.2930422944863445E-002  0.29639337892342948        0.0000000000000000     
  -1.9212186002265104E-002  0.26386161384016876        0.0000000000000000     
  -1.9261917904132481E-002  0.27223023477512320        0.0000000000000000     
  -1.9318850086010551E-002  0.28048028681899367        0.0000000000000000     
  -1.9382982547899299E-002  0.28861176997177990        0.0000000000000000     
  -1.9454315289798740E-002  0.29662468423348198        0.0000000000000000     
  -2.5700315914104738E-002  0.26397852891631457        0.0000000000000000     
  -2.5767825408053609E-002  0.27238275639870313        0.0000000000000000     
  -2.5843162619903413E-002  0.28067916192151238        0.0000000000000000     
  -2.5926327549654134E-002  0.28886774548474226        0.0000000000000000     
  -2.6017320197305783E-002  0.29694850708839282        0.0000000000000000     
  -1.4140708545795504E-002   5.5783398827496847E-002   0.0000000000000000     
  -1.4876519129463320E-002   6.1320921767327674E-002   0.0000000000000000     
  -1.5599318700609217E-002   6.7070094673809380E-002   0.0000000000000000     
  -1.6309107259233201E-002   7.3030917546941951E-002   0.0000000000000000     
  -1.7005884805335266E-002   7.9203390386725372E-002   0.0000000000000000     
  -1.7712847894786728E-002   5.5933688943962473E-002   0.0000000000000000     
  -1.8657318204478423E-002   6.1510332744978725E-002   0.0000000000000000     
  -1.9578165068656627E-002   6.7285221957074121E-002   0.0000000000000000     
  -2.0475388487321326E-002   7.3258356580248707E-002   0.0000000000000000     
  -2.1348988460472524E-002   7.9429736614502477E-002   0.0000000000000000     
  -2.1423257051672813E-002   5.6236853774639918E-002   0.0000000000000000     
  -2.2553769830336842E-002   6.1811084465139603E-002   0.0000000000000000     
  -2.3656526107732577E-002   6.7581333595450890E-002   0.0000000000000000     
  -2.4731525883860014E-002   7.3547601165573767E-002   0.0000000000000000     
  -2.5778769158719145E-002   7.9709887175508240E-002   0.0000000000000000     
  -2.5271936016453753E-002   5.6692893319529168E-002   0.0000000000000000     
  -2.6565874007038574E-002   6.2223176927810327E-002   0.0000000000000000     
  -2.7834401817837071E-002   6.7958429588939648E-002   0.0000000000000000     
  -2.9077519448849263E-002   7.3898651302917090E-002   0.0000000000000000     
  -3.0295226900075130E-002   8.0043842069742660E-002   0.0000000000000000     
  -2.9258884789129552E-002   5.7301807578630223E-002   0.0000000000000000     
  -3.0693630734583612E-002   6.2746610132990904E-002   0.0000000000000000     
  -3.2111792198970118E-002   6.8416509937540379E-002   0.0000000000000000     
  -3.3513369182289067E-002   7.4311506992278675E-002   0.0000000000000000     
  -3.4898361684540469E-002   8.0431601297205751E-002   0.0000000000000000     
  -1.7005884805335266E-002   7.9203390386725372E-002   0.0000000000000000     
  -1.7681980294809427E-002   8.5556289234427069E-002   0.0000000000000000     
  -1.8329722683549692E-002   9.2058390131314422E-002   0.0000000000000000     
  -1.8949111971556055E-002   9.8709693077387403E-002   0.0000000000000000     
  -1.9540148158828520E-002  0.10551019807264604        0.0000000000000000     
  -2.1348988460472524E-002   7.9429736614502477E-002   0.0000000000000000     
  -2.2193431762194443E-002   8.5774739231127217E-002   0.0000000000000000     
  -2.3003185166571283E-002   9.2268741601414780E-002   0.0000000000000000     
  -2.3778248673603050E-002   9.8911743725365125E-002   0.0000000000000000     
  -2.4518622283289736E-002  0.10570374560297831        0.0000000000000000     
  -2.5778769158719145E-002   7.9709887175508240E-002   0.0000000000000000     
  -2.6791631207610606E-002   8.6044592574339399E-002   0.0000000000000000     
  -2.7763487305835003E-002   9.2528118311152333E-002   0.0000000000000000     
  -2.8694337453392331E-002   9.9160464385947042E-002   0.0000000000000000     
  -2.9584181650282607E-002  0.10594163079872353        0.0000000000000000     
  -3.0295226900075130E-002   8.0043842069742660E-002   0.0000000000000000     
  -3.1476578631057912E-002   8.6365849264063599E-002   0.0000000000000000     
  -3.2610629101340841E-002   9.2836520260527092E-002   0.0000000000000000     
  -3.3697378310923912E-002   9.9455855059133125E-002   0.0000000000000000     
  -3.4736826259807133E-002  0.10622385365988174        0.0000000000000000     
  -3.4898361684540469E-002   8.0431601297205751E-002   0.0000000000000000     
  -3.6248274032536373E-002   8.6738509300299818E-002   0.0000000000000000     
  -3.7544610553088810E-002   9.3193947449539044E-002   0.0000000000000000     
  -3.8787371246197799E-002   9.9797915744923416E-002   0.0000000000000000     
  -3.9976556111863314E-002  0.10655041418645292        0.0000000000000000     
  -1.9540148158828520E-002  0.10551019807264604        0.0000000000000000     
  -2.0104541933558741E-002  0.11245240626159805        0.0000000000000000     
  -2.0644003983938369E-002  0.11952881878875111        0.0000000000000000     
  -2.1158534309967402E-002  0.12673943565410525        0.0000000000000000     
  -2.1648132911645836E-002  0.13408425685766051        0.0000000000000000     
  -2.4518622283289736E-002  0.10570374560297831        0.0000000000000000     
  -2.5226033198327280E-002  0.11263717315621925        0.0000000000000000     
  -2.5902208621411616E-002  0.11970445230705302        0.0000000000000000     
  -2.6547148552542740E-002  0.12690558305547955        0.0000000000000000     
  -2.7160852991720656E-002  0.13424056540149892        0.0000000000000000     
  -2.9584181650282607E-002  0.10594163079872353        0.0000000000000000     
  -3.0434810757392489E-002  0.11286394970875845        0.0000000000000000     
  -3.1248015635608667E-002  0.11991975327532838        0.0000000000000000     
  -3.2023796284931114E-002  0.12710904149843338        0.0000000000000000     
  -3.2762152705359864E-002  0.13443181437807342        0.0000000000000000     
  -3.4736826259807133E-002  0.10622385365988174        0.0000000000000000     
  -3.5730874610754366E-002  0.11313273591921555        0.0000000000000000     
  -3.6681425026529504E-002  0.12017472169357719        0.0000000000000000     
  -3.7588477507132553E-002  0.12734981098296663        0.0000000000000000     
  -3.8452032052563485E-002  0.13465800378738396        0.0000000000000000     
  -3.9976556111863314E-002  0.10655041418645292        0.0000000000000000     
  -4.1114224758412928E-002  0.11344353178759060        0.0000000000000000     
  -4.2202436794174160E-002  0.12046935756179944        0.0000000000000000     
  -4.3241192219147018E-002  0.12762789150907944        0.0000000000000000     
  -4.4230491033331501E-002  0.13491913362943062        0.0000000000000000     
  -2.1648132911645836E-002  0.13408425685766051        0.0000000000000000     
  -2.2111559749579845E-002  0.14155362873627947        0.0000000000000000     
  -2.2547574784375603E-002  0.14913789762682483        0.0000000000000000     
  -2.2956178016033117E-002  0.15683706352929666        0.0000000000000000     
  -2.3337369444552374E-002  0.16465112644369487        0.0000000000000000     
  -2.7160852991720656E-002  0.13424056540149892        0.0000000000000000     
  -2.7741978985313876E-002  0.14169961931731689        0.0000000000000000     
  -2.8289183579690950E-002  0.14927296477513943        0.0000000000000000     
  -2.8802466774851876E-002  0.15696060177496643        0.0000000000000000     
  -2.9281828570796642E-002  0.16476253031679797        0.0000000000000000     
  -3.2762152705359864E-002  0.13443181437807342        0.0000000000000000     
  -3.3461722724432978E-002  0.14187828071992487        0.0000000000000000     
  -3.4121144169688526E-002  0.14943864932966400        0.0000000000000000     
  -3.4740417041126528E-002  0.15711292020729095        0.0000000000000000     
  -3.5319541338746964E-002  0.16490109335280556        0.0000000000000000     
  -3.8452032052563485E-002  0.13465800378738396        0.0000000000000000     
  -3.9270790966937134E-002  0.14208961294410327        0.0000000000000000     
  -4.0043456554368334E-002  0.14963495129039867        0.0000000000000000     
  -4.0770028814857077E-002  0.15729401882627009        0.0000000000000000     
  -4.1450507748403372E-002  0.16506681555171759        0.0000000000000000     
  -4.4230491033331501E-002  0.13491913362943062        0.0000000000000000     
  -4.5169183712826369E-002  0.14233361598985214        0.0000000000000000     
  -4.6056120733730381E-002  0.14986187065734324        0.0000000000000000     
  -4.6891302096043537E-002  0.15750389763190392        0.0000000000000000     
  -4.7674727799765830E-002  0.16525969691353415        0.0000000000000000     
  -2.3337369444552374E-002  0.16465112644369487        0.0000000000000000     
  -2.3689559765150116E-002  0.17256594097587538        0.0000000000000000     
  -2.4011159673043077E-002  0.18056736173169408        0.0000000000000000     
  -2.4302169168231268E-002  0.18865538871115095        0.0000000000000000     
  -2.4562588250714671E-002  0.19683002191424601        0.0000000000000000     
  -2.9281828570796642E-002  0.16476253031679797        0.0000000000000000     
  -2.9725301963266716E-002  0.17266528278691018        0.0000000000000000     
  -3.0130919948003553E-002  0.18065539157157942        0.0000000000000000     
  -3.0498682525007172E-002  0.18873285667080567        0.0000000000000000     
  -3.0828589694277552E-002  0.19689767808458880        0.0000000000000000     
  -3.5319541338746964E-002  0.16490109335280556        0.0000000000000000     
  -3.5856330040831400E-002  0.17279012343214725        0.0000000000000000     
  -3.6348596125661339E-002  0.18076696511125548        0.0000000000000000     
  -3.6796339593236797E-002  0.18883161839013010        0.0000000000000000     
  -3.7199560443557760E-002  0.19698408326877123        0.0000000000000000     
  -4.1450507748403372E-002  0.16506681555171759        0.0000000000000000     
  -4.2082643997844164E-002  0.17294046291158655        0.0000000000000000     
  -4.2664188206016418E-002  0.18090208235072205        0.0000000000000000     
  -4.3195140372920132E-002  0.18895167386912440        0.0000000000000000     
  -4.3675500498555314E-002  0.19708923746679333        0.0000000000000000     
  -4.7674727799765830E-002  0.16525969691353415        0.0000000000000000     
  -4.8404243834305007E-002  0.17311630122522798        0.0000000000000000     
  -4.9077696189068792E-002  0.18106074328997937        0.0000000000000000     
  -4.9695084864057187E-002  0.18909302310778842        0.0000000000000000     
  -5.0256409859270199E-002  0.19721314067865506        0.0000000000000000     
  -2.4562588250714671E-002  0.19683002191424601        0.0000000000000000     
  -2.4793330662364662E-002  0.20507685236004222        0.0000000000000000     
  -2.4995310145052598E-002  0.21338147106760272        0.0000000000000000     
  -2.5168526698778480E-002  0.22174387803692736        0.0000000000000000     
  -2.5312980323542306E-002  0.23016407326801622        0.0000000000000000     
  -3.0828589694277552E-002  0.19689767808458880        0.0000000000000000     
  -3.1121306600984000E-002  0.20513678388803380        0.0000000000000000     
  -3.1377498390295827E-002  0.21343710215624564        0.0000000000000000     
  -3.1597165062213030E-002  0.22179863288922422        0.0000000000000000     
  -3.1780306616735601E-002  0.23022137608696958        0.0000000000000000     
  -3.7199560443557760E-002  0.19698408326877123        0.0000000000000000     
  -3.7558308288298092E-002  0.20521277308076033        0.0000000000000000     
  -3.7872632739131627E-002  0.21350610115967888        0.0000000000000000     
  -3.8142533796058364E-002  0.22186406750552695        0.0000000000000000     
  -3.8368011459078297E-002  0.23028667211830450        0.0000000000000000     
  -4.3675500498555314E-002  0.19708923746679333        0.0000000000000000     
  -4.4104335724306935E-002  0.20530481993822183        0.0000000000000000     
  -4.4480713191560002E-002  0.21358846807790255        0.0000000000000000     
  -4.4804632900314494E-002  0.22194018188583567        0.0000000000000000     
  -4.5076094850570424E-002  0.23035996136202105        0.0000000000000000     
  -5.0256409859270199E-002  0.19721314067865506        0.0000000000000000     
  -5.0759388909010543E-002  0.20541292446041814        0.0000000000000000     
  -5.1201739747580952E-002  0.21368420291091655        0.0000000000000000     
  -5.1583462374981418E-002  0.22202697603015023        0.0000000000000000     
  -5.1904556791211955E-002  0.23044124381811923        0.0000000000000000     
  -2.5312980323542306E-002  0.23016407326801622        0.0000000000000000     
  -2.5434742918164562E-002  0.23861429376751309        0.0000000000000000     
  -2.5539886381465718E-002  0.24706677654206174        0.0000000000000000     
  -2.5628410713445775E-002  0.25552152159166225        0.0000000000000000     
  -2.5700315914104738E-002  0.26397852891631457        0.0000000000000000     
  -3.1780306616735601E-002  0.23022137608696958        0.0000000000000000     
  -3.1934594208334159E-002  0.23868021335424733        0.0000000000000000     
  -3.2067698991479321E-002  0.24715002629582306        0.0000000000000000     
  -3.2179620966171087E-002  0.25563081491169681        0.0000000000000000     
  -3.2270360132409449E-002  0.26412257920186860        0.0000000000000000     
  -3.8368011459078297E-002  0.23028667211830450        0.0000000000000000     
  -3.8557598115237901E-002  0.23875291651731362        0.0000000000000000     
  -3.8719826151583613E-002  0.24724180222185643        0.0000000000000000     
  -3.8854695568115459E-002  0.25575332923193289        0.0000000000000000     
  -3.8962206364833399E-002  0.26428749754754305        0.0000000000000000     
  -4.5076094850570424E-002  0.23035996136202105        0.0000000000000000     
  -4.5303754638875794E-002  0.23883240325671207        0.0000000000000000     
  -4.5496267861778621E-002  0.24734210432016185        0.0000000000000000     
  -4.5653634519278903E-002  0.25588906455237037        0.0000000000000000     
  -4.5775854611376628E-002  0.26447328395333786        0.0000000000000000     
  -5.1904556791211955E-002  0.23044124381811923        0.0000000000000000     
  -5.2173063779247825E-002  0.23891867357244254        0.0000000000000000     
  -5.2397024122064303E-002  0.24745093259073928        0.0000000000000000     
  -5.2576437819661398E-002  0.25603802087300942        0.0000000000000000     
  -5.2711304872039094E-002  0.26467993841925286        0.0000000000000000     
  -2.5700315914104738E-002  0.26397852891631457        0.0000000000000000     
  -2.5767825408053609E-002  0.27238275639870313        0.0000000000000000     
  -2.5843162619903413E-002  0.28067916192151238        0.0000000000000000     
  -2.5926327549654134E-002  0.28886774548474226        0.0000000000000000     
  -2.6017320197305783E-002  0.29694850708839282        0.0000000000000000     
  -3.2270360132409449E-002  0.26412257920186860        0.0000000000000000     
  -3.2354785252650189E-002  0.27257253502924833        0.0000000000000000     
  -3.2447765089349108E-002  0.28092789825674574        0.0000000000000000     
  -3.2549299642506198E-002  0.28918866888436090        0.0000000000000000     
  -3.2659388912121459E-002  0.29735484691209385        0.0000000000000000     
  -3.8962206364833399E-002  0.26428749754754305        0.0000000000000000     
  -3.9061221624575995E-002  0.27279325212263666        0.0000000000000000     
  -3.9170604430181728E-002  0.28121953791116350        0.0000000000000000     
  -3.9290354781650612E-002  0.28956635491312349        0.0000000000000000     
  -3.9420472678982646E-002  0.29783370312851687        0.0000000000000000     
  -4.5775854611376628E-002  0.26447328395333786        0.0000000000000000     
  -4.5887134523831009E-002  0.27304490767886808        0.0000000000000000     
  -4.6011680642401263E-002  0.28155408088476558        0.0000000000000000     
  -4.6149492967087376E-002  0.29000080357103020        0.0000000000000000     
  -4.6300571497889360E-002  0.29838507573766188        0.0000000000000000     
  -5.2711304872039094E-002  0.26467993841925286        0.0000000000000000     
  -5.2832523950415253E-002  0.27332750169794273        0.0000000000000000     
  -5.2970993726007720E-002  0.28193152717755204        0.0000000000000000     
  -5.3126714198816490E-002  0.29049201485808079        0.0000000000000000     
  -5.3299685368841568E-002  0.29900896473952887        0.0000000000000000     
  -2.9258884789129552E-002   5.7301807578630223E-002   0.0000000000000000     
  -3.0693630734583612E-002   6.2746610132990904E-002   0.0000000000000000     
  -3.2111792198970118E-002   6.8416509937540379E-002   0.0000000000000000     
  -3.3513369182289067E-002   7.4311506992278675E-002   0.0000000000000000     
  -3.4898361684540469E-002   8.0431601297205751E-002   0.0000000000000000     
  -3.3297296968221923E-002   5.7966246506584523E-002   0.0000000000000000     
  -3.4889325286606453E-002   6.3329954375541231E-002   0.0000000000000000     
  -3.6470479475780741E-002   6.8936477743264682E-002   0.0000000000000000     
  -3.8040759535744789E-002   7.4785816609754904E-002   0.0000000000000000     
  -3.9600165466498610E-002   8.0877970975011898E-002   0.0000000000000000     
  -3.7300366152252580E-002   5.8588860058033522E-002   0.0000000000000000     
  -3.9105242936741599E-002   6.3921779950321209E-002   0.0000000000000000     
  -4.0892245872917989E-002   6.9499236108124099E-002   0.0000000000000000     
  -4.2661374960781775E-002   7.5321228531442172E-002   0.0000000000000000     
  -4.4412630200332946E-002   8.1387757220275470E-002   0.0000000000000000     
  -4.1268092341221516E-002   5.9169648232977198E-002   0.0000000000000000     
  -4.3341383684989021E-002   6.4522086857330851E-002   0.0000000000000000     
  -4.5377091390381853E-002   7.0104785032118602E-002   0.0000000000000000     
  -4.7375215457400019E-002   7.5917742757340465E-002   0.0000000000000000     
  -4.9335755886043504E-002   8.1960960032996452E-002   0.0000000000000000     
  -4.5200475535128737E-002   5.9708611031415559E-002   0.0000000000000000     
  -4.7597747531348752E-002   6.5130875096570132E-002   0.0000000000000000     
  -4.9925016028172342E-002   7.0753124515248206E-002   0.0000000000000000     
  -5.2182281025599513E-002   7.6575359287449782E-002   0.0000000000000000     
  -5.4369542523630271E-002   8.2597579413174846E-002   0.0000000000000000     
  -3.4898361684540469E-002   8.0431601297205751E-002   0.0000000000000000     
  -3.6248274032536373E-002   8.6738509300299818E-002   0.0000000000000000     
  -3.7544610553088810E-002   9.3193947449539044E-002   0.0000000000000000     
  -3.8787371246197799E-002   9.9797915744923416E-002   0.0000000000000000     
  -3.9976556111863314E-002  0.10655041418645292        0.0000000000000000     
  -3.9600165466498610E-002   8.0877970975011898E-002   0.0000000000000000     
  -4.1123546279988973E-002   8.7165871409812662E-002   0.0000000000000000     
  -4.2585750988162696E-002   9.3602448484934264E-002   0.0000000000000000     
  -4.3986779591019765E-002  0.10018770220037662        0.0000000000000000     
  -4.5326632088560193E-002  0.10692163255613983        0.0000000000000000     
  -4.4412630200332946E-002   8.1387757220275470E-002   0.0000000000000000     
  -4.6119224241358704E-002   8.7651234319366750E-002   0.0000000000000000     
  -4.7754369733646281E-002   9.4064071973458785E-002   0.0000000000000000     
  -4.9318066677195620E-002  0.10062627018255163        0.0000000000000000     
  -5.0810315072006777E-002  0.10733782894664522        0.0000000000000000     
  -4.9335755886043504E-002   8.1960960032996452E-002   0.0000000000000000     
  -5.1235307916645587E-002   8.8194598028962012E-002   0.0000000000000000     
  -5.3050466789539542E-002   9.4578817915112648E-002   0.0000000000000000     
  -5.4781232504725372E-002  0.10111361969144832        0.0000000000000000     
  -5.6427605062203068E-002  0.10779900335796908        0.0000000000000000     
  -5.4369542523630271E-002   8.2597579413174846E-002   0.0000000000000000     
  -5.6471797305849607E-002   8.8795962538598505E-002   0.0000000000000000     
  -5.8474042155842516E-002   9.5146686309895798E-002   0.0000000000000000     
  -6.0376277073609007E-002  0.10164975072706676        0.0000000000000000     
  -6.2178502059149085E-002  0.10830515579011139        0.0000000000000000     
  -3.9976556111863314E-002  0.10655041418645292        0.0000000000000000     
  -4.1114224758412928E-002  0.11344353178759060        0.0000000000000000     
  -4.2202436794174160E-002  0.12046935756179944        0.0000000000000000     
  -4.3241192219147018E-002  0.12762789150907944        0.0000000000000000     
  -4.4230491033331501E-002  0.13491913362943062        0.0000000000000000     
  -4.5326632088560193E-002  0.10692163255613983        0.0000000000000000     
  -4.6608261980037390E-002  0.11379626242717612        0.0000000000000000     
  -4.7834622764704807E-002  0.12080361468843784        0.0000000000000000     
  -4.9005714442562437E-002  0.12794368933992492        0.0000000000000000     
  -5.0121537013610266E-002  0.13521648638163744        0.0000000000000000     
  -5.0810315072006777E-002  0.10733782894664522        0.0000000000000000     
  -5.2236387055297012E-002  0.11419085295126467        0.0000000000000000     
  -5.3601554764283660E-002  0.12117744688193505        0.0000000000000000     
  -5.4905818198966699E-002  0.12829761073865634        0.0000000000000000     
  -5.6149177359346131E-002  0.13555134452142856        0.0000000000000000     
  -5.6427605062203068E-002  0.10779900335796908        0.0000000000000000     
  -5.7998599984191795E-002  0.11462730335985621        0.0000000000000000     
  -5.9503232792910705E-002  0.12159085414229109        0.0000000000000000     
  -6.0941503488359798E-002  0.12868965570527369        0.0000000000000000     
  -6.2313412070539101E-002  0.13592370804880402        0.0000000000000000     
  -6.2178502059149085E-002  0.10830515579011139        0.0000000000000000     
  -6.3894900766721732E-002  0.11510561365295076        0.0000000000000000     
  -6.5539656850585964E-002  0.12204383646950592        0.0000000000000000     
  -6.7112770310741768E-002  0.12911982423977694        0.0000000000000000     
  -6.8614241147189142E-002  0.13633357696376378        0.0000000000000000     
  -4.4230491033331501E-002  0.13491913362943062        0.0000000000000000     
  -4.5169183712826369E-002  0.14233361598985214        0.0000000000000000     
  -4.6056120733730381E-002  0.14986187065734324        0.0000000000000000     
  -4.6891302096043537E-002  0.15750389763190392        0.0000000000000000     
  -4.7674727799765830E-002  0.16525969691353415        0.0000000000000000     
  -5.0121537013610266E-002  0.13521648638163744        0.0000000000000000     
  -5.1181222798595910E-002  0.14261254353248537        0.0000000000000000     
  -5.2183904118266955E-002  0.15012239851137865        0.0000000000000000     
  -5.3129580972623401E-002  0.15774605131831732        0.0000000000000000     
  -5.4018253361665262E-002  0.16548350195330130        0.0000000000000000     
  -5.6149177359346131E-002  0.13555134452142856        0.0000000000000000     
  -5.7331230060741013E-002  0.14292864924731666        0.0000000000000000     
  -5.8451574118470379E-002  0.15041952593338542        0.0000000000000000     
  -5.9510209532534233E-002  0.15802397457963491        0.0000000000000000     
  -6.0507136302932578E-002  0.16574199518606514        0.0000000000000000     
  -6.2313412070539101E-002  0.13592370804880402        0.0000000000000000     
  -6.3619205499261658E-002  0.14328193313434603        0.0000000000000000     
  -6.4859130734340631E-002  0.15075325292336364        0.0000000000000000     
  -6.6033187775776006E-002  0.15833766741585689        0.0000000000000000     
  -6.7141376623567797E-002  0.16603517661182565        0.0000000000000000     
  -6.8614241147189142E-002  0.13633357696376378        0.0000000000000000     
  -7.0045149114157879E-002  0.14367239519357353        0.0000000000000000     
  -7.1406573965877740E-002  0.15112357948131330        0.0000000000000000     
  -7.2698515702348754E-002  0.15868712982698310        0.0000000000000000     
  -7.3920974323570865E-002  0.16636304623058293        0.0000000000000000     
  -4.7674727799765830E-002  0.16525969691353415        0.0000000000000000     
  -4.8404243834305007E-002  0.17311630122522798        0.0000000000000000     
  -4.9077696189068792E-002  0.18106074328997937        0.0000000000000000     
  -4.9695084864057187E-002  0.18909302310778842        0.0000000000000000     
  -5.0256409859270199E-002  0.19721314067865506        0.0000000000000000     
  -5.4018253361665262E-002  0.16548350195330130        0.0000000000000000     
  -5.4847776967920280E-002  0.17332163990872823        0.0000000000000000     
  -5.5616007473916214E-002  0.18124735467699568        0.0000000000000000     
  -5.6322944879653086E-002  0.18926064625810365        0.0000000000000000     
  -5.6968589185130862E-002  0.19736151465205204        0.0000000000000000     
  -6.0507136302932578E-002  0.16574199518606514        0.0000000000000000     
  -6.1439890816396350E-002  0.17356048049774400        0.0000000000000000     
  -6.2306009459656468E-002  0.18146632325973938        0.0000000000000000     
  -6.3105492232712945E-002  0.18945952347205131        0.0000000000000000     
  -6.3838339135565761E-002  0.19754008113467980        0.0000000000000000     
  -6.7141376623567797E-002  0.16603517661182565        0.0000000000000000     
  -6.8180585379733205E-002  0.17383282299227515        0.0000000000000000     
  -6.9147702146289514E-002  0.18171764903821047        0.0000000000000000     
  -7.0042726923236764E-002  0.18968965474963151        0.0000000000000000     
  -7.0865659710574888E-002  0.19774884012653834        0.0000000000000000     
  -7.3920974323570865E-002  0.16636304623058293        0.0000000000000000     
  -7.5069860657930837E-002  0.17413866739232181        0.0000000000000000     
  -7.6141085533815392E-002  0.18200133201240892        0.0000000000000000     
  -7.7134648951224530E-002  0.18995104009084424        0.0000000000000000     
  -7.8050550910158237E-002  0.19798779162762775        0.0000000000000000     
  -5.0256409859270199E-002  0.19721314067865506        0.0000000000000000     
  -5.0759388909010543E-002  0.20541292446041814        0.0000000000000000     
  -5.1201739747580952E-002  0.21368420291091655        0.0000000000000000     
  -5.1583462374981418E-002  0.22202697603015023        0.0000000000000000     
  -5.1904556791211955E-002  0.23044124381811923        0.0000000000000000     
  -5.6968589185130862E-002  0.19736151465205204        0.0000000000000000     
  -5.7549786826231485E-002  0.20554333003314665        0.0000000000000000     
  -5.8063384238836863E-002  0.21379946257569307        0.0000000000000000     
  -5.8509381422947003E-002  0.22212991227969142        0.0000000000000000     
  -5.8887778378561906E-002  0.23053467914514156        0.0000000000000000     
  -6.3838339135565761E-002  0.19754008113467980        0.0000000000000000     
  -6.4501848459792357E-002  0.20570228004220428        0.0000000000000000     
  -6.5093318496970143E-002  0.21394040398920428        0.0000000000000000     
  -6.5612749247099117E-002  0.22225445297567981        0.0000000000000000     
  -6.6060140710179294E-002  0.23064442700163079        0.0000000000000000     
  -7.0865659710574888E-002  0.19774884012653834        0.0000000000000000     
  -7.1615573809693148E-002  0.20588977448759122        0.0000000000000000     
  -7.2291542521980764E-002  0.21410702715145022        0.0000000000000000     
  -7.2893565847437752E-002  0.22240059811811544        0.0000000000000000     
  -7.3421643786064097E-002  0.23077048738758685        0.0000000000000000     
  -7.8050550910158237E-002  0.19798779162762775        0.0000000000000000     
  -7.8890962875933890E-002  0.20610581336930733        0.0000000000000000     
  -7.9658056313868769E-002  0.21429933206243085        0.0000000000000000     
  -8.0351831223962930E-002  0.22256834770699829        0.0000000000000000     
  -8.0972287606216331E-002  0.23091286030300967        0.0000000000000000     
  -5.1904556791211955E-002  0.23044124381811923        0.0000000000000000     
  -5.2173063779247825E-002  0.23891867357244254        0.0000000000000000     
  -5.2397024122064303E-002  0.24745093259073928        0.0000000000000000     
  -5.2576437819661398E-002  0.25603802087300942        0.0000000000000000     
  -5.2711304872039094E-002  0.26467993841925286        0.0000000000000000     
  -5.8887778378561906E-002  0.23053467914514156        0.0000000000000000     
  -5.9204713728733337E-002  0.23901309108008159        0.0000000000000000     
  -5.9466326096513061E-002  0.24756447599254927        0.0000000000000000     
  -5.9672615481901087E-002  0.25618883388254465        0.0000000000000000     
  -5.9823581884897413E-002  0.26488616475006771        0.0000000000000000     
  -6.6060140710179294E-002  0.23064442700163079        0.0000000000000000     
  -6.6437892679711674E-002  0.23911701939520558        0.0000000000000000     
  -6.6748404949197288E-002  0.24767892348455228        0.0000000000000000     
  -6.6991677518636106E-002  0.25633013926967108        0.0000000000000000     
  -6.7167710388028157E-002  0.26507066675056179        0.0000000000000000     
  -7.3421643786064097E-002  0.23077048738758685        0.0000000000000000     
  -7.3872600632182817E-002  0.23923045851781449        0.0000000000000000     
  -7.4243260680116913E-002  0.24779427506674839        0.0000000000000000     
  -7.4533623929866455E-002  0.25646193703438858        0.0000000000000000     
  -7.4743690381431360E-002  0.26523344442073504        0.0000000000000000     
  -8.0972287606216331E-002  0.23091286030300967        0.0000000000000000     
  -8.1508837586146785E-002  0.23935340844790834        0.0000000000000000     
  -8.1950893289272034E-002  0.24791053073913749        0.0000000000000000     
  -8.2298454715592093E-002  0.25658422717669727        0.0000000000000000     
  -8.2551521865107003E-002  0.26537449776058752        0.0000000000000000     
  -5.2711304872039094E-002  0.26467993841925286        0.0000000000000000     
  -5.2832523950415253E-002  0.27332750169794273        0.0000000000000000     
  -5.2970993726007720E-002  0.28193152717755204        0.0000000000000000     
  -5.3126714198816490E-002  0.29049201485808079        0.0000000000000000     
  -5.3299685368841568E-002  0.29900896473952887        0.0000000000000000     
  -5.9823581884897413E-002  0.26488616475006771        0.0000000000000000     
  -5.9956154271999143E-002  0.27361231287245741        0.0000000000000000     
  -6.0107261609703387E-002  0.28232312252705261        0.0000000000000000     
  -6.0276903898010152E-002  0.29101859371385325        0.0000000000000000     
  -6.0465081136919417E-002  0.29969872643285944        0.0000000000000000     
  -6.7167710388028157E-002  0.26507066675056179        0.0000000000000000     
  -6.7316789856253112E-002  0.27387061989500894        0.0000000000000000     
  -6.7479202222190560E-002  0.28270011267079692        0.0000000000000000     
  -6.7654947485840514E-002  0.29155914507792563        0.0000000000000000     
  -6.7844025647203016E-002  0.30044771711639512        0.0000000000000000     
  -7.4743690381431360E-002  0.26523344442073504        0.0000000000000000     
  -7.4914430703177132E-002  0.27410242276559726        0.0000000000000000     
  -7.5086815563469231E-002  0.28306249760878488        0.0000000000000000     
  -7.5260844962307630E-002  0.29211366895029783        0.0000000000000000     
  -7.5436518899692356E-002  0.30125593679013596        0.0000000000000000     
  -8.2551521865107003E-002  0.26537449776058752        0.0000000000000000     
  -8.2749076812771244E-002  0.27430772148422261        0.0000000000000000     
  -8.2930101633539394E-002  0.28341027734101670        0.0000000000000000     
  -8.3094596327411466E-002  0.29268216533096975        0.0000000000000000     
  -8.3242560894387446E-002  0.30212338545408191        0.0000000000000000     
  -4.5200475535128737E-002   5.9708611031415559E-002   0.0000000000000000     
  -4.7597747531348752E-002   6.5130875096570132E-002   0.0000000000000000     
  -4.9925016028172342E-002   7.0753124515248206E-002   0.0000000000000000     
  -5.2182281025599513E-002   7.6575359287449782E-002   0.0000000000000000     
  -5.4369542523630271E-002   8.2597579413174846E-002   0.0000000000000000     
  -4.9582732586963538E-002   6.0189640666946265E-002   0.0000000000000000     
  -5.2226557326757614E-002   6.5731188225223072E-002   0.0000000000000000     
  -5.4783867284095768E-002   7.1427629629964795E-002   0.0000000000000000     
  -5.7254662458977965E-002   7.7278964881171419E-002   0.0000000000000000     
  -5.9638942851404218E-002   8.3285193978842958E-002   0.0000000000000000     
  -5.4900080349715219E-002   6.0596629353166974E-002   0.0000000000000000     
  -5.7580035922152495E-002   6.6306069800473669E-002   0.0000000000000000     
  -6.0201492655958436E-002   7.2111675448720242E-002   0.0000000000000000     
  -6.2764450551133055E-002   7.8013446297906699E-002   0.0000000000000000     
  -6.5268909607676326E-002   8.4011382348033029E-002   0.0000000000000000     
  -6.1152518823383774E-002   6.0929577090077680E-002   0.0000000000000000     
  -6.3658183317533368E-002   6.6855519822321907E-002   0.0000000000000000     
  -6.6177892143760367E-002   7.2805261971514545E-002   0.0000000000000000     
  -6.8711645302064750E-002   7.8778803537655609E-002   0.0000000000000000     
  -7.1259442792446545E-002   8.4776144520745084E-002   0.0000000000000000     
  -6.8340048007969209E-002   6.1188483877678390E-002   0.0000000000000000     
  -7.0460999512900233E-002   6.7379538290767788E-002   0.0000000000000000     
  -7.2713065747501526E-002   7.3508389198347707E-002   0.0000000000000000     
  -7.5096246711773104E-002   7.9575036600418148E-002   0.0000000000000000     
  -7.7610542405714938E-002   8.5579480496979124E-002   0.0000000000000000     
  -5.4369542523630271E-002   8.2597579413174846E-002   0.0000000000000000     
  -5.6471797305849607E-002   8.8795962538598505E-002   0.0000000000000000     
  -5.8474042155842516E-002   9.5146686309895798E-002   0.0000000000000000     
  -6.0376277073609007E-002  0.10164975072706676        0.0000000000000000     
  -6.2178502059149085E-002  0.10830515579011139        0.0000000000000000     
  -5.9638942851404218E-002   8.3285193978842958E-002   0.0000000000000000     
  -6.1924588378234266E-002   8.9446058700532141E-002   0.0000000000000000     
  -6.4099478956327824E-002   9.5761300823791695E-002   0.0000000000000000     
  -6.6163614585684885E-002  0.10223092034862165        0.0000000000000000     
  -6.8116995266305491E-002  0.10885491727502196        0.0000000000000000     
  -6.5268909607676326E-002   8.4011382348033029E-002   0.0000000000000000     
  -6.7689577103063059E-002   9.0135617367018847E-002   0.0000000000000000     
  -7.0001160314768079E-002   9.6416285122783690E-002   0.0000000000000000     
  -7.2203659242791374E-002  0.10285338561532759        0.0000000000000000     
  -7.4297073887132942E-002  0.10944691884465053        0.0000000000000000     
  -7.1259442792446545E-002   8.4776144520745084E-002   0.0000000000000000     
  -7.3766763480335992E-002   9.0864638538058637E-002   0.0000000000000000     
  -7.6179086231163276E-002   9.7111639206871783E-002   0.0000000000000000     
  -7.8496411044928438E-002  0.10351714652718463        0.0000000000000000     
  -8.0718737921631478E-002  0.11008116049899712        0.0000000000000000     
  -7.7610542405714938E-002   8.5579480496979124E-002   0.0000000000000000     
  -8.0156147510053066E-002   9.1633122213651455E-002   0.0000000000000000     
  -8.2633256705513455E-002   9.7847363076056015E-002   0.0000000000000000     
  -8.5041869992096120E-002  0.10422220308419276        0.0000000000000000     
  -8.7381987369801073E-002  0.11075764223806173        0.0000000000000000     
  -6.2178502059149085E-002  0.10830515579011139        0.0000000000000000     
  -6.3894900766721732E-002  0.11510561365295076        0.0000000000000000     
  -6.5539656850585964E-002  0.12204383646950592        0.0000000000000000     
  -6.7112770310741768E-002  0.12911982423977694        0.0000000000000000     
  -6.8614241147189142E-002  0.13633357696376378        0.0000000000000000     
  -6.8116995266305491E-002  0.10885491727502196        0.0000000000000000     
  -6.9976661262978995E-002  0.11562626393309100        0.0000000000000000     
  -7.1759652840494875E-002  0.12253793265292717        0.0000000000000000     
  -7.3465969998853103E-002  0.12958992343453044        0.0000000000000000     
  -7.5095612738053680E-002  0.13678223627790084        0.0000000000000000     
  -7.4297073887132942E-002  0.10944691884465053        0.0000000000000000     
  -7.6295253333055785E-002  0.11618973430281976        0.0000000000000000     
  -7.8212046665822946E-002  0.12307468148190243        0.0000000000000000     
  -8.0047453885434341E-002  0.13010176038189858        0.0000000000000000     
  -8.1801474991890041E-002  0.13727097100280822        0.0000000000000000     
  -8.0718737921631478E-002  0.11008116049899712        0.0000000000000000     
  -8.2850676976952115E-002  0.11679602476213689        0.0000000000000000     
  -8.4896838326570134E-002  0.12365408295643163        0.0000000000000000     
  -8.6857221970485496E-002  0.13065533508188132        0.0000000000000000     
  -8.8731827908698283E-002  0.13779978113848590        0.0000000000000000     
  -8.7381987369801073E-002  0.11075764223806173        0.0000000000000000     
  -8.9642932194667943E-002  0.11744513531104253        0.0000000000000000     
  -9.1814027822736455E-002  0.12427613707651484        0.0000000000000000     
  -9.3895274254006580E-002  0.13125064753447863        0.0000000000000000     
  -9.5886671488478320E-002  0.13836866668493392        0.0000000000000000     
  -6.8614241147189142E-002  0.13633357696376378        0.0000000000000000     
  -7.0045149114157879E-002  0.14367239519357353        0.0000000000000000     
  -7.1406573965877740E-002  0.15112357948131330        0.0000000000000000     
  -7.2698515702348754E-002  0.15868712982698310        0.0000000000000000     
  -7.3920974323570865E-002  0.16636304623058293        0.0000000000000000     
  -7.5095612738053680E-002  0.13678223627790084        0.0000000000000000     
  -7.6650147480531630E-002  0.14410054084733090        0.0000000000000000     
  -7.8131140648721994E-002  0.15153050680711316        0.0000000000000000     
  -7.9538592242624800E-002  0.15907213415724766        0.0000000000000000     
  -8.0872502262240020E-002  0.16672542289773440        0.0000000000000000     
  -8.1801474991890041E-002  0.13727097100280822        0.0000000000000000     
  -8.3475287173484888E-002  0.14456687551794986        0.0000000000000000     
  -8.5070067618513739E-002  0.15197403610064195        0.0000000000000000     
  -8.6585816326976581E-002  0.15949245275088461        0.0000000000000000     
  -8.8022533298873440E-002  0.16712212546867772        0.0000000000000000     
  -8.8731827908698283E-002  0.13779978113848590        0.0000000000000000     
  -9.0520568193017625E-002  0.14507139920543041        0.0000000000000000     
  -9.2223354875252905E-002  0.15245416736189973        0.0000000000000000     
  -9.3840187955404081E-002  0.15994808560789389        0.0000000000000000     
  -9.5371067433471138E-002  0.16755315394341286        0.0000000000000000     
  -9.5886671488478320E-002  0.13836866668493392        0.0000000000000000     
  -9.7785990539129897E-002  0.14561411190977258        0.0000000000000000     
  -9.9591002418939534E-002  0.15297090059088644        0.0000000000000000     
 -0.10130170712790729       0.16043903272827556        0.0000000000000000     
 -0.10291810466603309       0.16801850832193985        0.0000000000000000     
  -7.3920974323570865E-002  0.16636304623058293        0.0000000000000000     
  -7.5069860657930837E-002  0.17413866739232181        0.0000000000000000     
  -7.6141085533815392E-002  0.18200133201240892        0.0000000000000000     
  -7.7134648951224530E-002  0.18995104009084424        0.0000000000000000     
  -7.8050550910158237E-002  0.19798779162762775        0.0000000000000000     
  -8.0872502262240020E-002  0.16672542289773440        0.0000000000000000     
  -8.2128575160092837E-002  0.17447797072222740        0.0000000000000000     
  -8.3302515388708462E-002  0.18231737532438072        0.0000000000000000     
  -8.4394322948086881E-002  0.19024363670419431        0.0000000000000000     
  -8.5403997838228093E-002  0.19825675486166816        0.0000000000000000     
  -8.8022533298873440E-002  0.16712212546867772        0.0000000000000000     
  -8.9377587395322797E-002  0.17485069000633538        0.0000000000000000     
  -9.0648347477443117E-002  0.18266578211617163        0.0000000000000000     
  -9.1834813545234414E-002  0.19056740179818643        0.0000000000000000     
  -9.2936985598696717E-002  0.19855554905237977        0.0000000000000000     
  -9.5371067433471138E-002  0.16755315394341286        0.0000000000000000     
  -9.6816897363620702E-002  0.17525682524464581        0.0000000000000000     
  -9.8178581800019371E-002  0.18304655238778170        0.0000000000000000     
  -9.9456120742667159E-002  0.19092233537282066        0.0000000000000000     
 -0.10064951419156407       0.19888417419976259        0.0000000000000000     
 -0.10291810466603309       0.16801850832193985        0.0000000000000000     
 -0.10444650506498654       0.17569637643715857        0.0000000000000000     
 -0.10589321835643721       0.18345968613921099        0.0000000000000000     
 -0.10725824454038509       0.19130843742809703        0.0000000000000000     
 -0.10854158361683020       0.19924263030381667        0.0000000000000000     
  -7.8050550910158237E-002  0.19798779162762775        0.0000000000000000     
  -7.8890962875933890E-002  0.20610581336930733        0.0000000000000000     
  -7.9658056313868769E-002  0.21429933206243085        0.0000000000000000     
  -8.0351831223962930E-002  0.22256834770699829        0.0000000000000000     
  -8.0972287606216331E-002  0.23091286030300967        0.0000000000000000     
  -8.5403997838228093E-002  0.19825675486166816        0.0000000000000000     
  -8.6336622232648069E-002  0.20635074611299836        0.0000000000000000     
  -8.7197278304862777E-002  0.21451962677438113        0.0000000000000000     
  -8.7985966054872203E-002  0.22276339684581623        0.0000000000000000     
  -8.8702685482676374E-002  0.23108205632730389        0.0000000000000000     
  -9.2936985598696717E-002  0.19855554905237977        0.0000000000000000     
  -9.3961158453969282E-002  0.20662492214431014        0.0000000000000000     
  -9.4913626927191436E-002  0.21477021933953591        0.0000000000000000     
  -9.5794391018363206E-002  0.22299144063805718        0.0000000000000000     
  -9.6603450727484594E-002  0.23128858603987384        0.0000000000000000     
 -0.10064951419156407       0.19888417419976259        0.0000000000000000     
 -0.10176457153989749       0.20692834146324252        0.0000000000000000     
 -0.10280710218085476       0.21505110975789532        0.0000000000000000     
 -0.10377710611443593       0.22325247908372101        0.0000000000000000     
 -0.10467458334064095       0.23153244944071971        0.0000000000000000     
 -0.10854158361683020       0.19924263030381667        0.0000000000000000     
 -0.10974686149043268       0.20726100406979558        0.0000000000000000     
 -0.11087770406585272       0.21536229802945933        0.0000000000000000     
 -0.11193411134309035       0.22354651218280791        0.0000000000000000     
 -0.11291608332214553       0.23181364652984132        0.0000000000000000     
  -8.0972287606216331E-002  0.23091286030300967        0.0000000000000000     
  -8.1508837586146785E-002  0.23935340844790834        0.0000000000000000     
  -8.1950893289272034E-002  0.24791053073913749        0.0000000000000000     
  -8.2298454715592093E-002  0.25658422717669727        0.0000000000000000     
  -8.2551521865107003E-002  0.26537449776058752        0.0000000000000000     
  -8.8702685482676374E-002  0.23108205632730389        0.0000000000000000     
  -8.9332987966566163E-002  0.23950082261761882        0.0000000000000000     
  -8.9862424884832523E-002  0.24804491311553589        0.0000000000000000     
  -9.0290996237475399E-002  0.25671432782105524        0.0000000000000000     
  -9.0618702024494846E-002  0.26550906673417668        0.0000000000000000     
  -9.6603450727484594E-002  0.23128858603987384        0.0000000000000000     
  -9.7331436198403593E-002  0.23968765445907758        0.0000000000000000     
  -9.7968977574968266E-002  0.24821464480975985        0.0000000000000000     
  -9.8516074857178657E-002  0.25686955709192066        0.0000000000000000     
  -9.8972728045034694E-002  0.26565239130556006        0.0000000000000000     
 -0.10467458334064095       0.23153244944071971        0.0000000000000000     
 -0.10550418228165906       0.23991390397228465        0.0000000000000000     
 -0.10627055135967935       0.24841972582180924        0.0000000000000000     
 -0.10697369057470185       0.25704991498929369        0.0000000000000000     
 -0.10761359992672656       0.26580447147473762        0.0000000000000000     
 -0.11291608332214553       0.23181364652984132        0.0000000000000000     
 -0.11385122621633255       0.24017957115724001        0.0000000000000000     
 -0.11476714623896572       0.24866015615168424        0.0000000000000000     
 -0.11566384339004500       0.25725540151317411        0.0000000000000000     
 -0.11654131766957043       0.26596530724170953        0.0000000000000000     
  -8.2551521865107003E-002  0.26537449776058752        0.0000000000000000     
  -8.2749076812771244E-002  0.27430772148422261        0.0000000000000000     
  -8.2930101633539394E-002  0.28341027734101670        0.0000000000000000     
  -8.3094596327411466E-002  0.29268216533096975        0.0000000000000000     
  -8.3242560894387446E-002  0.30212338545408191        0.0000000000000000     
  -9.0618702024494846E-002  0.26550906673417668        0.0000000000000000     
  -9.0875875992758412E-002  0.27449218881275184        0.0000000000000000     
  -9.1092851889133630E-002  0.28372675301463213        0.0000000000000000     
  -9.1269629713620501E-002  0.29321275933981761        0.0000000000000000     
  -9.1406209466219038E-002  0.30295020778830822        0.0000000000000000     
  -9.8972728045034694E-002  0.26565239130556006        0.0000000000000000     
  -9.9349976050861571E-002  0.27466149751305219        0.0000000000000000     
  -9.9658857786984398E-002  0.28399522577677122        0.0000000000000000     
  -9.9899373253403187E-002  0.29365357609671727        0.0000000000000000     
 -0.10007152245011791       0.30363654847289012        0.0000000000000000     
 -0.10761359992672656       0.26580447147473762        0.0000000000000000     
 -0.10817137698708078       0.27481564758512367        0.0000000000000000     
 -0.10862811932709175       0.28421569562743404        0.0000000000000000     
 -0.10898382694675951       0.29400461560166874        0.0000000000000000     
 -0.10923849984608405       0.30418240750782755        0.0000000000000000     
 -0.11654131766957043       0.26596530724170953        0.0000000000000000     
 -0.11734007880141598       0.27495463902896633        0.0000000000000000     
 -0.11800063650945568       0.28438816256662047        0.0000000000000000     
 -0.11852299079368951       0.29426587785467190        0.0000000000000000     
 -0.11890714165411748       0.30458778489312055        0.0000000000000000     
 </DataArray>
 <DataArray  type="Float64" Name="stress" NumberOfComponents="3" format="ascii">
   4202254954.9031773        890543639.49582684       -1069649238.5010768     
   4292720250.9656124        338358637.02952433       -745465532.78365803     
   4444254842.4688721       -10262047.300675154       -526672675.03697997     
   4656858729.4129601       -155318413.49479413       -413270665.26103491     
   4930531911.7978754       -96810461.552815199       -405259503.45582545     
   5084475595.9812346        953267809.94159603       -616482926.52571535     
   4960096674.3916407        452069092.38005614       -383955593.17919970     
   4886221965.5303879        119217750.57965016       -223068260.41845408     
   4862851469.3974771       -45286215.459592104       -133820928.24346830     
   4889985185.9929237       -41442805.737677336       -116213596.65426151     
   5470649544.2152796        867177972.53415477       -112753822.63459937     
   5227857397.5021372        445894837.63590837        15791208.509780850     
   5025004380.8048592        157742136.12386870        106447086.45336424     
   4862090494.1234426        2719867.9980370998        159213811.19615367     
   4739115737.4578876       -19171966.741584778        174091382.73814815     
   5360776799.6052942        632274127.27350473        441538073.17227238     
   5096002420.2971058        319835872.79710484        453774872.28329349     
   4860602088.2922869        105311109.33196807        461873365.57848459     
   4654575803.5908508       -11300163.121900558        465833553.05784857     
   4477923566.1927900       -29997944.564504147        465655434.72138661     
   4754857362.1513090        248556274.15965772        1046392760.8948960     
   4564531742.7765398        73892197.863642693        929995398.14131749     
   4393015087.9926710       -38075329.796046257        843210576.95688975     
   4240307397.7996960       -87346308.819409370        786038297.34160519     
   4106408672.1976252       -73920739.206440210        758478559.29546380     
   4930531911.7978754       -96810461.552815199       -405259503.45582545     
   4806072470.3528299       -67405810.894200563       -299850746.24495536     
   4680106251.6201019       -43023751.194508553       -217593854.09963727     
   4552633255.5996971       -23664282.453733921       -158488827.01986220     
   4423653482.2916241       -9327404.6718826294       -122535665.00562888     
   4889985185.9929237       -41442805.737677336       -116213596.65426151     
   4712985049.8057795       -24636989.178977489       -46820472.217286833     
   4534405467.4869270       -13095993.059304714        8216021.5066799764     
   4354246439.0363750       -6819817.3786349297        48895884.517643400     
   4172507964.4541211       -5808462.1369752884        75219116.815593824     
   4739115737.4578876       -19171966.741584778        174091382.73814815     
   4534704147.5359068       -7426211.9806141853        207384094.08319068     
   4328640442.6381912       -1187507.1387560368        235115409.06776625     
   4120924622.7647414       -455852.21600914001        257285327.69187373     
   3911556687.9155550       -5231247.2123973370        273893849.95551008     
   4477923566.1927900       -29997944.564504147        465655434.72138661     
   4271229763.5432286       -15773479.299072981        462762952.65646738     
   4062811177.0738931       -7298293.4328696728        463104308.58361530     
   3852667806.7847943       -4572386.9658806324        466679502.50283295     
   3640799652.6759267       -7595759.8981230259        473488534.41411960     
   4106408672.1976252       -73920739.206440210        758478559.29546380     
   3922561897.8277206       -49678791.134393454        719316103.50254202     
   3736917670.7940254       -31428351.941663742        692182720.05422723     
   3549475991.0965304       -19169421.628261805        677078408.95052624     
   3360236858.7352352       -12902000.194190741        674003170.19142067     
   4423653482.2916241       -9327404.6718826294       -122535665.00562888     
   4251361022.0328722       -10063398.190789938       -110565363.38546197     
   4079204526.8317184       -10346174.851035595       -95654301.555328295     
   3907183996.6881881       -10175734.652542114       -77802479.515237451     
   3735299431.6022806       -9552077.5953011513       -57009897.265178569     
   4172507964.4541211       -5808462.1369752884        75219116.815593824     
   4009433418.2892675       -2156804.7066516876        83718354.004671022     
   3845987410.7814498        256648.24714803696        95354999.298506603     
   3682169941.9306850        1431896.7244398594        110129052.69708392     
   3517981011.7369714        1368940.7252240181        128040514.20043115     
   3911556687.9155550       -5231247.2123973370        273893849.95551008     
   3758261906.9725642        2976616.5055468082        278330025.24617326     
   3604088238.2860556        8254854.4117593765        286100256.53638065     
   3449035681.8560300        10603466.506256104        297204543.82612169     
   3293104237.6824808        10022452.788998365        311642887.11541212     
   3640799652.6759267       -7595759.8981230259        473488534.41411960     
   3497846488.0827761        5336865.4458384514        473269650.33903795     
   3353507009.3455420        13648443.642852306        476581470.15828943     
   3207781216.4642191        17338974.692922235        483423993.87186712     
   3060669109.4388194        16408458.596046448        493797221.47978079     
   3360236858.7352352       -12902000.194190741        674003170.19142067     
   3228187161.6198959        4923942.1141971350        668537229.28326738     
   3094243723.9599047        16437415.940407515        666798640.16423512     
   2958406545.7552643        21638421.284454942        668787402.83432627     
   2820675627.0059676        20526958.146317482        674503517.29352999     
   3735299431.6022806       -9552077.5953011513       -57009897.265178569     
   3553228774.2750978       -12132460.337313652       -54854025.993227132     
   3370924429.6088839       -15491800.876098871       -45975387.995907858     
   3188386397.6036434       -19630099.211648464       -30373983.273254689     
   3005614678.2593389       -24547355.344056606       -8049811.8252503304     
   3517981011.7369714        1368940.7252240181        128040514.20043115     
   3352447487.0059152        277310.14670538902        126856720.92244437     
   3186873140.3970690       -950393.35777044296        131327473.95533213     
   3021257971.9104357       -2314169.7882133722        141452773.29909894     
   2855601981.5460382       -3814019.1445375681        157232618.95369801     
   3293104237.6824808        10022452.788998365        311642887.11541212     
   3141055787.2204437        9503956.8758347034        307344438.99229848     
   2989159380.3418646        9492272.9075284004        307632316.76555938     
   2837415017.0467653        9987400.8841429949        312506520.43520141     
   2685822697.3351283        10989340.805658460        321967050.00122017     
   3060669109.4388194        16408458.596046448        493797221.47978079     
   2919053674.9186864        15547479.850052953        486609128.21632081     
   2777783149.4432745        15836197.919811487        482939140.43476069     
   2636857533.0125961        17274612.805339813        482787258.13508731     
   2496276825.6266403        19862724.506608129        486153481.31730336     
   2820675627.0059676        20526958.146317482        674503517.29352999     
   2686441150.1006479        18407879.069414020        664650788.59452510     
   2552744447.7013021        18081381.679089427        657247944.96293283     
   2419585519.8079371        19547465.975368857        652294986.39874351     
   2286964366.4205523        22806131.958257318        649791912.90196300     
   3005614678.2593389       -24547355.344056606       -8049811.8252503304     
   2849795735.0544071       -21038427.874356627       -2911938.7732782303     
   2694434886.2831888       -16002518.958944082       -452050.14630285313     
   2539532131.9456577       -9439628.5979071856       -670145.94429601554     
   2385087472.0418711       -1349756.7910553217       -3566226.1672705277     
   2855601981.5460382       -3814019.1445375681        157232618.95369801     
   2694055955.7262130       -3616990.5482027531        156779042.10475904     
   2532856612.3925114       -2264353.6647772789        155362285.87089226     
   2372003951.5449471        243891.50576078892        152982350.25208610     
   2211497973.1835041        3907744.9633919001        149639235.24833933     
   2685822697.3351283        10989340.805658460        321967050.00122017     
   2523449031.8719659        9344303.4201184511        315792042.64587462     
   2361310636.9473515        8483501.1630711555        310368660.94563299     
   2199407512.5612717        8406934.0344725847        305696904.90050137     
   2037739658.7137465        9114602.0343887806        301776774.51047689     
   2496276825.6266403        19862724.506608129        486153481.31730336     
   2337974963.4916854        17845454.030637980        474127062.85004359     
   2179796959.9476905        16241045.524549365        464567075.07791752     
   2021742814.9946561        15049498.988322258        457473518.00095159     
   1863812528.6325898        14270814.421989083        452846391.61912996     
   2286964366.4205523        22806131.958257318        649791912.90196300     
   2137633750.5853579        21886461.283336759        631784102.71725881     
   1988315581.3935471        21008279.419694424        617957528.26774514     
   1839009858.8451095        20171586.367302299        608312189.55342567     
   1689716582.9400470        19376382.126160204        602848086.57429934     
   2385087472.0418711       -1349756.7910553217       -3566226.1672705277     
   2244556657.8076000        6655060.7377306223       -8773730.0095506255     
   2100759480.1426027        3772000.1640660763       -12146466.117379794     
   1953695939.0468256       -9998938.5121905804       -13684434.490729852     
   1803366034.5203068       -34657755.290905714       -13387635.129613606     
   2211497973.1835041        3907744.9633919001        149639235.24833933     
   2074657678.4394209        11831725.319702983        140766880.57227820     
   1935598451.8554854        12359266.209851980        132917274.04014605     
   1794320293.4316635        5490367.6337286234        126090415.65194605     
   1650823203.1679997       -8774970.4085668325        120286305.40767629     
   2037739658.7137465        9114602.0343887806        301776774.51047689     
   1902269827.4868827        16261728.426330805        290461572.52333724     
   1765628496.0110588        19503853.988401890        279357099.08960015     
   1627815664.2862558        18840978.720533490        268463354.20926106     
   1488831332.3124890        14273102.622791171        257780337.88233083     
   1863812528.6325898        14270814.421989083        452846391.61912996     
   1727393104.9500153        19945070.057691693        440310345.84361821     
   1590849612.6093576        25205763.499804378        427173009.03098059     
   1454182051.6106229        30052894.748317838        413434381.18121272     
   1317390421.9538054        34486463.803220630        399094462.29432350     
   1689716582.9400470        19376382.126160204        602848086.57429934     
   1550027510.8287992        22881750.213737786        590313200.53312814     
   1411261801.6503651        29464994.744006097        576365003.86429954     
   1273419455.4047499        39126115.717006683        561003496.56780958     
   1136500472.0919333        51865113.132686853        544228678.64365458     
   1803366034.5203068       -34657755.290905714       -13387635.129613606     
   1772012940.4543583       -16295582.550611019       -8081014.0278361114     
   1748757822.8175251        29059844.953402758       -41485652.373956643     
   1733600681.6098244        101408527.22120094       -113601550.16798289     
   1726541516.8312392        200750464.25269645       -224428707.40987131     
   1650823203.1679997       -8774970.4085668325        120286305.40767629     
   1527913271.7124188       -13857946.402787566        135662496.17393577     
   1409204391.4850814       -4937418.3028696775        124732028.87326322     
   1294696562.4859636        17986613.891116560        87494903.505648434     
   1184389784.7150688        54914150.179202080        23951120.071109299     
   1488831332.3124890        14273102.622791171        257780337.88233083     
   1309806281.6986055       -3622506.6364797354        278679685.57869089     
   1131085357.1120486       -20504362.471347153        285676976.58907402     
   952668558.55283237       -36372464.881736159        278772210.91349208     
   774555886.02093685       -51226813.867734134        257965388.55190963     
   1317390421.9538054        34486463.803220630        399094462.29432350     
   1117691970.4129164        14410736.748255253        420970554.18640715     
   914400719.69845426       -17640987.551952183        441349190.77347201     
   707516669.81042230       -61668709.097392350        460230372.05551749     
   497039820.74883395       -117672427.88802171        477614098.03253990     
   1136500472.0919333        51865113.132686853        544228678.64365458     
   951570337.85533476        40241783.751402617        562535101.99708676     
   759150479.24426949        3652706.4552355409        591748671.42645681     
   559240896.25874698       -57902118.755788922        631869386.93176401     
   351841588.89874905       -144422691.88173705        682897248.51299250     
   1726541516.8312392        200750464.25269645       -224428707.40987131     
   1456338856.9522345        184604520.72247720       -96691498.989708558     
   1153942726.9968641        61147010.271027982        60160243.573337264     
   819353126.96512485       -169622067.10162389        246126520.27923030     
   452570056.85701632       -507702711.39554989        461207331.12803715     
   1184389784.7150688        54914150.179202080        23951120.071109299     
   977482211.37879467        11835489.625051379        155481415.34048000     
   732730097.90929723       -157391638.03981051        312800946.96691626     
   450133444.30655658       -452767232.81544936        495909714.95039243     
   129692250.57059276       -874291294.70186579        704807719.29091871     
   774555886.02093685       -51226813.867734134        257965388.55190963     
   621442548.41075945       -124088446.69072652        386695855.60415089     
   424833600.61051011       -341935446.81397837        537890261.22763002     
   184729042.62015101       -704767814.23756695        711548605.42233586     
  -98871125.560285985       -1212585548.9614649        907670888.18826795     
   497039820.74883395       -117672427.88802171        477614098.03253990     
   388219868.04813850       -223167288.22486675        596951821.80130541     
   230253235.10050780       -492484416.05152911        735428186.35547996     
   23139921.905911624       -925623811.36805081        893043191.69508517     
  -233120071.53563800       -1522585474.1744325        1069796837.8200874     
   351841588.89874905       -144422691.88173705        682897248.51299250     
   277814170.29091489       -285401034.97740781        786249313.93195260     
   148989001.37928015       -609038545.75243592        905414722.35049617     
  -34633917.836183310       -1115335224.2068985        1040393473.7686341     
  -273054587.35547185       -1804291070.3407450        1191185568.1863592     
   4754857362.1513090        248556274.15965772        1046392760.8948960     
   4564531742.7765398        73892197.863642693        929995398.14131749     
   4393015087.9926710       -38075329.796046257        843210576.95688975     
   4240307397.7996960       -87346308.819409370        786038297.34160519     
   4106408672.1976252       -73920739.206440210        758478559.29546380     
   4039092424.6567183        52537519.473251581        981619763.17166626     
   3940045662.7882066       -32964394.678178072        923964110.69333351     
   3852584759.1302037       -79846781.461256266        886334538.84807682     
   3776709713.6827006       -88109640.875991821        868731047.63589156     
   3712420526.4457073       -57752972.922372341        871153637.05678165     
   3454197851.2834249       -104220125.97676349        944821207.59061110     
   3419040058.5324078       -108776844.50023556        937480307.94372606     
   3388245017.6115003       -98791056.923335791        940579027.99384546     
   3361812728.5207038       -74262763.246072769        954117367.74097192     
   3339743191.2600212       -35191963.468433380        978095327.18510270     
   3000173642.0314426       -221716662.19038665        935997094.15172541     
   3001514930.0091476       -153545151.60252976        970543989.89249456     
   2999995863.4365697       -94908156.182287335        1005944044.3941987     
   2995616442.3137040       -45805675.929651976        1042197257.6568412     
   2988376666.6405640       -6237710.8446265459        1079303629.6804187     
   2677019796.9007611       -299952089.16761816        955147422.85500419     
   2687470277.2184176       -167269315.98506975        1023155156.5396376     
   2687837296.6053996       -68198079.238103628        1082429588.0491357     
   2678120855.0617003       -2738378.9267421961        1132970717.3835003     
   2658320952.5873313        29109784.949050903        1174778544.5427356     
   4106408672.1976252       -73920739.206440210        758478559.29546380     
   3922561897.8277206       -49678791.134393454        719316103.50254202     
   3736917670.7940254       -31428351.941663742        692182720.05422723     
   3549475991.0965304       -19169421.628261805        677078408.95052624     
   3360236858.7352352       -12902000.194190741        674003170.19142067     
   3712420526.4457073       -57752972.922372341        871153637.05678165     
   3555720652.0793548       -39331360.826828241        836799019.38071918     
   3397844688.9183636       -24830044.713404655        812640714.58812535     
   3238792636.9627399       -14249024.582090735        798678722.67899895     
   3078564496.2124796       -7588300.4329038858        794913043.65334237     
   3339743191.2600212       -35191963.468433380        978095327.18510270     
   3204953761.2939601       -24161624.030373216        949273472.13991570     
   3069609606.4024248       -14980367.677225471        928815170.51706672     
   2933710726.5854182       -7648194.4089828730        916720422.31654274     
   2797257121.8429422       -2165104.2256497145        912989227.53834951     
   2988376666.6405640       -6237710.8446265459        1079303629.6804187     
   2870261225.4715395       -4169580.7450287342        1056739461.7801391     
   2752212423.2462091       -1879320.8331241608        1040706087.8410530     
   2634230259.9645662        633068.89107453823        1031203507.8631581     
   2516314735.6266098        3367588.4275631905        1028231721.8464557     
   2658320952.5873313        29109784.949050903        1174778544.5427356     
   2551643044.6120968        20644769.029216051        1159196988.3013806     
   2445653139.4497085        14473095.818876505        1148313466.5600858     
   2340351237.1001801        10594765.318061113        1142127979.3188376     
   2235737337.5634975        9009777.5267422199        1140640526.5776432     
   3360236858.7352352       -12902000.194190741        674003170.19142067     
   3228187161.6198959        4923942.1141971350        668537229.28326738     
   3094243723.9599047        16437415.940407515        666798640.16423512     
   2958406545.7552643        21638421.284454942        668787402.83432627     
   2820675627.0059676        20526958.146317482        674503517.29352999     
   3078564496.2124796       -7588300.4329038858        794913043.65334237     
   2955230959.8450346        6323292.5517253876        787764617.80125988     
   2830556471.0769973        15765044.201064706        784496890.57930756     
   2704541029.9083786        20736954.515130401        785109861.98748243     
   2577184636.3391781        21239023.493918061        789603532.02577496     
   2797257121.8429422       -2165104.2256497145        912989227.53834951     
   2683077880.0548229        7963579.5846409798        904803236.24376035     
   2568110474.0101910        15465049.206552744        900651290.42029870     
   2452354903.7090392        20339304.640069962        900533390.06796753     
   2335811169.1513767        22586345.885211468        904449535.18676615     
   2516314735.6266098        3367588.4275631905        1028231721.8464557     
   2411727922.2492738        9844803.2129626274        1019653084.6107554     
   2306905732.7594857        15537430.956869125        1015261839.6871983     
   2201848167.1572528        20445471.659283400        1015057987.0757805     
   2096555225.4425664        24568925.320194125        1019041526.7764924     
   2235737337.5634975        9009777.5267422199        1140640526.5776432     
   2141181086.4283812        11966963.436676025        1132314162.9022610     
   2046942247.3248849        15982189.452019453        1128328538.3800211     
   1953020820.2530046        21055455.572744846        1128683653.0109200     
   1859416805.2127497        27186761.798888206        1133379506.7949643     
   2820675627.0059676        20526958.146317482        674503517.29352999     
   2686441150.1006479        18407879.069414020        664650788.59452510     
   2552744447.7013021        18081381.679089427        657247944.96293283     
   2419585519.8079371        19547465.975368857        652294986.39874351     
   2286964366.4205523        22806131.958257318        649791912.90196300     
   2577184636.3391781        21239023.493918061        789603532.02577496     
   2450266294.7691636        20400075.268128276        781237845.99647629     
   2323718070.7836847        20794852.324127674        775754656.49974501     
   2197539964.3827443        22423354.661918879        773153963.53558564     
   2071731975.5663397        25285582.281494141        773435767.10399497     
   2335811169.1513767        22586345.885211468        904449535.18676615     
   2217444995.6742892        23398338.337832332        897375292.08548069     
   2099281282.8602905        24885199.667426229        893616156.98192799     
   1981320030.7093880        27046929.874006867        893172129.87611675     
   1863561239.2215824        29883528.957563996        896043210.76804280     
   2096555225.4425664        24568925.320194125        1019041526.7764924     
   1987977252.8160195        27402668.278520942        1013063126.8615333     
   1879434083.9311123        30352423.708979487        1010832446.4094841     
   1770925718.7878656        33418191.611648202        1012349485.4203305     
   1662452157.3862698        36599971.986468911        1017614243.8940825     
   1859416805.2127497        27186761.798888206        1133379506.7949643     
   1761863066.1943579        32413065.090192080        1128301350.3246539     
   1664176473.9961693        37196524.448836625        1127403524.7824070     
   1566357028.6181874        41537139.874840975        1130686030.1682320     
   1468404730.0604129        45434911.368203938        1138148866.4821284     
   2286964366.4205523        22806131.958257318        649791912.90196300     
   2137633750.5853579        21886461.283336759        631784102.71725881     
   1988315581.3935471        21008279.419694424        617957528.26774514     
   1839009858.8451095        20171586.367302299        608312189.55342567     
   1689716582.9400470        19376382.126160204        602848086.57429934     
   2071731975.5663397        25285582.281494141        773435767.10399497     
   1933350808.4603868        25053574.002277970        757902300.26414132     
   1795046370.5312605        25077329.645815372        746451559.23565805     
   1656818661.7789524        25356849.212075710        739083544.01854002     
   1518667682.2034726        25892132.701102376        735798254.61279869     
   1863561239.2215824        29883528.957563996        896043210.76804280     
   1735848063.9196622        30254745.996496677        883059083.56205082     
   1608275900.3280158        31096002.069649696        874059172.24360931     
   1480844748.4466319        32407297.177027047        869043476.81271887     
   1353554608.2755175        34188631.318630517        868011997.26937211     
   1662452157.3862698        36599971.986468911        1017614243.8940825     
   1545125516.9631803        37489977.265973091        1007254452.6109822     
   1428004170.7838068        39064296.691190958        1000780367.2916055     
   1311088118.8481431        41322930.262114406        998191987.93595219     
   1194377361.1561952        44265877.978751719        999489314.54402637     
   1468404730.0604129        45434911.368203938        1138148866.4821284     
   1361183167.5909536        46759267.810749352        1130488407.4109311     
   1254231181.8986423        48982213.510457218        1126615144.3796372     
   1147548772.9834902        52103748.467367113        1126529077.3882446     
   1041135940.8454943        56123872.681452751        1130230206.4367578     
   1689716582.9400470        19376382.126160204        602848086.57429934     
   1550027510.8287992        22881750.213737786        590313200.53312814     
   1411261801.6503651        29464994.744006097        576365003.86429954     
   1273419455.4047499        39126115.717006683        561003496.56780958     
   1136500472.0919333        51865113.132686853        544228678.64365458     
   1518667682.2034726        25892132.701102376        735798254.61279869     
   1376596593.6297202        25589944.965816021        726901477.41158664     
   1234672003.2254179        25776084.462027550        718464357.21060693     
   1092893910.9905589        26450551.189717412        710486894.00987387     
   951262316.92514658        27613345.148885906        702969087.80937624     
   1353554608.2755175        34188631.318630517        868011997.26937211     
   1214452839.3189843        31684288.584408939        861846986.68417871     
   1074720703.7685287        27078723.870446384        858014600.72713733     
   934358201.62415910        20371937.176772177        856514839.39823472     
   793365332.88585901        11563928.503338039        857347702.69747221     
   1194377361.1561952        44265877.978751719        999489314.54402637     
   1063596247.8965971        41164781.069503903        995149728.35094047     
   931407903.27970648        33372912.969295323        995015734.41389358     
   797812327.30552971        20890273.678141385        999087332.73288810     
   662809519.97407591        3716863.1960431635        1007364523.3079271     
   1041135940.8454943        56123872.681452751        1130230206.4367578     
   924026819.36254203        54031422.421085119        1126809702.4118376     
   804733601.75894713        44658651.758569747        1129467758.2708690     
   683256288.03469825        28005560.693871647        1138204374.0138397     
   559594878.18979502        4072149.2269923091        1153019549.6407580     
   1136500472.0919333        51865113.132686853        544228678.64365458     
   951570337.85533476        40241783.751402617        562535101.99708676     
   759150479.24426949        3652706.4552355409        591748671.42645681     
   559240896.25874698       -57902118.755788922        631869386.93176401     
   351841588.89874905       -144422691.88173705        682897248.51299250     
   951262316.92514658        27613345.148885906        702969087.80937624     
   791982524.44263327        10614492.128785700        721020162.36611545     
   624072373.93080175       -35152220.989061177        749135628.42055523     
   447531865.38964379       -109686794.20466131        787315485.97270799     
   262360998.81916869       -212989227.51797950        835559735.02257037     
   793365332.88585901        11563928.503338039        857347702.69747221     
   657328011.93393254       -11532809.222634256        873812689.19350600     
   511519699.29782557       -67199519.229208738        899499312.60902834     
   355940394.97753090       -155436201.51640287        934407572.94402492     
   190590098.97305733       -276242856.08420444        978537470.19850874     
   662809519.97407591        3716863.1960431635        1007364523.3079271     
   547606800.32923329       -26200120.302838832        1020912682.4792645     
   421492455.34533906       -92489188.265220225        1042839723.9918504     
   284466485.02241254       -195150340.69104296        1073145647.8456950     
   136528889.36043173       -334183577.58038545        1111830454.0407934     
   559594878.18979502        4072149.2269923091        1153019549.6407580     
   462818889.62851959       -33387441.111874342        1162320142.2233908     
   353990642.07335043       -111021228.09705903        1179156862.5690448     
   233110135.52426818       -228829211.72862330        1203529710.6777306     
   100177369.98128623       -386811392.00650901        1235438686.5494401     
   351841588.89874905       -144422691.88173705        682897248.51299250     
   277814170.29091489       -285401034.97740781        786249313.93195260     
   148989001.37928015       -609038545.75243592        905414722.35049617     
  -34633917.836183310       -1115335224.2068985        1040393473.7686341     
  -273054587.35547185       -1804291070.3407450        1191185568.1863592     
   262360998.81916869       -212989227.51797950        835559735.02257037     
   223649668.51586565       -352543291.46240020        884942529.06143796     
   140696504.03665724       -639570135.99316633        945349522.06928957     
   13501505.381569862       -1074069761.1102152        1016780714.0461380     
  -157935327.44942731       -1656042166.8135967        1099236104.9919629     
   190590098.97305733       -276242856.08420444        978537470.19850874     
   173511588.31539610       -418477621.47506201        986266228.33986509     
   122747159.60976705       -672998780.35914278        1000230041.4196028     
   38296812.856164634       -1039806332.7364695        1020428909.4377115     
  -79839451.945412219       -1518900278.6070442        1046862832.3942088     
   136528889.36043173       -334183577.58038545        1111830454.0407934     
   127399929.68953210       -483204025.01534051        1090220411.7672281     
   95140968.098589212       -709324478.85042918        1070056280.4014277     
   39752004.587603629       -1012544939.0856887        1051338059.9433918     
  -38766960.843442917       -1392865405.7211056        1034065750.3931453     
   100177369.98128623       -386811392.00650901        1235438686.5494401     
   85314692.638276339       -546722502.08320987        1196805079.3435197     
   57877929.503145725       -748547231.46696877        1154828239.0147636     
   17867080.575884759       -992285580.15782869        1109508165.5631680     
  -34717854.143510163       -1277937548.1557908        1060844858.9887239     
   2677019796.9007611       -299952089.16761816        955147422.85500419     
   2687470277.2184176       -167269315.98506975        1023155156.5396376     
   2687837296.6053996       -68198079.238103628        1082429588.0491357     
   2678120855.0617003       -2738378.9267421961        1132970717.3835003     
   2658320952.5873313        29109784.949050903        1174778544.5427356     
   2455895313.2751045       -156603404.70210314        1100960797.4649544     
   2431615724.0449963       -83950197.373374104        1143681720.4231334     
   2401762023.0775251       -29877362.502515197        1182273484.1782770     
   2366334210.3726931        5615099.9104692936        1216736088.7303755     
   2325332285.9304967        22527189.865579486        1247069534.0794458     
   2182041406.3461738       -29073547.227568626        1225062739.5366952     
   2136186441.7742887       -12503497.490860105        1247757759.1606207     
   2089266714.6583533        517343.76569008827        1270927762.5535989     
   2041282224.9983706        9988976.5420795679        1294572749.7156427     
   1992232972.7943451        15911400.838317990        1318692720.6467416     
   1855458076.1139579        82637483.255979776        1327453249.0702269     
   1801182430.4062850        47070783.662463665        1335383272.7520936     
   1750351371.3478758        22986039.566498756        1348392423.1751182     
   1702964898.9387367        10383250.968094587        1366480700.3392978     
   1659023013.1788650        9262417.8672535419        1389648104.2446325     
   1476145322.5784659        178529686.74854511        1408132326.0655429     
   1426603689.9409945        94772646.086599708        1406558261.1975584     
   1385015993.1461010        37528724.899922550        1414667466.0428231     
   1351382232.1937926        6797923.1885235906        1432459940.6013377     
   1325702407.0840640        2580240.9523963332        1459935684.8731098     
   2658320952.5873313        29109784.949050903        1174778544.5427356     
   2551643044.6120968        20644769.029216051        1159196988.3013806     
   2445653139.4497085        14473095.818876505        1148313466.5600858     
   2340351237.1001801        10594765.318061113        1142127979.3188376     
   2235737337.5634975        9009777.5267422199        1140640526.5776432     
   2325332285.9304967        22527189.865579486        1247069534.0794458     
   2231476616.0657978        15906646.928785086        1232170419.8978198     
   2138133623.2581315        10995027.515430093        1222010883.6897089     
   2045303307.5075023        7792331.6255298853        1216590925.4550974     
   1952985668.8139088        6298559.2590939999        1215910545.1939902     
   1992232972.7943451        15911400.838317990        1318692720.6467416     
   1911318236.6786134        11170939.576085329        1304271501.8097305     
   1830740851.8641024        7554982.6512480974        1294631404.4196811     
   1750500818.3508081        5063530.0638037920        1289772428.4765863     
   1670598136.1387339        3696581.8137584925        1289694573.9804473     
   1659023013.1788650        9262417.8672535419        1389648104.2446325     
   1591167906.4505417        6437646.9711260200        1375500234.0371134     
   1523474825.2676206        4152961.2263301611        1366175028.7500055     
   1455943769.6300991        2408360.6328681111        1361672488.3833036     
   1388574739.5379772        1203845.1907441020        1361992612.9370148     
   1325702407.0840640        2580240.9523963332        1459935684.8731098     
   1271025625.3815808        1706769.1138881445        1445856616.5799634     
   1216335543.4686871        788963.24067842960        1436641756.6806781     
   1161632161.3453715       -173176.66727107763        1432291105.1752541     
   1106915479.0116434       -1179650.6099267006        1432804662.0636947     
   2235737337.5634975        9009777.5267422199        1140640526.5776432     
   2141181086.4283812        11966963.436676025        1132314162.9022610     
   2046942247.3248849        15982189.452019453        1128328538.3800211     
   1953020820.2530046        21055455.572744846        1128683653.0109200     
   1859416805.2127497        27186761.798888206        1133379506.7949643     
   1952985668.8139088        6298559.2590939999        1215910545.1939902     
   1869699739.5806782        8703784.0368862152        1208112906.3732262     
   1786685408.6570988        12014336.513518214        1204771382.4312651     
   1703942676.0431683        16230216.688979387        1205885973.3681090     
   1621471541.7388875        21351424.563275158        1211456679.1837602     
   1670598136.1387339        3696581.8137584925        1289694573.9804473     
   1598912173.7378595        5648738.9385608435        1282372210.6719997     
   1527451995.9246635        8353511.3556296229        1279621337.9680245     
   1456217602.6991446        11810899.064951062        1281441955.8685122     
   1385208994.0613053        16020902.066542804        1287834064.3734694     
   1388574739.5379772        1203845.1907441020        1361992612.9370148     
   1328818388.8999195        2801828.1416844726        1355092075.7985878     
   1269242009.1275749        4999713.9783362746        1352878404.9902937     
   1209845600.2209349        7797502.7006669641        1355351600.5121300     
   1150629162.1800015        11195194.308692336        1362511662.3640921     
   1106915479.0116434       -1179650.6099267006        1432804662.0636947     
   1059418385.0668719        163051.64630246162        1426272501.7529891     
   1012055448.2658395        1952944.3816605806        1424542583.4980750     
   964826668.60853958        4190027.5961276889        1427614907.2989571     
   917732046.09498227        6874301.2897371054        1435489473.1556349     
   1859416805.2127497        27186761.798888206        1133379506.7949643     
   1761863066.1943579        32413065.090192080        1128301350.3246539     
   1664176473.9961693        37196524.448836625        1127403524.7824070     
   1566357028.6181874        41537139.874840975        1130686030.1682320     
   1468404730.0604129        45434911.368203938        1138148866.4821284     
   1621471541.7388875        21351424.563275158        1211456679.1837602     
   1534700306.5260422        25626122.886944354        1206978714.5931029     
   1447949904.2487857        29970264.329244375        1206834253.9173267     
   1361220334.9071212        34383848.890188217        1211023297.1564310     
   1274511598.5010483        38866876.569762886        1219545844.3104217     
   1385208994.0613053        16020902.066542804        1287834064.3734694     
   1309657899.7591910        19475286.554139316        1284135592.1304157     
   1234281324.5080492        23511401.211646438        1284923796.7890561     
   1159079268.3078854        28129246.039081216        1290198678.3493934     
   1084051731.1586976        33328821.036429167        1299960236.8114321     
   1150629162.1800015        11195194.308692336        1362511662.3640921     
   1086735845.8938029        13960556.091774881        1359771982.9365885     
   1023170734.7739683        17819935.096065044        1361672153.3975928     
   959933828.82048547        22773331.321526647        1368212173.7471116     
   897025128.03336167        28820744.768191665        1379392043.9851367     
   917732046.09498227        6874301.2897371054        1435489473.1556349     
   865934144.92988002        9081931.4998467565        1433887887.0116231     
   814618135.04652858        12895865.982453406        1437079323.7429426     
   763784016.44491506        18316104.737521946        1445063783.3495879     
   713431789.12504578        25342647.765073508        1457841265.8315549     
   1468404730.0604129        45434911.368203938        1138148866.4821284     
   1361183167.5909536        46759267.810749352        1130488407.4109311     
   1254231181.8986423        48982213.510457218        1126615144.3796372     
   1147548772.9834902        52103748.467367113        1126529077.3882446     
   1041135940.8454943        56123872.681452751        1130230206.4367578     
   1274511598.5010483        38866876.569762886        1219545844.3104217     
   1177807342.6732261        40459662.080409348        1213500775.1644504     
   1081153735.4422853        42221276.247330427        1211696800.6871955     
   984550776.80822659        44151719.070520341        1214133920.8786547     
   887998466.77106071        46250990.550019979        1220812135.7388401     
   1084051731.1586976        33328821.036429167        1299960236.8114321     
   999161635.19770527        35579091.582739651        1295275141.3803596     
   914103259.65332413        37268430.184416413        1295285039.2468171     
   828876604.52555680        38396836.841471881        1299989930.4108136     
   743481669.81439734        38964311.553891599        1309389814.8723452     
   897025128.03336167        28820744.768191665        1379392043.9851367     
   825246045.16439486        32117556.317745507        1375811506.0586524     
   753079754.53175879        34123675.321727455        1377379860.0585151     
   680526256.13546729        34839101.780197471        1384097105.9847255     
   607585549.97550642        34263835.693105012        1395963243.8372960     
   713431789.12504578        25342647.765073508        1457841265.8315549     
   656060572.57328475        30075056.285391480        1455109869.1993294     
   598083220.07758796        32787011.659256905        1457981263.1222727     
   539499731.63796139        33478513.886689812        1466455447.6003871     
   480310107.25439578        32149562.967659101        1480532422.6336694     
   1041135940.8454943        56123872.681452751        1130230206.4367578     
   924026819.36254203        54031422.421085119        1126809702.4118376     
   804733601.75894713        44658651.758569747        1129467758.2708690     
   683256288.03469825        28005560.693871647        1138204374.0138397     
   559594878.18979502        4072149.2269923091        1153019549.6407580     
   887998466.77106071        46250990.550019979        1220812135.7388401     
   786406285.57462478        43610716.699303538        1217816593.6518180     
   682635378.43026638        33708023.022176921        1220805020.4220901     
   576685745.33798802        16542909.518655330        1229777416.0496695     
   468557386.29778069       -7884623.8113042712        1244733780.5345442     
   743481669.81439734        38964311.553891599        1309389814.8723452     
   657136168.82834291        35695136.089982688        1306825499.9247413     
   568617312.06709850        25181441.375444621        1310150562.8077841     
   477925099.53065366        7423227.4102317989        1319365003.5214794     
   385059531.21901470       -17579505.805619687        1334468822.0658319     
   607585549.97550642        34263835.693105012        1395963243.8372960     
   536216469.12370318        30284680.593166113        1393836421.2306132     
   462679402.66943681        19078906.818344176        1397504385.4279354     
   386974350.61270452        646514.36863718927        1406967136.4292719     
   309101312.95350355       -25012496.755961969        1422224674.2346056     
   480310107.25439578        32149562.967659101        1480532422.6336694     
   423647186.46071166        27379350.208843961        1478849357.5694339     
   364821650.23729628        15400419.350930080        1482866488.2825530     
   303833498.58413029       -3787229.6061524600        1492583814.7730377     
   240682731.50123543       -30183596.662331372        1508001337.0408857     
   559594878.18979502        4072149.2269923091        1153019549.6407580     
   462818889.62851959       -33387441.111874342        1162320142.2233908     
   353990642.07335043       -111021228.09705903        1179156862.5690448     
   233110135.52426818       -228829211.72862330        1203529710.6777306     
   100177369.98128623       -386811392.00650901        1235438686.5494401     
   468557386.29778069       -7884623.8113042712        1244733780.5345442     
   390850731.24777174       -41937484.280937180        1243106586.6082840     
   302958952.69289207       -109940756.43348104        1247825814.5732131     
   204882050.63313597       -211894440.26894498        1258891464.4293518     
   96620025.068511620       -347798535.78729743        1276303536.1766825     
   385059531.21901470       -17579505.805619687        1334468822.0658319     
   323023050.04648340       -49245384.296162173        1324092166.3678658     
   252668580.85811022       -108637889.50618178        1318872226.6892781     
   173996123.65388829       -195757021.43569505        1318809003.0300686     
   87005678.433829457       -310602780.08466482        1323902495.3902252     
   309101312.95350355       -25012496.755961969        1422224674.2346056     
   259335846.02465901       -55311141.157548010        1405276881.5021541     
   203119526.56899720       -107112627.31519100        1392296098.9172432     
   140452354.58652785       -180416955.22886211        1383282326.4798851     
   71334330.077231750       -275224124.89861679        1378235564.1900780     
   240682731.50123543       -30183596.662331372        1508001337.0408857     
   199789119.18229014       -60134754.865100458        1486660732.0111315     
   154311789.82555431       -105364969.86049920        1468097431.2571051     
   104250743.43103504       -165874241.64851215        1452311434.7787948     
   49605979.998740226       -241662570.22911030        1439302742.5762119     
   100177369.98128623       -386811392.00650901        1235438686.5494401     
   85314692.638276339       -546722502.08320987        1196805079.3435197     
   57877929.503145725       -748547231.46696877        1154828239.0147636     
   17867080.575884759       -992285580.15782869        1109508165.5631680     
  -34717854.143510163       -1277937548.1557908        1060844858.9887239     
   96620025.068511620       -347798535.78729743        1276303536.1766825     
   79723656.424749106       -488990483.61693037        1221981577.3250148     
   51453587.513858944       -668094765.67032468        1165118667.0001287     
   11809818.335852623       -885111381.94744360        1105714805.2020340     
  -39207651.109275222       -1140040332.4482958        1043769991.9307157     
   87005678.433829457       -310602780.08466482        1323902495.3902252     
   70367851.773950607       -432387895.68185210        1255292634.6719754     
   43556710.371957451       -588084060.41943157        1184944104.1301444     
   6572254.2278351486       -777691274.29742765        1112856903.7647014     
  -40585516.658401847       -1001209537.3158226        1039031033.5756906     
   71334330.077231750       -275224124.89861679        1378235564.1900780     
   57247278.685883567       -376914738.27794451        1296738251.3844063     
   34187298.077415675       -508515115.71434057        1214304550.4047699     
   2154388.2518302500       -670025257.20780778        1130934461.2511632     
  -38851450.790885687       -861445162.75834322        1046627983.9235991     
   49605979.998740226       -241662570.22911030        1439302742.5762119     
   40361937.160550743       -322571011.40521663        1346318427.4622998     
   23345350.630251050       -429387931.55502647        1253200005.8240459     
  -1443779.5921771824       -562113330.67859948        1159947477.6614540     
  -34005453.506721884       -720747208.77588284        1066560842.9745075     
   1476145322.5784659        178529686.74854511        1408132326.0655429     
   1426603689.9409945        94772646.086599708        1406558261.1975584     
   1385015993.1461010        37528724.899922550        1414667466.0428231     
   1351382232.1937926        6797923.1885235906        1432459940.6013377     
   1325702407.0840640        2580240.9523963332        1459935684.8731098     
   1046728094.5164839        123226281.86464006        1367775815.9827344     
   1024127700.4000582        61482478.969257236        1387453024.4658031     
   1007815361.8238423        20698861.207910478        1413091014.9210665     
   997791078.78783822        875428.58060199022        1444689787.3485255     
   994054851.29204822        2012181.0873370171        1482249341.7481735     
   659609977.64009380        80612610.336414412        1333749094.8751161     
   653315142.78454530        37691341.429541916        1372734049.6898127     
   651642483.16683710        10177323.315470606        1413957298.7356436     
   654591998.78697002       -1929444.0057937503        1457418842.0126078     
   662163689.64494491        1371039.4657449126        1503118679.5207016     
   314790971.94929618        50688672.163867228        1306052162.7427027     
   314166017.09445518        23399233.467453405        1362401336.8695877     
   316497357.17508537        5964111.2226103991        1417266317.4865541     
   321784992.19118750       -1616694.5706605017        1470647104.5935888     
   330028922.14275831        656816.08763110638        1522543698.1907020     
   12271077.444089169        33454467.346993942        1284685019.5854793     
   6680323.3297891282        18606155.082995415        1356454886.0051284     
   2379983.8485873090        8059224.9293229124        1423018071.1737924     
  -629940.99951253599        1813676.8859917072        1484374575.0914726     
  -2349451.2145127407       -130489.04700805806        1540524397.7581692     
   1325702407.0840640        2580240.9523963332        1459935684.8731098     
   1271025625.3815808        1706769.1138881445        1445856616.5799634     
   1216335543.4686871        788963.24067842960        1436641756.6806781     
   1161632161.3453715       -173176.66727107763        1432291105.1752541     
   1106915479.0116434       -1179650.6099267006        1432804662.0636947     
   994054851.29204822        2012181.0873370171        1482249341.7481735     
   952323739.17014456        1238852.1337932348        1468161939.3276017     
   910560648.82290244        358929.09578531981        1459145425.9863136     
   868765580.25032353       -627588.02667587996        1455199801.7243109     
   826938533.45240629       -1720699.2336008549        1456325066.5415933     
   662163689.64494491        1371039.4657449126        1503118679.5207016     
   633968763.34768462        875008.27037373185        1489001151.9552975     
   605723180.81016779        210122.94081726670        1480161194.1546009     
   577426942.03238606       -623616.52295756340        1476598806.1186118     
   549080047.01434767       -1626210.1209197640        1478313987.8473301     
   330028922.14275831        656816.08763110638        1522543698.1907020     
   315960697.91420966        615237.52366346121        1508374254.4630551     
   301823139.43047917        342544.77575805783        1499689061.1855381     
   287616246.69156420       -161262.15609622002        1496488118.3581522     
   273340019.69747066       -896183.27187998593        1498771425.9808993     
  -2349451.2145127407       -130489.04700805806        1540524397.7581692     
  -1700457.1302892459        459539.89362933603        1526281246.8508687     
  -1139475.3161616828        756194.60061397089        1517729027.0791254     
  -666505.77214436023        759475.07389763091        1514867738.4429352     
  -281548.49822958052        469381.31350614782        1517697380.9422989     
   1106915479.0116434       -1179650.6099267006        1432804662.0636947     
   1059418385.0668719        163051.64630246162        1426272501.7529891     
   1012055448.2658395        1952944.3816605806        1424542583.4980750     
   964826668.60853958        4190027.5961276889        1427614907.2989571     
   917732046.09498227        6874301.2897371054        1435489473.1556349     
   826938533.45240629       -1720699.2336008549        1456325066.5415933     
   791716474.22284949       -708407.49760052562        1450635985.0675576     
   756608089.92571735        682800.67981573939        1449663244.5156415     
   721613380.56100702        2452925.2986391187        1453406844.8858438     
   686732346.12872636        4601966.3588924706        1461866786.1781607     
   549080047.01434767       -1626210.1209197640        1478313987.8473301     
   525887590.68950528       -1017958.4482983947        1473444089.2967675     
   502788327.08577520       -99064.371969282627        1473204630.5346467     
   479782256.20315254        1130472.1080538332        1477595611.5609672     
   456869378.04164773        2670650.9917992949        1486617032.3757293     
   273340019.69747066       -896183.27187998593        1498771425.9808993     
   261931734.46684051       -765601.20578995347        1494696814.4406071     
   250596159.74600828       -392650.77370634675        1495166741.5550847     
   239333295.53497767        222668.02438251674        1500181207.3243294     
   228143141.83374125        1080355.1884519756        1509740211.7483366     
  -281548.49822958052        469381.31350614782        1517697380.9422989     
  -151094.44514729688        48664.229918241494        1514394160.4990842     
   31587.906422873464       -197958.52537809688        1515549577.5769582     
   266498.55647148303       -270486.95241297130        1521163632.1759253     
   553637.50501571118       -168921.05112772918        1531236324.2959831     
   917732046.09498227        6874301.2897371054        1435489473.1556349     
   865934144.92988002        9081931.4998467565        1433887887.0116231     
   814618135.04652858        12895865.982453406        1437079323.7429426     
   763784016.44491506        18316104.737521946        1445063783.3495879     
   713431789.12504578        25342647.765073508        1457841265.8315549     
   686732346.12872636        4601966.3588924706        1461866786.1781607     
   647337880.65976965        6116871.7591111362        1461212190.3370128     
   608304395.41289186        8835044.5662589371        1465465535.5737002     
   569631890.38807869        12756484.780288994        1474626821.8882263     
   531320365.58534133        17881192.401238918        1488696049.2805893     
   456869378.04164773        2670650.9917992949        1486617032.3757293     
   430206685.99029946        3591332.8985759616        1486768363.9344895     
   403784063.10135120        5312245.3466861695        1491942554.7735963     
   377601509.37480509        7833388.3361347914        1502139604.8930554     
   351659024.81065810        11154761.866917327        1517359514.2928596     
   228143141.83374125        1080355.1884519756        1509740211.7483366     
   214540560.92145881        1505314.9182121456        1510556407.8040564     
   201057138.11190987        2327468.3237500489        1516510381.3426356     
   187692873.40508777        3546815.4050425291        1527602132.3640780     
   174447766.80099297        5163356.1620978788        1543831660.8683743     
   553637.50501571118       -168921.05112772918        1531236324.2959831     
   339505.45326074213       -141182.18194223457        1532576321.9457150     
   123620.44456133718       -119286.50257152642        1539169015.2808139     
  -94017.521071523501       -103234.01297900398        1551014404.3012836     
  -313408.44365321216       -93024.713215908341        1568112489.0071280     
   713431789.12504578        25342647.765073508        1457841265.8315549     
   656060572.57328475        30075056.285391480        1455109869.1993294     
   598083220.07758796        32787011.659256905        1457981263.1222727     
   539499731.63796139        33478513.886689812        1466455447.6003871     
   480310107.25439578        32149562.967659101        1480532422.6336694     
   531320365.58534133        17881192.401238918        1488696049.2805893     
   488190651.62016529        21415709.132327646        1486215292.2649739     
   444604528.32888055        23428861.443056002        1489363183.2506206     
   400561995.71148455        23920649.333415225        1498139722.2375188     
   356063053.76798201        22891072.803413823        1512544909.2256742     
   351659024.81065810        11154761.866917327        1517359514.2928596     
   322844691.84946495        13513550.333996236        1515304077.9479856     
   293723676.17998886        14850063.106799796        1518903147.0504558     
   264295977.80222848        15164300.185323536        1528156721.6002786     
   234561596.71618620        14456261.569573902        1543064801.5974450     
   174447766.80099297        5163356.1620978788        1543831660.8683743     
   160022693.26118383        6368579.8903939053        1542376226.2483697     
   145440663.63091058        7050616.6504776776        1546601154.5217977     
   130701677.91018620        7209466.4423909709        1556506445.6886673     
   115805736.09900331        6845129.2661078498        1572092099.7489712     
  -313408.44365321216       -93024.713215908341        1568112489.0071280     
  -275344.14468674886       -19202.198505256398        1567431737.1661212     
  -244509.31834367334        30522.074126048261        1572457205.6646450     
  -220903.96464294946        56148.104616527795        1583188894.5026915     
  -204528.08356684871        57675.893025624158        1599626803.6802635     
   480310107.25439578        32149562.967659101        1480532422.6336694     
   423647186.46071166        27379350.208843961        1478849357.5694339     
   364821650.23729628        15400419.350930080        1482866488.2825530     
   303833498.58413029       -3787229.6061524600        1492583814.7730377     
   240682731.50123543       -30183596.662331372        1508001337.0408857     
   356063053.76798201        22891072.803413823        1512544909.2256742     
   314402181.34160972        19560562.867455199        1509518775.3421588     
   271119242.90436476        10823166.228587463        1512000243.7739413     
   226214238.45624128       -3321117.1132086217        1519989314.5210185     
   179687167.99724212       -22872287.157926373        1533485987.5833952     
   234561596.71618620        14456261.569573902        1543064801.5974450     
   207352505.62265301        12400374.346119992        1539326239.8833230     
   179061897.93710941        6739431.8159626871        1540902687.0224349     
   149689773.65954807       -2526566.0209189281        1547794143.0147796     
   119236132.78997840       -15397619.164495841        1560000607.8603568     
   115805736.09900331        6845129.2661078498        1572092099.7489712     
   102498159.30383813        5898784.6448223293        1568271751.1929202     
   88649615.335525692        3149216.1130418964        1569573818.0280375     
   74260104.194056481       -1403576.3292589895        1575998300.2543259     
   59329625.879435584       -7759592.6820656955        1587545197.8717697     
  -204528.08356684871        57675.893025624158        1599626803.6802635     
  -160857.61483515674        55793.763563817134        1596355309.2709565     
  -117604.90039309656        52519.119803931375        1598013636.7907481     
  -74769.940236870825        47851.961757930781        1604601786.2396450     
  -32352.734368172340        41792.289419478817        1616119757.6176410     
   240682731.50123543       -30183596.662331372        1508001337.0408857     
   199789119.18229014       -60134754.865100458        1486660732.0111315     
   154311789.82555431       -105364969.86049920        1468097431.2571051     
   104250743.43103504       -165874241.64851215        1452311434.7787948     
   49605979.998740226       -241662570.22911030        1439302742.5762119     
   179687167.99724212       -22872287.157926373        1533485987.5833952     
   148392876.03742000       -45527121.618148915        1507729850.8280392     
   113661200.88061498       -79639900.068313181        1484896735.3633964     
   75492142.526822269       -125210622.50843643        1464986641.1894593     
   33885700.976061061       -182239288.93845877        1447999568.3062310     
   119236132.78997840       -15397619.164495841        1560000607.8603568     
   97957495.517807484       -30631229.583625086        1531166328.8603356     
   74387808.889459714       -53501671.190011919        1505400788.1660173     
   48527072.904931970       -84008943.983663931        1482703985.7773890     
   20375287.564233944       -122153047.96455157        1463075921.6944592     
   59329625.879435584       -7759592.6820656955        1587545197.8717697     
   48482977.623450942       -15447078.761531956        1556970166.1080306     
   36491613.852098323       -26950283.225559168        1529609589.6649709     
   23355534.565364908       -42269206.074187800        1505463468.5425956     
   9074739.7632603534       -61403847.307388328        1484531802.7408900     
  -32352.734368172340        41792.289419478817        1616119757.6176410     
  -30677.645639549468        25330.848160972921        1585141362.5711203     
  -27384.231475087836        14263.825023317380        1557523139.8602588     
  -22472.491889359095        8591.2199555113239        1533265089.4850655     
  -15942.426858778650        8313.0330379048537        1512367211.4455414     
   49605979.998740226       -241662570.22911030        1439302742.5762119     
   40361937.160550743       -322571011.40521663        1346318427.4622998     
   23345350.630251050       -429387931.55502647        1253200005.8240459     
  -1443779.5921771824       -562113330.67859948        1159947477.6614540     
  -34005453.506721884       -720747208.77588284        1066560842.9745075     
   33885700.976061061       -182239288.93845877        1447999568.3062310     
   29762188.425340444       -242077584.39613134        1347526653.2291777     
   19809350.679742351       -321346963.83673018        1246264372.8087347     
   4027187.7392808795       -420047427.26020771        1144212727.0449028     
  -17584300.396054715       -538178974.66659057        1041371715.9376762     
   20375287.564233944       -122153047.96455157        1463075921.6944592     
   19500137.246549986       -161482848.12014008        1357381494.9010677     
   14738880.231240511       -213766337.26781017        1250242443.9452293     
   6091516.5183103532       -279003515.40754747        1141658768.8269348     
  -6441953.8922330439       -357194382.53933859        1031630469.5462220     
   9074739.7632603534       -61403847.307388328        1484531802.7408900     
   9575783.6241808012       -80786802.577232391        1375882952.4779451     
   8133939.2847382277       -106646051.84828776        1265134219.2335019     
   4749206.7449190691       -138981595.12059867        1152285603.0075672     
  -578413.99527511001       -177793432.39415237        1037337103.8001406     
  -15942.426858778650        8313.0330379048537        1512367211.4455414     
  -10872.441752585048        10552.232632651296        1403031025.9598255     
  -5472.1597727026538        13892.421807054268        1290939698.6735744     
   258.41908962983871        18333.600585807842        1176093229.5867732     
   6319.2948342980526        23875.768979286051        1058491618.6994351     
   12271077.444089169        33454467.346993942        1284685019.5854793     
   6680323.3297891282        18606155.082995415        1356454886.0051284     
   2379983.8485873090        8059224.9293229124        1423018071.1737924     
  -629940.99951253599        1813676.8859917072        1484374575.0914726     
  -2349451.2145127407       -130489.04700805806        1540524397.7581692     
  -305743695.55888790       -33943926.089670300        1298184130.0241470     
  -310135558.72168303       -16393632.983331114        1356300080.1522834     
  -316565151.64835483       -5635772.4232471734        1413068334.1009438     
  -325032474.33890426       -1670344.4094222486        1468488891.8701308     
  -335537526.79333287       -4497348.9418612719        1522561753.4598420     
  -667036968.56467283       -114325869.52718019        1325947326.5219126     
  -659204269.14307153       -61069269.560622543        1366526525.2287226     
  -656737443.88232803       -25698916.796924919        1409617012.8275712     
  -659636492.78244174       -8214811.2360833287        1455218789.3184574     
  -667901415.84341216       -8616952.8780989051        1503331854.7013779     
  -1071608741.5732632       -207691362.96552843        1367974609.0787733     
  -1040525807.9343790       -115420754.64889139        1387134221.2344518     
  -1018136892.8533304       -52130208.191705585        1412664107.3536775     
  -1004441996.3301203       -17819723.593980074        1444564267.4364519     
  -999441118.36474514       -12489300.855705976        1482834701.4827709     
  -1519459014.5846598       -314040406.40472192        1424265977.6947231     
  -1454100175.0956068       -179448088.24813956        1418123168.1694605     
  -1400763498.5613682       -84929646.607608497        1422209617.6792607     
  -1359448984.9819469       -30485081.483131588        1436525326.2241151     
  -1330156634.3573380       -16114392.874697685        1461070293.8040271     
  -2349451.2145127407       -130489.04700805806        1540524397.7581692     
  -1700457.1302892459        459539.89362933603        1526281246.8508687     
  -1139475.3161616828        756194.60061397089        1517729027.0791254     
  -666505.77214436023        759475.07389763091        1514867738.4429352     
  -281548.49822958052        469381.31350614782        1517697380.9422989     
  -335537526.79333287       -4497348.9418612719        1522561753.4598420     
  -320079353.94027734       -2777353.1543527097        1508372018.6153984     
  -304721012.16221339       -1390127.6168193519        1499622267.0313776     
  -289462501.45914948       -335672.32928565145        1496312498.7077811     
  -274303821.83107716        386012.70827829838        1498442713.6446104     
  -667901415.84341216       -8616952.8780989051        1503331854.7013779     
  -638351058.15047014       -5982088.4224094748        1489181747.3140810     
  -608912350.33740997       -3719390.2329965532        1480220675.3120773     
  -579585292.40424204       -1828858.3098885715        1476448638.6953666     
  -550369884.35095763       -310492.65306109190        1477865637.4639499     
  -999441118.36474514       -12489300.855705976        1482834701.4827709     
  -956515569.76085806       -9154665.9105114341        1468710432.9469137     
  -913713489.84175050       -6231593.2479167581        1459524251.9212210     
  -871034878.60742092       -3720082.8679140210        1455276158.4056921     
  -828479736.05787158       -1620134.7705113888        1455966152.4003212     
  -1330156634.3573380       -16114392.874697685        1461070293.8040271     
  -1274572888.7714531       -12295085.618690729        1446958075.5139019     
  -1219124430.6752357       -8926736.6615778208        1437532996.8588107     
  -1163811260.0686910       -6009346.0033729076        1432795057.8387516     
  -1108633376.9518170       -3542913.6440711021        1432744258.4537258     
  -281548.49822958052        469381.31350614782        1517697380.9422989     
  -151094.44514729688        48664.229918241494        1514394160.4990842     
   31587.906422873464       -197958.52537809688        1515549577.5769582     
   266498.55647148303       -270486.95241297130        1521163632.1759253     
   553637.50501571118       -168921.05112772918        1531236324.2959831     
  -274303821.83107716        386012.70827829838        1498442713.6446104     
  -262516442.21834454       -78646.725025117397        1494475443.7653823     
  -250744586.12376392       -595051.21883673966        1495026542.7224245     
  -238988253.54732439       -1163200.7731194049        1500096010.5157275     
  -227247444.48903459       -1783095.3878992498        1509683847.1453032     
  -550369884.35095763       -310492.65306109190        1477865637.4639499     
  -526754918.27807760       -767896.16593751311        1473155274.3626404     
  -503223227.53997862       -1502884.1280842125        1473023011.4127727     
  -479774812.13666093       -2515456.5395014882        1477468848.6143470     
  -456409672.06812179       -3805613.4001818299        1486492785.9673581     
  -828479736.05787158       -1620134.7705113888        1455966152.4003212     
  -792866522.62434280       -2019084.0928037167        1450433652.2908580     
  -757404336.34223068       -2921457.2531493008        1449538983.6480117     
  -722093177.21153259       -4327254.2515406907        1453282146.4717767     
  -686933045.23224664       -6236475.0879757404        1461663140.7621620     
  -1108633376.9518170       -3542913.6440711021        1432744258.4537258     
  -1060851255.2571429       -3832210.5056338310        1426310577.5500338     
  -1013287912.5305185       -4850770.5940293074        1424574459.4281354     
  -965943348.77193820       -6598593.9092378020        1427535904.0880239     
  -918817563.98140633       -9075680.4512734413        1435194911.5297041     
   553637.50501571118       -168921.05112772918        1531236324.2959831     
   339505.45326074213       -141182.18194223457        1532576321.9457150     
   123620.44456133718       -119286.50257152642        1539169015.2808139     
  -94017.521071523501       -103234.01297900398        1551014404.3012836     
  -313408.44365321216       -93024.713215908341        1568112489.0071280     
  -227247444.48903459       -1783095.3878992498        1509683847.1453032     
  -214036517.97559786       -2158749.0350592583        1510437120.2327206     
  -200939822.40703791       -2915172.4984752610        1516357756.3425317     
  -187957357.78335154       -4052365.7781387866        1527445755.4747391     
  -175089124.10453525       -5570328.8740312979        1543701117.6293406     
  -456409672.06812179       -3805613.4001818299        1486492785.9673581     
  -430017494.59799671       -4657801.8462400138        1486528110.1732109     
  -403852026.06068140       -6265686.7349955738        1491645464.7384810     
  -377913266.45617235       -8629268.0664374679        1501844849.6631684     
  -352201215.78447318       -11748545.840583444        1517126264.9472771     
  -686933045.23224664       -6236475.0879757404        1461663140.7621620     
  -647603424.41393793       -7638340.6154859662        1460849291.7671881     
  -608612990.51636922       -10170829.212127566        1465032140.4686577     
  -569961743.53954804       -13833940.877927631        1474211686.8665712     
  -531649683.48346126       -18627675.612843931        1488387930.9609246     
  -918817563.98140633       -9075680.4512734413        1435194911.5297041     
  -866794307.42341518       -11100365.342779458        1433400665.0146511     
  -815222715.77410018       -14630599.929872483        1436517783.5330670     
  -764102789.03346109       -19666384.212552309        1444546267.0849476     
  -713434527.20149624       -26207718.190811872        1457486115.6702957     
  -313408.44365321216       -93024.713215908341        1568112489.0071280     
  -275344.14468674886       -19202.198505256398        1567431737.1661212     
  -244509.31834367334        30522.074126048261        1572457205.6646450     
  -220903.96464294946        56148.104616527795        1583188894.5026915     
  -204528.08356684871        57675.893025624158        1599626803.6802635     
  -175089124.10453525       -5570328.8740312979        1543701117.6293406     
  -160573135.81988347       -6560040.8740877435        1542263027.1577091     
  -145920548.64698747       -7094423.2466629967        1546501011.9927835     
  -131131362.58583875       -7173475.9917314276        1556415072.1345763     
  -116205577.63645506       -6797199.1093459874        1572005207.5830894     
  -352201215.78447318       -11748545.840583444        1517126264.9472771     
  -323293432.17930740       -13827630.954955041        1515098635.5993626     
  -294105221.32501858       -14971958.572248265        1518716936.5253558     
  -264636583.22161075       -15181528.692478865        1527981167.7252545     
  -234887517.86907959       -14456341.315631844        1542891329.1990554     
  -531649683.48346126       -18627675.612843931        1488387930.9609246     
  -488436233.22295266       -21821972.441080421        1485938562.4910915     
  -444798527.35244942       -23602083.902666777        1489104979.2623534     
  -400736565.87194300       -23968009.997577742        1497887181.2747173     
  -356250348.78144258       -22919750.725839242        1512285168.5281641     
  -713434527.20149624       -26207718.190811872        1457486115.6702957     
  -656001538.95082092       -30543065.332476050        1454782807.8328986     
  -598000466.72927177       -32984799.237894416        1457665140.2037842     
  -539431310.53684676       -33532919.907061011        1466133112.7829547     
  -480294070.37354654       -32187427.339975581        1480186725.5704143     
  -204528.08356684871        57675.893025624158        1599626803.6802635     
  -160857.61483515674        55793.763563817134        1596355309.2709565     
  -117604.90039309656        52519.119803931375        1598013636.7907481     
  -74769.940236870825        47851.961757930781        1604601786.2396450     
  -32352.734368172340        41792.289419478817        1616119757.6176410     
  -116205577.63645506       -6797199.1093459874        1572005207.5830894     
  -102816311.64553779       -5853561.3080936335        1568204982.4201837     
  -88885633.593574807       -3105216.6366905384        1569522581.1304576     
  -74413543.480596453        1447834.9047642536        1575958003.7139184     
  -59400041.306581028        7805593.3163405396        1587511250.1705625     
  -234887517.86907959       -14456341.315631844        1542891329.1990554     
  -207615507.94430655       -12406039.060149267        1539194508.0670927     
  -179260256.14318287       -6744930.5501612127        1540803512.7523894     
  -149821762.46570465        2526984.2143389136        1547718343.2549567     
  -119300026.91187480        15409705.233347312        1559938999.5747874     
  -356250348.78144258       -22919750.725839242        1512285168.5281641     
  -314558446.51115358       -19601639.492639229        1509323886.2116773     
  -271241472.54918808       -10866622.620516881        1511856431.6565406     
  -226299426.89556035        3285299.8904795349        1519882804.8627479     
  -179732309.55024415        22854128.040436417        1533403005.8303063     
  -480294070.37354654       -32187427.339975581        1480186725.5704143     
  -423645127.34607768       -27440362.605558962        1478593116.8539469     
  -364829282.81161171       -15470292.847819746        1482681337.8429103     
  -303846536.77015555        3722781.9332212061        1492451388.5373073     
  -240696889.22170201        30138861.737585649        1507903268.9371376     
  -32352.734368172340        41792.289419478817        1616119757.6176410     
  -30677.645639549468        25330.848160972921        1585141362.5711203     
  -27384.231475087836        14263.825023317380        1557523139.8602588     
  -22472.491889359095        8591.2199555113239        1533265089.4850655     
  -15942.426858778650        8313.0330379048537        1512367211.4455414     
  -59400041.306581028        7805593.3163405396        1587511250.1705625     
  -48546279.271022543        15475360.137814287        1556943094.8859401     
  -36546063.064783193        26966640.861551009        1529588781.4718163     
  -23399392.687868427        42279435.487542413        1505448309.9281907     
  -9106268.1402683817        61413744.015818104        1484521680.2550602     
  -119300026.91187480        15409705.233347312        1559938999.5747874     
  -98012264.972825646        30640274.204548232        1531116725.8715210     
  -74433213.017854780        53508476.562156320        1505361963.5735815     
  -48562871.046954036        84014312.306197345        1482674712.6809666     
  -20401239.060126223        122157781.43666050        1463054973.1936834     
  -179732309.55024415        22854128.040436417        1533403005.8303063     
  -148428634.75105426        45520073.048344523        1507662255.5278547     
  -113688834.09068725        79639770.926843375        1484842686.1655633     
  -75512907.569145039        125213221.67592737        1464944297.7434266     
  -33900855.186434589        182240425.29556942        1447967090.2614434     
  -240696889.22170201        30138861.737585649        1507903268.9371376     
  -199795388.60570225        60114756.669231668        1486579683.8549502     
  -154312926.28329360        105360523.95557326        1468030949.2477548     
  -104249502.25445051        165876163.59669673        1452257065.1155405     
  -49605116.519190267        241661675.59254411        1439258031.4583218     
  -15942.426858778650        8313.0330379048537        1512367211.4455414     
  -10872.441752585048        10552.232632651296        1403031025.9598255     
  -5472.1597727026538        13892.421807054268        1290939698.6735744     
   258.41908962983871        18333.600585807842        1176093229.5867732     
   6319.2948342980526        23875.768979286051        1058491618.6994351     
  -9106268.1402683817        61413744.015818104        1484521680.2550602     
  -9598306.6506293342        80799380.058004558        1375875341.9044755     
  -8146551.1351910979        106664329.51952511        1265128662.6250236     
  -4751001.5939577147        139008592.40035900        1152281642.4166980     
   588341.97307454795        177832168.70052940        1037334281.2794766     
  -20401239.060126223        122157781.43666050        1463054973.1936834     
  -19519526.432621591        161488072.21145514        1357365856.3286424     
  -14750556.050395444        213775888.83531988        1250231199.4063969     
  -6094327.9134624898        279021231.30820811        1141651002.4269283     
   6449157.9781898409        357224099.63015538        1031625265.3902595     
  -33900855.186434589        182240425.29556942        1447967090.2614434     
  -29774531.787728235        242076628.69298470        1347502569.2323558     
  -19817486.905401930        321348570.36913449        1246247309.0177090     
  -4029720.5394265950        420056250.32411283        1144201309.6175170     
   17588767.310170293        538199668.55783427        1041364571.0317893     
  -49605116.519190267        241661675.59254411        1439258031.4583218     
  -40363322.715962812        322565049.50254923        1346285480.6155748     
  -23347343.700180918        429382374.12107056        1253176991.4589450     
   1442820.5281435549        562113649.44806778        1159932563.9884434     
   34007169.969021618        720758875.48357439        1066552198.2040592     
  -1519459014.5846598       -314040406.40472192        1424265977.6947231     
  -1454100175.0956068       -179448088.24813956        1418123168.1694605     
  -1400763498.5613682       -84929646.607608497        1422209617.6792607     
  -1359448984.9819469       -30485081.483131588        1436525326.2241151     
  -1330156634.3573380       -16114392.874697685        1461070293.8040271     
  -1874138986.2899034       -126924946.62962258        1355997668.3357544     
  -1812678714.2255661       -73247424.368223369        1356658084.5186942     
  -1756165562.7433305       -36060304.047157526        1362762988.8541436     
  -1704599531.8431907       -15363585.666415691        1374312381.3421032     
  -1657980621.5251482       -11157269.226001620        1391306261.9825752     
  -2174263644.0541773        76557107.327767491        1252931010.2845819     
  -2130372713.3646929        45218601.508941054        1268648868.2772262     
  -2084353860.8845892        20973168.325506806        1285026443.5398302     
  -2036207086.6138668        3820807.7774708271        1302063736.0724001     
  -1985932390.5525265       -6238480.1351726055        1319760745.8749337     
  -2419832987.8774791        296405755.46745098        1115066003.5412097     
  -2407182172.5129795        175949989.38335478        1154095519.4450567     
  -2385328392.9851451        86170770.510384321        1188999981.7363234     
  -2354271649.2939768        27068098.848523736        1219779390.4150047     
  -2314011941.4394717       -1358025.6022154093        1246433745.4811018     
  -2610847017.7598124        532620997.78942180        942402648.10563350     
  -2643107091.6704316        318946739.25502253        1012998038.0221909     
  -2659089159.0450020        159532502.50746310        1074683603.4436193     
  -2658793219.8835168        54378287.546753883        1127459344.3699172     
  -2642219274.1859808        3484094.3728723526        1171325260.8010819     
  -1330156634.3573380       -16114392.874697685        1461070293.8040271     
  -1274572888.7714531       -12295085.618690729        1446958075.5139019     
  -1219124430.6752357       -8926736.6615778208        1437532996.8588107     
  -1163811260.0686910       -6009346.0033729076        1432795057.8387516     
  -1108633376.9518170       -3542913.6440711021        1432744258.4537258     
  -1657980621.5251482       -11157269.226001620        1391306261.9825752     
  -1590546676.8791790       -8392796.7479161620        1376992273.5179546     
  -1523233537.5372944       -6031008.6167787313        1367350106.5671170     
  -1456041203.4994941       -4071904.8325912952        1362379761.1300633     
  -1388969674.7657762       -2515485.3953469992        1362081237.2067940     
  -1985932390.5525265       -6238480.1351726055        1319760745.8749337     
  -1906692012.9071841       -4541972.2532263994        1305261883.1190012     
  -1827557958.3803432       -3199874.7662762403        1295419523.7556021     
  -1748530226.9719965       -2212187.6743127108        1290233667.7847385     
  -1669608818.6821487       -1578910.9773420095        1289704315.2064064     
  -2314011941.4394717       -1358025.6022154093        1246433745.4811018     
  -2223008896.8554702       -742612.13462388515        1231766904.3170416     
  -2132097693.2043846       -433335.11007499695        1221741248.4242687     
  -2041278330.4862025       -430194.52854526043        1216356777.8027799     
  -1950550808.7009389       -733190.39006960392        1215613492.4525766     
  -2642219274.1859808        3484094.3728723526        1171325260.8010819     
  -2539497328.7240348        3005283.6079002619        1156507337.1120799     
  -2436852742.0094147        2268610.3518362045        1146315280.5731137     
  -2334285514.0421162        1274074.6047016382        1140749091.1841843     
  -2231795644.8221407        21676.366489171982        1139808768.9452894     
  -1108633376.9518170       -3542913.6440711021        1432744258.4537258     
  -1060851255.2571429       -3832210.5056338310        1426310577.5500338     
  -1013287912.5305185       -4850770.5940293074        1424574459.4281354     
  -965943348.77193820       -6598593.9092378020        1427535904.0880239     
  -918817563.98140633       -9075680.4512734413        1435194911.5297041     
  -1388969674.7657762       -2515485.3953469992        1362081237.2067940     
  -1329360848.1481488       -3726545.1704779863        1355238601.9351308     
  -1269979788.9149349       -5696829.5603173375        1353008583.7255435     
  -1210826497.0661333       -8426338.5648715496        1355391182.5780296     
  -1151900972.6017387       -11915072.184112370        1362386398.4925923     
  -1669608818.6821487       -1578910.9773420095        1289704315.2064064     
  -1598415989.1979012       -3784544.2829493880        1282442239.0810175     
  -1527459915.5144262       -6779363.5911408663        1279707834.2979860     
  -1456740597.6317279       -10563368.901918471        1281501100.8573132     
  -1386258035.5498064       -15136560.215281785        1287822038.7590024     
  -1950550808.7009389       -733190.39006960392        1215613492.4525766     
  -1868016678.4063942       -4006207.8430347443        1207921488.9876974     
  -1785728292.3289905       -8098372.6864764690        1204672211.1454611     
  -1703685650.4687302       -13009684.920390844        1205865658.9258690     
  -1621888752.8256071       -18740144.544766188        1211501832.3289220     
  -2231795644.8221407        21676.366489171982        1139808768.9452894     
  -2138162915.7736363       -4391535.8507597446        1131676351.6551654     
  -2044784919.3586309       -9653856.8463431597        1127901714.2679696     
  -1951661655.5771341       -15765286.620289445        1128484856.7837007     
  -1858793124.4291370       -22725825.172562838        1133425779.2023649     
  -918817563.98140633       -9075680.4512734413        1435194911.5297041     
  -866794307.42341518       -11100365.342779458        1433400665.0146511     
  -815222715.77410018       -14630599.929872483        1436517783.5330670     
  -764102789.03346109       -19666384.212552309        1444546267.0849476     
  -713434527.20149624       -26207718.190811872        1457486115.6702957     
  -1151900972.6017387       -11915072.184112370        1362386398.4925923     
  -1087579772.7050765       -14608027.511952281        1359594978.0137968     
  -1023573392.8997756       -18350383.144335508        1361506365.1704328     
  -959881833.18583655       -23142139.081255376        1368120559.9625068     
  -896505093.56326485       -28983295.322733462        1379437562.3900175     
  -1386258035.5498064       -15136560.215281785        1287822038.7590024     
  -1310234770.5945585       -18676549.463468015        1284193096.6033216     
  -1234389480.9133611       -22809789.625164807        1285058404.6850488     
  -1158722166.5062175       -27536280.700373232        1290417963.0041792     
  -1083232827.3731222       -32856022.689074993        1300271771.5607119     
  -1621888752.8256071       -18740144.544766188        1211501832.3289220     
  -1534759301.0918620       -23305931.197335184        1207195020.7832289     
  -1447670979.8148558       -28008819.372366965        1207173902.0769062     
  -1360623788.9945896       -32848809.069868684        1211438476.2099595     
  -1273617728.6310689       -37825900.289849937        1219988743.1823802     
  -1858793124.4291370       -22725825.172562838        1133425779.2023649     
  -1761153364.1969845       -28496172.713534713        1128600750.5535195     
  -1663417889.6042624       -33947472.385947645        1127852857.3460126     
  -1565586700.6509705       -39079724.189789474        1131182099.5798485     
  -1467659797.3370984       -43892928.125036478        1138588477.2550280     
  -713434527.20149624       -26207718.190811872        1457486115.6702957     
  -656001538.95082092       -30543065.332476050        1454782807.8328986     
  -598000466.72927177       -32984799.237894416        1457665140.2037842     
  -539431310.53684676       -33532919.907061011        1466133112.7829547     
  -480294070.37354654       -32187427.339975581        1480186725.5704143     
  -896505093.56326485       -28983295.322733462        1379437562.3900175     
  -824794697.48608601       -32223251.224816501        1375787438.4370012     
  -752702819.73314500       -34191601.541028529        1377281513.0869524     
  -680229460.30443263       -34888346.271333098        1383919786.3398738     
  -607374619.19995952       -34313485.415771246        1395702258.1957605     
  -1083232827.3731222       -32856022.689074993        1300271771.5607119     
  -998506285.19891930       -35378965.870425761        1295457128.8144519     
  -913584863.64406133       -37252311.116269767        1295345243.0658445     
  -828468562.70854259       -38476058.426575929        1299936114.3148856     
  -743157382.39236951       -39050207.801366031        1309229742.5615797     
  -1273617728.6310689       -37825900.289849937        1219988743.1823802     
  -1177136302.0893157       -40010209.269308031        1213791878.9652550     
  -1080646598.4620206       -42166927.963626802        1211856330.1404557     
  -984148617.74917531       -44296056.372775555        1214182096.7079935     
  -887642359.95077813       -46397594.496757090        1220769178.6678655     
  -1467659797.3370984       -43892928.125036478        1138588477.2550280     
  -1360684748.1572783       -46116981.421453655        1130791688.8894031     
  -1253888024.1870244       -48935452.083097160        1126814774.3107922     
  -1147269625.4263232       -52348340.109916389        1126657733.5192044     
  -1040829551.8751895       -56355645.501955688        1130320566.5146267     
  -480294070.37354654       -32187427.339975581        1480186725.5704143     
  -423645127.34607768       -27440362.605558962        1478593116.8539469     
  -364829282.81161171       -15470292.847819746        1482681337.8429103     
  -303846536.77015555        3722781.9332212061        1492451388.5373073     
  -240696889.22170201        30138861.737585649        1507903268.9371376     
  -607374619.19995952       -34313485.415771246        1395702258.1957605     
  -536051846.82498956       -30331662.158146620        1393641764.5747926     
  -462561160.72738171       -19123459.825059488        1397363596.4718862     
  -386902560.90713626       -688878.41651797295        1406867753.8870363     
  -309076047.36424971        24972082.067499399        1422154236.8202505     
  -743157382.39236951       -39050207.801366031        1309229742.5615797     
  -656873649.77668154       -35747486.752571613        1306703544.9543631     
  -568420991.22270858       -25215012.576165468        1310060168.6778345     
  -477799406.73045516       -7452785.2721584439        1319299613.7319882     
  -385008896.29991591        17539195.159474298        1334421880.1168315     
  -887642359.95077813       -46397594.496757090        1220769178.6678655     
  -786110536.20115471       -43687836.388839304        1217778457.9926560     
  -682408774.29760063       -33744951.101158112        1220771054.4607584     
  -576537074.24011099       -16568938.633690089        1229746968.0721767     
  -468495436.02870625        7840201.0134969354        1244706198.8269057     
  -1040829551.8751895       -56355645.501955688        1130320566.5146267     
  -923762506.09839845       -54152711.066918135        1126866503.6896727     
  -804524509.95204067       -44713275.399986744        1129496253.8206580     
  -683115563.43611014       -28037338.501149267        1138209816.9075806     
  -559535666.55059958       -4124900.3703779876        1153007192.9504511     
  -240696889.22170201        30138861.737585649        1507903268.9371376     
  -199795388.60570225        60114756.669231668        1486579683.8549502     
  -154312926.28329360        105360523.95557326        1468030949.2477548     
  -104249502.25445051        165876163.59669673        1452257065.1155405     
  -49605116.519190267        241661675.59254411        1439258031.4583218     
  -309076047.36424971        24972082.067499399        1422154236.8202505     
  -259311349.24330795        55284435.035548419        1405216619.7342222     
  -203097023.89294368        107095545.43500580        1392244352.2455263     
  -140433071.31315291        180405413.26588476        1383237434.3541725     
  -71319491.503939956        275214038.52817112        1378195866.0601518     
  -385008896.29991591        17539195.159474298        1334421880.1168315     
  -322979574.61017358        49208433.983098879        1324050340.8038003     
  -252631960.16800702        108605315.31480686        1318834650.2104518     
  -173966052.97341120        195729839.15461242        1318774808.3367896     
  -86981853.026398301        310582005.50247222        1323870815.1828127     
  -468495436.02870625        7840201.0134969354        1244706198.8269057     
  -390800064.70630455        41886753.511870563        1243080847.0636995     
  -302917735.10848153        109889833.59498167        1247801843.1425283     
  -204848447.23522970        211849441.26285550        1258869187.0633922     
  -96592201.086557746        347765576.51546299        1276282878.8262863     
  -559535666.55059958       -4124900.3703779876        1153007192.9504511     
  -462772819.53170407        33319393.621841669        1162308138.5139105     
  -353954348.71436322        110949100.27554597        1179145931.0417538     
  -233080254.09860069        228764219.59065574        1203520570.5339777     
  -100150535.68441886        386764751.56716323        1235432056.9905870     
  -49605116.519190267        241661675.59254411        1439258031.4583218     
  -40363322.715962812        322565049.50254923        1346285480.6155748     
  -23347343.700180918        429382374.12107056        1253176991.4589450     
   1442820.5281435549        562113649.44806778        1159932563.9884434     
   34007169.969021618        720758875.48357439        1066552198.2040592     
  -71319491.503939956        275214038.52817112        1378195866.0601518     
  -57237351.834311873        376904689.42589337        1296709971.0848169     
  -34181900.266199857        508506379.98522580        1214286293.4772744     
  -2153136.7996068597        670019110.20617700        1130924833.2375259     
   38848938.565476298        861442880.08872867        1046625590.3655685     
  -86981853.026398301        310582005.50247222        1323870815.1828127     
  -70350351.257012993        432372638.25792509        1255270557.2084763     
  -43546410.903208643        588071399.62809753        1184930672.2836049     
  -6570031.9649848938        777678289.61299789        1112851160.4082100     
   40578785.557641327        1001193308.2125961        1039032021.5822672     
  -96592201.086557746        347765576.51546299        1276282878.8262863     
  -79702320.984057099        488968895.99865735        1221967238.9865317     
  -51440875.611200809        668077433.04970086        1165110127.8779190     
  -11807864.968015492        885091187.66851628        1105711545.5004561     
   39196710.945528448        1140010159.8551803        1043771491.8541268     
  -100150535.68441886        386764751.56716323        1235432056.9905870     
  -85293261.015448838        546693462.64809859        1196800016.4190118     
  -57865294.390202075        748524480.24995637        1154824660.2602465     
  -17866635.808673859        992257804.37275517        1109505988.5143018     
   34702714.729133725        1277893435.0164797        1060844001.1811757     
  -2610847017.7598124        532620997.78942180        942402648.10563350     
  -2643107091.6704316        318946739.25502253        1012998038.0221909     
  -2659089159.0450020        159532502.50746310        1074683603.4436193     
  -2658793219.8835168        54378287.546753883        1127459344.3699172     
  -2642219274.1859808        3484094.3728723526        1171325260.8010819     
  -2963145517.8812933        346626724.86277199        902074661.91641068     
  -2975611318.5333385        235479629.07708406        944720874.28511131     
  -2981924991.2579103        144839626.38298297        987843160.71353173     
  -2982086536.0550094        74706716.780460238        1031441521.2016659     
  -2976095952.9246287        25080900.269523978        1075515955.7495122     
  -3446090794.9427671        121438418.85413122        904803007.77621257     
  -3411945469.3223972        120863541.72131157        907686517.55372429     
  -3381773894.3831320        107042828.98481321        920431999.94579232     
  -3355576070.1249676        79976280.644644022        943039454.95242298     
  -3333351996.5479083        39663896.700789213        975508882.57361352     
  -4059682848.9442544       -142943920.23651886        950587685.68505621     
  -3952109544.0376182       -24901522.812316895        901894967.82802582     
  -3858635868.4206686        46142110.312948227        872450121.14040828     
  -3779261822.0933995        70186979.139273882        862253145.62219179     
  -3713987405.0558071        47233083.666670799        871304041.27338326     
  -4803921679.8857384       -446520292.40916443        1039428695.6429248     
  -4596103542.6790028       -201815564.52379465        927346225.10802269     
  -4412510913.3705215       -37862529.632616520        843897524.29737031     
  -4253143791.9602990        45338812.264374495        789082593.21097231     
  -4118002178.4483385        47788461.167155743        762901431.84882295     
  -2642219274.1859808        3484094.3728723526        1171325260.8010819     
  -2539497328.7240348        3005283.6079002619        1156507337.1120799     
  -2436852742.0094147        2268610.3518362045        1146315280.5731137     
  -2334285514.0421162        1274074.6047016382        1140749091.1841843     
  -2231795644.8221407        21676.366489171982        1139808768.9452894     
  -2976095952.9246287        25080900.269523978        1075515955.7495122     
  -2860766258.5783010        17986140.730745792        1053610080.4061586     
  -2745173753.5172243        11767416.907788873        1038303363.6947107     
  -2629318437.7413998        6424728.8006516695        1029595805.6151681     
  -2513200311.2508268        1958076.4093517065        1027487406.1675361     
  -3333351996.5479083        39663896.700789213        975508882.57361352     
  -3199776577.6547055        27644581.086953998        946911919.94832206     
  -3065598178.5846844        17635199.395839930        926887407.43680751     
  -2930816799.3378429        9635751.6274572611        915435345.03907180     
  -2795432439.9141860        3646237.7818053961        912555732.75511229     
  -3713987405.0558071        47233083.666670799        871304041.27338326     
  -3556528285.9532433        31980604.676525116        836412855.73857021     
  -3398126017.2117920        19871957.815997839        812067411.79940975     
  -3238780598.8314466        10907143.085121632        798267709.45589185     
  -3078492030.8122153        5086160.4838681221        795013748.70802689     
  -4118002178.4483385        47788461.167155743        762901431.84882295     
  -3931021383.4739232        30994211.499446869        722112887.77690434     
  -3742757269.3985467        18477692.168268681        693843376.78250921     
  -3553209836.2222123        10238903.173622847        678092898.86562812     
  -3362379083.9449162        6277844.5155160427        674861454.02627313     
  -2231795644.8221407        21676.366489171982        1139808768.9452894     
  -2138162915.7736363       -4391535.8507597446        1131676351.6551654     
  -2044784919.3586309       -9653856.8463431597        1127901714.2679696     
  -1951661655.5771341       -15765286.620289445        1128484856.7837007     
  -1858793124.4291370       -22725825.172562838        1133425779.2023649     
  -2513200311.2508268        1958076.4093517065        1027487406.1675361     
  -2409277531.8249483       -5354942.4203795195        1019010400.7682129     
  -2305082021.7857003       -11758859.205536842        1014760224.9745160     
  -2200613781.1330676       -17253673.946087003        1014736878.7864373     
  -2095872809.8670657       -21839386.642075539        1018940362.2039845     
  -2795432439.9141860        3646237.7818053961        912555732.75511229     
  -2681593753.8175225       -6678830.7723869085        904349513.03462017     
  -2566954873.8606110       -14336586.459065318        900239172.62244380     
  -2451515800.0434432       -19327029.278233767        900224711.51858449     
  -2335276532.3660269       -21650159.229894876        904306129.72303915     
  -3078492030.8122153        5086160.4838681221        795013748.70802689     
  -2955111581.7513623       -8363200.9067676067        787693688.45438898     
  -2830403475.5833797       -17387038.606961727        784338557.21175778     
  -2704367712.3082647       -21985352.616712809        784948354.98013949     
  -2577004291.9260168       -22158142.936030865        789523081.75953245     
  -3362379083.9449162        6277844.5155160427        674861454.02627313     
  -3229831015.6264629       -10408052.823533297        669042927.02751374     
  -3095427826.9539962       -20910215.649212360        667058378.74246013     
  -2959169517.9275160       -25228643.961518288        668907809.17110634     
  -2821056088.5470324       -23363337.760461450        674591218.31346095     
  -1858793124.4291370       -22725825.172562838        1133425779.2023649     
  -1761153364.1969845       -28496172.713534713        1128600750.5535195     
  -1663417889.6042624       -33947472.385947645        1127852857.3460126     
  -1565586700.6509705       -39079724.189789474        1131182099.5798485     
  -1467659797.3370984       -43892928.125036478        1138588477.2550280     
  -2095872809.8670657       -21839386.642075539        1018940362.2039845     
  -1987365760.7919221       -24977801.071665525        1013119673.2897971     
  -1878922118.2046762       -28327570.460925579        1010973932.7108654     
  -1770541882.1053240       -31888694.809831858        1012503140.4671900     
  -1662225052.4938750       -35661174.118412197        1017707296.5587717     
  -2335276532.3660269       -21650159.229894876        904306129.72303915     
  -2217051300.4652724       -22501372.353320122        897304139.55362678     
  -2099048595.9008892       -24094343.264644265        893574910.61338818     
  -1981268418.6728721       -26429071.963852763        893118442.90232277     
  -1863710768.7812254       -29505558.450963497        895934736.42042434     
  -2577004291.9260168       -22158142.936030865        789523081.75953245     
  -2450209983.2170386       -21066886.558502913        781154149.34501314     
  -2323797322.6929026       -21247790.797105789        775655791.05358255     
  -2197766310.3535967       -22700855.651829720        773028006.88523889     
  -2072116946.1991415       -25426081.122692704        773270796.83998525     
  -2821056088.5470324       -23363337.760461450        674591218.31346095     
  -2686841809.0472164       -20674343.687192321        664669702.66395497     
  -2553168298.5807109       -19787913.058297634        657216574.03145075     
  -2420035557.1475096       -20704045.873743057        652231832.41594887     
  -2287443584.7476211       -23422742.133571029        649715477.81745255     
  -1467659797.3370984       -43892928.125036478        1138588477.2550280     
  -1360684748.1572783       -46116981.421453655        1130791688.8894031     
  -1253888024.1870244       -48935452.083097160        1126814774.3107922     
  -1147269625.4263232       -52348340.109916389        1126657733.5192044     
  -1040829551.8751895       -56355645.501955688        1130320566.5146267     
  -1662225052.4938750       -35661174.118412197        1017707296.5587717     
  -1544967381.6223106       -37078112.871307731        1007337504.5918956     
  -1427861718.6512239       -39001744.625789344        1000871290.6292990     
  -1310908063.5805957       -41432069.381803155        998308654.67098308     
  -1194106416.4104378       -44369087.139384210        999649596.71694791     
  -1863710768.7812254       -29505558.450963497        895934736.42042434     
  -1735931321.3114460       -30043636.188386083        883022644.37956715     
  -1608277564.4330459       -31000682.563735068        874097834.56025720     
  -1480749498.1460209       -32376697.577012539        869160306.96248925     
  -1353347122.4503806       -34171681.228221178        868210061.58626640     
  -2072116946.1991415       -25426081.122692704        773270796.83998525     
  -1933576567.2246804       -25013551.372694135        757847108.25242138     
  -1795135561.5325031       -24932265.896974802        746494406.10366440     
  -1656793929.1226192       -25182224.695565343        739212690.39371276     
  -1518551669.9950278       -25763427.768466055        736001961.12257278     
  -2287443584.7476211       -23422742.133571029        649715477.81745255     
  -2137903119.3620193       -21987858.424233437        631810896.21044958     
  -1988435709.9496028       -20796494.625531912        618061005.25952280     
  -1839041356.5103905       -19848650.737506390        608465804.96466517     
  -1689720059.0443752       -19144326.760127723        603025295.32587719     
  -1040829551.8751895       -56355645.501955688        1130320566.5146267     
  -923762506.09839845       -54152711.066918135        1126866503.6896727     
  -804524509.95204067       -44713275.399986744        1129496253.8206580     
  -683115563.43611014       -28037338.501149267        1138209816.9075806     
  -559535666.55059958       -4124900.3703779876        1153007192.9504511     
  -1194106416.4104378       -44369087.139384210        999649596.71694791     
  -1063372356.0476438       -41230348.299597144        995257245.36340892     
  -931236156.37365997       -33417811.755859077        995078214.33437383     
  -797697817.38849497       -20931477.508179307        999112503.62984478     
  -662757339.09214270       -3771345.5565359294        1007360113.2498223     
  -1353347122.4503806       -34171681.228221178        868210061.58626640     
  -1214290312.1628146       -31700417.382033765        861982475.46935070     
  -1074600173.6224546       -27118059.359871566        858097717.04550791     
  -934276706.82930017       -20424607.161722362        856555786.31473660     
  -793319911.78334570       -11620060.787578553        857356683.27703738     
  -1518551669.9950278       -25763427.768466055        736001961.12257278     
  -1376516374.4439373       -25562918.314269304        727042194.00750089     
  -1234616561.6984339       -25814018.212045550        718554761.95406461     
  -1092852231.7585273       -26516727.461805165        710539664.96226811     
  -951223384.62420356       -27671046.063514233        702996903.03210247     
  -1689720059.0443752       -19144326.760127723        603025295.32587719     
  -1550050542.8909941       -22817851.096281648        590436400.97785878     
  -1411285320.6015935       -29505688.312372029        576449349.06004131     
  -1273424392.1761775       -39207838.408407867        561064139.57242429     
  -1136467757.6147366       -51924301.384365857        544280772.51501477     
  -559535666.55059958       -4124900.3703779876        1153007192.9504511     
  -462772819.53170407        33319393.621841669        1162308138.5139105     
  -353954348.71436322        110949100.27554597        1179145931.0417538     
  -233080254.09860069        228764219.59065574        1203520570.5339777     
  -100150535.68441886        386764751.56716323        1235432056.9905870     
  -662757339.09214270       -3771345.5565359294        1007360113.2498223     
  -547562870.63447475        26143128.662123442        1020911241.9484881     
  -421455280.90428090        92434673.789204180        1042841344.7372686     
  -284434569.90155041        195103289.82473487        1073150421.6161577     
  -136500737.62630352        334148976.76866329        1111838472.5851574     
  -793319911.78334570       -11620060.787578553        857356683.27703738     
  -657287744.38483334        11486416.908118814        873825075.49736357     
  -511484958.23968989        67161623.759242505        899514568.93352473     
  -355911553.34791428        155405559.76580334        934425163.58552909     
  -190567529.70952529        276218224.92775887        978556859.45336556     
  -951223384.62420356       -27671046.063514233        702996903.03210247     
  -791947440.78276896       -10650741.640167147        721049639.16053724     
  -624043380.72059691        35129950.185637623        749165603.63053322     
  -447511204.43770933        109671029.41382232        787344796.44209480     
  -262350911.93408537        212972496.04446131        835587217.59522724     
  -1136467757.6147366       -51924301.384365857        544280772.51501477     
  -951541959.82828772       -40268346.982704818        562584932.93799627     
  -759130548.34701347       -3660346.9316484332        591794448.82828116     
  -559233523.17090893        57899698.768859506        631909320.18585408     
  -351850884.29998678        144411790.11874804        682929547.01073289     
  -100150535.68441886        386764751.56716323        1235432056.9905870     
  -85293261.015448838        546693462.64809859        1196800016.4190118     
  -57865294.390202075        748524480.24995637        1154824660.2602465     
  -17866635.808673859        992257804.37275517        1109505988.5143018     
   34702714.729133725        1277893435.0164797        1060844001.1811757     
  -136500737.62630352        334148976.76866329        1111838472.5851574     
  -127378565.99854988        483179899.38394260        1090224690.8850508     
  -95128592.215442657        709303495.85039639        1070057481.3094200     
  -39750816.277015388        1012519766.1679282        1051336843.8582586     
   38754761.816772282        1392828710.3366430        1034062778.5315884     
  -190567529.70952529        276218224.92775887        978556859.45336556     
  -173495067.66108590        418456977.11599612        986277965.19030857     
  -122737693.25826263        672978770.48554182        1000235530.7633880     
  -38295406.501030505        1039783605.0364256        1020429556.1725864     
   79831792.610597253        1518871480.7686491        1046860041.4179407     
  -262350911.93408537        212972496.04446131        835587217.59522724     
  -223642766.00309598        352524695.84418082        884959839.33477986     
  -140692597.51865312        639550304.15540648        945358808.62213838     
  -13500406.480739772        1074049320.9782147        1016784125.4572735     
   157933807.11062860        1656021746.3125169        1099235789.8402174     
  -351850884.29998678        144411790.11874804        682929547.01073289     
  -277821661.02455080        285383055.56853199        786270313.31846952     
  -148993304.99660286        609018096.86003339        905427314.88566589     
   34634183.783869684        1115316913.9932837        1040400551.7123120     
   273060805.31686312        1804279506.9682591        1191190023.7984333     
  -4803921679.8857384       -446520292.40916443        1039428695.6429248     
  -4596103542.6790028       -201815564.52379465        927346225.10802269     
  -4412510913.3705215       -37862529.632616520        843897524.29737031     
  -4253143791.9602990        45338812.264374495        789082593.21097231     
  -4118002178.4483385        47788461.167155743        762901431.84882295     
  -5388404851.5361986       -764023866.57950151        453635614.33928168     
  -5114981576.3985977       -406307557.17218661        463643288.20237875     
  -4874415668.2325077       -158115804.33660460        469403087.32144672     
  -4666707127.0379362       -19448608.072742701        470915011.69647986     
  -4491855952.8148861        9694031.6193892956        468179061.32748514     
  -5481947136.5976048       -934245174.77312279       -91226046.552643806     
  -5236866279.1527872       -491701550.53096294        30801269.456315018     
  -5033274647.7527466       -187455346.43806291        115699066.25296068     
  -4871172242.3974876       -21506562.494421721        163467343.83729142     
  -4750559063.0870085        6144801.2999505997        174106102.20931575     
  -5084548535.0699139       -957184216.99001634       -595156287.03285241     
  -4961757650.9415550       -457997544.60011005       -371179831.13016856     
  -4889087851.9312353       -125881155.93699694       -217214538.90808019     
  -4866539138.0389519        39164948.999314070       -133260410.36658341     
  -4894111509.2647095        37140770.208838940       -119317445.50568403     
  -4196209046.9531622       -832840993.23018813       -1058155107.1013508     
  -4289655691.7649226       -305195539.37963676       -742300013.55708027     
  -4441855280.7679729        26606767.166590691       -529337728.16167945     
  -4652807813.9623327        162565926.40847564       -419268250.91516644     
  -4922513291.3479872        102681938.34604716       -412091581.81751668     
  -4118002178.4483385        47788461.167155743        762901431.84882295     
  -3931021383.4739232        30994211.499446869        722112887.77690434     
  -3742757269.3985467        18477692.168268681        693843376.78250921     
  -3553209836.2222123        10238903.173622847        678092898.86562812     
  -3362379083.9449162        6277844.5155160427        674861454.02627313     
  -4491855952.8148861        9694031.6193892956        468179061.32748514     
  -4281641835.3204336        1576084.6873912811        464613063.77918518     
  -4070132638.5064764       -2224931.1795718670        464397595.99899733     
  -3857328362.3730121       -1709015.9815170765        467532657.98691577     
  -3643229006.9200363        3123830.2815678120        474018249.74295020     
  -4750559063.0870085        6144801.2999505997        174106102.20931575     
  -4543307346.8136959       -1155560.0186910629        207776371.43960503     
  -4334748791.0023212       -4099789.5437970161        235628667.12859565     
  -4124883395.6528959       -2687887.2753884792        257662989.27629146     
  -3913711160.7654109        3080146.7865400314        273879337.88268650     
  -4894111509.2647095        37140770.208838940       -119317445.50568403     
  -4716017917.9536953        22799277.381209373       -48397189.241833471     
  -4536605726.8860817        12853117.075601578        7536590.1713122223     
  -4355874936.0618610        7302289.2920024395        48483892.733744442     
  -4173825545.4810319        6146794.0304400921        74444718.445482120     
  -4922513291.3479872        102681938.34604716       -412091581.81751668     
  -4799773548.7404404        73440596.887085915       -303907618.26513124     
  -4675703446.1577454        48633788.678642750       -219878634.87285551     
  -4550302983.5998964        28261513.720698833       -160004631.64070004     
  -4423572161.0668964        12323772.013260126       -124285608.56866218     
  -3362379083.9449162        6277844.5155160427        674861454.02627313     
  -3229831015.6264629       -10408052.823533297        669042927.02751374     
  -3095427826.9539962       -20910215.649212360        667058378.74246013     
  -2959169517.9275160       -25228643.961518288        668907809.17110634     
  -2821056088.5470324       -23363337.760461450        674591218.31346095     
  -3643229006.9200363        3123830.2815678120        474018249.74295020     
  -3499697279.1863198       -9153359.8816678524        473598576.58012301     
  -3354783541.6142201       -16823850.583628893        476776499.52090853     
  -3208487794.2037506       -19887641.824353933        483552018.56531471     
  -3060810036.9548974       -18344733.603804469        493925133.71333933     
  -3913711160.7654109        3080146.7865400314        273879337.88268650     
  -3759871152.5023875       -4990949.8666570187        278306556.28754741     
  -3605122244.9166222       -10032382.110712528        286094988.18594140     
  -3449464438.0081134       -12044149.945631266        297244633.57786661     
  -3292897731.7768641       -11026253.371391296        311755492.46332622     
  -4173825545.4810319        6146794.0304400921        74444718.445482120     
  -4010352635.5746636        2079177.2214853764        83166866.149796769     
  -3846443936.8611922       -535810.23045277596        95013844.737550408     
  -3682099449.3406029       -1698168.3253350258        109985654.20875038     
  -3517319173.0129061       -1407897.0631909370        128082294.56340335     
  -4423572161.0668964        12323772.013260126       -124285608.56866218     
  -4251141728.4031520        12057021.382761002       -111820493.83313942     
  -4078748617.4479198        11665865.057197809       -96466930.824258015     
  -3906392828.2012224        11150303.036519766       -78224919.542022467     
  -3734074360.6630511        10510335.320771933       -57094459.986419305     
  -2821056088.5470324       -23363337.760461450        674591218.31346095     
  -2686841809.0472164       -20674343.687192321        664669702.66395497     
  -2553168298.5807109       -19787913.058297634        657216574.03145075     
  -2420035557.1475096       -20704045.873743057        652231832.41594887     
  -2287443584.7476211       -23422742.133571029        649715477.81745255     
  -3060810036.9548974       -18344733.603804469        493925133.71333933     
  -2919226880.0233245       -17066952.605744720        486695065.80381155     
  -2777995016.7503214       -16960150.469590545        482990642.68829703     
  -2637114447.1358848       -18024327.195329070        482811864.36679864     
  -2496585171.1800280       -20259482.782983541        486158730.83931148     
  -3292897731.7768641       -11026253.371391296        311755492.46332622     
  -3140924960.9077692       -10253464.496779680        307437926.89763135     
  -2989114008.3225217       -10020069.901647806        307703263.90296060     
  -2837464874.0211062       -10326069.585949063        312551503.47931856     
  -2685977558.0035315       -11171463.549731851        321982645.62670350     
  -3517319173.0129061       -1407897.0631909370        128082294.56340335     
  -3351936051.7005625       -233879.36033177376        126898285.94540447     
  -3186525273.2973285        1032328.6454931498        131354437.67544483     
  -3021086837.8031893        2390726.9543458223        141450749.75352103     
  -2855620745.2181492        3841315.5661820173        157187222.17962861     
  -3734074360.6630511        10510335.320771933       -57094459.986419305     
  -3552260152.4017038        12991802.803605318       -54923857.052856773     
  -3370228811.6747279        16197045.171876192       -46055835.994258620     
  -3187980338.4821072        20126062.425622106       -30490396.810609002     
  -3005514732.8238611        24778854.564794660       -8227539.5019055102     
  -2287443584.7476211       -23422742.133571029        649715477.81745255     
  -2137903119.3620193       -21987858.424233437        631810896.21044958     
  -1988435709.9496028       -20796494.625531912        618061005.25952280     
  -1839041356.5103905       -19848650.737506390        608465804.96466517     
  -1689720059.0443752       -19144326.760127723        603025295.32587719     
  -2496585171.1800280       -20259482.782983541        486158730.83931148     
  -2338186910.5206523       -17914363.703169703        474175639.10929257     
  -2179951919.3303590       -16113476.186940312        464641491.07907039     
  -2021880197.6091268       -14856820.234246612        457556286.74863595     
  -1863971745.3569717       -14144395.845158696        452920026.11799818     
  -2685977558.0035315       -11171463.549731851        321982645.62670350     
  -2523595064.8026352       -9378177.9191540480        315815794.69515592     
  -2361466054.5666728       -8429835.5050237179        310392140.50712138     
  -2199590527.2956514       -8326436.3073604107        305711683.06259704     
  -2037968482.9895773       -9067980.3261923790        301774422.36159414     
  -2855620745.2181492        3841315.5661820173        157187222.17962861     
  -2694127582.2079434        3620698.9278856516        156731362.96803582     
  -2532978115.6585417        2254427.4202302694        155312953.54367507     
  -2372172345.5699520       -257498.95678830147        152931993.90654659     
  -2211710271.9421830       -3915080.2032194138        149588484.05665553     
  -3005514732.8238611        24778854.564794660       -8227539.5019055102     
  -2849784462.7365694        21082266.837943316       -3077656.0720668067     
  -2694488102.6059589        15939312.588832974       -596069.81126972905     
  -2539625652.4320250        9349991.8174619675       -782780.71952100261     
  -2385197112.2147970        1314304.5237379074       -3637788.7968132612     
  -1689720059.0443752       -19144326.760127723        603025295.32587719     
  -1550050542.8909941       -22817851.096281648        590436400.97785878     
  -1411285320.6015935       -29505688.312372029        576449349.06004131     
  -1273424392.1761775       -39207838.408407867        561064139.57242429     
  -1136467757.6147366       -51924301.384365857        544280772.51501477     
  -1863971745.3569717       -14144395.845158696        452920026.11799818     
  -1727522989.8554811       -19912472.953944206        440372800.49632859     
  -1590939047.8339577       -25229928.329283893        427229582.58284044     
  -1454219919.2923961       -30096761.971176028        413490372.37753332     
  -1317365604.2308056       -34512973.879627764        399155169.88040310     
  -2037968482.9895773       -9067980.3261923790        301774422.36159414     
  -1902448587.3457589       -16243039.969368815        290481592.58096111     
  -1765754024.7978897       -19502543.265700459        279394935.78648764     
  -1627884795.3459604       -18846490.215168178        268514451.97817492     
  -1488840898.9899788       -14274880.817797661        257840141.15601978     
  -2211710271.9421830       -3915080.2032194138        149588484.05665553     
  -2074827335.3618178       -11809552.142525315        140762777.23175234     
  -1935730251.4933858       -12323533.121578932        132945408.67098665     
  -1794419020.3368697       -5457023.1403737068        126136378.37435831     
  -1650893641.8922813        8789977.8010818958        120335686.34186240     
  -2385197112.2147970        1314304.5237379074       -3637788.7968132612     
  -2244659233.9036603       -6612009.4733903408       -8783645.5512934327     
  -2100867727.9204273       -3692897.8968845606       -12118998.763674820     
  -1953822594.2651029        10071639.253264308       -13643848.433922037     
  -1803523832.9377022        34681601.977012873       -13358194.562070794     
  -1136467757.6147366       -51924301.384365857        544280772.51501477     
  -951541959.82828772       -40268346.982704818        562584932.93799627     
  -759130548.34701347       -3660346.9316484332        591794448.82828116     
  -559233523.17090893        57899698.768859506        631909320.18585408     
  -351850884.29998678        144411790.11874804        682929547.01073289     
  -1317365604.2308056       -34512973.879627764        399155169.88040310     
  -1117677994.3441212       -14427227.580757022        421018403.43700767     
  -914398997.50949013        17629808.544606686        441386185.01175231     
  -707528613.72692239        61658134.496421486        460258514.60463989     
  -497066842.99640381        117657750.27474448        477635392.21566951     
  -1488840898.9899788       -14274880.817797661        257840141.15601978     
  -1309822355.4292169        3611393.8504405618        278719183.30820805     
  -1131106651.6673946        20488202.522214353        285701966.02938658     
  -952693787.70450890        36355545.197538435        278788489.31954455     
  -774583763.54055643        51213421.876406938        257978753.17870334     
  -1650893641.8922813        8789977.8010818958        120335686.34186240     
  -1527975043.0835958        13847517.310832381        135687272.55161107     
  -1409253510.8207355        4914835.0011773109        124741791.88118625     
  -1294729045.1036797       -18008069.127840042        87499244.330605567     
  -1184401645.9324582       -54921195.076288700        23959629.899855457     
  -1803523832.9377022        34681601.977012873       -13358194.562070794     
  -1772136057.3072248        16281142.800502419       -8077328.8327946784     
  -1748839574.9694834       -29090294.018438458       -41494337.432837695     
  -1733634385.9244215       -101432708.47965741       -113609220.36221425     
  -1726520490.1720705       -200746100.58324432       -224421977.62089905     
  -351850884.29998678        144411790.11874804        682929547.01073289     
  -277821661.02455080        285383055.56853199        786270313.31846952     
  -148993304.99660286        609018096.86003339        905427314.88566589     
   34634183.783869684        1115316913.9932837        1040400551.7123120     
   273060805.31686312        1804279506.9682591        1191190023.7984333     
  -497066842.99640381        117657750.27474448        477635392.21566951     
  -388237773.35196233        223153655.67086583        596967523.33481729     
  -230262002.78053769        492471897.49024212        735439153.33690524     
  -23139531.282121718        925612475.73292589        893050282.22193527     
   233129641.14324784        1522575390.3988492        1069800909.9898863     
  -774583763.54055643        51213421.876406938        257978753.17870334     
  -621459808.60287011        124082478.89614415        386707745.31279933     
  -424841584.56372869        341932432.92069912        537899499.95331895     
  -184729091.42314264        704763283.95006907        711554017.10024834     
   98877670.818859935        1212575031.9841943        907671296.75360334     
  -1184401645.9324582       -54921195.076288700        23959629.899855457     
  -977487766.77726102       -11830474.755585790        155490979.25242510     
  -732732050.34616935        157399703.15141526        312808354.73488981     
  -450134496.63920009        452769338.64469624        495911756.34726804     
  -129695105.65632635        874278431.72429967        704801184.08953416     
  -1726520490.1720705       -200746100.58324432       -224421977.62089905     
  -1456321647.8751700       -184585205.28442448       -96682774.846317515     
  -1153933400.1279035       -61126291.817729950        60165717.681638531     
  -819355746.93026996        169630639.81683809        246123499.96298352     
  -452588688.28231859        507685589.61917663        461190571.99771267     
 </DataArray>
 <DataArray  type="Float64" Name="VM" NumberOfComponents="1" format="ascii">
   4259362832.4555459     
   4330890362.1244268     
   4541945165.6448164     
   4790211986.2588463     
   5028871649.2100992     
   4801447519.6142864     
   4796549256.9645891     
   4843153097.2435560     
   4891147055.3062305     
   4914961254.3379059     
   5096480900.0946856     
   5019859423.9484310     
   4951453284.6630211     
   4868547446.5610132     
   4758294561.6327562     
   5131577301.8546076     
   5005935095.0124311     
   4874899866.6652756     
   4729566974.7205524     
   4564814650.7719545     
   4977289679.7244406     
   4806017179.1952343     
   4647613260.9782171     
   4495751329.8246059     
   4347122542.3318863     
   5028871649.2100992     
   4867911744.8631964     
   4716846674.6948404     
   4572758520.0178146     
   4433407640.3621349     
   4914961254.3379059     
   4726047533.8761969     
   4540989925.1339483     
   4358483239.6000013     
   4177447312.9887328     
   4758294561.6327562     
   4552614305.6499777     
   4348345380.7150841     
   4145176197.2765169     
   3942818653.1813064     
   4564814650.7719545     
   4353558693.8661537     
   4144820420.1946239     
   3938788557.2077880     
   3735734013.9733410     
   4347122542.3318863     
   4139574244.7849078     
   3939585934.7345319     
   3747331610.0299835     
   3563362570.0032320     
   4433407640.3621349     
   4260707576.1195736     
   4087746324.6346741     
   3914601956.0866103     
   3741387889.6855397     
   4177447312.9887328     
   4013132796.3027377     
   3849403835.8561249     
   3686392582.0849905     
   3524281414.0322552     
   3942818653.1813064     
   3787579349.1467633     
   3633913732.9674745     
   3482007963.3021054     
   3332115672.5599561     
   3735734013.9733410     
   3590019984.0759673     
   3447000882.4216018     
   3306907559.7851906     
   3170055340.2821760     
   3563362570.0032320     
   3427265275.6606245     
   3295089425.2464461     
   3167088889.6027513     
   3043615850.0672174     
   3741387889.6855397     
   3560578354.5102110     
   3379635247.3254218     
   3198679296.0702829     
   3017995436.8368726     
   3524281414.0322552     
   3359501815.0401907     
   3195454711.8591690     
   3032329707.2312536     
   2870458993.5701237     
   3332115672.5599561     
   3181171346.7557006     
   3031617211.1076365     
   2883689702.7649374     
   2737743094.2341475     
   3170055340.2821760     
   3030857549.2728620     
   2893446237.0768614     
   2758081938.3404837     
   2625118146.1596336     
   3043615850.0672174     
   2914298411.5367713     
   2786861781.3625388     
   2661568273.2761474     
   2538751250.5218410     
   3017995436.8368726     
   2860377423.9027553     
   2702471793.6423178     
   2544265344.4948115     
   2385770632.9516163     
   2870458993.5701237     
   2709508064.9930816     
   2548237694.7615585     
   2386636774.3078237     
   2224695999.0021806     
   2737743094.2341475     
   2577494190.4179564     
   2417604977.9708290     
   2258168638.9583559     
   2099309522.5640349     
   2625118146.1596336     
   2469638147.7026467     
   2315997426.2152133     
   2164506950.7788386     
   2015592279.8338907     
   2538751250.5218410     
   2391782868.0396023     
   2248929440.8532319     
   2110781743.2188284     
   1978144187.6440184     
   2385770632.9516163     
   2241288056.9149742     
   2098981459.2339582     
   1958857952.4374573     
   1821089926.2559021     
   2224695999.0021806     
   2083085124.6759291     
   1943134721.7729213     
   1804843583.3200855     
   1668288511.8548853     
   2099309522.5640349     
   1959863393.2977016     
   1821403028.5189447     
   1683949790.4459462     
   1547554303.7114804     
   2015592279.8338907     
   1879215626.3515477     
   1743206694.6542830     
   1607678512.0773878     
   1472787789.3443584     
   1978144187.6440184     
   1847444326.8100817     
   1716838690.7869756     
   1586656476.6356647     
   1457372001.7345290     
   1821089926.2559021     
   1780271692.3726683     
   1735898310.4781101     
   1696634626.9486558     
   1680995859.9928675     
   1668288511.8548853     
   1552770970.6796355     
   1428115353.7847917     
   1294697483.7524927     
   1158652638.1865866     
   1547554303.7114804     
   1397618510.7324989     
   1244106387.3162651     
   1084754847.4560468     
   917538806.97455156     
   1472787789.3443584     
   1328527330.4617817     
   1198723544.8299794     
   1087865108.1455567     
   1001862738.1422801     
   1457372001.7345290     
   1348387868.6127391     
   1274381932.1342216     
   1243487448.5162823     
   1262739198.3595488     
   1680995859.9928675     
   1383547142.8807764     
   1129433659.4039507     
   1010359517.8705680     
   1153468400.6696682     
   1158652638.1865866     
   1008248968.9327899     
   985151973.92495584     
   1161552105.9847243     
   1544297871.8595362     
   917538806.97455156     
   962966083.69218957     
   1144834880.8507259     
   1476454478.9466319     
   1957510878.3220632     
   1001862738.1422801     
   1164564602.0397348     
   1425313100.4164124     
   1808676915.7495961     
   2334750967.8530321     
   1262739198.3595488     
   1446543074.6052537     
   1715573716.2315292     
   2110402682.6384223     
   2663479734.1208625     
   4977289679.7244406     
   4806017179.1952343     
   4647613260.9782171     
   4495751329.8246059     
   4347122542.3318863     
   4358389150.5124483     
   4268027264.4394884     
   4184873722.3935905     
   4107084733.2610116     
   4034418281.6446848     
   3870452545.7132277     
   3835386251.1985106     
   3805096451.1307454     
   3779944065.2818408     
   3760673687.7087870     
   3513354568.9721193     
   3509900705.5133767     
   3511335511.7470870     
   3517322509.6621528     
   3527571914.9896379     
   3285772926.9956765     
   3292498481.8620696     
   3305659857.1571879     
   3321225746.9334688     
   3336232665.9636712     
   4347122542.3318863     
   4139574244.7849078     
   3939585934.7345319     
   3747331610.0299835     
   3563362570.0032320     
   4034418281.6446848     
   3858140152.9809752     
   3689375081.1899219     
   3528426493.7825255     
   3375890734.7326055     
   3760673687.7087870     
   3612908753.1584458     
   3472290928.2793674     
   3339204053.3955641     
   3214242746.8060522     
   3527571914.9896379     
   3405947671.9465370     
   3290753185.5898952     
   3182395927.2767339     
   3081421538.5814400     
   3336232665.9636712     
   3238802761.1087265     
   3146729100.0697103     
   3060380638.6393132     
   2980208307.3605590     
   3563362570.0032320     
   3427265275.6606245     
   3295089425.2464461     
   3167088889.6027513     
   3043615850.0672174     
   3375890734.7326055     
   3252147367.4046474     
   3132727364.2435265     
   3017959699.1326661     
   2908266850.5873117     
   3214242746.8060522     
   3103805746.7826853     
   2998204939.6975231     
   2897837163.7255297     
   2803186295.4613714     
   3081421538.5814400     
   2985274316.2359529     
   2894560742.5700479     
   2809726622.9305072     
   2731295340.4096107     
   2980208307.3605590     
   2899238228.8882489     
   2824338727.3904357     
   2755973925.7039127     
   2694673593.0395947     
   3043615850.0672174     
   2914298411.5367713     
   2786861781.3625388     
   2661568273.2761474     
   2538751250.5218410     
   2908266850.5873117     
   2790203071.0262189     
   2675287383.7193813     
   2563924655.2659984     
   2456610764.3314548     
   2803186295.4613714     
   2698438901.9134941     
   2598270511.6876140     
   2503206211.5094743     
   2413864958.5397429     
   2731295340.4096107     
   2641442651.2339706     
   2557634663.1137452     
   2480457212.6700525     
   2410571981.7684073     
   2694673593.0395947     
   2620552708.8759489     
   2553836615.8011374     
   2495093260.8926091     
   2444935269.1831222     
   2538751250.5218410     
   2391782868.0396023     
   2248929440.8532319     
   2110781743.2188284     
   1978144187.6440184     
   2456610764.3314548     
   2326646378.9819074     
   2202129688.7586608     
   2083845676.1381099     
   1972789294.5832593     
   2413864958.5397429     
   2302378388.4476719     
   2197599984.5160604     
   2100397800.3817647     
   2011799503.6369948     
   2410571981.7684073     
   2318313231.2041144     
   2233746176.9675469     
   2157693993.9171510     
   2091067491.9593594     
   2444935269.1831222     
   2371786296.1189780     
   2306912470.3769469     
   2250998596.3927932     
   2204754479.3112741     
   1978144187.6440184     
   1847444326.8100817     
   1716838690.7869756     
   1586656476.6356647     
   1457372001.7345290     
   1972789294.5832593     
   1856233624.6805332     
   1744083555.9075067     
   1637248901.5663705     
   1536844680.8296425     
   2011799503.6369948     
   1914617769.7414441     
   1826259277.4310060     
   1747929800.7959957     
   1680929238.7970710     
   2091067491.9593594     
   2014973388.5488570     
   1951337893.3210280     
   1901262972.4884865     
   1865801852.0163727     
   2204754479.3112741     
   2148468941.0026560     
   2107307404.7745655     
   2082070143.4383564     
   2073462442.8251066     
   1457372001.7345290     
   1348387868.6127391     
   1274381932.1342216     
   1243487448.5162823     
   1262739198.3595488     
   1536844680.8296425     
   1475992113.0579338     
   1447843950.7947168     
   1456365792.7658064     
   1504844837.0454683     
   1680929238.7970710     
   1652404250.4504366     
   1651617115.4888778     
   1680932044.3151751     
   1742954559.4746006     
   1865801852.0163727     
   1855180620.2790620     
   1867548581.6224442     
   1905109790.1461251     
   1970899639.6168008     
   2073462442.8251066     
   2069718029.9013004     
   2085226194.7358499     
   2122615567.0385823     
   2185711451.9170661     
   1262739198.3595488     
   1446543074.6052537     
   1715573716.2315292     
   2110402682.6384223     
   2663479734.1208625     
   1504844837.0454683     
   1613233391.6952064     
   1788823049.9277577     
   2066358817.4388437     
   2476051636.6968541     
   1742954559.4746006     
   1787737040.8488414     
   1884670613.0095685     
   2060657807.9957819     
   2340924945.0123463     
   1970899639.6168008     
   1969014644.2803035     
   2003681653.2075758     
   2093564738.7785904     
   2257311605.7541318     
   2185711451.9170661     
   2156352185.3155375     
   2146597764.1912503     
   2166957373.8139086     
   2228483318.6519017     
   3285772926.9956765     
   3292498481.8620696     
   3305659857.1571879     
   3321225746.9334688     
   3336232665.9636712     
   3174412074.1399879     
   3169851876.3377147     
   3167715827.0698686     
   3166642078.0332966     
   3165571319.8182168     
   3054165319.9263716     
   3043165610.0056624     
   3034753192.0079894     
   3028910430.2379665     
   3025623513.8616142     
   2929610831.7589998     
   2917436579.1219664     
   2911788284.8767467     
   2912786202.2781358     
   2920692066.4689178     
   2809955879.2831292     
   2800749071.6621151     
   2805628617.7458320     
   2823635599.8816009     
   2854524392.9677939     
   3336232665.9636712     
   3238802761.1087265     
   3146729100.0697103     
   3060380638.6393132     
   2980208307.3605590     
   3165571319.8182168     
   3082041114.2320752     
   3004689541.8804808     
   2933882938.7324691     
   2870053494.3125896     
   3025623513.8616142     
   2955551289.1028771     
   2892412375.3367572     
   2836539051.8443942     
   2788309985.8091440     
   2920692066.4689178     
   2863147927.3819704     
   2813177649.2025461     
   2771051699.2158642     
   2737068004.3778625     
   2854524392.9677939     
   2807996398.3739834     
   2769536377.0587611     
   2739336398.7909236     
   2717601266.1289120     
   2980208307.3605590     
   2899238228.8882489     
   2824338727.3904357     
   2755973925.7039127     
   2694673593.0395947     
   2870053494.3125896     
   2803246295.4464374     
   2743236319.7184944     
   2690448224.1096926     
   2645351956.4156036     
   2788309985.8091440     
   2735133574.4776645     
   2689370204.9294558     
   2651375194.7632446     
   2621529717.7369313     
   2737068004.3778625     
   2696454457.5866070     
   2663736917.1760159     
   2639183071.7325363     
   2623071744.0476713     
   2717601266.1289120     
   2687927519.3096113     
   2666504879.6041641     
   2653510576.0198483     
   2649124512.0759668     
   2694673593.0395947     
   2620552708.8759489     
   2553836615.8011374     
   2495093260.8926091     
   2444935269.1831222     
   2645351956.4156036     
   2585928491.4355488     
   2534444406.5468793     
   2491391445.2960539     
   2457281091.5617232     
   2621529717.7369313     
   2576254994.2175212     
   2539305216.2456050     
   2511073449.2703323     
   2491954785.2780819     
   2623071744.0476713     
   2590937628.7130637     
   2567375357.5420513     
   2552673960.0607743     
   2547115823.1252537     
   2649124512.0759668     
   2628718982.2808275     
   2617031667.9776926     
   2614257058.7593918     
   2620582070.0901084     
   2444935269.1831222     
   2371786296.1189780     
   2306912470.3769469     
   2250998596.3927932     
   2204754479.3112741     
   2457281091.5617232     
   2399784537.7459221     
   2351522008.3353620     
   2313046374.4998264     
   2284897467.0039873     
   2491954785.2780819     
   2448929083.7665920     
   2415822118.9428229     
   2393032795.5070114     
   2380928184.8434491     
   2547115823.1252537     
   2516769672.9660954     
   2496822286.3376784     
   2487527933.7500682     
   2489107497.4688849     
   2620582070.0901084     
   2600696660.4302120     
   2591581998.6272640     
   2593374994.3775086     
   2606188480.6938133     
   2204754479.3112741     
   2148468941.0026560     
   2107307404.7745655     
   2082070143.4383564     
   2073462442.8251066     
   2284897467.0039873     
   2243941346.4243464     
   2217027671.3005090     
   2204621857.7576866     
   2207122367.1294885     
   2380928184.8434491     
   2352238122.2800436     
   2336476972.0114803     
   2333900553.9909782     
   2344732425.9004178     
   2489107497.4688849     
   2469928344.4239440     
   2462653921.8900747     
   2467421518.6122828     
   2484365052.5348020     
   2606188480.6938133     
   2594149889.6327133     
   2593143395.4200039     
   2603247809.4792361     
   2624558628.5684090     
   2073462442.8251066     
   2069718029.9013004     
   2085226194.7358499     
   2122615567.0385823     
   2185711451.9170661     
   2207122367.1294885     
   2192454400.9190536     
   2192803325.4068184     
   2210138555.2873883     
   2247388640.9248180     
   2344732425.9004178     
   2319986333.5981340     
   2306808365.5031166     
   2306605294.5433221     
   2321469735.4439383     
   2484365052.5348020     
   2451340022.5202165     
   2426922455.3607645     
   2412058687.5254483     
   2408125753.6390285     
   2624558628.5684090     
   2585735204.3286805     
   2552861759.9525619     
   2526519444.8735266     
   2507514030.6863332     
   2185711451.9170661     
   2156352185.3155375     
   2146597764.1912503     
   2166957373.8139086     
   2228483318.6519017     
   2247388640.9248180     
   2182697548.8458524     
   2134450394.0484474     
   2112304506.0357063     
   2127180830.1304173     
   2321469735.4439383     
   2224773231.1929636     
   2141409032.8496928     
   2079737859.0052443     
   2049924286.8016894     
   2408125753.6390285     
   2282873100.2229509     
   2168120793.5672755     
   2070608666.1086066     
   1999104604.4452717     
   2507514030.6863332     
   2357206112.8879185     
   2215056201.7185636     
   2086048025.8302498     
   1977063395.3992906     
   2809955879.2831292     
   2800749071.6621151     
   2805628617.7458320     
   2823635599.8816009     
   2854524392.9677939     
   2567931474.4641204     
   2600909344.3338523     
   2643054722.3691349     
   2693714916.8877058     
   2752696534.5306625     
   2392712013.1112056     
   2461059386.2066689     
   2532969651.5125918     
   2608057984.2861056     
   2686196581.2751513     
   2281013616.0365000     
   2379140343.6019583     
   2474722199.8291707     
   2567581963.9690437     
   2657653230.0609303     
   2225332796.9113908     
   2349505499.8651190     
   2464750033.4244766     
   2571013120.5991364     
   2668267507.3229184     
   2854524392.9677939     
   2807996398.3739834     
   2769536377.0587611     
   2739336398.7909236     
   2717601266.1289120     
   2752696534.5306625     
   2715187045.2909565     
   2686281839.2407904     
   2666105519.8521280     
   2654788373.8119588     
   2686196581.2751513     
   2655698725.7973342     
   2634275008.7319827     
   2621986738.7073150     
   2618896943.7749004     
   2657653230.0609303     
   2631580480.4047351     
   2614994412.5392814     
   2607910960.5475149     
   2610346316.9235444     
   2668267507.3229184     
   2643597400.8205528     
   2628784306.6358633     
   2623828180.7604117     
   2628729056.4261885     
   2717601266.1289120     
   2687927519.3096113     
   2666504879.6041641     
   2653510576.0198483     
   2649124512.0759668     
   2654788373.8119588     
   2634465907.6940293     
   2622310092.8262668     
   2618422462.9370375     
   2622904053.8593817     
   2618896943.7749004     
   2605802482.7003207     
   2600738658.6051841     
   2603750426.7476721     
   2614881875.9477744     
   2610346316.9235444     
   2602146240.3589950     
   2601820082.4398746     
   2609378881.7432866     
   2624833424.3558865     
   2628729056.4261885     
   2623007634.8748612     
   2625008878.5982337     
   2634732738.5966520     
   2652179192.8714499     
   2649124512.0759668     
   2628718982.2808275     
   2617031667.9776926     
   2614257058.7593918     
   2620582070.0901084     
   2622904053.8593817     
   2611617747.8001752     
   2609119699.6134048     
   2615520886.8230157     
   2630925351.9768682     
   2614881875.9477744     
   2610552849.2845106     
   2615072188.2556281     
   2628489402.7483745     
   2650849960.4104648     
   2624833424.3558865     
   2625080751.2570477     
   2634268901.5995097     
   2652410282.5659537     
   2679516101.6377273     
   2652179192.8714499     
   2654500090.5809832     
   2665918944.2027426     
   2686435753.3432560     
   2716050517.2518625     
   2620582070.0901084     
   2600696660.4302120     
   2591581998.6272640     
   2593374994.3775086     
   2606188480.6938133     
   2630925351.9768682     
   2618175219.6553860     
   2615800756.0085988     
   2623872765.3746710     
   2642447831.3601146     
   2650849960.4104648     
   2643574829.4765592     
   2646381041.6406527     
   2659297530.1108589     
   2682346768.8095803     
   2679516101.6377273     
   2676079590.3243537     
   2682555245.4651089     
   2698949714.6232953     
   2725268028.9017692     
   2716050517.2518625     
   2714871419.2246237     
   2723575785.4554601     
   2742163614.9917231     
   2770634907.4014773     
   2606188480.6938133     
   2594149889.6327133     
   2593143395.4200039     
   2603247809.4792361     
   2624558628.5684090     
   2642447831.3601146     
   2632303603.8705201     
   2632322667.8513212     
   2642543801.7660241     
   2663016766.5096655     
   2682346768.8095803     
   2673790081.6183343     
   2674704671.6228199     
   2685105536.1796265     
   2705013120.8879633     
   2725268028.9017692     
   2718154688.4829535     
   2719977096.5545955     
   2730738488.0356908     
   2750443574.2937064     
   2770634907.4014773     
   2764968509.4546161     
   2767840814.2220273     
   2779251821.7442298     
   2799201532.0501127     
   2624558628.5684090     
   2585735204.3286805     
   2552861759.9525619     
   2526519444.8735266     
   2507514030.6863332     
   2663016766.5096655     
   2617364509.2363305     
   2577415040.8940558     
   2543498920.4486089     
   2516076897.6045995     
   2705013120.8879633     
   2654608348.0610623     
   2609802759.9908481     
   2570743553.1269550     
   2537636475.3202448     
   2750443574.2937064     
   2697370279.7700667     
   2649935453.0556517     
   2608175636.7295132     
   2572141914.3095598     
   2799201532.0501127     
   2745545377.5819011     
   2697709212.4512668     
   2655693036.6051016     
   2619496850.0119419     
   2507514030.6863332     
   2357206112.8879185     
   2215056201.7185636     
   2086048025.8302498     
   1977063395.3992906     
   2516076897.6045995     
   2348228342.1542220     
   2183929169.4180460     
   2026281313.9918618     
   1879853044.2300973     
   2537636475.3202448     
   2357341611.0929923     
   2176782594.5436645     
   1997431815.1126792     
   1821568712.1361086     
   2572141914.3095598     
   2384649554.2955828     
   2194083127.8418999     
   2000821037.4172587     
   1805467474.5663712     
   2619496850.0119419     
   2430121021.6287441     
   2235973147.6771412     
   2037053228.1634147     
   1833361263.0984542     
   2225332796.9113908     
   2349505499.8651190     
   2464750033.4244766     
   2571013120.5991364     
   2668267507.3229184     
   2267178723.0890307     
   2368547717.4261255     
   2467538757.2505484     
   2564075829.5898380     
   2658134591.7746787     
   2378267873.5939283     
   2449531962.1091633     
   2525103449.7922349     
   2604372126.0253415     
   2687086019.1319990     
   2565732002.8436823     
   2597757047.2923188     
   2640663599.1013947     
   2692883242.1890211     
   2753716119.4763179     
   2831219926.6496520     
   2814052842.3154674     
   2813969734.1512561     
   2828144799.7816596     
   2855226941.8211575     
   2668267507.3229184     
   2643597400.8205528     
   2628784306.6358633     
   2623828180.7604117     
   2628729056.4261885     
   2658134591.7746787     
   2631943763.2160258     
   2615154691.0159078     
   2607785414.7230301     
   2609854463.1189637     
   2687086019.1319990     
   2656444242.9589186     
   2634707392.5718136     
   2621939020.0063634     
   2618204871.1647449     
   2753716119.4763179     
   2716170147.4990187     
   2686977932.4173784     
   2666263559.4610696     
   2654157372.8538275     
   2855226941.8211575     
   2808928488.2338238     
   2770372648.6738076     
   2739745252.7669687     
   2717245122.3265734     
   2628729056.4261885     
   2623007634.8748612     
   2625008878.5982337     
   2634732738.5966520     
   2652179192.8714499     
   2609854463.1189637     
   2601781081.9926891     
   2601545134.3419814     
   2609157501.8277359     
   2624628608.3139668     
   2618204871.1647449     
   2605307319.2350898     
   2600359583.9132638     
   2603406603.1012340     
   2614492256.8035426     
   2654157372.8538275     
   2634067932.7437320     
   2622012001.2266259     
   2618090829.7258425     
   2622405245.6891546     
   2717245122.3265734     
   2687831887.8207464     
   2666476676.7799253     
   2653354951.5588160     
   2648645406.9004655     
   2652179192.8714499     
   2654500090.5809832     
   2665918944.2027426     
   2686435753.3432560     
   2716050517.2518625     
   2624628608.3139668     
   2624807635.3570390     
   2633974576.9228692     
   2652141460.3678775     
   2679319194.8049335     
   2614492256.8035426     
   2610025147.6764617     
   2614502607.5576262     
   2627973676.3765683     
   2650483386.8521609     
   2622405245.6891546     
   2610889481.3436041     
   2608309919.6659598     
   2614777857.3022208     
   2630397475.1914639     
   2648645406.9004655     
   2627878660.7064395     
   2616032293.4895968     
   2613303360.3270912     
   2619880819.8417268     
   2716050517.2518625     
   2714871419.2246237     
   2723575785.4554601     
   2742163614.9917231     
   2770634907.4014773     
   2679319194.8049335     
   2675910898.0984445     
   2682406392.6836786     
   2698812675.1653562     
   2725135076.2385702     
   2650483386.8521609     
   2643257666.4379349     
   2646095634.9745660     
   2659027032.3711433     
   2682075032.2984476     
   2630397475.1914639     
   2617714221.3923779     
   2615378659.7601700     
   2623462869.2234664     
   2642024555.0791054     
   2619880819.8417268     
   2600079547.6257811     
   2591009574.0359416     
   2592809441.8543968     
   2605593449.0413852     
   2770634907.4014773     
   2764968509.4546161     
   2767840814.2220273     
   2779251821.7442298     
   2799201532.0501127     
   2725135076.2385702     
   2718051547.9289861     
   2719896631.6970091     
   2730673561.3424697     
   2750387036.9484296     
   2682075032.2984476     
   2673582170.7654285     
   2674546135.3793960     
   2684981890.7266150     
   2704909865.5720048     
   2642024555.0791054     
   2631984262.8218341     
   2632085133.6954031     
   2642365778.3969626     
   2662875884.1426449     
   2605593449.0413852     
   2593707001.0194197     
   2592822317.1818008     
   2603017705.0590549     
   2624388400.9701533     
   2799201532.0501127     
   2745545377.5819011     
   2697709212.4512668     
   2655693036.6051016     
   2619496850.0119419     
   2750387036.9484296     
   2697325138.2242656     
   2649900726.4831204     
   2608150347.8430529     
   2572125129.0588317     
   2704909865.5720048     
   2654525124.7432542     
   2609737571.5233707     
   2570694389.4990692     
   2537601321.7176509     
   2662875884.1426449     
   2617249710.8970590     
   2577323263.5414982     
   2543427048.4918184     
   2516021667.2957950     
   2624388400.9701533     
   2585594728.8386135     
   2552746837.0052729     
   2526425759.3277307     
   2507436884.9410586     
   2619496850.0119419     
   2430121021.6287441     
   2235973147.6771412     
   2037053228.1634147     
   1833361263.0984542     
   2572125129.0588317     
   2384637304.4799848     
   2194074791.5438347     
   2000816168.7603667     
   1805465932.5489435     
   2537601321.7176509     
   2357315800.6200986     
   2176764842.3036165     
   1997421204.7685652     
   1821564964.2320313     
   2516021667.2957950     
   2348187568.6243687     
   2183900873.0371752     
   2026264077.6006832     
   1879846400.2772267     
   2507436884.9410586     
   2357148911.7406530     
   2215016247.1858721     
   2086023361.9297607     
   1977053274.2174983     
   2831219926.6496520     
   2814052842.3154674     
   2813969734.1512561     
   2828144799.7816596     
   2855226941.8211575     
   2967628838.1118932     
   2946176969.2312617     
   2931460191.8695631     
   2923338914.2076492     
   2921938574.6006756     
   3099878557.1846347     
   3076568697.0236320     
   3056561021.3666973     
   3039744030.7378068     
   3026034113.7814188     
   3223479030.9122930     
   3200755768.8982201     
   3184952966.5792880     
   3173426952.3982468     
   3164222158.3700228     
   3339935250.0573726     
   3318018623.2178497     
   3314400619.3536038     
   3321176406.9549804     
   3332648972.3447838     
   2855226941.8211575     
   2808928488.2338238     
   2770372648.6738076     
   2739745252.7669687     
   2717245122.3265734     
   2921938574.6006756     
   2864416729.3492699     
   2814254624.2549520     
   2771710581.2286143     
   2737068695.2297411     
   3026034113.7814188     
   2956004172.8570023     
   2892830033.2761502     
   2836829836.9568372     
   2788363605.8942289     
   3164222158.3700228     
   3080887435.9998193     
   3003809561.6503506     
   2933344625.7695570     
   2869907203.8799453     
   3332648972.3447838     
   3235616677.9151411     
   3144185247.3438015     
   3058723590.8690991     
   2979673181.2786102     
   2717245122.3265734     
   2687831887.8207464     
   2666476676.7799253     
   2653354951.5588160     
   2648645406.9004655     
   2737068695.2297411     
   2696715638.1429706     
   2664121420.3977208     
   2639550103.4460902     
   2623277136.0992980     
   2788363605.8942289     
   2735484054.2292771     
   2689940700.2063813     
   2652084440.5333958     
   2622291762.7321191     
   2869907203.8799453     
   2803433906.4997692     
   2743744709.9456248     
   2691260967.6746254     
   2646448555.9151316     
   2979673181.2786102     
   2899041947.8793335     
   2824532763.7755094     
   2756609778.8219295     
   2695801870.6608491     
   2648645406.9004655     
   2627878660.7064395     
   2616032293.4895968     
   2613303360.3270912     
   2619880819.8417268     
   2623277136.0992980     
   2590878475.3332038     
   2567168675.8911376     
   2552441296.7143183     
   2546982863.6850119     
   2622291762.7321191     
   2576829259.2183819     
   2539725737.7662258     
   2511378897.1018648     
   2492188234.0475183     
   2646448555.9151316     
   2586932495.9597807     
   2535309585.5029693     
   2492073597.0874581     
   2457737736.3503795     
   2695801870.6608491     
   2621737217.2073994     
   2554955748.5275464     
   2496021849.4378052     
   2445543527.6183920     
   2619880819.8417268     
   2600079547.6257811     
   2591009574.0359416     
   2592809441.8543968     
   2605593449.0413852     
   2546982863.6850119     
   2516569150.9389935     
   2496539121.3502541     
   2487146790.9002781     
   2488612983.9310255     
   2492188234.0475183     
   2448993236.1709166     
   2415729659.2109375     
   2392794614.1583691     
   2380553490.2508802     
   2457737736.3503795     
   2400005291.0531683     
   2351551587.3598051     
   2312926983.6454940     
   2284668332.2607627     
   2445543527.6183920     
   2372110582.9147348     
   2307033785.0062551     
   2250996052.2143121     
   2204703890.0589466     
   2605593449.0413852     
   2593707001.0194197     
   2592822317.1818008     
   2603017705.0590549     
   2624388400.9701533     
   2488612983.9310255     
   2469559546.2750106     
   2462388642.4749999     
   2467236950.1423922     
   2484237891.2403579     
   2380553490.2508802     
   2351957005.4904184     
   2336274473.2475619     
   2333761190.2418122     
   2344640160.4875059     
   2284668332.2607627     
   2243766487.8366065     
   2216898398.3194170     
   2204529368.5378284     
   2207057567.1962895     
   2204703890.0589466     
   2148424955.8956566     
   2107266333.5031343     
   2082029054.7890453     
   2073418893.7726817     
   2624388400.9701533     
   2585594728.8386135     
   2552746837.0052729     
   2526425759.3277307     
   2507436884.9410586     
   2484237891.2403579     
   2451231500.9351172     
   2426829547.4950294     
   2411978409.1729898     
   2408055003.0740199     
   2344640160.4875059     
   2319904849.2585878     
   2306735723.7648129     
   2306539765.6231065     
   2321409879.6058226     
   2207057567.1962895     
   2192395610.6703930     
   2192749604.6116385     
   2210089362.8089685     
   2247344288.7935486     
   2073418893.7726817     
   2069678429.3187027     
   2085190562.1384368     
   2122584553.4493418     
   2185687283.7224379     
   2507436884.9410586     
   2357148911.7406530     
   2215016247.1858721     
   2086023361.9297607     
   1977053274.2174983     
   2408055003.0740199     
   2282822054.6081262     
   2168087282.0846491     
   2070590694.0151539     
   1999100376.0144758     
   2321409879.6058226     
   2224730399.9799404     
   2141381505.9739258     
   2079723340.8177998     
   2049919533.8625636     
   2247344288.7935486     
   2182665067.4332972     
   2134428480.5580127     
   2112290448.5299742     
   2127169875.5937054     
   2185687283.7224379     
   2156332253.7548666     
   2146581204.3973203     
   2166941090.9113560     
   2228461245.5379248     
   3339935250.0573726     
   3318018623.2178497     
   3314400619.3536038     
   3321176406.9549804     
   3332648972.3447838     
   3516916683.6447668     
   3505410363.3083920     
   3503178328.7467151     
   3508962514.9455481     
   3521735800.9333811     
   3842496886.4751644     
   3813140980.5271769     
   3788328481.5578914     
   3768636849.3343487     
   3754980056.7765899     
   4316480239.9093504     
   4238115145.5481391     
   4165663584.9452081     
   4096760008.1099014     
   4030988549.2226076     
   4936925298.6827679     
   4776740010.6873379     
   4630454232.6966257     
   4489106172.4613628     
   4347766604.8291941     
   3332648972.3447838     
   3235616677.9151411     
   3144185247.3438015     
   3058723590.8690991     
   2979673181.2786102     
   3521735800.9333811     
   3400888683.3596082     
   3286737385.0555410     
   3179693688.2192159     
   3080307092.8520403     
   3754980056.7765899     
   3608007400.9420905     
   3468375185.3196492     
   3336478112.4075661     
   3212930520.3670530     
   4030988549.2226076     
   3855180349.7020979     
   3686942254.0021386     
   3526590220.6564775     
   3374749966.9196496     
   4347766604.8291941     
   4140056730.8582196     
   3939795275.6384301     
   3747161043.4179497     
   3562731389.6734638     
   2979673181.2786102     
   2899041947.8793335     
   2824532763.7755094     
   2756609778.8219295     
   2695801870.6608491     
   3080307092.8520403     
   2984441647.7673984     
   2894071734.6930199     
   2809644609.1675372     
   2731685487.4759707     
   3212930520.3670530     
   3102680112.6750827     
   2997324339.3790812     
   2897263593.1109252     
   2802986769.8593588     
   3374749966.9196496     
   3251065095.0669971     
   3131746274.2357998     
   3017128330.2675161     
   2907641753.0963869     
   3562731389.6734638     
   3426536995.2564573     
   3294280687.4282908     
   3166224543.1472797     
   3042731330.4855852     
   2695801870.6608491     
   2621737217.2073994     
   2554955748.5275464     
   2496021849.4378052     
   2445543527.6183920     
   2731685487.4759707     
   2641938861.5759463     
   2558149791.6845198     
   2480899635.9762363     
   2410844534.9843049     
   2802986769.8593588     
   2698406981.9792900     
   2598353076.5785499     
   2503346083.9874635     
   2413999945.4019985     
   2907641753.0963869     
   2789795672.6114473     
   2675076751.1953526     
   2563887245.2375302     
   2456719863.2513609     
   3042731330.4855852     
   2913649787.6813927     
   2786456338.3642173     
   2661412278.8159914     
   2538849972.5994349     
   2445543527.6183920     
   2372110582.9147348     
   2307033785.0062551     
   2250996052.2143121     
   2204703890.0589466     
   2410844534.9843049     
   2318447986.5299969     
   2233797472.1938386     
   2157717183.4286842     
   2091118190.4932628     
   2413999945.4019985     
   2302475505.7939854     
   2197680854.3274736     
   2100486721.1468594     
   2011923488.6799421     
   2456719863.2513609     
   2326795031.9559765     
   2202302931.0365815     
   2084030881.7141130     
   1972976556.5564351     
   2538849972.5994349     
   2391999232.5026846     
   2249212038.2266192     
   2111079462.6797843     
   1978406012.5892060     
   2204703890.0589466     
   2148424955.8956566     
   2107266333.5031343     
   2082029054.7890453     
   2073418893.7726817     
   2091118190.4932628     
   2015000856.0693710     
   1951343027.8746099     
   1901247044.8162551     
   1865766657.4151340     
   2011923488.6799421     
   1914694161.7409682     
   1826295410.6585743     
   1747933448.3875370     
   1680908840.3971021     
   1972976556.5564351     
   1856349663.1477005     
   1744143583.9197202     
   1637269104.0153990     
   1536842283.7662063     
   1978406012.5892060     
   1847607628.3034179     
   1716926746.5719292     
   1586693929.3797634     
   1457384465.6784096     
   2073418893.7726817     
   2069678429.3187027     
   2085190562.1384368     
   2122584553.4493418     
   2185687283.7224379     
   1865766657.4151340     
   1855155750.5669768     
   1867533136.2543616     
   1905103126.0349140     
   1970901808.6184697     
   1680908840.3971021     
   1652398192.1608391     
   1651623166.9803603     
   1680947862.0746467     
   1742977709.9827659     
   1536842283.7662063     
   1476007149.7374656     
   1447872291.4293692     
   1456402592.9351439     
   1504884317.2296660     
   1457384465.6784096     
   1348422055.4344842     
   1274431604.8308916     
   1243544180.1166377     
   1262791956.1453755     
   2185687283.7224379     
   2156332253.7548666     
   2146581204.3973203     
   2166941090.9113560     
   2228461245.5379248     
   1970901808.6184697     
   1969011047.9104955     
   2003672872.8050907     
   2093550183.1192789     
   2257288748.2141619     
   1742977709.9827659     
   1787747094.9822800     
   1884669249.4377675     
   2060646708.3470051     
   2340905230.0555902     
   1504884317.2296660     
   1613254814.8804200     
   1788828897.1267471     
   2066352869.3396525     
   2476038621.9993072     
   1262791956.1453755     
   1446574220.3855824     
   1715586644.2456195     
   2110403558.1753612     
   2663477003.0670791     
   4936925298.6827679     
   4776740010.6873379     
   4630454232.6966257     
   4489106172.4613628     
   4347766604.8291941     
   5110687352.5179014     
   4989465100.0593634     
   4865719302.9806767     
   4727901812.0855560     
   4569243150.5797930     
   5082129708.0081263     
   5009432076.1678896     
   4946275140.5074263     
   4868694290.5244665     
   4763190025.2296295     
   4792141362.7346134     
   4792666410.0079203     
   4842016989.5181208     
   4891687831.7563047     
   4917132083.9771061     
   4262170370.5183177     
   4340291973.9261580     
   4548578344.4890318     
   4791533558.8360186     
   5025593726.6819000     
   4347766604.8291941     
   4140056730.8582196     
   3939795275.6384301     
   3747161043.4179497     
   3562731389.6734638     
   4569243150.5797930     
   4357384928.7440119     
   4147761355.4604349     
   3940577767.1476760     
   3736119388.8233542     
   4763190025.2296295     
   4556962363.2627783     
   4351879471.8972225     
   4147620242.8630943     
   3943885015.7194519     
   4917132083.9771061     
   4728201928.2106724     
   4543064675.8484402     
   4360339402.4442158     
   4178892097.3683000     
   5025593726.6819000     
   4865469904.9650517     
   4715612895.1980076     
   4572904859.3164148     
   4434974449.9615469     
   3562731389.6734638     
   3426536995.2564573     
   3294280687.4282908     
   3166224543.1472797     
   3042731330.4855852     
   3736119388.8233542     
   3590099953.5506144     
   3446790212.2809572     
   3306425237.5909872     
   3169326581.4643130     
   3943885015.7194519     
   3788172947.7930222     
   3634059728.7829471     
   3481733364.3286886     
   3331450612.9809470     
   4178892097.3683000     
   4013978201.4061956     
   3849695205.4119859     
   3686176467.0657873     
   3523606014.6143217     
   4434974449.9615469     
   4261586434.8830152     
   4088010043.2780476     
   3914325501.9742484     
   3740648005.8723001     
   3042731330.4855852     
   2913649787.6813927     
   2786456338.3642173     
   2661412278.8159914     
   2538849972.5994349     
   3169326581.4643130     
   3030341698.9423013     
   2893141653.8218575     
   2757986069.4240232     
   2625227489.9560113     
   3331450612.9809470     
   3180701749.2527156     
   3031335633.1975160     
   2883587870.3901892     
   2737811610.6785245     
   3523606014.6143217     
   3359017851.3454666     
   3195151935.2411642     
   3032197047.4682379     
   2870483827.7013335     
   3740648005.8723001     
   3560045102.3700328     
   3379298115.8377242     
   3198526876.7253156     
   3018014097.1391411     
   2538849972.5994349     
   2391999232.5026846     
   2249212038.2266192     
   2111079462.6797843     
   1978406012.5892060     
   2625227489.9560113     
   2469833887.6147242     
   2316246652.8983231     
   2164775927.1088390     
   2015846131.8733144     
   2737811610.6785245     
   2577629167.7315569     
   2417791566.9619689     
   2258391455.5199323     
   2099552550.8526590     
   2870483827.7013335     
   2709572904.3405137     
   2548344555.3500519     
   2386787685.5239868     
   2224892980.6742907     
   3018014097.1391411     
   2860388833.4288597     
   2702493210.1307588     
   2544313894.5783391     
   2385862855.9476695     
   1978406012.5892060     
   1847607628.3034179     
   1716926746.5719292     
   1586693929.3797634     
   1457384465.6784096     
   2015846131.8733144     
   1879392865.3946962     
   1743318580.6830993     
   1607736589.7839048     
   1472804000.8142409     
   2099552550.8526590     
   1960053974.3288980     
   1821542072.3793285     
   1684038068.1589415     
   1547592512.1012878     
   2224892980.6742907     
   2083263697.6256089     
   1943288935.0805790     
   1804967692.6136320     
   1668376585.5574648     
   2385862855.9476695     
   2241412176.3269358     
   2099128668.7793694     
   1959020374.5527108     
   1821259303.1487496     
   1457384465.6784096     
   1348422055.4344842     
   1274431604.8308916     
   1243544180.1166377     
   1262791956.1453755     
   1472804000.8142409     
   1328554378.7321236     
   1198758653.3630693     
   1087904894.7474082     
   1001902821.0262219     
   1547592512.1012878     
   1397651987.7205608     
   1244135525.6649382     
   1084781980.9468172     
   917567990.75418711     
   1668376585.5574648     
   1552833299.0630696     
   1428155245.6821208     
   1294720191.3610642     
   1158661742.8335176     
   1821259303.1487496     
   1780387432.8789909     
   1735965779.2927687     
   1696658690.4811509     
   1680974543.5377944     
   1262791956.1453755     
   1446574220.3855824     
   1715586644.2456195     
   2110403558.1753612     
   2663477003.0670791     
   1001902821.0262219     
   1164591547.6419556     
   1425327671.0827200     
   1808681440.0849507     
   2334748328.1279225     
   917567990.75418711     
   962989963.45664060     
   1144850598.7348483     
   1476459875.0013809     
   1957503500.8840814     
   1158661742.8335176     
   1008261118.8923341     
   985164926.16541910     
   1161556562.4093268     
   1544282149.5656374     
   1680974543.5377944     
   1383535936.1442351     
   1129434719.8842998     
   1010364570.4812703     
   1153448813.2693152     
 </DataArray>
 <DataArray  type="Float64" Name="strain" NumberOfComponents="3" format="ascii">
   6.5584864384240493E-002  -6.1688807829187731E-003  -4.6351467001713331E-002
   6.9853544330945927E-002  -1.5824290637669325E-002  -3.2303506420625183E-002
   7.4122224277651250E-002  -2.2392308334022282E-002  -2.2822482584935799E-002
   7.8390904224356628E-002  -2.5872933871978032E-002  -1.7908395494644846E-002
   8.2659584171062006E-002  -2.6266167251536299E-002  -1.7561245149752436E-002
   7.9974920883312595E-002  -9.5345811475462394E-003  -2.6714260149447666E-002
   8.0407932444627073E-002  -1.7265998498957269E-002  -1.6638075704431987E-002
   8.0840944005941551E-002  -2.2444147317991103E-002  -9.6662912847996774E-003
   8.1273955567255918E-002  -2.5069027604647257E-002  -5.7989068905502927E-003
   8.1706967128570451E-002  -2.5140639358925909E-002  -5.0359225216846659E-003
   8.6841602540917218E-002  -1.2900281512173817E-002  -4.8859989808326398E-003
   8.4901482436856079E-002  -1.8707706360245546E-002   6.8428570209050354E-004
   8.2961362332794969E-002  -2.2495986301959814E-002   4.6127070796457836E-003
   8.1021242228733859E-002  -2.4265121337316592E-002   6.8992651518333253E-003
   7.9081122124672720E-002  -2.4015111466315853E-002   7.5439599186530870E-003
   8.6184909357054057E-002  -1.6265981876801394E-002   1.9133316504131803E-002
   8.3334194307632906E-002  -2.0149414221533782E-002   1.9663577798942719E-002
   8.0483479258211615E-002  -2.2547825285928635E-002   2.0014512508401000E-002
   7.7632764208790339E-002  -2.3461215069985927E-002   2.0186120632506771E-002
   7.4782049159369021E-002  -2.2889583573705685E-002   2.0178402171260088E-002
   7.8004841331723529E-002  -1.9631682241428916E-002   4.5343686305445496E-002
   7.5706068056957454E-002  -2.1591122082821990E-002   4.0299800586123757E-002
   7.3407294782191407E-002  -2.2599664269897457E-002   3.6539125001465222E-002
   7.1108521507425318E-002  -2.2657308802655304E-002   3.4061659551469559E-002
   6.8809748232659285E-002  -2.1764055681095462E-002   3.2867404236136766E-002
   8.2659584171062006E-002  -2.6266167251536299E-002  -1.7561245149752436E-002
   8.0438236893684845E-002  -2.5153792533334163E-002  -1.2993532337281399E-002
   7.8216889616307572E-002  -2.4117593778008983E-002  -9.4290670109842822E-003
   7.5995542338930300E-002  -2.3157570985560719E-002  -6.8678491708606959E-003
   7.3774195061553138E-002  -2.2273724155989494E-002  -5.3098788169105848E-003
   8.1706967128570451E-002  -2.5140639358925909E-002  -5.0359225216846659E-003
   7.8672935775991215E-002  -2.3975541735345191E-002  -2.0288871294157629E-003
   7.5638904423411979E-002  -2.2890293888423049E-002   3.5602759862279898E-004
   7.2604873070832757E-002  -2.1884895818159122E-002   2.1188216624312139E-003
   6.9570841718253562E-002  -2.0959347524553529E-002   3.2594950620090657E-003
   7.9081122124672720E-002  -2.4015111466315853E-002   7.5439599186530870E-003
   7.5615533518834863E-002  -2.2797290937356440E-002   8.9866440769382633E-003
   7.2149944912996977E-002  -2.1662993998836894E-002   1.0188334392936538E-002
   6.8684356307159064E-002  -2.0612220650757192E-002   1.1149030866647862E-002
   6.5218767701321234E-002  -1.9644970893117730E-002   1.1868733498072104E-002
   7.4782049159369021E-002  -2.2889583573705685E-002   2.0178402171260088E-002
   7.1266030122215843E-002  -2.1619040139367357E-002   2.0053061281780252E-002
   6.7750011085062567E-002  -2.0435694109250627E-002   2.0067853371956663E-002
   6.4233992047909305E-002  -1.9339545483355317E-002   2.0222778441789428E-002
   6.0717973010756057E-002  -1.8330594261681682E-002   2.0517836491278515E-002
   6.8809748232659285E-002  -2.1764055681095462E-002   3.2867404236136766E-002
   6.5624425586133989E-002  -2.0440789341378496E-002   3.1170364485110152E-002
   6.2439102939608748E-002  -1.9208394219664526E-002   2.9994584535683183E-002
   5.9253780293083480E-002  -1.8066870315953679E-002   2.9340064387856135E-002
   5.6068457646558212E-002  -1.7016217630246022E-002   2.9206804041628232E-002
   7.3774195061553138E-002  -2.2273724155989494E-002  -5.3098788169105848E-003
   7.0906334024835149E-002  -2.1424528413344190E-002  -4.7911657467033519E-003
   6.8038472988117160E-002  -2.0568458881675855E-002  -4.1450197340642259E-003
   6.5170611951399171E-002  -1.9705515560983308E-002  -3.3714407789936229E-003
   6.2302750914681182E-002  -1.8835698451266425E-002  -2.4704288814910713E-003
   6.9570841718253562E-002  -2.0959347524553529E-002   3.2594950620090657E-003
   6.6834674328354382E-002  -2.0083113836557198E-002   3.6277953402024110E-003
   6.4098506938455091E-002  -1.9225659583121446E-002   4.1320499696019530E-003
   6.1362339548555883E-002  -1.8386984764246092E-002   4.7722589502069701E-003
   5.8626172158656731E-002  -1.7567089379931122E-002   5.5484222820186835E-003
   6.5218767701321234E-002  -1.9644970893117730E-002   1.1868733498072104E-002
   6.2622815367015000E-002  -1.8741699259770372E-002   1.2060967760667507E-002
   6.0026863032708794E-002  -1.7882860284567620E-002   1.2397677783243161E-002
   5.7430910698402560E-002  -1.7068453967509216E-002   1.2878863565798607E-002
   5.4834958364096353E-002  -1.6298480308595764E-002   1.3504525108334525E-002
   6.0717973010756057E-002  -1.8330594261681682E-002   2.0517836491278515E-002
   5.8270757140817080E-002  -1.7400284682983241E-002   2.0508351514691645E-002
   5.5823541270878102E-002  -1.6540060986013502E-002   2.0651863706859210E-002
   5.3376325400939041E-002  -1.5749923170772392E-002   2.0948373067780909E-002
   5.0929109531000091E-002  -1.5029871237259990E-002   2.1397879597457169E-002
   5.6068457646558212E-002  -1.7016217630246022E-002   2.9206804041628232E-002
   5.3778499649760614E-002  -1.6058870106196194E-002   2.8969946602274921E-002
   5.1488541652963044E-002  -1.5197261687459399E-002   2.8894607740450190E-002
   4.9198583656165459E-002  -1.4431392374035405E-002   2.8980787456154136E-002
   4.6908625659367875E-002  -1.3761262165924548E-002   2.9228485749386302E-002
   6.2302750914681182E-002  -1.8835698451266425E-002  -2.4704288814910713E-003
   5.9281141872938203E-002  -1.7968351543664052E-002  -2.3770077930398426E-003
   5.6259532831195225E-002  -1.7112818829312731E-002  -1.9922668131560073E-003
   5.3237923789452302E-002  -1.6269100308212360E-002  -1.3162059418410366E-003
   5.0216314747709268E-002  -1.5437195980364304E-002  -3.4882517909418098E-004
   5.8626172158656731E-002  -1.7567089379931122E-002   5.5484222820186835E-003
   5.5872738232698393E-002  -1.6757615599251152E-002   5.4971245733059226E-003
   5.3119304306740001E-002  -1.5950205591281519E-002   5.6908572047310590E-003
   5.0365870380781663E-002  -1.5144859356022403E-002   6.1296201762942870E-003
   4.7612436454823326E-002  -1.4341576893472485E-002   6.8134134879935804E-003
   5.4834958364096353E-002  -1.6298480308595764E-002   1.3504525108334525E-002
   5.2303410002628226E-002  -1.5546879654838308E-002   1.3318259022999601E-002
   4.9771861641160098E-002  -1.4787592353250514E-002   1.3330733726507574E-002
   4.7240313279692039E-002  -1.4020618403831443E-002   1.3541949218858727E-002
   4.4708764918223842E-002  -1.3245957806581332E-002   1.3951905500052875E-002
   5.0929109531000091E-002  -1.5029871237259990E-002   2.1397879597457169E-002
   4.8573157182727839E-002  -1.4336143710425880E-002   2.1086395556040569E-002
   4.6217204834455523E-002  -1.3624979115219517E-002   2.0927362752172964E-002
   4.3861252486183236E-002  -1.2896377451640651E-002   2.0920781185853783E-002
   4.1505300137910969E-002  -1.2150338719689735E-002   2.1066650857083147E-002
   4.6908625659367875E-002  -1.3761262165924548E-002   2.9228485749386302E-002
   4.4681979772997066E-002  -1.3125407766013009E-002   2.8801534172429422E-002
   4.2455333886626256E-002  -1.2462365877188353E-002   2.8480744281727088E-002
   4.0228688000255447E-002  -1.1772136499450206E-002   2.8266116077278886E-002
   3.8002042113884582E-002  -1.1054719632798471E-002   2.8157649559085063E-002
   5.0216314747709268E-002  -1.5437195980364304E-002  -3.4882517909418098E-004
   4.7601787723611899E-002  -1.4599619139844644E-002  -1.2618401350872333E-004
   4.4987260699514531E-002  -1.3738883080731679E-002  -1.9588839673123637E-005
   4.2372733675417162E-002  -1.2854987803026741E-002  -2.9039657586160672E-005
   3.9758206651319794E-002  -1.1947933306726943E-002  -1.5453646724838954E-004
   4.7612436454823326E-002  -1.4341576893472485E-002   6.8134134879935804E-003
   4.4919017548177897E-002  -1.3530562954434444E-002   6.7937584912062254E-003
   4.2225598641532414E-002  -1.2702022289708848E-002   6.7323657210719978E-003
   3.9532179734886985E-002  -1.1855954899295390E-002   6.6292351775903979E-003
   3.6838760828241446E-002  -1.0992360783194322E-002   6.4843668607613703E-003
   4.4708764918223842E-002  -1.3245957806581332E-002   1.3951905500052875E-002
   4.2010762347432173E-002  -1.2461506769024522E-002   1.3684321847987901E-002
   3.9312759776640505E-002  -1.1665161498685572E-002   1.3449308640977431E-002
   3.6614757205848836E-002  -1.0856921995565150E-002   1.3246865879021727E-002
   3.3916754635057167E-002  -1.0036788259662255E-002   1.3076993562120665E-002
   4.1505300137910969E-002  -1.2150338719689735E-002   2.1066650857083147E-002
   3.8877022121374900E-002  -1.1392450583614461E-002   2.0545506056835222E-002
   3.6248744104838762E-002  -1.0628300707662630E-002   2.0131239920043092E-002
   3.3620466088302658E-002  -9.8578890918345763E-003   1.9823852446707903E-002
   3.0992188071766555E-002  -9.0812157361297996E-003   1.9623343636828966E-002
   3.8002042113884582E-002  -1.1054719632798471E-002   2.8157649559085063E-002
   3.5517796870005947E-002  -1.0323394398204511E-002   2.7377311117747882E-002
   3.3033551626127311E-002  -9.5914399166394937E-003   2.6778159558268955E-002
   3.0549306382248648E-002  -8.8588561881038433E-003   2.6360194880648447E-002
   2.8065061138369984E-002  -8.1256432125975664E-003   2.6123417084886302E-002
   3.9758206651319794E-002  -1.1947933306726943E-002  -1.5453646724838954E-004
   3.7376002326438007E-002  -1.1111865610075822E-002  -3.8019496708052714E-004
   3.4993798001556387E-002  -1.0440930731311915E-002  -5.2634686508645778E-004
   3.2611593676674711E-002  -9.9351286704373043E-003  -5.9299216126496024E-004
   3.0229389351792979E-002  -9.5944594274499639E-003  -5.8013085561658961E-004
   3.6838760828241446E-002  -1.0992360783194322E-002   6.4843668607613703E-003
   3.4518469347391834E-002  -1.0176092970202055E-002   6.0998981581320555E-003
   3.2198177866542166E-002  -9.4720044891132282E-003   5.7597485417396621E-003
   2.9877886385692415E-002  -8.8800953399295057E-003   5.4639180115843289E-003
   2.7557594904842830E-002  -8.4003655226494445E-003   5.2124065676659725E-003
   3.3916754635057167E-002  -1.0036788259662255E-002   1.3076993562120665E-002
   3.1623188482649722E-002  -9.2403203303288994E-003   1.2586668142677948E-002
   2.9329622330242305E-002  -8.5030782469152633E-003   1.2105474293882673E-002
   2.7036056177834930E-002  -7.8250620094223872E-003   1.1633412015734645E-002
   2.4742490025427527E-002  -7.2062716178492581E-003   1.1170481308234337E-002
   3.0992188071766555E-002  -9.0812157361297996E-003   1.9623343636828966E-002
   2.8690159732211798E-002  -8.3045476904552162E-003   1.9080114986556790E-002
   2.6388131392656937E-002  -7.5341520047167154E-003   1.8510830391342492E-002
   2.4086103053102128E-002  -6.7700286789144845E-003   1.7915489851185885E-002
   2.1784074713547319E-002  -6.0121777130486831E-003   1.7294093366087351E-002
   2.8065061138369984E-002  -8.1256432125975664E-003   2.6123417084886302E-002
   2.5719383096077963E-002  -7.3687750505816996E-003   2.5580238689768886E-002
   2.3373705053786054E-002  -6.5652257625183896E-003   2.4975816834119646E-002
   2.1028027011494130E-002  -5.7149953484069704E-003   2.4310151517938416E-002
   1.8682348969202123E-002  -4.8180838082482191E-003   2.3583242741225030E-002
   3.0229389351792979E-002  -9.5944594274499639E-003  -5.8013085561658961E-004
   2.9615026920325693E-002  -9.1316577447819736E-003  -3.5017727453956482E-004
   2.9000664488858408E-002  -8.2594583648642472E-003  -1.7977116028714546E-003
   2.8386302057391066E-002  -6.9778612876957719E-003  -4.9227338406125920E-003
   2.7771939625923836E-002  -5.2868665132779213E-003  -9.7252439877610897E-003
   2.7557594904842830E-002  -8.4003655226494445E-003   5.2124065676659725E-003
   2.5534510927220921E-002  -7.8705321319418875E-003   5.8787081675372166E-003
   2.3511426949599040E-002  -7.1283122624732354E-003   5.4050545845080733E-003
   2.1488342971977145E-002  -6.1737059142445427E-003   3.7914458185780986E-003
   1.9465258994355139E-002  -5.0067130872553101E-003   1.0378818697480696E-003
   2.4742490025427527E-002  -7.2062716178492581E-003   1.1170481308234337E-002
   2.1848217228159161E-002  -6.6094065191010243E-003   1.2076119708409938E-002
   1.8953944430890879E-002  -5.9971661600826953E-003   1.2379335652193207E-002
   1.6059671633622555E-002  -5.3695505407930985E-003   1.2080129139584658E-002
   1.3165398836354286E-002  -4.7265596612335870E-003   1.1178500170582750E-002
   2.1784074713547319E-002  -6.0121777130486831E-003   1.7294093366087351E-002
   1.8556145823140663E-002  -5.3482809062603276E-003   1.8242057348077642E-002
   1.5328216932734000E-002  -4.8660200576914753E-003   1.9125131600183788E-002
   1.2100288042327333E-002  -4.5653951673419839E-003   1.9943316122405758E-002
   8.8723591519206738E-003  -4.4464062352111977E-003   2.0696610914743396E-002
   1.8682348969202123E-002  -4.8180838082482191E-003   2.3583242741225030E-002
   1.5658296712165232E-002  -4.0871552934199640E-003   2.4376521086540426E-002
   1.2634244455128313E-002  -3.7348739553007548E-003   2.5642442428479795E-002
   9.6101921980913940E-003  -3.7612397938902170E-003   2.7381006767043109E-002
   6.5861399410545030E-003  -4.1662528091893636E-003   2.9592214102229675E-002
   2.7771939625923836E-002  -5.2868665132779213E-003  -9.7252439877610897E-003
   2.3349291678924855E-002  -4.2049522727198863E-003  -4.1899649562207042E-003
   1.8926643731925930E-002  -4.7505967971338547E-003   2.6069438881779483E-003
   1.4503995784926865E-002  -6.9238000865193550E-003   1.0665482545433314E-002
   1.0081347837928023E-002  -1.0724562140877580E-002   1.9985651015548278E-002
   1.9465258994355139E-002  -5.0067130872553101E-003   1.0378818697480696E-003
   1.6232192741521323E-002  -4.6901528964764516E-003   6.7375279980874669E-003
   1.2999126488687340E-002  -6.2868444568766613E-003   1.3554707701899704E-002
   9.7660602358531912E-003  -9.7967877684569382E-003   2.1489420981183671E-002
   6.5329939830192085E-003  -1.5219982831217393E-002   3.0541667835939812E-002
   1.3165398836354286E-002  -4.7265596612335870E-003   1.1178500170582750E-002
   1.0977818040299625E-002  -5.1753535202325729E-003   1.6756820409513207E-002
   8.7902372442450610E-003  -7.8230921166188572E-003   2.3308577986530632E-002
   6.6026564481903513E-003  -1.2669775450393536E-002   3.0833772901634554E-002
   4.4150756521358914E-003  -1.9715403521556318E-002   3.9332405154824945E-002
   8.8723591519206738E-003  -4.4464062352111977E-003   2.0696610914743396E-002
   7.5861675752599764E-003  -5.6605541439884721E-003   2.5867912278056571E-002
   6.2999759985994420E-003  -9.3593397763613584E-003   3.1868554742070801E-002
   5.0137844219387811E-003  -1.5542763132330405E-002   3.8698538306787024E-002
   3.7275928452781965E-003  -2.4210824211895687E-002   4.6357862972203789E-002
   6.5861399410545030E-003  -4.1662528091893636E-003   2.9592214102229675E-002
   6.0572413464022867E-003  -6.1457547677447044E-003   3.4070803603717947E-002
   5.5283427517501815E-003  -1.0895587436103665E-002   3.9234637968521502E-002
   4.9994441570981041E-003  -1.8415750814267391E-002   4.5083717196640810E-002
   4.4705455624458601E-003  -2.8706244902235056E-002   5.1618041288075567E-002
   7.8004841331723529E-002  -1.9631682241428916E-002   4.5343686305445496E-002
   7.5706068056957454E-002  -2.1591122082821990E-002   4.0299800586123757E-002
   7.3407294782191407E-002  -2.2599664269897457E-002   3.6539125001465222E-002
   7.1108521507425318E-002  -2.2657308802655304E-002   3.4061659551469559E-002
   6.8809748232659285E-002  -2.1764055681095462E-002   3.2867404236136766E-002
   6.7055519480245712E-002  -1.9319836798729395E-002   4.2536856404105539E-002
   6.5832249686527677E-002  -2.0249634891910673E-002   4.0038444796711120E-002
   6.4608979892809684E-002  -2.0593703486671958E-002   3.8407830016749994E-002
   6.3385710099091636E-002  -2.0352042583013364E-002   3.7645012064221967E-002
   6.2162440305373656E-002  -1.9524652180934743E-002   3.7749990939127204E-002
   5.8091064817940893E-002  -1.9007991356029846E-002   4.0942252328926482E-002
   5.7527885198041306E-002  -1.8908147700999300E-002   4.0624146677561465E-002
   5.6964705578141685E-002  -1.8587742703446430E-002   4.0758424546399968E-002
   5.6401525958242091E-002  -1.8046776363371396E-002   4.1345085935442116E-002
   5.5838346338342518E-002  -1.7285248680773996E-002   4.2384130844687784E-002
   5.1111477344809308E-002  -1.8696145913330325E-002   4.0559874079908104E-002
   5.0792974591498445E-002  -1.7566660510087900E-002   4.2056906228674765E-002
   5.0474471838187603E-002  -1.6581781920220973E-002   4.3590908590415277E-002
   5.0155969084876663E-002  -1.5741510143729386E-002   4.5161881165129786E-002
   4.9837466331565862E-002  -1.5045845180613263E-002   4.6769823952818146E-002
   4.6116757060850777E-002  -1.8384300470630777E-002   4.1389721657050182E-002
   4.5627517866898976E-002  -1.6225173319176583E-002   4.4336723450050963E-002
   4.5138278672947174E-002  -1.4575821136995390E-002   4.6905282148795885E-002
   4.4649039478995386E-002  -1.3436243924087540E-002   4.9095397753285017E-002
   4.4159800285043599E-002  -1.2806441680452474E-002   5.0907070263518539E-002
   6.8809748232659285E-002  -2.1764055681095462E-002   3.2867404236136766E-002
   6.5624425586133989E-002  -2.0440789341378496E-002   3.1170364485110152E-002
   6.2439102939608748E-002  -1.9208394219664526E-002   2.9994584535683183E-002
   5.9253780293083480E-002  -1.8066870315953679E-002   2.9340064387856135E-002
   5.6068457646558212E-002  -1.7016217630246022E-002   2.9206804041628232E-002
   6.2162440305373656E-002  -1.9524652180934743E-002   3.7749990939127204E-002
   5.9458667672123391E-002  -1.8434125940843912E-002   3.6261290839831165E-002
   5.6754895038873085E-002  -1.7403057523148566E-002   3.5214430965485433E-002
   5.4051122405622785E-002  -1.6431446927848547E-002   3.4609411316089952E-002
   5.1347349772372514E-002  -1.5519294154944130E-002   3.4446231891644835E-002
   5.5838346338342518E-002  -1.7285248680773996E-002   4.2384130844687784E-002
   5.3536704141717871E-002  -1.6427462540309357E-002   4.1135183792729679E-002
   5.1235061945093210E-002  -1.5597720826632550E-002   4.0248657389072892E-002
   4.8933419748468550E-002  -1.4796023539743471E-002   3.9724551633716854E-002
   4.6631777551843959E-002  -1.4022370679642210E-002   3.9562866526661813E-002
   4.9837466331565862E-002  -1.5045845180613263E-002   4.6769823952818146E-002
   4.7858534994917469E-002  -1.4420799139774843E-002   4.5792043343806030E-002
   4.5879603658269111E-002  -1.3792384130116450E-002   4.5097263806445631E-002
   4.3900672321620732E-002  -1.3160600151638256E-002   4.4685485340736852E-002
   4.1921740984972353E-002  -1.2525447204340331E-002   4.4556707946679749E-002
   4.4159800285043599E-002  -1.2806441680452474E-002   5.0907070263518539E-002
   4.2424160231722199E-002  -1.2414135739240217E-002   5.0231869493059828E-002
   4.0688520178400758E-002  -1.1987047433600601E-002   4.9760250217603719E-002
   3.8952880125079359E-002  -1.1525176763533214E-002   4.9492212437149630E-002
   3.7217240071757918E-002  -1.1028523729038453E-002   4.9427756151697866E-002
   5.6068457646558212E-002  -1.7016217630246022E-002   2.9206804041628232E-002
   5.3778499649760614E-002  -1.6058870106196194E-002   2.8969946602274921E-002
   5.1488541652963044E-002  -1.5197261687459399E-002   2.8894607740450190E-002
   4.9198583656165459E-002  -1.4431392374035405E-002   2.8980787456154136E-002
   4.6908625659367875E-002  -1.3761262165924548E-002   2.9228485749386302E-002
   5.1347349772372514E-002  -1.5519294154944130E-002   3.4446231891644835E-002
   4.9222232867991947E-002  -1.4670766590029749E-002   3.4136466771387930E-002
   4.7097115963611297E-002  -1.3890031618700574E-002   3.3994865258436660E-002
   4.4971999059230661E-002  -1.3177089240956386E-002   3.4021427352790908E-002
   4.2846882154850052E-002  -1.2531939456797259E-002   3.4216153054450249E-002
   4.6631777551843959E-002  -1.4022370679642210E-002   3.9562866526661813E-002
   4.4678146769657173E-002  -1.3282663073863429E-002   3.9208140237229613E-002
   4.2724515987470423E-002  -1.2582801549941743E-002   3.9028222584879611E-002
   4.0770885205283644E-002  -1.1922786107877366E-002   3.9023113569611925E-002
   3.8817254423096886E-002  -1.1302616747670025E-002   3.9192813191426534E-002
   4.1921740984972353E-002  -1.2525447204340331E-002   4.4556707946679749E-002
   4.0146241354756418E-002  -1.1894559557696992E-002   4.4184966999799402E-002
   3.8370741724540414E-002  -1.1275571481182942E-002   4.3994679719778593E-002
   3.6595242094324458E-002  -1.0668482974798207E-002   4.3985846106617155E-002
   3.4819742464108468E-002  -1.0073294038542929E-002   4.4158466160314672E-002
   3.7217240071757918E-002  -1.1028523729038453E-002   4.9427756151697866E-002
   3.5626516623289639E-002  -1.0506456041530637E-002   4.9066947059097976E-002
   3.4035793174821319E-002  -9.9683414124241004E-003   4.8894236663134250E-002
   3.2445069726353019E-002  -9.4141798417192758E-003   4.8909624963806533E-002
   3.0854346277884720E-002  -8.8439713294156119E-003   4.9113111961115119E-002
   4.6908625659367875E-002  -1.3761262165924548E-002   2.9228485749386302E-002
   4.4681979772997066E-002  -1.3125407766013009E-002   2.8801534172429422E-002
   4.2455333886626256E-002  -1.2462365877188353E-002   2.8480744281727088E-002
   4.0228688000255447E-002  -1.1772136499450206E-002   2.8266116077278886E-002
   3.8002042113884582E-002  -1.1054719632798471E-002   2.8157649559085063E-002
   4.2846882154850052E-002  -1.2531939456797259E-002   3.4216153054450249E-002
   4.0735771203145421E-002  -1.1911330219377014E-002   3.3853639993180640E-002
   3.8624660251440776E-002  -1.1272009481849629E-002   3.3616035114988951E-002
   3.6513549299736138E-002  -1.0613977244215072E-002   3.3503338419875378E-002
   3.4402438348031528E-002  -9.9372335064734640E-003   3.3515549907839781E-002
   3.8817254423096886E-002  -1.1302616747670025E-002   3.9192813191426534E-002
   3.6840424902882328E-002  -1.0697252672740909E-002   3.8886262657037499E-002
   3.4863595382667714E-002  -1.0081653086511017E-002   3.8723366802550216E-002
   3.2886765862453100E-002  -9.4558179889801600E-003   3.8704125627965061E-002
   3.0909936342238556E-002  -8.8197473801485127E-003   3.8828539133281853E-002
   3.4819742464108468E-002  -1.0073294038542929E-002   4.4158466160314672E-002
   3.2995940872207724E-002  -9.4831751261047481E-003   4.3899402163999776E-002
   3.1172139280306977E-002  -8.8912966911725705E-003   4.3802739344410979E-002
   2.9348337688406188E-002  -8.2976587337451925E-003   4.3868477701547656E-002
   2.7524536096505486E-002  -7.7022612538235335E-003   4.4096617235410245E-002
   3.0854346277884720E-002  -8.8439713294156119E-003   4.9113111961115119E-002
   2.9202319111121672E-002  -8.2690975794685873E-003   4.8893058514068333E-002
   2.7550291944358637E-002  -7.7009402958335693E-003   4.8854152740570977E-002
   2.5898264777595582E-002  -7.1394994785102528E-003   4.8996394640623386E-002
   2.4246237610832527E-002  -6.5847751274986654E-003   4.9319784214225559E-002
   3.8002042113884582E-002  -1.1054719632798471E-002   2.8157649559085063E-002
   3.5517796870005947E-002  -1.0323394398204511E-002   2.7377311117747882E-002
   3.3033551626127311E-002  -9.5914399166394937E-003   2.6778159558268955E-002
   3.0549306382248648E-002  -8.8588561881038433E-003   2.6360194880648447E-002
   2.8065061138369984E-002  -8.1256432125975664E-003   2.6123417084886302E-002
   3.4402438348031528E-002  -9.9372335064734640E-003   3.3515549907839781E-002
   3.2097245604328389E-002  -9.2491944755972999E-003   3.2842433011446126E-002
   2.9792052860625265E-002  -8.5572763585593792E-003   3.2346234233545185E-002
   2.7486860116922161E-002  -7.8614791553601668E-003   3.2026953574136735E-002
   2.5181667373219030E-002  -7.1618028659989896E-003   3.1884591033221277E-002
   3.0909936342238556E-002  -8.8197473801485127E-003   3.8828539133281853E-002
   2.8779527335345223E-002  -8.1749945529900336E-003   3.8265893621022201E-002
   2.6649118328452015E-002  -7.5231128004792508E-003   3.7875897463889738E-002
   2.4518709321558731E-002  -6.8641021226160427E-003   3.7658550661884484E-002
   2.2388300314665474E-002  -6.1979625194004129E-003   3.7613853215006127E-002
   2.7524536096505486E-002  -7.7022612538235335E-003   4.4096617235410245E-002
   2.5564642063056475E-002  -7.1007946303830172E-003   4.3647692946475893E-002
   2.3604748029607492E-002  -6.4889492423991849E-003   4.3367149249302905E-002
   2.1644853996158481E-002  -5.8667250898721424E-003   4.3254986143891262E-002
   1.9684959962709494E-002  -5.2341221728017806E-003   4.3311203630241144E-002
   2.4246237610832527E-002  -6.5847751274986654E-003   4.9319784214225559E-002
   2.2452589787462146E-002  -6.0265947077756121E-003   4.8987830987807013E-002
   2.0658941964091751E-002  -5.4547856843189246E-003   4.8819989589784285E-002
   1.8865294140721335E-002  -4.8693480571279993E-003   4.8816260020157265E-002
   1.7071646317350975E-002  -4.2702818262032594E-003   4.8976642278926175E-002
   2.8065061138369984E-002  -8.1256432125975664E-003   2.6123417084886302E-002
   2.5719383096077963E-002  -7.3687750505816996E-003   2.5580238689768886E-002
   2.3373705053786054E-002  -6.5652257625183896E-003   2.4975816834119646E-002
   2.1028027011494130E-002  -5.7149953484069704E-003   2.4310151517938416E-002
   1.8682348969202123E-002  -4.8180838082482191E-003   2.3583242741225030E-002
   2.5181667373219030E-002  -7.1618028659989896E-003   3.1884591033221277E-002
   2.2815326835666255E-002  -6.4564838853850004E-003   3.1499064021168754E-002
   2.0448986298113495E-002  -5.7437586084266301E-003   3.1133455479126299E-002
   1.8082645760560727E-002  -5.0236270351241702E-003   3.0787765407094533E-002
   1.5716305223008015E-002  -4.2960891654776345E-003   3.0461993805072973E-002
   2.2388300314665474E-002  -6.1979625194004129E-003   3.7613853215006127E-002
   2.0082459212394363E-002  -5.5441927201881069E-003   3.7346702756314409E-002
   1.7776618110123245E-002  -4.9222914543352037E-003   3.7180632698175953E-002
   1.5470777007852123E-002  -4.3322587218412589E-003   3.7115643040590174E-002
   1.3164935905580960E-002  -3.7740945227069944E-003   3.7151733783557128E-002
   1.9684959962709494E-002  -5.2341221728017806E-003   4.3311203630241144E-002
   1.7520780226262436E-002  -4.6319015549912551E-003   4.3123154895207419E-002
   1.5356600489815299E-002  -4.1008243002436107E-003   4.3117348491268720E-002
   1.3192420753368121E-002  -3.6408904085586252E-003   4.3293784418425151E-002
   1.1028241016921049E-002  -3.2520998799363265E-003   4.3652462676676843E-002
   1.7071646317350975E-002  -4.2702818262032594E-003   4.8976642278926175E-002
   1.5130289877270275E-002  -3.7196103897946253E-003   4.8828420437846298E-002
   1.3188933437189604E-002  -3.2793571461519067E-003   4.8943602858404323E-002
   1.1247576997108946E-002  -2.9495220952756307E-003   4.9322189540599720E-002
   9.3062205570282885E-003  -2.7301052371657697E-003   4.9964180484432852E-002
   1.8682348969202123E-002  -4.8180838082482191E-003   2.3583242741225030E-002
   1.5658296712165232E-002  -4.0871552934199640E-003   2.4376521086540426E-002
   1.2634244455128313E-002  -3.7348739553007548E-003   2.5642442428479795E-002
   9.6101921980913940E-003  -3.7612397938902170E-003   2.7381006767043109E-002
   6.5861399410545030E-003  -4.1662528091893636E-003   2.9592214102229675E-002
   1.5716305223008015E-002  -4.2960891654776345E-003   3.0461993805072973E-002
   1.3146636280066626E-002  -3.7830044200667379E-003   3.1244207035865001E-002
   1.0576967337125334E-002  -3.7062322194716946E-003   3.2462543898224061E-002
   8.0072983941840356E-003  -4.0657725636925740E-003   3.4117004392150679E-002
   5.4376294512427092E-003  -4.8616254527288350E-003   3.6207588517644718E-002
   1.3164935905580960E-002  -3.7740945227069944E-003   3.7151733783557128E-002
   1.1013130911678715E-002  -3.4788535467135673E-003   3.7865216531718593E-002
   8.8613259177764692E-003  -3.6775904836426065E-003   3.8978303546391230E-002
   6.7095209238741960E-003  -4.3703053334943689E-003   4.0490994827574414E-002
   4.5577159299719783E-003  -5.5569980962686949E-003   4.2403290375268715E-002
   1.1028241016921049E-002  -3.2520998799363265E-003   4.3652462676676843E-002
   9.2577806070014146E-003  -3.1747026733601469E-003   4.4239549574101464E-002
   7.4873201970817524E-003  -3.6489487478136989E-003   4.5189721372980184E-002
   5.7168597871620902E-003  -4.6748381032961119E-003   4.6502978073313453E-002
   3.9463993772424558E-003  -6.2523707398085826E-003   4.8179319675101050E-002
   9.3062205570282885E-003  -2.7301052371657697E-003   4.9964180484432852E-002
   7.8805853660346981E-003  -2.8705518000071706E-003   5.0367206163013600E-002
   6.4549501750411353E-003  -3.6203070119844027E-003   5.1096797377991943E-002
   5.0293149840475865E-003  -4.9793708730983960E-003   5.2152954129368323E-002
   3.6036797930539821E-003  -6.9477433833482483E-003   5.3535676417142408E-002
   6.5861399410545030E-003  -4.1662528091893636E-003   2.9592214102229675E-002
   6.0572413464022867E-003  -6.1457547677447044E-003   3.4070803603717947E-002
   5.5283427517501815E-003  -1.0895587436103665E-002   3.9234637968521502E-002
   4.9994441570981041E-003  -1.8415750814267391E-002   4.5083717196640810E-002
   4.4705455624458601E-003  -2.8706244902235056E-002   5.1618041288075567E-002
   5.4376294512427092E-003  -4.8616254527288350E-003   3.6207588517644718E-002
   5.4902109325764281E-003  -6.9939698669526651E-003   3.8347509592662310E-002
   5.5427924139101192E-003  -1.1362984786736058E-002   4.0965145956335880E-002
   5.5953738952439075E-003  -1.7968670212078104E-002   4.4060497608665983E-002
   5.6479553765775292E-003  -2.6811026142979477E-002   4.7633564549651730E-002
   4.5577159299719783E-003  -5.5569980962686949E-003   4.2403290375268715E-002
   4.9842479126319117E-003  -7.8421849661613474E-003   4.2738203228060823E-002
   5.4107798952918312E-003  -1.1830382137367881E-002   4.3343301794849451E-002
   5.8373118779517577E-003  -1.7521589609888647E-002   4.4218586075634163E-002
   6.2638438606116842E-003  -2.4915807383723676E-002   4.5364056070415715E-002
   3.9463993772424558E-003  -6.2523707398085826E-003   4.8179319675101050E-002
   4.5393522865689040E-003  -8.6904000653700020E-003   4.7242884509913215E-002
   5.1323051958953002E-003  -1.2297779488000100E-002   4.6369105484061868E-002
   5.7252581052218369E-003  -1.7074509007699495E-002   4.5557982597546981E-002
   6.3182110145481446E-003  -2.3020588624467875E-002   4.4809515850369630E-002
   3.6036797930539821E-003  -6.9477433833482483E-003   5.3535676417142408E-002
   4.1555240543873218E-003  -9.5386151645782125E-003   5.1861553438219188E-002
   4.7073683157206059E-003  -1.2765176838631875E-002   5.0042557023973089E-002
   5.2592125770538900E-003  -1.6627428405509903E-002   4.8078687174403945E-002
   5.8110568383871186E-003  -2.1125369865212296E-002   4.5969943889511367E-002
   4.6116757060850777E-002  -1.8384300470630777E-002   4.1389721657050182E-002
   4.5627517866898976E-002  -1.6225173319176583E-002   4.4336723450050963E-002
   4.5138278672947174E-002  -1.4575821136995390E-002   4.6905282148795885E-002
   4.4649039478995386E-002  -1.3436243924087540E-002   4.9095397753285017E-002
   4.4159800285043599E-002  -1.2806441680452474E-002   5.0907070263518539E-002
   4.1714605578095587E-002  -1.4889533311410574E-002   4.7708301223481353E-002
   4.0946679720950147E-002  -1.3557248576447883E-002   4.9559541218335779E-002
   4.0178753863804664E-002  -1.2506766157096214E-002   5.1231850981058674E-002
   3.9410828006659210E-002  -1.1738086053355645E-002   5.2725230511649609E-002
   3.8642902149513714E-002  -1.1251208265226159E-002   5.4039679810109320E-002
   3.6512724508574068E-002  -1.1394766152190344E-002   5.3086052046590129E-002
   3.5665624850359116E-002  -1.0889323833719114E-002   5.4069502896960234E-002
   3.4818525192144109E-002  -1.0437711177196933E-002   5.5073536377322617E-002
   3.3971425533929116E-002  -1.0039928182623862E-002   5.6098152487677855E-002
   3.3124325875714164E-002  -9.6959748499997611E-003   5.7143351228025469E-002
   3.0511113852286068E-002  -7.8999989929701281E-003   5.7522974126376497E-002
   2.9784353255125767E-002  -8.2213990909903653E-003   5.7866608485924051E-002
   2.9057592657965436E-002  -8.3686561972977323E-003   5.8430338337588456E-002
   2.8330832060805139E-002  -8.3417703118921077E-003   5.9214163681369572E-002
   2.7604071463644814E-002  -8.1407414347734325E-003   6.0218084517267408E-002
   2.3709773609231710E-002  -4.4052318337499119E-003   6.1019067462840193E-002
   2.3302864935250245E-002  -5.5534743482616444E-003   6.0950857985227536E-002
   2.2895956261268738E-002  -6.2996012173984622E-003   6.1302256861855670E-002
   2.2489047587287259E-002  -6.6436124411602369E-003   6.2073264092724637E-002
   2.2082138913305752E-002  -6.5855080195470483E-003   6.3263879677834756E-002
   4.4159800285043599E-002  -1.2806441680452474E-002   5.0907070263518539E-002
   4.2424160231722199E-002  -1.2414135739240217E-002   5.0231869493059828E-002
   4.0688520178400758E-002  -1.1987047433600601E-002   4.9760250217603719E-002
   3.8952880125079359E-002  -1.1525176763533214E-002   4.9492212437149630E-002
   3.7217240071757918E-002  -1.1028523729038453E-002   4.9427756151697866E-002
   3.8642902149513714E-002  -1.1251208265226159E-002   5.4039679810109320E-002
   3.7111743699786037E-002  -1.0892272298182570E-002   5.3394051528905528E-002
   3.5580585250058375E-002  -1.0507417657700156E-002   5.2953804959887385E-002
   3.4049426800330719E-002  -1.0096644343778679E-002   5.2718940103054224E-002
   3.2518268350603008E-002  -9.6599523564179779E-003   5.2689456958406239E-002
   3.3124325875714164E-002  -9.6959748499997611E-003   5.7143351228025469E-002
   3.1799449246763131E-002  -9.3704088571249788E-003   5.6518431745088325E-002
   3.0474572617812133E-002  -9.0277878817997120E-003   5.6100694191519515E-002
   2.9149695988861118E-002  -8.6681119240239780E-003   5.5890138567318746E-002
   2.7824819359910109E-002  -8.2913809837976971E-003   5.5886764872486047E-002
   2.7604071463644814E-002  -8.1407414347734325E-003   6.0218084517267408E-002
   2.6487276872653401E-002  -7.8485454160672763E-003   5.9605010141608246E-002
   2.5370482281662027E-002  -7.5481581058992678E-003   5.9200917912500234E-002
   2.4253687690670645E-002  -7.2395795042693601E-003   5.9005807829943163E-002
   2.3136893099679236E-002  -6.9228096111774856E-003   5.9019679893937305E-002
   2.2082138913305752E-002  -6.5855080195470483E-003   6.3263879677834756E-002
   2.1175226577456907E-002  -6.3266819750097680E-003   6.2653786718465082E-002
   2.0268314241608062E-002  -6.0685283299987958E-003   6.2254476122829389E-002
   1.9361401905759211E-002  -5.8110470845147075E-003   6.2065947890927675E-002
   1.8454489569910359E-002  -5.5542382385569966E-003   6.2088202022760108E-002
   3.7217240071757918E-002  -1.1028523729038453E-002   4.9427756151697866E-002
   3.5626516623289639E-002  -1.0506456041530637E-002   4.9066947059097976E-002
   3.4035793174821319E-002  -9.9683414124241004E-003   4.8894236663134250E-002
   3.2445069726353019E-002  -9.4141798417192758E-003   4.8909624963806533E-002
   3.0854346277884720E-002  -8.8439713294156119E-003   4.9113111961115119E-002
   3.2518268350603008E-002  -9.6599523564179779E-003   5.2689456958406239E-002
   3.1118143406160204E-002  -9.2034356306219534E-003   5.2351559276173132E-002
   2.9718018461717385E-002  -8.7331881013935214E-003   5.2206759905354824E-002
   2.8317893517274574E-002  -8.2492097687328521E-003   5.2255058845951392E-002
   2.6917768572831749E-002  -7.7515006326398517E-003   5.2496456097962940E-002
   2.7824819359910109E-002  -8.2913809837976971E-003   5.5886764872486047E-002
   2.6620292534271520E-002  -7.9004152197132832E-003   5.5569462462453326E-002
   2.5415765708632913E-002  -7.4980347903628244E-003   5.5450257978614394E-002
   2.4211238882994320E-002  -7.0842396957465376E-003   5.5529151420968856E-002
   2.3006712057355709E-002  -6.6590299358641469E-003   5.5806142789517010E-002
   2.3136893099679236E-002  -6.9228096111774856E-003   5.9019679893937305E-002
   2.2132964007623570E-002  -6.5973948088048559E-003   5.8720656617938807E-002
   2.1129034915567901E-002  -6.2628814793322697E-003   5.8624730882912729E-002
   2.0125105823512245E-002  -5.9192696227602240E-003   5.8731902688858972E-002
   1.9121176731456566E-002  -5.5665592390884699E-003   5.9042172035777329E-002
   1.8454489569910359E-002  -5.5542382385569966E-003   6.2088202022760108E-002
   1.7656157826216351E-002  -5.2943743978959845E-003   6.1805141742629521E-002
   1.6857826082522356E-002  -5.0277281683015207E-003   6.1730178618249920E-002
   1.6059494338828355E-002  -4.7542995497739035E-003   6.1863312649621471E-002
   1.5261162595134353E-002  -4.4740885423126264E-003   6.2204543836744175E-002
   3.0854346277884720E-002  -8.8439713294156119E-003   4.9113111961115119E-002
   2.9202319111121672E-002  -8.2690975794685873E-003   4.8893058514068333E-002
   2.7550291944358637E-002  -7.7009402958335693E-003   4.8854152740570977E-002
   2.5898264777595582E-002  -7.1394994785102528E-003   4.8996394640623386E-002
   2.4246237610832527E-002  -6.5847751274986654E-003   4.9319784214225559E-002
   2.6917768572831749E-002  -7.7515006326398517E-003   5.2496456097962940E-002
   2.5450207827665980E-002  -7.2463994845144708E-003   5.2302410965701124E-002
   2.3982647082500204E-002  -6.7402451157565213E-003   5.2296151003084157E-002
   2.2515086337334411E-002  -6.2330375263658019E-003   5.2477676210112012E-002
   2.1047525592168659E-002  -5.7247767163425278E-003   5.2846986586784939E-002
   2.3006712057355709E-002  -6.6590299358641469E-003   5.5806142789517010E-002
   2.1730255229882485E-002  -6.2237013895602988E-003   5.5645875658984684E-002
   2.0453798402409257E-002  -5.7795499356794733E-003   5.5680031194192431E-002
   1.9177341574936016E-002  -5.3265755742214066E-003   5.5908609395140377E-002
   1.7900884747462813E-002  -4.8647783051863347E-003   5.6331610261828730E-002
   1.9121176731456566E-002  -5.5665592390884699E-003   5.9042172035777329E-002
   1.8042461317771173E-002  -5.2010032946060991E-003   5.8923452593918839E-002
   1.6963745904085815E-002  -4.8188547556020922E-003   5.9005793313895688E-002
   1.5885030490400458E-002  -4.4201136220769835E-003   5.9289194195708168E-002
   1.4806315076715071E-002  -4.0047798940302803E-003   5.9773655239355926E-002
   1.5261162595134353E-002  -4.4740885423126264E-003   6.2204543836744175E-002
   1.4386826091332100E-002  -4.1783051996519549E-003   6.2135141770503666E-002
   1.3512489587529875E-002  -3.8581595755250858E-003   6.2273437362194178E-002
   1.2638153083727642E-002  -3.5136516699325430E-003   6.2619430611815477E-002
   1.1763816579925396E-002  -3.1447814828740039E-003   6.3173121519367381E-002
   2.4246237610832527E-002  -6.5847751274986654E-003   4.9319784214225559E-002
   2.2452589787462146E-002  -6.0265947077756121E-003   4.8987830987807013E-002
   2.0658941964091751E-002  -5.4547856843189246E-003   4.8819989589784285E-002
   1.8865294140721335E-002  -4.8693480571279993E-003   4.8816260020157265E-002
   1.7071646317350975E-002  -4.2702818262032594E-003   4.8976642278926175E-002
   2.1047525592168659E-002  -5.7247767163425278E-003   5.2846986586784939E-002
   1.9427824067485056E-002  -5.2147090120259754E-003   5.2585033590459518E-002
   1.7808122542801438E-002  -4.7020807397559206E-003   5.2506861363111806E-002
   1.6188421018117842E-002  -4.1868918995324605E-003   5.2612469904741707E-002
   1.4568719493434246E-002  -3.6691424913549708E-003   5.2901859215349734E-002
   1.7900884747462813E-002  -4.8647783051863347E-003   5.6331610261828730E-002
   1.6474798462048058E-002  -4.4028233162761998E-003   5.6128589459815581E-002
   1.5048712176633321E-002  -3.9493757951930136E-003   5.6129018367362074E-002
   1.3622625891218586E-002  -3.5044357419365853E-003   5.6332896984468590E-002
   1.2196539605803830E-002  -3.0680031565071264E-003   5.6740225311134956E-002
   1.4806315076715071E-002  -4.0047798940302803E-003   5.9773655239355926E-002
   1.3593512971151188E-002  -3.5909376205262161E-003   5.9618498595874939E-002
   1.2380710865587341E-002  -3.1966708506300026E-003   5.9686460602535657E-002
   1.1167908760023467E-002  -2.8219795843407117E-003   5.9977541259338109E-002
   9.9551066544595820E-003  -2.4668638216591154E-003   6.0491740566282828E-002
   1.1763816579925396E-002  -3.1447814828740039E-003   6.3173121519367381E-002
   1.0783967594794455E-002  -2.7790519247765655E-003   6.3054760998637605E-002
   9.8041186096635147E-003  -2.4439659060669916E-003   6.3179188068631820E-002
   8.8242696245325741E-003  -2.1395234267449770E-003   6.3546402729350110E-002
   7.8444206394016336E-003  -1.8657244868109935E-003   6.4156404980792336E-002
   1.7071646317350975E-002  -4.2702818262032594E-003   4.8976642278926175E-002
   1.5130289877270275E-002  -3.7196103897946253E-003   4.8828420437846298E-002
   1.3188933437189604E-002  -3.2793571461519067E-003   4.8943602858404323E-002
   1.1247576997108946E-002  -2.9495220952756307E-003   4.9322189540599720E-002
   9.3062205570282885E-003  -2.7301052371657697E-003   4.9964180484432852E-002
   1.4568719493434246E-002  -3.6691424913549708E-003   5.2901859215349734E-002
   1.2888717842747227E-002  -3.2051861495513978E-003   5.2772052391578783E-002
   1.1208716192060222E-002  -2.8513765084483833E-003   5.2901550884957238E-002
   9.5287145413731900E-003  -2.6077135680456845E-003   5.3290354695485681E-002
   7.8487128906861992E-003  -2.4741973283439744E-003   5.3938463823163585E-002
   1.2196539605803830E-002  -3.0680031565071264E-003   5.6740225311134956E-002
   1.0773793800022469E-002  -2.6907619093086699E-003   5.6629104996738788E-002
   9.3510479942410865E-003  -2.4233958707447489E-003   5.6773191055003974E-002
   7.9283021884597356E-003  -2.2659050408160714E-003   5.7172483485930778E-002
   6.5055563826783430E-003  -2.2182894195220682E-003   5.7826982289519380E-002
   9.9551066544595820E-003  -2.4668638216591154E-003   6.0491740566282828E-002
   8.7855177490958891E-003  -2.1763376690657477E-003   6.0399578253326570E-002
   7.6159288437322257E-003  -1.9954152330414476E-003   6.0558523368543865E-002
   6.4463399383685562E-003  -1.9240965135862362E-003   6.0968575911935115E-002
   5.2767510330048693E-003  -1.9623815107002174E-003   6.1629735883499570E-002
   7.8444206394016336E-003  -1.8657244868109935E-003   6.4156404980792336E-002
   6.9238896899676411E-003  -1.6619134288228254E-003   6.4083472161342137E-002
   6.0033587405336208E-003  -1.5674345953376467E-003   6.4257547825577299E-002
   5.0828277910996006E-003  -1.5822879863565259E-003   6.4678631973498296E-002
   4.1622968416655803E-003  -1.7064736018783666E-003   6.5346724605105044E-002
   9.3062205570282885E-003  -2.7301052371657697E-003   4.9964180484432852E-002
   7.8805853660346981E-003  -2.8705518000071706E-003   5.0367206163013600E-002
   6.4549501750411353E-003  -3.6203070119844027E-003   5.1096797377991943E-002
   5.0293149840475865E-003  -4.9793708730983960E-003   5.2152954129368323E-002
   3.6036797930539821E-003  -6.9477433833482483E-003   5.3535676417142408E-002
   7.8487128906861992E-003  -2.4741973283439744E-003   5.3938463823163585E-002
   6.7238662755342155E-003  -2.6532117275878120E-003   5.3867952086358972E-002
   5.5990196603822734E-003  -3.3471407040224777E-003   5.4072451964839230E-002
   4.4741730452303244E-003  -4.5559842576480963E-003   5.4551963458605246E-002
   3.3493264300783476E-003  -6.2797423884641823E-003   5.5306486567656243E-002
   6.5055563826783430E-003  -2.2182894195220682E-003   5.7826982289519380E-002
   5.6299444222555339E-003  -2.4358716551684534E-003   5.7377327209274187E-002
   4.7543324618327457E-003  -3.0739743960602472E-003   5.7151129823202057E-002
   3.8787205014099470E-003  -4.1325976421976926E-003   5.7148390131302976E-002
   3.0031085409871483E-003  -5.6117413935802274E-003   5.7369108133576430E-002
   5.2767510330048693E-003  -1.9623815107002174E-003   6.1629735883499570E-002
   4.5988198061987229E-003  -2.2185315827490948E-003   6.0895331531760008E-002
   3.9208885793925747E-003  -2.8008080880981695E-003   6.0332830953080542E-002
   3.2429573525864413E-003  -3.7092110267470078E-003   5.9942234147461693E-002
   2.5650261257802801E-003  -4.9437403986964390E-003   5.9723541114903383E-002
   4.1622968416655803E-003  -1.7064736018783666E-003   6.5346724605105044E-002
   3.6304924273636713E-003  -2.0011915103297917E-003   6.4421965053815700E-002
   3.0986880130617345E-003  -2.5276417801360918E-003   6.3617555354474553E-002
   2.5668835987598115E-003  -3.2858244112970447E-003   6.2933495507081105E-002
   2.0350791844578886E-003  -4.2757394038122065E-003   6.2369785511635856E-002
   3.6036797930539821E-003  -6.9477433833482483E-003   5.3535676417142408E-002
   4.1555240543873218E-003  -9.5386151645782125E-003   5.1861553438219188E-002
   4.7073683157206059E-003  -1.2765176838631875E-002   5.0042557023973089E-002
   5.2592125770538900E-003  -1.6627428405509903E-002   4.8078687174403945E-002
   5.8110568383871186E-003  -2.1125369865212296E-002   4.5969943889511367E-002
   3.3493264300783476E-003  -6.2797423884641823E-003   5.5306486567656243E-002
   3.7736800251638031E-003  -8.5484596757392506E-003   5.2952535017417313E-002
   4.1980336202492724E-003  -1.1392180698741372E-002   5.0488475570005575E-002
   4.6223872153347625E-003  -1.4810905457469992E-002   4.7914308225421476E-002
   5.0467408104202249E-003  -1.8804633951925220E-002   4.5230032983664348E-002
   3.0031085409871483E-003  -5.6117413935802274E-003   5.7369108133576430E-002
   3.3347370079751040E-003  -7.5583041869006218E-003   5.4396014169118934E-002
   3.6663654749631153E-003  -1.0019184558850314E-002   5.1347577845639591E-002
   3.9979939419510571E-003  -1.2994382509429636E-002   4.8223799163137057E-002
   4.3296224089390822E-003  -1.6483898038638367E-002   4.5024678121613260E-002
   2.5650261257802801E-003  -4.9437403986964390E-003   5.9723541114903383E-002
   2.8386950028211153E-003  -6.5681486980618264E-003   5.6191990893324273E-002
   3.1123638798619645E-003  -8.6461884189594218E-003   5.2619863850873361E-002
   3.3860327569028761E-003  -1.1177859561389281E-002   4.9007159987550411E-002
   3.6597016339436211E-003  -1.4163162125351292E-002   4.5353879303355965E-002
   2.0350791844578886E-003  -4.2757394038122065E-003   6.2369785511635856E-002
   2.2855540097019289E-003  -5.5779932092230311E-003   5.8340465190032997E-002
   2.5360288349459831E-003  -7.2731922790683634E-003   5.4305333585708659E-002
   2.7865036601900442E-003  -9.3613366133491055E-003   5.0264390698663008E-002
   3.0369784854340498E-003  -1.1842426212064439E-002   4.6217636528895323E-002
   2.3709773609231710E-002  -4.4052318337499119E-003   6.1019067462840193E-002
   2.3302864935250245E-002  -5.5534743482616444E-003   6.0950857985227536E-002
   2.2895956261268738E-002  -6.2996012173984622E-003   6.1302256861855670E-002
   2.2489047587287259E-002  -6.6436124411602369E-003   6.2073264092724637E-002
   2.2082138913305752E-002  -6.5855080195470483E-003   6.3263879677834756E-002
   1.6829336832618197E-002  -3.1798691081717512E-003   5.9270285359251829E-002
   1.6761382611821349E-002  -4.0959305191793360E-003   6.0122964393518136E-002
   1.6693428391024487E-002  -4.6940957889873708E-003   6.1233943979912886E-002
   1.6625474170227625E-002  -4.9743649175958242E-003   6.2603224118436107E-002
   1.6557519949430784E-002  -4.9367379050046234E-003   6.4230804809087522E-002
   1.0590436575652826E-002  -1.9545063825935627E-003   5.7795794111255031E-002
   1.0700129005928045E-002  -2.6383866900970276E-003   5.9485142153225215E-002
   1.0809821436203265E-002  -3.0885903605763418E-003   6.1271482945211224E-002
   1.0919513866478471E-002  -3.3051173940314132E-003   6.3154816487213009E-002
   1.1029206296753691E-002  -3.2879677904623095E-003   6.5135142779230409E-002
   4.9930728383356000E-003  -7.2914365701536032E-004   5.6595593718850451E-002
   5.1191041175703191E-003  -1.1808428610147192E-003   5.9037391264348801E-002
   5.2451353968050382E-003  -1.4830849321652538E-003   6.1414873757750676E-002
   5.3711666760397608E-003  -1.6358698704669458E-003   6.3728041199055521E-002
   5.4971979552744833E-003  -1.6391976759199400E-003   6.5976893588263752E-002
   3.7245620666516432E-005   4.9621906856278652E-004   5.5669684182037438E-002
   1.8307946748175041E-005   2.7670096806764466E-004   5.8779711726888895E-002
  -6.2972717015941093E-007   1.2242049624577866E-004   6.1664116417531001E-002
  -1.9567401088500802E-005   3.3377653097424465E-005   6.4322898253963812E-002
  -3.8505075006838724E-005   9.5724386224294022E-006   6.6756057236187327E-002
   2.2082138913305752E-002  -6.5855080195470483E-003   6.3263879677834756E-002
   2.1175226577456907E-002  -6.3266819750097680E-003   6.2653786718465082E-002
   2.0268314241608062E-002  -6.0685283299987958E-003   6.2254476122829389E-002
   1.9361401905759211E-002  -5.8110470845147075E-003   6.2065947890927675E-002
   1.8454489569910359E-002  -5.5542382385569966E-003   6.2088202022760108E-002
   1.6557519949430784E-002  -4.9367379050046234E-003   6.4230804809087522E-002
   1.5865868058833443E-002  -4.7409711602875021E-003   6.3620350704196069E-002
   1.5174216168236113E-002  -4.5468210925180899E-003   6.3229635126073588E-002
   1.4482564277638771E-002  -4.3542877016962151E-003   6.3058658074720136E-002
   1.3790912387041443E-002  -4.1633709878220460E-003   6.3107419550135713E-002
   1.1029206296753691E-002  -3.2879677904623095E-003   6.5135142779230409E-002
   1.0561771014442875E-002  -3.1552603455655276E-003   6.4523383251396227E-002
   1.0094335732132042E-002  -3.0251138550372175E-003   6.4140318413366038E-002
   9.6269004498212209E-003  -2.8975283188778893E-003   6.3985948265139841E-002
   9.1594651675103930E-003  -2.7725037370870675E-003   6.4060272806717639E-002
   5.4971979552744833E-003  -1.6391976759199400E-003   6.5976893588263752E-002
   5.2629354442851779E-003  -1.5695495308433241E-003   6.5362884360065723E-002
   5.0286729332958630E-003  -1.5034066175564284E-003   6.4986525984706653E-002
   4.7944104223065515E-003  -1.4407689360594247E-003   6.4847818462186596E-002
   4.5601479113172444E-003  -1.3816364863520197E-003   6.4946761792505636E-002
  -3.8505075006838724E-005   9.5724386224294022E-006   6.6756057236187327E-002
  -3.0638651639634112E-005   1.6161283878601829E-005   6.6138854030204308E-002
  -2.2772228272431236E-005   1.8300619924374595E-005   6.5768257840095434E-002
  -1.4905804905227492E-005   1.5990446759015647E-005   6.5644268665860525E-002
  -7.0393815380237479E-006   9.2307643829170338E-006   6.5766886507499622E-002
   1.8454489569910359E-002  -5.5542382385569966E-003   6.2088202022760108E-002
   1.7656157826216351E-002  -5.2943743978959845E-003   6.1805141742629521E-002
   1.6857826082522356E-002  -5.0277281683015207E-003   6.1730178618249920E-002
   1.6059494338828355E-002  -4.7542995497739035E-003   6.1863312649621471E-002
   1.5261162595134353E-002  -4.4740885423126264E-003   6.2204543836744175E-002
   1.3790912387041443E-002  -4.1633709878220460E-003   6.3107419550135713E-002
   1.3198816607868827E-002  -3.9703891627409227E-003   6.2860892686260827E-002
   1.2606720828696211E-002  -3.7716604382983243E-003   6.2818740595677797E-002
   1.2014625049523588E-002  -3.5671848144943827E-003   6.2980963278386565E-002
   1.1422529270350978E-002  -3.3569622913287578E-003   6.3347560734386965E-002
   9.1594651675103930E-003  -2.7725037370870675E-003   6.4060272806717639E-002
   8.7698829703999129E-003  -2.6464039275858331E-003   6.3849243869526590E-002
   8.3803007732894327E-003  -2.5155927082950308E-003   6.3838867323168028E-002
   7.9907185761789404E-003  -2.3800700792148653E-003   6.4029143167641911E-002
   7.6011363790684655E-003  -2.2398360403449169E-003   6.4420071402948267E-002
   4.5601479113172444E-003  -1.3816364863520197E-003   6.4946761792505636E-002
   4.3693569138096248E-003  -1.3224186924307019E-003   6.4770195292426308E-002
   4.1785659163020026E-003  -1.2595249782918136E-003   6.4790558800720335E-002
   3.9877749187943821E-003  -1.1929553439351797E-003   6.5007852317387607E-002
   3.7969839212867607E-003  -1.1227097893611732E-003   6.5422075842427915E-002
  -7.0393815380237479E-006   9.2307643829170338E-006   6.5766886507499622E-002
  -2.7615619020461557E-006   1.5665427243738428E-006   6.5623746954960316E-002
   1.5162577339383754E-006  -3.4572482884159816E-006   6.5673815028334859E-002
   5.7940773699229065E-006  -5.8406086559069370E-006   6.5917090727623431E-002
   1.0071897005900499E-005  -5.5835383772073754E-006   6.6353574052825937E-002
   1.5261162595134353E-002  -4.4740885423126264E-003   6.2204543836744175E-002
   1.4386826091332100E-002  -4.1783051996519549E-003   6.2135141770503666E-002
   1.3512489587529875E-002  -3.8581595755250858E-003   6.2273437362194178E-002
   1.2638153083727642E-002  -3.5136516699325430E-003   6.2619430611815477E-002
   1.1763816579925396E-002  -3.1447814828740039E-003   6.3173121519367381E-002
   1.1422529270350978E-002  -3.3569622913287578E-003   6.3347560734386965E-002
   1.0758380318867271E-002  -3.1347415406469958E-003   6.3319194914603888E-002
   1.0094231367383570E-002  -2.8942712342934773E-003   6.3503506541527005E-002
   9.4300824158998660E-003  -2.6355513722689100E-003   6.3900495615156469E-002
   8.7659334644161618E-003  -2.3585819545727249E-003   6.4510162135492211E-002
   7.6011363790684655E-003  -2.2398360403449169E-003   6.4420071402948267E-002
   7.1521547686787777E-003  -2.0911778816418980E-003   6.4426629103827876E-002
   6.7031731582890899E-003  -1.9303828930619868E-003   6.4650844040189170E-002
   6.2541915478994108E-003  -1.7574510746051122E-003   6.5092716212032400E-002
   5.8052099375097144E-003  -1.5723824262713348E-003   6.5752245619357247E-002
   3.7969839212867607E-003  -1.1227097893611732E-003   6.5422075842427915E-002
   3.5681494407665861E-003  -1.0476142226370916E-003   6.5457444338175783E-002
   3.3393149602464140E-003  -9.6649455183038177E-004   6.5715449858180883E-002
   3.1104804797262501E-003  -8.7935077694139673E-004   6.6196092402443382E-002
   2.8816459992060603E-003  -7.8618289797000029E-004   6.6899371970962893E-002
   1.0071897005900499E-005  -5.5835383772073754E-006   6.6353574052825937E-002
   6.3643351307235418E-006  -4.0505636320076199E-006   6.6411640617647649E-002
   2.6567732555465851E-006  -2.6062105989987927E-006   6.6697323995501934E-002
  -1.0507886196303717E-006  -1.2504792776257823E-006   6.7210624186388956E-002
  -4.7583504948073285E-006   1.6630331334255288E-008   6.7951541190308884E-002
   1.1763816579925396E-002  -3.1447814828740039E-003   6.3173121519367381E-002
   1.0783967594794455E-002  -2.7790519247765655E-003   6.3054760998637605E-002
   9.8041186096635147E-003  -2.4439659060669916E-003   6.3179188068631820E-002
   8.8242696245325741E-003  -2.1395234267449770E-003   6.3546402729350110E-002
   7.8444206394016336E-003  -1.8657244868109935E-003   6.4156404980792336E-002
   8.7659334644161618E-003  -2.3585819545727249E-003   6.4510162135492211E-002
   8.0294323146744492E-003  -2.0840247725620320E-003   6.4402662664815535E-002
   7.2929311649327297E-003  -1.8325416175934695E-003   6.4539071274193560E-002
   6.5564300151909997E-003  -1.6041324896671691E-003   6.4919387963625813E-002
   5.8199288654492976E-003  -1.3987973887830130E-003   6.5543612733112544E-002
   5.8052099375097144E-003  -1.5723824262713348E-003   6.5752245619357247E-002
   5.3131771124877679E-003  -1.3889976203473875E-003   6.5663176711079380E-002
   4.8211442874658145E-003  -1.2211173291199473E-003   6.5819136372186421E-002
   4.3291114624438576E-003  -1.0687415525890837E-003   6.6220124602678745E-002
   3.8370786374219007E-003  -9.3187029075469940E-004   6.6866141402555951E-002
   2.8816459992060603E-003  -7.8618289797000029E-004   6.6899371970962893E-002
   2.6352019882344277E-003  -6.9397046813268748E-004   6.6836303137429359E-002
   2.3887579772627881E-003  -6.0969304064659169E-004   6.7019383362611235E-002
   2.1423139662911485E-003  -5.3335061551108148E-004   6.7448612646508921E-002
   1.8958699553195159E-003  -4.6494319272655238E-004   6.8123990989122085E-002
  -4.7583504948073285E-006   1.6630331334255288E-008   6.7951541190308884E-002
  -4.4930580855861990E-006   1.0566840816794709E-006   6.7922041943865252E-002
  -4.2277656763581306E-006   1.7312478271525045E-006   6.8139812245467946E-002
  -3.9624732671317969E-006   2.0403215668235442E-006   6.8604852095116631E-002
  -3.6971808579089327E-006   1.9839053015946462E-006   6.9317161492811419E-002
   7.8444206394016336E-003  -1.8657244868109935E-003   6.4156404980792336E-002
   6.9238896899676411E-003  -1.6619134288228254E-003   6.4083472161342137E-002
   6.0033587405336208E-003  -1.5674345953376467E-003   6.4257547825577299E-002
   5.0828277910996006E-003  -1.5822879863565259E-003   6.4678631973498296E-002
   4.1622968416655803E-003  -1.7064736018783666E-003   6.5346724605105044E-002
   5.8199288654492976E-003  -1.3987973887830130E-003   6.5543612733112544E-002
   5.1422335413562198E-003  -1.2460015255837953E-003   6.5412480264826878E-002
   4.4645382172631420E-003  -1.1752101107120327E-003   6.5520010563537456E-002
   3.7868428931700643E-003  -1.1864231441680168E-003   6.5866203629244141E-002
   3.1091475690770004E-003  -1.2796406259516502E-003   6.6451059461947126E-002
   3.8370786374219007E-003  -9.3187029075469940E-004   6.6866141402555951E-002
   3.3938732219802835E-003  -8.3008962234459860E-004   6.6704137061610658E-002
   2.9506678065386767E-003  -7.8298562608616895E-004   6.6772449770972186E-002
   2.5074623910970630E-003  -7.9055830197972271E-004   6.7071079530640454E-002
   2.0642569756554527E-003  -8.5280765002482273E-004   6.7600026340615460E-002
   1.8958699553195159E-003  -4.6494319272655238E-004   6.8123990989122085E-002
   1.6788087318398573E-003  -4.1417771910548518E-004   6.7958442551693213E-002
   1.4617475083602187E-003  -3.9076114146026353E-004   6.8014865447881628E-002
   1.2446862848805697E-003  -3.9469345979126561E-004   6.8293259677687457E-002
   1.0276250614009216E-003  -4.2597467409827283E-004   6.8793625241110018E-002
  -3.6971808579089327E-006   1.9839053015946462E-006   6.9317161492811419E-002
  -2.9599290650716981E-006   1.7341841335727359E-006   6.9175396735074779E-002
  -2.2226772722379329E-006   1.4633431653643392E-006   6.9247257594265754E-002
  -1.4854254794041677E-006   1.1713823971498671E-006   6.9532744070384622E-002
  -7.4817368656693306E-007   8.5830182883217532E-007   7.0031856163431105E-002
   4.1622968416655803E-003  -1.7064736018783666E-003   6.5346724605105044E-002
   3.6304924273636713E-003  -2.0011915103297917E-003   6.4421965053815700E-002
   3.0986880130617345E-003  -2.5276417801360918E-003   6.3617555354474553E-002
   2.5668835987598115E-003  -3.2858244112970447E-003   6.2933495507081105E-002
   2.0350791844578886E-003  -4.2757394038122065E-003   6.2369785511635856E-002
   3.1091475690770004E-003  -1.2796406259516502E-003   6.6451059461947126E-002
   2.7008502087144115E-003  -1.5007497404895820E-003   6.5334960202548364E-002
   2.2925528483518157E-003  -1.8956376722082946E-003   6.4345525199080517E-002
   1.8842554879892198E-003  -2.4643044211080517E-003   6.3482754451543236E-002
   1.4759581276266448E-003  -3.2067499871879512E-003   6.2746647959936674E-002
   2.0642569756554527E-003  -8.5280765002482273E-004   6.7600026340615460E-002
   1.7857810732149169E-003  -1.0003079706494555E-003   6.6350540917281209E-002
   1.5073051707743881E-003  -1.2636335642808305E-003   6.5234034153860754E-002
   1.2288292683338524E-003  -1.6427844309190587E-003   6.4250506050353526E-002
   9.5035336589332359E-004  -2.1377605705636959E-003   6.3399956606759900E-002
   1.0276250614009216E-003  -4.2597467409827283E-004   6.8793625241110018E-002
   8.8528502086517545E-004  -4.9986620080945399E-004   6.7468707198014663E-002
   7.4294498032943454E-004  -6.3162945635314438E-004   6.6283082218815403E-002
   6.0060493979368756E-004  -8.2126444072995464E-004   6.5236750303512475E-002
   4.5826489925794751E-004  -1.0687711539394407E-003   6.4329711452105240E-002
  -7.4817368656693306E-007   8.5830182883217532E-007   7.0031856163431105E-002
  -6.3794833479735580E-007   5.7556903088062938E-007   6.8689459044748546E-002
  -5.2772298303471743E-007   3.7465157443072883E-007   6.7492669393944549E-002
  -4.1749763126687489E-007   2.5554945870531753E-007   6.6441487211019501E-002
  -3.0727227950250180E-007   2.1826268492564083E-007   6.5535912495973458E-002
   2.0350791844578886E-003  -4.2757394038122065E-003   6.2369785511635856E-002
   2.2855540097019289E-003  -5.5779932092230311E-003   5.8340465190032997E-002
   2.5360288349459831E-003  -7.2731922790683634E-003   5.4305333585708659E-002
   2.7865036601900442E-003  -9.3613366133491055E-003   5.0264390698663008E-002
   3.0369784854340498E-003  -1.1842426212064439E-002   4.6217636528895323E-002
   1.4759581276266448E-003  -3.2067499871879512E-003   6.2746647959936674E-002
   1.7064243957363306E-003  -4.1834373487288912E-003   5.8392821639931036E-002
   1.9368906638460234E-003  -5.4548294840108813E-003   5.4004789488378502E-002
   2.1673569319557197E-003  -7.0209263930332000E-003   4.9582551505279127E-002
   2.3978232000653743E-003  -8.8817280757962358E-003   4.5126107690632633E-002
   9.5035336589332359E-004  -2.1377605705636959E-003   6.3399956606759900E-002
   1.1324165280432001E-003  -2.7888814882350843E-003   5.8819864779046271E-002
   1.3144796901930593E-003  -3.6364666889530384E-003   5.4177172570959942E-002
   1.4965428523429098E-003  -4.6805161727173430E-003   4.9471879982500508E-002
   1.6786060144928089E-003  -5.9210299395278110E-003   4.4703987013669622E-002
   4.5826489925794751E-004  -1.0687711539394407E-003   6.4329711452105240E-002
   5.6353040662250869E-004  -1.3943256277414440E-003   5.9621594607377620E-002
   6.6879591398707593E-004  -1.8181038938951538E-003   5.4822482833451751E-002
   7.7406142135164448E-004  -2.3401059524012398E-003   4.9932376130327916E-002
   8.7932692871617660E-004  -2.9603318032594972E-003   4.4951274498006094E-002
  -3.0727227950250180E-007   2.1826268492564083E-007   6.5535912495973458E-002
  -2.3396852570634064E-007   2.3023275264044685E-007   6.0798011124925777E-002
  -1.6066477191364892E-007   2.5890116231441773E-007   5.5940720275854894E-002
  -8.7361018101875243E-008   3.0426791431531486E-007   5.0964039948760170E-002
  -1.4057264324796037E-008   3.6633300881661057E-007   4.5867970143642189E-002
   3.7245620666516432E-005   4.9621906856278652E-004   5.5669684182037438E-002
   1.8307946748175041E-005   2.7670096806764466E-004   5.8779711726888895E-002
  -6.2972717015941093E-007   1.2242049624577866E-004   6.1664116417531001E-002
  -1.9567401088500802E-005   3.3377653097424465E-005   6.4322898253963812E-002
  -3.8505075006838724E-005   9.5724386224294022E-006   6.6756057236187327E-002
  -4.9260086288664476E-003   9.6298637629993467E-004   5.6254645634379707E-002
  -5.0869578137780619E-003   1.2774505772195632E-003   5.8773003473265611E-002
  -5.2479069986896779E-003   1.4888962178543214E-003   6.1232961144374237E-002
  -5.4088561836012922E-003   1.5973232982041501E-003   6.3634518647705668E-002
  -5.5698053685129083E-003   1.6027318182689765E-003   6.5977675983259820E-002
  -1.0545653461775313E-002   1.4297536840370273E-003   5.7457717482616216E-002
  -1.0681391471248079E-002   2.2782001863716483E-003   5.9216149426577977E-002
  -1.0817129480720843E-002   2.8553719394628918E-003   6.1083403889194754E-002
  -1.0952867490193613E-002   3.1612689433108201E-003   6.3059480870466492E-002
  -1.1088605499666376E-002   3.1958911979154125E-003   6.5144380370393037E-002
  -1.6821688878060077E-002   1.8965209917741754E-003   5.9278899726746839E-002
  -1.6764993025661860E-002   3.2789497955237057E-003   6.0109149586826241E-002
  -1.6708297173263647E-002   4.2218476610715594E-003   6.1215444651992697E-002
  -1.6651601320865440E-002   4.7252145884176013E-003   6.2597784922246255E-002
  -1.6594905468467223E-002   4.7890505775619596E-003   6.4256170397586743E-002
  -2.3754114877720722E-002   2.3632882995112681E-003   6.1718192366771341E-002
  -2.3337762477019415E-002   4.2796994046757075E-003   6.1452003954009959E-002
  -2.2921410076318094E-002   5.5883233826800327E-003   6.1629083432767962E-002
  -2.2505057675616794E-002   6.2891602335242089E-003   6.2249430803044986E-002
  -2.2088705274915479E-002   6.3822099572083957E-003   6.3313046064841172E-002
  -3.8505075006838724E-005   9.5724386224294022E-006   6.6756057236187327E-002
  -3.0638651639634112E-005   1.6161283878601829E-005   6.6138854030204308E-002
  -2.2772228272431236E-005   1.8300619924374595E-005   6.5768257840095434E-002
  -1.4905804905227492E-005   1.5990446759015647E-005   6.5644268665860525E-002
  -7.0393815380237479E-006   9.2307643829170338E-006   6.5766886507499622E-002
  -5.5698053685129083E-003   1.6027318182689765E-003   6.5977675983259820E-002
  -5.3207691332328591E-003   1.5541075504621749E-003   6.5362787473333933E-002
  -5.0717328979527927E-003   1.5004362671974109E-003   6.4983631571359696E-002
  -4.8226966626727305E-003   1.4417179684743202E-003   6.4840208277337177E-002
  -4.5736604273926770E-003   1.3779526542933573E-003   6.4932517591266448E-002
  -1.1088605499666376E-002   3.1958911979154125E-003   6.5144380370393037E-002
  -1.0609273860395788E-002   3.0920538170455258E-003   6.4531209050276844E-002
  -1.0129942221125182E-002   2.9825719144704402E-003   6.4142895930190014E-002
  -9.6506105818545910E-003   2.8674454901897340E-003   6.3979441010132559E-002
  -9.1712789425839880E-003   2.7466745442037699E-003   6.4040844290104496E-002
  -1.6594905468467223E-002   4.7890505775619596E-003   6.4256170397586743E-002
  -1.5896152833128410E-002   4.6300000836290989E-003   6.3644118761032931E-002
  -1.5197400197789590E-002   4.4647075617434730E-003   6.3246050916586249E-002
  -1.4498647562450779E-002   4.2931730119052042E-003   6.3061966864246657E-002
  -1.3799894927111971E-002   4.1153964341141686E-003   6.3091866604013919E-002
  -2.2088705274915479E-002   6.3822099572083957E-003   6.3313046064841172E-002
  -2.1181406051430769E-002   6.1679463502124221E-003   6.2701516605602414E-002
  -2.0274106827946038E-002   5.9468432090165474E-003   6.2293096530548459E-002
  -1.9366807604461321E-002   5.7189005336205738E-003   6.2087785839679235E-002
  -1.8459508380976597E-002   5.4841183240245672E-003   6.2085584532994786E-002
  -7.0393815380237479E-006   9.2307643829170338E-006   6.5766886507499622E-002
  -2.7615619020461557E-006   1.5665427243738428E-006   6.5623746954960316E-002
   1.5162577339383754E-006  -3.4572482884159816E-006   6.5673815028334859E-002
   5.7940773699229065E-006  -5.8406086559069370E-006   6.5917090727623431E-002
   1.0071897005900499E-005  -5.5835383772073754E-006   6.6353574052825937E-002
  -4.5736604273926770E-003   1.3779526542933573E-003   6.4932517591266448E-002
  -4.3748808033472839E-003   1.3112714323413044E-003   6.4760602563166569E-002
  -4.1761011793018821E-003   1.2438054103048740E-003   6.4784483517971725E-002
  -3.9773215552564760E-003   1.1755545881846317E-003   6.5004160455681526E-002
  -3.7785419312110803E-003   1.1065189659801855E-003   6.5419633376296471E-002
  -9.1712789425839880E-003   2.7466745442037699E-003   6.4040844290104496E-002
  -8.7754091571382725E-003   2.6209763219580962E-003   6.3836728555714414E-002
  -8.3795393716925570E-003   2.4910680688984901E-003   6.3830997161220149E-002
  -7.9836695862468415E-003   2.3569497850249466E-003   6.4023650106621699E-002
  -7.5877998008011208E-003   2.2186214703375784E-003   6.4414687391918857E-002
  -1.3799894927111971E-002   4.1153964341141686E-003   6.3091866604013919E-002
  -1.3204346623275028E-002   3.9306812115749851E-003   6.2852124932603851E-002
  -1.2608798319438098E-002   3.7383307274919987E-003   6.2813355958080505E-002
  -1.2013250015601173E-002   3.5383449818653179E-003   6.2975559680443660E-002
  -1.1417701711764233E-002   3.3307239746949713E-003   6.3338736099693690E-002
  -1.8459508380976597E-002   5.4841183240245672E-003   6.2085584532994786E-002
  -1.7661693201757547E-002   5.2403861011918185E-003   6.1806791693834795E-002
  -1.6863878022538498E-002   4.9855933860854379E-003   6.1731559908552530E-002
  -1.6066062843319448E-002   4.7197401787057273E-003   6.1859889177147701E-002
  -1.5268247664100405E-002   4.4428264790524752E-003   6.2191779499620514E-002
   1.0071897005900499E-005  -5.5835383772073754E-006   6.6353574052825937E-002
   6.3643351307235418E-006  -4.0505636320076199E-006   6.6411640617647649E-002
   2.6567732555465851E-006  -2.6062105989987927E-006   6.6697323995501934E-002
  -1.0507886196303717E-006  -1.2504792776257823E-006   6.7210624186388956E-002
  -4.7583504948073285E-006   1.6630331334255288E-008   6.7951541190308884E-002
  -3.7785419312110803E-003   1.1065189659801855E-003   6.5419633376296471E-002
  -3.5564815544180013E-003   1.0342034392936683E-003   6.5452275210084565E-002
  -3.3344211776249223E-003   9.5611290372726865E-004   6.5708836108176377E-002
  -3.1123608008318321E-003   8.7224735928111141E-004   6.6189316070572032E-002
  -2.8903004240387643E-003   7.8260680595548804E-004   6.6893715097271433E-002
  -7.5877998008011208E-003   2.2186214703375784E-003   6.4414687391918857E-002
  -7.1436692340687445E-003   2.0724574422193165E-003   6.4416218107505807E-002
  -6.6995386673363785E-003   1.9148320180534806E-003   6.4637970138667511E-002
  -6.2554081006040187E-003   1.7457451978402372E-003   6.5079943485403968E-002
  -5.8112775338716362E-003   1.5651969815793088E-003   6.5742138147715345E-002
  -1.1417701711764233E-002   3.3307239746949713E-003   6.3338736099693690E-002
  -1.0755198703821535E-002   3.1107114451449230E-003   6.3303469309911486E-002
  -1.0092695695878850E-002   2.8735511323797203E-003   6.3484726086975168E-002
  -9.4301926879361633E-003   2.6192430363989466E-003   6.3882506430884750E-002
  -8.7676896799934682E-003   2.3477871572032405E-003   6.4496810341640065E-002
  -1.5268247664100405E-002   4.4428264790524752E-003   6.2191779499620514E-002
  -1.4391069963676357E-002   4.1489654480707516E-003   6.2114028817301548E-002
  -1.3513892263252308E-002   3.8322702467059599E-003   6.2249103953099572E-002
  -1.2636714562828257E-002   3.4927408749581002E-003   6.2597004907014392E-002
  -1.1759536862404212E-002   3.1303773328272833E-003   6.3157731679046147E-002
  -4.7583504948073285E-006   1.6630331334255288E-008   6.7951541190308884E-002
  -4.4930580855861990E-006   1.0566840816794709E-006   6.7922041943865252E-002
  -4.2277656763581306E-006   1.7312478271525045E-006   6.8139812245467946E-002
  -3.9624732671317969E-006   2.0403215668235442E-006   6.8604852095116631E-002
  -3.6971808579089327E-006   1.9839053015946462E-006   6.9317161492811419E-002
  -2.8903004240387643E-003   7.8260680595548804E-004   6.6893715097271433E-002
  -2.6434187259609526E-003   6.9353166453128834E-004   6.6831397843500728E-002
  -2.3965370278831426E-003   6.1136235579055398E-004   6.7015043853020623E-002
  -2.1496553298053223E-003   5.3609887973367007E-004   6.7444653125831644E-002
  -1.9027736317275210E-003   4.6774123635984211E-004   6.8120225661933875E-002
  -5.8112775338716362E-003   1.5651969815793088E-003   6.5742138147715345E-002
  -5.3190857148803488E-003   1.3860066449806197E-003   6.5654274209305710E-002
  -4.8268938958890683E-003   1.2209934637542885E-003   6.5811067249432087E-002
  -4.3347020768977843E-003   1.0701574379000725E-003   6.6212517268094365E-002
  -3.8425102579065003E-003   9.3349856741820059E-004   6.6858624265292405E-002
  -8.7676896799934682E-003   2.3477871572032405E-003   6.4496810341640065E-002
  -8.0314940248438094E-003   2.0784816254300897E-003   6.4390671041280628E-002
  -7.2952983696941568E-003   1.8306245717178010E-003   6.4527882434701977E-002
  -6.5591027145444946E-003   1.6042159960667525E-003   6.4908444521904418E-002
  -5.8229070593948471E-003   1.3992558984765591E-003   6.5532357302887118E-002
  -1.1759536862404212E-002   3.1303773328272833E-003   6.3157731679046147E-002
  -1.0780643655851303E-002   2.7709566058795043E-003   6.3040588339425607E-002
  -9.8017504492983916E-003   2.4402556796814523E-003   6.3165489408830655E-002
  -8.8228572427454747E-003   2.1382745542332174E-003   6.3532434887261374E-002
  -7.8439640361925647E-003   1.8650132295348065E-003   6.4141424774717959E-002
  -3.6971808579089327E-006   1.9839053015946462E-006   6.9317161492811419E-002
  -2.9599290650716981E-006   1.7341841335727359E-006   6.9175396735074779E-002
  -2.2226772722379329E-006   1.4633431653643392E-006   6.9247257594265754E-002
  -1.4854254794041677E-006   1.1713823971498671E-006   6.9532744070384622E-002
  -7.4817368656693306E-007   8.5830182883217532E-007   7.0031856163431105E-002
  -1.9027736317275210E-003   4.6774123635984211E-004   6.8120225661933875E-002
  -1.6843373875518285E-003   4.1652220309279508E-004   6.7955549238207957E-002
  -1.4659011433761273E-003   3.9267455735636503E-004   6.8012645182319836E-002
  -1.2474648992004287E-003   3.9619829914905313E-004   6.8291513494269804E-002
  -1.0290286550247198E-003   4.2709342847191412E-004   6.8792154174057707E-002
  -3.8425102579065003E-003   9.3349856741820059E-004   6.6858624265292405E-002
  -3.3982282704376962E-003   8.3131022205237826E-004   6.6698428682907346E-002
  -2.9539462829689086E-003   7.8388577154656081E-004   6.6768152219270210E-002
  -2.5096642955001053E-003   7.9122521590083844E-004   6.7067794874381456E-002
  -2.0653823080313168E-003   8.5332855511516259E-004   6.7597356648240792E-002
  -5.8229070593948471E-003   1.3992558984765591E-003   6.5532357302887118E-002
  -5.1446325777226975E-003   1.2460982410117810E-003   6.5404035069172681E-002
  -4.4663580960505496E-003   1.1750969857373256E-003   6.5513778705116765E-002
  -3.7880836143784034E-003   1.1862521326524607E-003   6.5861588210719080E-002
  -3.1098091327062512E-003   1.2795636817584943E-003   6.6447463585979943E-002
  -7.8439640361925647E-003   1.8650132295348065E-003   6.4141424774717959E-002
  -6.9235503094068340E-003   1.6608862599710728E-003   6.4072368397004364E-002
  -6.0031365826210964E-003   1.5663081999277295E-003   6.4249524639859446E-002
  -5.0827228558353657E-003   1.5812790494044646E-003   6.4672893503283313E-002
  -4.1623091290496281E-003   1.7057988084016040E-003   6.5342474987275967E-002
  -7.4817368656693306E-007   8.5830182883217532E-007   7.0031856163431105E-002
  -6.3794833479735580E-007   5.7556903088062938E-007   6.8689459044748546E-002
  -5.2772298303471743E-007   3.7465157443072883E-007   6.7492669393944549E-002
  -4.1749763126687489E-007   2.5554945870531753E-007   6.6441487211019501E-002
  -3.0727227950250180E-007   2.1826268492564083E-007   6.5535912495973458E-002
  -1.0290286550247198E-003   4.2709342847191412E-004   6.8792154174057707E-002
  -8.8648145520611385E-004   5.0065406531868417E-004   6.7467534111724070E-002
  -7.4393425538747497E-004   6.3217432968309950E-004   6.6282180530445378E-002
  -6.0138705556885257E-004   8.2165422156504908E-004   6.5236093430221603E-002
  -4.5883985575023017E-004   1.0690937409649770E-003   6.4329272811052607E-002
  -2.0653823080313168E-003   8.5332855511516259E-004   6.7597356648240792E-002
  -1.7867391205698352E-003   1.0007325616065987E-003   6.6348391454432581E-002
  -1.5080959331083615E-003   1.2639740077918793E-003   6.5232351754855200E-002
  -1.2294527456468874E-003   1.6430528936713928E-003   6.4249237549508550E-002
  -9.5080955818540626E-004   2.1379692192449729E-003   6.3399048838392952E-002
  -3.1098091327062512E-003   1.2795636817584943E-003   6.6447463585979943E-002
  -2.7014109444259606E-003   1.5008110578943468E-003   6.5332031072873706E-002
  -2.2930127561456709E-003   1.8957736859008256E-003   6.4343183067174417E-002
  -1.8846145678653873E-003   2.4644515657778476E-003   6.3480919568881813E-002
  -1.4762163795850902E-003   3.2068446975249965E-003   6.2745240577995881E-002
  -4.1623091290496281E-003   1.7057988084016040E-003   6.5342474987275967E-002
  -3.6304969267745291E-003   2.0008895541823724E-003   6.4418452967047846E-002
  -3.0986847244994266E-003   2.5275733640093556E-003   6.3614674467402710E-002
  -2.5668725222243258E-003   3.2858502378838653E-003   6.2931139488340088E-002
  -2.0350603199492251E-003   4.2757201758050201E-003   6.2367848029860617E-002
  -3.0727227950250180E-007   2.1826268492564083E-007   6.5535912495973458E-002
  -2.3396852570634064E-007   2.3023275264044685E-007   6.0798011124925777E-002
  -1.6066477191364892E-007   2.5890116231441773E-007   5.5940720275854894E-002
  -8.7361018101875243E-008   3.0426791431531486E-007   5.0964039948760170E-002
  -1.4057264324796037E-008   3.6633300881661057E-007   4.5867970143642189E-002
  -4.5883985575023017E-004   1.0690937409649770E-003   6.4329272811052607E-002
  -5.6396867780051166E-004   1.3946478675532226E-003   5.9621264815860608E-002
  -6.6909749985081049E-004   1.8184715810013741E-003   5.4822242047084357E-002
  -7.7422632190109024E-004   2.3405648813091054E-003   4.9932204504723576E-002
  -8.7935514395140468E-004   2.9609277684767843E-003   4.4951152188777321E-002
  -9.5080955818540626E-004   2.1379692192449729E-003   6.3399048838392952E-002
  -1.1327658016009687E-003   2.7890655023540267E-003   5.8819187107574500E-002
  -1.3147220450165234E-003   3.6366842608406419E-003   5.4176685307610536E-002
  -1.4966782884320820E-003   4.6808254947041140E-003   4.9471543438500222E-002
  -1.6786345318476129E-003   5.9214892039449740E-003   4.4703761500244577E-002
  -1.4762163795850902E-003   3.2068446975249965E-003   6.2745240577995881E-002
  -1.7066253399270607E-003   4.1834831371550529E-003   5.8391778000068749E-002
  -1.9370343002690380E-003   5.4548969406792505E-003   5.4004050057434055E-002
  -2.1674432606110074E-003   7.0210861080990134E-003   4.9582056750092404E-002
  -2.3978522209529996E-003   8.8820506394130527E-003   4.5125798078044205E-002
  -2.0350603199492251E-003   4.2757201758050201E-003   6.2367848029860617E-002
  -2.2855472927787931E-003   5.5779007719556351E-003   5.8339037493341572E-002
  -2.5360342656083681E-003   7.2731096205187473E-003   5.4304336296554290E-002
  -2.7865212384379466E-003   9.3613467214937462E-003   5.0263744439499214E-002
  -3.0370082112675112E-003   1.1842612074881131E-002   4.6217261922175901E-002
  -2.3754114877720722E-002   2.3632882995112681E-003   6.1718192366771341E-002
  -2.3337762477019415E-002   4.2796994046757075E-003   6.1452003954009959E-002
  -2.2921410076318094E-002   5.5883233826800327E-003   6.1629083432767962E-002
  -2.2505057675616794E-002   6.2891602335242089E-003   6.2249430803044986E-002
  -2.2088705274915479E-002   6.3822099572083957E-003   6.3313046064841172E-002
  -3.0601025038350278E-002   7.2552791542891404E-003   5.8759898961216028E-002
  -2.9845074781918318E-002   7.8426031649907746E-003   5.8788516995810086E-002
  -2.9089124525486388E-002   8.1798227462640261E-003   5.9053062850346227E-002
  -2.8333174269054434E-002   8.2669378981090266E-003   5.9553536524824480E-002
  -2.7577224012622463E-002   8.1039486205257139E-003   6.0289938019244926E-002
  -3.6620512937541795E-002   1.2147270009067013E-002   5.4293677112331878E-002
  -3.5732304896956252E-002   1.1405506925305814E-002   5.4974784292013135E-002
  -3.4844096856370688E-002   1.0771322109848061E-002   5.5684479220059313E-002
  -3.3955888815785130E-002   1.0244715562693848E-002   5.6422761896470670E-002
  -3.3067680775199573E-002   9.8256872838430875E-003   5.7189632321247130E-002
  -4.1812578575295238E-002   1.7039260863844913E-002   4.8319526820119092E-002
  -4.0999452822133103E-002   1.4968410685620812E-002   5.0010805842619126E-002
  -4.0186327068971003E-002   1.3362821473432131E-002   5.1523332541907343E-002
  -3.9373201315808896E-002   1.2222493227278612E-002   5.2857106917983537E-002
  -3.8560075562646783E-002   1.1547425947160433E-002   5.4012128970847742E-002
  -4.6177221951610642E-002   2.1931251718622757E-002   4.0837448084577455E-002
  -4.5646518557448973E-002   1.8531314445935865E-002   4.3896581647628274E-002
  -4.5115815163287346E-002   1.5954320837016062E-002   4.6569622815890166E-002
  -4.4585111769125711E-002   1.4200270891863480E-002   4.8856571589363074E-002
  -4.4054408374964049E-002   1.3269164610477779E-002   5.0757427968046887E-002
  -2.2088705274915479E-002   6.3822099572083957E-003   6.3313046064841172E-002
  -2.1181406051430769E-002   6.1679463502124221E-003   6.2701516605602414E-002
  -2.0274106827946038E-002   5.9468432090165474E-003   6.2293096530548459E-002
  -1.9366807604461321E-002   5.7189005336205738E-003   6.2087785839679235E-002
  -1.8459508380976597E-002   5.4841183240245672E-003   6.2085584532994786E-002
  -2.7577224012622463E-002   8.1039486205257139E-003   6.0289938019244926E-002
  -2.6467147297580068E-002   7.8128534385972920E-003   5.9669665185778029E-002
  -2.5357070582537680E-002   7.5156508774068265E-003   5.9251837951241740E-002
  -2.4246993867495282E-002   7.2123409369542826E-003   5.9036456315636081E-002
  -2.3136917152452870E-002   6.9029236172397646E-003   5.9023520278961072E-002
  -3.3067680775199573E-002   9.8256872838430875E-003   5.7189632321247130E-002
  -3.1755490353853603E-002   9.4577605269821480E-003   5.6561348268490047E-002
  -3.0443299932507672E-002   9.0844585457971125E-003   5.6134846029409428E-002
  -2.9131109511161712E-002   8.7057813402881042E-003   5.5910125604005337E-002
  -2.7818919089815770E-002   8.3217289104550451E-003   5.5887186992277613E-002
  -3.8560075562646783E-002   1.1547425947160433E-002   5.4012128970847742E-002
  -3.7046435220251389E-002   1.1102667615366955E-002   5.3376565853738477E-002
  -3.5532794877856037E-002   1.0653266214187340E-002   5.2942120765051649E-002
  -3.4019154535460651E-002   1.0199221743621926E-002   5.2708793704787128E-002
  -3.2505514193065299E-002   9.7405342036702008E-003   5.2676584672944990E-002
  -4.4054408374964049E-002   1.3269164610477779E-002   5.0757427968046887E-002
  -4.2339981896773418E-002   1.2747574703751846E-002   5.0115317941523463E-002
  -4.0625555418582759E-002   1.2222073882577678E-002   4.9673662158168264E-002
  -3.8911128940392108E-002   1.1692662146955607E-002   4.9432460617981316E-002
  -3.7196702462201456E-002   1.1159339496885523E-002   4.9391713320962538E-002
  -1.8459508380976597E-002   5.4841183240245672E-003   6.2085584532994786E-002
  -1.7661693201757547E-002   5.2403861011918185E-003   6.1806791693834795E-002
  -1.6863878022538498E-002   4.9855933860854379E-003   6.1731559908552530E-002
  -1.6066062843319448E-002   4.7197401787057273E-003   6.1859889177147701E-002
  -1.5268247664100405E-002   4.4428264790524752E-003   6.2191779499620514E-002
  -2.3136917152452870E-002   6.9029236172397646E-003   5.9023520278961072E-002
  -2.2137381409950092E-002   6.5846951545661114E-003   5.8727006083855671E-002
  -2.1137845667447325E-002   6.2549517852360514E-003   5.8630371961440220E-002
  -2.0138309924944531E-002   5.9136935092494736E-003   5.8733617911714622E-002
  -1.9138774182441753E-002   5.5609203266068219E-003   5.9036743934679003E-002
  -2.7818919089815770E-002   8.3217289104550451E-003   5.5887186992277613E-002
  -2.6621343765216937E-002   7.9290042079403489E-003   5.5572497026844095E-002
  -2.5423768440618066E-002   7.5243101843864499E-003   5.5454006152912731E-002
  -2.4226193116019208E-002   7.1076468397933325E-003   5.5531714370483570E-002
  -2.3028617791420364E-002   6.6790141741610021E-003   5.5805621679556772E-002
  -3.2505514193065299E-002   9.7405342036702008E-003   5.2676584672944990E-002
  -3.1113580267558064E-002   9.2733132613147251E-003   5.2343264522800220E-002
  -2.9721646342050791E-002   8.7936685835370114E-003   5.2202462482969982E-002
  -2.8329712416543550E-002   8.3016001703371360E-003   5.2254178553454322E-002
  -2.6937778491036287E-002   7.7971080217152655E-003   5.2498412734253291E-002
  -3.7196702462201456E-002   1.1159339496885523E-002   4.9391713320962538E-002
  -3.5614090916973470E-002   1.0617622314688852E-002   4.9039308571723839E-002
  -3.4031479371745464E-002   1.0063026982687434E-002   4.8875740951612012E-002
  -3.2448867826517458E-002   9.4955535008808475E-003   4.8901010460627031E-002
  -3.0866256281289473E-002   8.9152018692696400E-003   4.9115117098769145E-002
  -1.5268247664100405E-002   4.4428264790524752E-003   6.2191779499620514E-002
  -1.4391069963676357E-002   4.1489654480707516E-003   6.2114028817301548E-002
  -1.3513892263252308E-002   3.8322702467059599E-003   6.2249103953099572E-002
  -1.2636714562828257E-002   3.4927408749581002E-003   6.2597004907014392E-002
  -1.1759536862404212E-002   3.1303773328272833E-003   6.3157731679046147E-002
  -1.9138774182441753E-002   5.5609203266068219E-003   5.9036743934679003E-002
  -1.8053289407524847E-002   5.1944317383261773E-003   5.8915782380597859E-002
  -1.6967804632607917E-002   4.8120272454266200E-003   5.8998609157385418E-002
  -1.5882319857691000E-002   4.4137068479082608E-003   5.9285224265041958E-002
  -1.4796835082774080E-002   3.9994705457707669E-003   5.9775627703567424E-002
  -2.3028617791420364E-002   6.6790141741610021E-003   5.5805621679556772E-002
  -2.1743863429258634E-002   6.2398980285816585E-003   5.5648367519477271E-002
  -2.0459109067096859E-002   5.7917842441473910E-003   5.5685864203018784E-002
  -1.9174354704935091E-002   5.3346728208581995E-003   5.5918111730181103E-002
  -1.7889600342773329E-002   4.8685637587143615E-003   5.6345110100964185E-002
  -2.6937778491036287E-002   7.7971080217152655E-003   5.2498412734253291E-002
  -2.5462792028877690E-002   7.2853643188370565E-003   5.2311784233939923E-002
  -2.3987805566719093E-002   6.7715412428681621E-003   5.2310869089999268E-002
  -2.2512819104560485E-002   6.2556387938084712E-003   5.2495667302431583E-002
  -2.1037832642401898E-002   5.7376569716578452E-003   5.2866178871236479E-002
  -3.0866256281289473E-002   8.9152018692696400E-003   4.9115117098769145E-002
  -2.9210075206382066E-002   8.3308306090926765E-003   4.8906032523985843E-002
  -2.7553894131474632E-002   7.7512982415888498E-003   4.8873623818327216E-002
  -2.5897713056567226E-002   7.1766047667583613E-003   4.9017890981793433E-002
  -2.4241531981659792E-002   6.6067501846015508E-003   4.9338834014384547E-002
  -1.1759536862404212E-002   3.1303773328272833E-003   6.3157731679046147E-002
  -1.0780643655851303E-002   2.7709566058795043E-003   6.3040588339425607E-002
  -9.8017504492983916E-003   2.4402556796814523E-003   6.3165489408830655E-002
  -8.8228572427454747E-003   2.1382745542332174E-003   6.3532434887261374E-002
  -7.8439640361925647E-003   1.8650132295348065E-003   6.4141424774717959E-002
  -1.4796835082774080E-002   3.9994705457707669E-003   5.9775627703567424E-002
  -1.3585462035310684E-002   3.5869193003501554E-003   5.9617455665603392E-002
  -1.2374088987847275E-002   3.1936540729819163E-003   5.9682198900434608E-002
  -1.1162715940383879E-002   2.8196748636666116E-003   5.9969857408061197E-002
  -9.9513428929204686E-003   2.4649816724036100E-003   6.0480431188482953E-002
  -1.7889600342773329E-002   4.8685637587143615E-003   5.6345110100964185E-002
  -1.6464876590629861E-002   4.4028819948208342E-003   5.6136475581959583E-002
  -1.5040152838486340E-002   3.9470524662824774E-003   5.6131627199519932E-002
  -1.3615429086342831E-002   3.5010751730997804E-003   5.6330564953645045E-002
  -1.2190705334199328E-002   3.0649501152724135E-003   5.6733288844335122E-002
  -2.1037832642401898E-002   5.7376569716578452E-003   5.2866178871236479E-002
  -1.9418887321808718E-002   5.2188446892914436E-003   5.2597648088494382E-002
  -1.7799942001215544E-002   4.7004508595829900E-003   5.2513774306086419E-002
  -1.6180996680622377E-002   4.1824754825329508E-003   5.2614557524013048E-002
  -1.4562051360029183E-002   3.6649185581412724E-003   5.2899997742274170E-002
  -2.4241531981659792E-002   6.6067501846015508E-003   4.9338834014384547E-002
  -2.2447494228847370E-002   6.0348073837621641E-003   4.9000973185207464E-002
  -2.0653456476034920E-002   5.4538492528835025E-003   4.8828640220134334E-002
  -1.8859418723222471E-002   4.8638757919663433E-003   4.8821835119165519E-002
  -1.7065380970410049E-002   4.2648870010100204E-003   4.8980557882300491E-002
  -7.8439640361925647E-003   1.8650132295348065E-003   6.4141424774717959E-002
  -6.9235503094068340E-003   1.6608862599710728E-003   6.4072368397004364E-002
  -6.0031365826210964E-003   1.5663081999277295E-003   6.4249524639859446E-002
  -5.0827228558353657E-003   1.5812790494044646E-003   6.4672893503283313E-002
  -4.1623091290496281E-003   1.7057988084016040E-003   6.5342474987275967E-002
  -9.9513428929204686E-003   2.4649816724036100E-003   6.0480431188482953E-002
  -8.7825391362924277E-003   2.1747315314891713E-003   6.0391143131574343E-002
  -7.6137353796643971E-003   1.9940814732192502E-003   6.0552422513781734E-002
  -6.4449316230363474E-003   1.9230314975937149E-003   6.0964269335104904E-002
  -5.2761278664083255E-003   1.9615816046129053E-003   6.1626683595544185E-002
  -1.2190705334199328E-002   3.0649501152724135E-003   5.6733288844335122E-002
  -1.0769156729181835E-002   2.6885768030072144E-003   5.6623820281355736E-002
  -9.3476081241643146E-003   2.4218547465107848E-003   5.6769273976039494E-002
  -7.9260595191467942E-003   2.2647839457829687E-003   5.7169649928386156E-002
  -6.5045109141293033E-003   2.2173644008241511E-003   5.7824948138396032E-002
  -1.4562051360029183E-002   3.6649185581412724E-003   5.2899997742274170E-002
  -1.2883403088075049E-002   3.2024220745251186E-003   5.2770399846348424E-002
  -1.1204754816120887E-002   2.8496280198020349E-003   5.2900079026632865E-002
  -9.5261065441667337E-003   2.6065363939723873E-003   5.3289035283127659E-002
  -7.8474582722125891E-003   2.4731471970351471E-003   5.3937268615832583E-002
  -1.7065380970410049E-002   4.2648870010100204E-003   4.8980557882300491E-002
  -1.5125278212972049E-002   3.7162673460433560E-003   4.8830881826552486E-002
  -1.3185175455534076E-002   3.2774012930937568E-003   4.8944837665561847E-002
  -1.1245072698096090E-002   2.9482888421613965E-003   4.9322425399328490E-002
  -9.3049699406581032E-003   2.7289299932466982E-003   4.9963645027852888E-002
  -4.1623091290496281E-003   1.7057988084016040E-003   6.5342474987275967E-002
  -3.6304969267745291E-003   2.0008895541823724E-003   6.4418452967047846E-002
  -3.0986847244994266E-003   2.5275733640093556E-003   6.3614674467402710E-002
  -2.5668725222243258E-003   3.2858502378838653E-003   6.2931139488340088E-002
  -2.0350603199492251E-003   4.2757201758050201E-003   6.2367848029860617E-002
  -5.2761278664083255E-003   1.9615816046129053E-003   6.1626683595544185E-002
  -4.5982779958995412E-003   2.2179639968090137E-003   6.0892720188482963E-002
  -3.9204281253907569E-003   2.8004108767148150E-003   6.0330588597306140E-002
  -3.2425782548819726E-003   3.7089222443305106E-003   5.9940288822014146E-002
  -2.5647283843731883E-003   4.9434980996558853E-003   5.9721820862606578E-002
  -6.5045109141293033E-003   2.2173644008241511E-003   5.7824948138396032E-002
  -5.6290350800850542E-003   2.4350384394358493E-003   5.7375514768164687E-002
  -4.7535592460408180E-003   3.0732483894201496E-003   5.7149501509119585E-002
  -3.8780834119965823E-003   4.1319942507772635E-003   5.7146908361260886E-002
  -3.0026075779523327E-003   5.6112760235065284E-003   5.7367735324588554E-002
  -7.8474582722125891E-003   2.4731471970351471E-003   5.3937268615832583E-002
  -6.7227681793310956E-003   2.6521128820626988E-003   5.3866836706093650E-002
  -5.5980780864496003E-003   3.3460859021254355E-003   5.4071413202842894E-002
  -4.4733879935681059E-003   4.5550662572237405E-003   5.4550998106080328E-002
  -3.3486979006866107E-003   6.2790539473571716E-003   5.5305591415805738E-002
  -9.3049699406581032E-003   2.7289299932466982E-003   4.9963645027852888E-002
  -7.8794772936376101E-003   2.8691873246892152E-003   5.0366686002269456E-002
  -6.4539846466171169E-003   3.6189234148309157E-003   5.1096323678475997E-002
  -5.0284919995966237E-003   4.9781382636705993E-003   5.2152558056472370E-002
  -3.6029993525761306E-003   6.9468318712081478E-003   5.3535389136258771E-002
  -2.0350603199492251E-003   4.2757201758050201E-003   6.2367848029860617E-002
  -2.2855472927787931E-003   5.5779007719556351E-003   5.8339037493341572E-002
  -2.5360342656083681E-003   7.2731096205187473E-003   5.4304336296554290E-002
  -2.7865212384379466E-003   9.3613467214937462E-003   5.0263744439499214E-002
  -3.0370082112675112E-003   1.1842612074881131E-002   4.6217261922175901E-002
  -2.5647283843731883E-003   4.9434980996558853E-003   5.9721820862606578E-002
  -2.8384793110346647E-003   6.5679315829364482E-003   5.6190765413675403E-002
  -3.1122302376961272E-003   8.6460158344180971E-003   5.2619072717348558E-002
  -3.3859811643576661E-003   1.1177750854100985E-002   4.9006742773626127E-002
  -3.6597320910190384E-003   1.4163136641984764E-002   4.5353775582507971E-002
  -3.0026075779523327E-003   5.6112760235065284E-003   5.7367735324588554E-002
  -3.3343690455731757E-003   7.5579623939171503E-003   5.4395057479033976E-002
  -3.6661305131939648E-003   1.0018922048317669E-002   5.1346995798956213E-002
  -3.9978919808147375E-003   1.2994154986708223E-002   4.8223550284355765E-002
  -4.3296534484356247E-003   1.6483661209088396E-002   4.5024720935231577E-002
  -3.3486979006866107E-003   6.2790539473571716E-003   5.5305591415805738E-002
  -3.7732164963942385E-003   8.5479932048979079E-003   5.2951913689416374E-002
  -4.1977350921018515E-003   1.1391828262217685E-002   5.0488105541376491E-002
  -4.6222536878095070E-003   1.4810559119315350E-002   4.7914166971686434E-002
  -5.0467722835170932E-003   1.8804185776192028E-002   4.5230097980345496E-002
  -3.6029993525761306E-003   6.9468318712081478E-003   5.3535389136258771E-002
  -4.1550216634979736E-003   9.5380240158788876E-003   5.1861334044823848E-002
  -4.7070439744198167E-003   1.2764734476116951E-002   5.0042401944610682E-002
  -5.2590662853416736E-003   1.6626963251922623E-002   4.8078592835619743E-002
  -5.8110885962635028E-003   2.1124710343295661E-002   4.5969906717850950E-002
  -4.6177221951610642E-002   2.1931251718622757E-002   4.0837448084577455E-002
  -4.5646518557448973E-002   1.8531314445935865E-002   4.3896581647628274E-002
  -4.5115815163287346E-002   1.5954320837016062E-002   4.6569622815890166E-002
  -4.4585111769125711E-002   1.4200270891863480E-002   4.8856571589363074E-002
  -4.4054408374964049E-002   1.3269164610477779E-002   5.0757427968046887E-002
  -5.1118892255668749E-002   2.0592839670452667E-002   3.9089902016377798E-002
  -5.0770920120941060E-002   1.8802717077284758E-002   4.0937904552354826E-002
  -5.0422947986213419E-002   1.7323618729339268E-002   4.2806536964253045E-002
  -5.0074975851485792E-002   1.6155544626616052E-002   4.4695799252072191E-002
  -4.9727003716758103E-002   1.5298494769115212E-002   4.6605691415812195E-002
  -5.8042038676650108E-002   1.9254427622282688E-002   3.9208130336969210E-002
  -5.7470075530646515E-002   1.9074119708633847E-002   3.9333082427328053E-002
  -5.6898112384642929E-002   1.8692916621662545E-002   3.9885386664317665E-002
  -5.6326149238639350E-002   1.8110818361368904E-002   4.0865043047938331E-002
  -5.5754186092635757E-002   1.7327824927752700E-002   4.2272051578189918E-002
  -6.6946661214554976E-002   1.7916015574112626E-002   4.1192133046352435E-002
  -6.5743984786565388E-002   1.9345522339982810E-002   3.9082115272547784E-002
  -6.4541308358575883E-002   2.0062214513985814E-002   3.7806171916084361E-002
  -6.3338631930586364E-002   2.0066092096121563E-002   3.7364302976961646E-002
  -6.2135955502596804E-002   1.9357155086390215E-002   3.7756508455179943E-002
  -7.7832759869383150E-002   1.6577603525942619E-002   4.5041910144526742E-002
  -7.5592647888697739E-002   1.9616924971331773E-002   4.0185003088014315E-002
  -7.3352535908012273E-002   2.1431512406309000E-002   3.6568892719552715E-002
  -7.1112423927326862E-002   2.2021365830874405E-002   3.4193579039142136E-002
  -6.8872311946641424E-002   2.1386485245027620E-002   3.3059062046782328E-002
  -4.4054408374964049E-002   1.3269164610477779E-002   5.0757427968046887E-002
  -4.2339981896773418E-002   1.2747574703751846E-002   5.0115317941523463E-002
  -4.0625555418582759E-002   1.2222073882577678E-002   4.9673662158168264E-002
  -3.8911128940392108E-002   1.1692662146955607E-002   4.9432460617981316E-002
  -3.7196702462201456E-002   1.1159339496885523E-002   4.9391713320962538E-002
  -4.9727003716758103E-002   1.5298494769115212E-002   4.6605691415812195E-002
  -4.7769368346625415E-002   1.4603600305070602E-002   4.5656436817600204E-002
  -4.5811732976492686E-002   1.3921992382715936E-002   4.4993145760104131E-002
  -4.3854097606359922E-002   1.3253671002051194E-002   4.4615818243323953E-002
  -4.1896462236227200E-002   1.2598636163076660E-002   4.4524454267259900E-002
  -5.5754186092635757E-002   1.7327824927752700E-002   4.2272051578189918E-002
  -5.3467832533013196E-002   1.6459625906389427E-002   4.1032849864427290E-002
  -5.1181478973390600E-002   1.5621910882854084E-002   4.0165120988928327E-002
  -4.8895125413768004E-002   1.4814679857146837E-002   3.9668864951693111E-002
  -4.6608771854145456E-002   1.4037932829267685E-002   3.9544081752721533E-002
  -6.2135955502596804E-002   1.9357155086390215E-002   3.7756508455179943E-002
  -5.9435374455936683E-002   1.8315651507708301E-002   3.6244557082004712E-002
  -5.6734793409276528E-002   1.7321829382992260E-002   3.5189587844641088E-002
  -5.4034212362616379E-002   1.6375688712242591E-002   3.4591600743088646E-002
  -5.1333631315956259E-002   1.5477229495458877E-002   3.4450595777347832E-002
  -6.8872311946641424E-002   2.1386485245027620E-002   3.3059062046782328E-002
  -6.5671994115395954E-002   2.0171677109027064E-002   3.1291558470332520E-002
  -6.2471676284150457E-002   1.9021747883130546E-002   3.0066546327242066E-002
  -5.9271358452904988E-002   1.7936697567338108E-002   2.9384025617510551E-002
  -5.6071040621659518E-002   1.6916526161649847E-002   2.9243996341138501E-002
  -3.7196702462201456E-002   1.1159339496885523E-002   4.9391713320962538E-002
  -3.5614090916973470E-002   1.0617622314688852E-002   4.9039308571723839E-002
  -3.4031479371745464E-002   1.0063026982687434E-002   4.8875740951612012E-002
  -3.2448867826517458E-002   9.4955535008808475E-003   4.8901010460627031E-002
  -3.0866256281289473E-002   8.9152018692696400E-003   4.9115117098769145E-002
  -4.1896462236227200E-002   1.2598636163076660E-002   4.4524454267259900E-002
  -4.0127850818313909E-002   1.1957138618785085E-002   4.4157117366622561E-002
  -3.8359239400400653E-002   1.1329429122169554E-002   4.3972943082229030E-002
  -3.6590627982487356E-002   1.0715507673230554E-002   4.3971931414078951E-002
  -3.4822016564574051E-002   1.0115374271967403E-002   4.4154082362172664E-002
  -4.6608771854145456E-002   1.4037932829267685E-002   3.9544081752721533E-002
  -4.4659835076430107E-002   1.3296654922881165E-002   3.9188478898166873E-002
  -4.2710898298714856E-002   1.2595831261651966E-002   3.9010364146972565E-002
  -4.0761961520999548E-002   1.1935461845579986E-002   3.9009737499138664E-002
  -3.8813024743284311E-002   1.1315546674665222E-002   3.9186598954665031E-002
  -5.1333631315956259E-002   1.5477229495458877E-002   3.4450595777347832E-002
  -4.9210043691322196E-002   1.4636171226977350E-002   3.4133393166356857E-002
  -4.7086456066688188E-002   1.3862233401134204E-002   3.3988004145842840E-002
  -4.4962868442054181E-002   1.3155416017929444E-002   3.4014428715806046E-002
  -4.2839280817420125E-002   1.2515719077362902E-002   3.4212666876246405E-002
  -5.6071040621659518E-002   1.6916526161649847E-002   2.9243996341138501E-002
  -5.3778476662990043E-002   1.5975687531073424E-002   2.8991860171192263E-002
  -5.1485912704320541E-002   1.5128635540616442E-002   2.8905863078839938E-002
  -4.9193348745651011E-002   1.4375370190278944E-002   2.8986005064081277E-002
  -4.6900784786981564E-002   1.3715891480060804E-002   2.9232286126916640E-002
  -3.0866256281289473E-002   8.9152018692696400E-003   4.9115117098769145E-002
  -2.9210075206382066E-002   8.3308306090926765E-003   4.8906032523985843E-002
  -2.7553894131474632E-002   7.7512982415888498E-003   4.8873623818327216E-002
  -2.5897713056567226E-002   7.1766047667583613E-003   4.9017890981793433E-002
  -2.4241531981659792E-002   6.6067501846015508E-003   4.9338834014384547E-002
  -3.4822016564574051E-002   1.0115374271967403E-002   4.4154082362172664E-002
  -3.2997873674507038E-002   9.5205321194318515E-003   4.3901852509224543E-002
  -3.1173730784439975E-002   8.9224844166746198E-003   4.3808870417470835E-002
  -2.9349587894372909E-002   8.3212311636960898E-003   4.3875136086911570E-002
  -2.7525445004305857E-002   7.7167723604958383E-003   4.4100649517546775E-002
  -3.8813024743284311E-002   1.1315546674665222E-002   3.9186598954665031E-002
  -3.6838348145987937E-002   1.0710233629771027E-002   3.8883179380657162E-002
  -3.4863671548691598E-002   1.0093670591760376E-002   3.8721579459913488E-002
  -3.2888994951395273E-002   9.4658575606334817E-003   3.8701799192433987E-002
  -3.0914318354098941E-002   8.8267945363900702E-003   3.8823838578218389E-002
  -4.2839280817420125E-002   1.2515719077362902E-002   3.4212666876246405E-002
  -4.0731498620824799E-002   1.1899935140110146E-002   3.3850013138283903E-002
  -3.8623716424229515E-002   1.1264856766846083E-002   3.3611750945655244E-002
  -3.6515934227634127E-002   1.0610483957570820E-002   3.3497880298360351E-002
  -3.4408152031038898E-002   9.9368167122841633E-003   3.3508401196399362E-002
  -4.6900784786981564E-002   1.3715891480060804E-002   2.9232286126916640E-002
  -4.4677325099017645E-002   1.3089636650449543E-002   2.8802353782104717E-002
  -4.2453865411053698E-002   1.2436042941931930E-002   2.8479384874696201E-002
  -4.0230405723089779E-002   1.1755110354508498E-002   2.8263379404691119E-002
  -3.8006946035125833E-002   1.1046838888178589E-002   2.8154337372089611E-002
  -2.4241531981659792E-002   6.6067501846015508E-003   4.9338834014384547E-002
  -2.2447494228847370E-002   6.0348073837621641E-003   4.9000973185207464E-002
  -2.0653456476034920E-002   5.4538492528835025E-003   4.8828640220134334E-002
  -1.8859418723222471E-002   4.8638757919663433E-003   4.8821835119165519E-002
  -1.7065380970410049E-002   4.2648870010100204E-003   4.8980557882300491E-002
  -2.7525445004305857E-002   7.7167723604958383E-003   4.4100649517546775E-002
  -2.5564065796015306E-002   7.1068683602564242E-003   4.3651291865648811E-002
  -2.3602686587724783E-002   6.4892795161596295E-003   4.3371089260602957E-002
  -2.1641307379434246E-002   5.8640058282062590E-003   4.3260041702409269E-002
  -1.9679928171143710E-002   5.2310472963957855E-003   4.3318149191067745E-002
  -3.0914318354098941E-002   8.8267945363900702E-003   3.8823838578218389E-002
  -2.8781970507582168E-002   8.1789293367507954E-003   3.8264314589781245E-002
  -2.6649622661065422E-002   7.5247097794363116E-003   3.7877572830944478E-002
  -2.4517274814548622E-002   6.8641358644465633E-003   3.7663613301707866E-002
  -2.2384926968031904E-002   6.1972075917815506E-003   3.7622436002071546E-002
  -3.4408152031038898E-002   9.9368167122841633E-003   3.3508401196399362E-002
  -3.2101208363547871E-002   9.2509903132451665E-003   3.2840041357604925E-002
  -2.9794264696056848E-002   8.5601400427129382E-003   3.2348090931158792E-002
  -2.7487321028565825E-002   7.8642659006870064E-003   3.2032549917060886E-002
  -2.5180377361074799E-002   7.1633678871673712E-003   3.1893418315311485E-002
  -3.8006946035125833E-002   1.1046838888178589E-002   2.8154337372089611E-002
  -3.5521779363912487E-002   1.0323051289739538E-002   2.7378472169119483E-002
  -3.3036612692699058E-002   9.5955703059891484E-003   2.6782643561245989E-002
  -3.0551446021485643E-002   8.8643959369268457E-003   2.6366851548468823E-002
  -2.8066279350272283E-002   8.1295281825530807E-003   2.6131096130788012E-002
  -1.7065380970410049E-002   4.2648870010100204E-003   4.8980557882300491E-002
  -1.5125278212972049E-002   3.7162673460433560E-003   4.8830881826552486E-002
  -1.3185175455534076E-002   3.2774012930937568E-003   4.8944837665561847E-002
  -1.1245072698096090E-002   2.9482888421613965E-003   4.9322425399328490E-002
  -9.3049699406581032E-003   2.7289299932466982E-003   4.9963645027852888E-002
  -1.9679928171143710E-002   5.2310472963957855E-003   4.3318149191067745E-002
  -1.7516720859296078E-002   4.6296893085782664E-003   4.3127813965747719E-002
  -1.5353513547448371E-002   4.0992172526039816E-003   4.3120055954489533E-002
  -1.3190306235600687E-002   3.6396311284728200E-003   4.3294875157293272E-002
  -1.1027098923753031E-002   3.2509309361851146E-003   4.3652271574158963E-002
  -2.2384926968031904E-002   6.1972075917815506E-003   3.7622436002071546E-002
  -2.0079669782470076E-002   5.5431112711135100E-003   3.7352573937005196E-002
  -1.7774412596908221E-002   4.9210332121144146E-003   3.7184234405305341E-002
  -1.5469155411346393E-002   4.3309734147844621E-003   3.7117417406971921E-002
  -1.3163898225784537E-002   3.7729318791237532E-003   3.7152122942004956E-002
  -2.5180377361074799E-002   7.1633678871673712E-003   3.1893418315311485E-002
  -2.2814124982494275E-002   6.4565332336485315E-003   3.1505161740325041E-002
  -2.0447872603913671E-002   5.7428491716247435E-003   3.1137373018009468E-002
  -1.8081620225333096E-002   5.0223157010958839E-003   3.0790052148364951E-002
  -1.5715367846752488E-002   4.2949328220624472E-003   3.0463199131391110E-002
  -2.8066279350272283E-002   8.1295281825530807E-003   2.6131096130788012E-002
  -2.5720086459368491E-002   7.3699551961836085E-003   2.5585577375707214E-002
  -2.3373893568464699E-002   6.5646651311351001E-003   2.4979471792601793E-002
  -2.1027700677560920E-002   5.7136579874074236E-003   2.4312779381471722E-002
  -1.8681507786657114E-002   4.8169337650009192E-003   2.3585500142317306E-002
  -9.3049699406581032E-003   2.7289299932466982E-003   4.9963645027852888E-002
  -7.8794772936376101E-003   2.8691873246892152E-003   5.0366686002269456E-002
  -6.4539846466171169E-003   3.6189234148309157E-003   5.1096323678475997E-002
  -5.0284919995966237E-003   4.9781382636705993E-003   5.2152558056472370E-002
  -3.6029993525761306E-003   6.9468318712081478E-003   5.3535389136258771E-002
  -1.1027098923753031E-002   3.2509309361851146E-003   4.3652271574158963E-002
  -9.2567634872185306E-003   3.1735331642077647E-003   4.4239487151101153E-002
  -7.4864280506840367E-003   3.6478543010081410E-003   4.5189791605281637E-002
  -5.7160926141495150E-003   4.6738943465866670E-003   4.6503184936700165E-002
  -3.9457571776150419E-003   6.2516533009425723E-003   4.8179667145356819E-002
  -1.3163898225784537E-002   3.7729318791237532E-003   3.7152122942004956E-002
  -1.1012227824287818E-002   3.4778790037261476E-003   3.7865753271552421E-002
  -8.8605574227910433E-003   3.6767851871858243E-003   3.8978964653786072E-002
  -6.7088870212942547E-003   4.3696504295029602E-003   4.0491757088706261E-002
  -4.5572166197975494E-003   5.5564747306769413E-003   4.2404130576312510E-002
  -1.5715367846752488E-002   4.2949328220624472E-003   3.0463199131391110E-002
  -1.3145870304845313E-002   3.7822248432443917E-003   3.1245484363623281E-002
  -1.0576372762938137E-002   3.7057160733636116E-003   3.2463842823989772E-002
  -8.0068752210309332E-003   4.0654065124189186E-003   3.4118274512490776E-002
  -5.4373776791237297E-003   4.8612961604114491E-003   3.6208779429126516E-002
  -1.8681507786657114E-002   4.8169337650009192E-003   2.3585500142317306E-002
  -1.5657690928891271E-002   4.0865706827630244E-003   2.4378680427313171E-002
  -1.2633874071125317E-002   3.7346469595409271E-003   2.5644426115892183E-002
  -9.6100572133594464E-003   3.7611625953355363E-003   2.7382737208053676E-002
  -6.5862403555935201E-003   4.1661175901457348E-003   2.9593613703798427E-002
  -3.6029993525761306E-003   6.9468318712081478E-003   5.3535389136258771E-002
  -4.1550216634979736E-003   9.5380240158788876E-003   5.1861334044823848E-002
  -4.7070439744198167E-003   1.2764734476116951E-002   5.0042401944610682E-002
  -5.2590662853416736E-003   1.6626963251922623E-002   4.8078592835619743E-002
  -5.8110885962635028E-003   2.1124710343295661E-002   4.5969906717850950E-002
  -3.9457571776150419E-003   6.2516533009425723E-003   4.8179667145356819E-002
  -4.5388755968955447E-003   8.6898911530584599E-003   4.7243069938352200E-002
  -5.1319940161760266E-003   1.2297367891917155E-002   4.6369157523408200E-002
  -5.7251124354565641E-003   1.7074083517517213E-002   4.5557929900524541E-002
  -6.3182308547370114E-003   2.3020038029860190E-002   4.4809387069702167E-002
  -4.5572166197975494E-003   5.5564747306769413E-003   4.2404130576312510E-002
  -4.9838693465980785E-003   7.8417582902386984E-003   4.2738711824913372E-002
  -5.4105220733987533E-003   1.1830001307717011E-002   4.3343539666413480E-002
  -5.8371748001993032E-003   1.7521203783112244E-002   4.4218614100812077E-002
  -6.2638275269999572E-003   2.4915365716424498E-002   4.5363935128110766E-002
  -5.4373776791237297E-003   4.8612961604114491E-003   3.6208779429126516E-002
  -5.4900029126058372E-003   6.9936254274184928E-003   3.8348259704507129E-002
  -5.5426281460879186E-003   1.1362634723516708E-002   4.0965548373625996E-002
  -5.5952533795700695E-003   1.7968324048707275E-002   4.4060645436481853E-002
  -5.6478786130521076E-003   2.6810693402988806E-002   4.7633550893076082E-002
  -6.5862403555935201E-003   4.1661175901457348E-003   2.9593613703798427E-002
  -6.0572762949185066E-003   6.1454925645982872E-003   3.4071713577133678E-002
  -5.5283122342435487E-003   1.0895268139316905E-002   3.9235183645045524E-002
  -4.9993481735685907E-003   1.8415444314302046E-002   4.5084023907533521E-002
  -4.4703841128935773E-003   2.8706021089553335E-002   5.1618234364598781E-002
  -7.7832759869383150E-002   1.6577603525942619E-002   4.5041910144526742E-002
  -7.5592647888697739E-002   1.9616924971331773E-002   4.0185003088014315E-002
  -7.3352535908012273E-002   2.1431512406309000E-002   3.6568892719552715E-002
  -7.1112423927326862E-002   2.2021365830874405E-002   3.4193579039142136E-002
  -6.8872311946641424E-002   2.1386485245027620E-002   3.3059062046782328E-002
  -8.5986628192705805E-002   1.4208293148022633E-002   1.9657543288035539E-002
  -8.3218155154115681E-002   1.8803115262456538E-002   2.0091209155436413E-002
  -8.0449682115525445E-002   2.1736814935552462E-002   2.0340800450596025E-002
  -7.7681209076935237E-002   2.3009392167310641E-002   2.0406317173514127E-002
  -7.4912736038345057E-002   2.2620846957730922E-002   2.0287759324191024E-002
  -8.6694559736094468E-002   1.1838982770102646E-002  -3.9531286839478985E-003
  -8.4822596899891634E-002   1.7989305553581220E-002   1.3347216764403175E-003
  -8.2950634063688800E-002   2.2042117464796021E-002   5.0136262042949631E-003
  -8.1078671227486021E-002   2.3997418503747075E-002   7.0835848996159620E-003
  -7.9206708391283243E-002   2.3855208670434225E-002   7.5445977624036820E-003
  -7.9956554499548485E-002   9.4696723921826320E-003  -2.5790105771423606E-002
  -8.0405973126025376E-002   1.7175495844705943E-002  -1.6084459348973970E-002
  -8.0855391752502268E-002   2.2347419994039559E-002  -9.4126300193501412E-003
  -8.1304810378979103E-002   2.4985444840183328E-002  -5.7746177825519478E-003
  -8.1754229005456008E-002   2.5089570383137527E-002  -5.1704226385796415E-003
  -6.5772612483068427E-002   7.1003620142626733E-003  -4.5853387974391868E-002
  -6.9968283832517186E-002   1.6361686135830666E-002  -3.2166333920806811E-002
  -7.4163955181965835E-002   2.2652722523283042E-002  -2.2937968220339444E-002
  -7.8359626531414595E-002   2.5973471176619592E-002  -1.8168290872990545E-002
  -8.2555297880863354E-002   2.6323932095840719E-002  -1.7857301878759058E-002
  -6.8872311946641424E-002   2.1386485245027620E-002   3.3059062046782328E-002
  -6.5671994115395954E-002   2.0171677109027064E-002   3.1291558470332520E-002
  -6.2471676284150457E-002   1.9021747883130546E-002   3.0066546327242066E-002
  -5.9271358452904988E-002   1.7936697567338108E-002   2.9384025617510551E-002
  -5.6071040621659518E-002   1.6916526161649847E-002   2.9243996341138501E-002
  -7.4912736038345057E-002   2.2620846957730922E-002   2.0287759324191024E-002
  -7.1368577678777523E-002   2.1434477254725359E-002   2.0133232763764691E-002
  -6.7824419319210086E-002   2.0313581006206186E-002   2.0123895826623217E-002
  -6.4280260959642621E-002   1.9258158212173113E-002   2.0259748512766351E-002
  -6.0736102600075115E-002   1.8268208872626313E-002   2.0540790822194510E-002
  -7.9206708391283243E-002   2.3855208670434225E-002   7.5445977624036820E-003
  -7.5716011313468140E-002   2.2697277400423627E-002   9.0036427623828852E-003
  -7.2225314235653038E-002   2.1605414129281658E-002   1.0210575575572478E-002
  -6.8734617157837991E-002   2.0579618857008007E-002   1.1165396201972631E-002
  -6.5243920080022888E-002   1.9619891583602722E-002   1.1868104641583083E-002
  -8.1754229005456008E-002   2.5089570383137527E-002  -5.1704226385796415E-003
  -7.8714295019467626E-002   2.3960077546121963E-002  -2.0972115338127838E-003
  -7.5674361033479368E-002   2.2897247252357103E-002   3.2658557409019628E-004
  -7.2634427047491026E-002   2.1901079501842679E-002   2.1009686851289257E-003
  -6.9594493061502727E-002   2.0971574294579159E-002   3.2259377993042251E-003
  -8.2555297880863354E-002   2.6323932095840719E-002  -1.7857301878759058E-002
  -8.0363428796776104E-002   2.5222877691820300E-002  -1.3169330124822354E-002
  -7.8171559712688965E-002   2.4189080375432770E-002  -9.5280741778237393E-003
  -7.5979690628601770E-002   2.3222540146677795E-002  -6.9335340377636688E-003
  -7.3787821544514576E-002   2.2323257005555486E-002  -5.3857097046420277E-003
  -5.6071040621659518E-002   1.6916526161649847E-002   2.9243996341138501E-002
  -5.3778476662990043E-002   1.5975687531073424E-002   2.8991860171192263E-002
  -5.1485912704320541E-002   1.5128635540616442E-002   2.8905863078839938E-002
  -4.9193348745651011E-002   1.4375370190278944E-002   2.8986005064081277E-002
  -4.6900784786981564E-002   1.3715891480060804E-002   2.9232286126916640E-002
  -6.0736102600075115E-002   1.8268208872626313E-002   2.0540790822194510E-002
  -5.8282521187030326E-002   1.7345930397903803E-002   2.0522604985138665E-002
  -5.5828939773985523E-002   1.6493520198343950E-002   2.0660314979239369E-002
  -5.3375358360940747E-002   1.5710978273946189E-002   2.0953920804496970E-002
  -5.0921776947895930E-002   1.4998304624711079E-002   2.1403422460911370E-002
  -6.5243920080022888E-002   1.9619891583602722E-002   1.1868104641583083E-002
  -6.2639564459039843E-002   1.8716173264734320E-002   1.2059950772460387E-002
  -6.0035208838056811E-002   1.7858404856071236E-002   1.2397449488057460E-002
  -5.7430853217073731E-002   1.7046586357613379E-002   1.2880600788374219E-002
  -5.4826497596090776E-002   1.6280717769361130E-002   1.3509404673410802E-002
  -6.9594493061502727E-002   2.0971574294579159E-002   3.2259377993042251E-003
  -6.6849606479018497E-002   2.0086416131564741E-002   3.6038975331578599E-003
  -6.4104719896534268E-002   1.9223289513798411E-002   4.1172666052938511E-003
  -6.1359833314050038E-002   1.8382194441280763E-002   4.7660450157125164E-003
  -5.8614946731565816E-002   1.7563130914011349E-002   5.5502327644141453E-003
  -7.3787821544514576E-002   2.2323257005555486E-002  -5.3857097046420277E-003
  -7.0912647246966332E-002   2.1456658998395106E-002  -4.8455547327693749E-003
  -6.8037472949417976E-002   2.0588174171526225E-002  -4.1802336690511810E-003
  -6.5162298651869649E-002   1.9717802524948112E-002  -3.3897465134876403E-003
  -6.2287124354321377E-002   1.8845544058661456E-002  -2.4740932660781700E-003
  -4.6900784786981564E-002   1.3715891480060804E-002   2.9232286126916640E-002
  -4.4677325099017645E-002   1.3089636650449543E-002   2.8802353782104717E-002
  -4.2453865411053698E-002   1.2436042941931930E-002   2.8479384874696201E-002
  -4.0230405723089779E-002   1.1755110354508498E-002   2.8263379404691119E-002
  -3.8006946035125833E-002   1.1046838888178589E-002   2.8154337372089611E-002
  -5.0921776947895930E-002   1.4998304624711079E-002   2.1403422460911370E-002
  -4.8568446570693355E-002   1.4311685190020879E-002   2.1090119518165168E-002
  -4.6215116193490738E-002   1.3607305909258433E-002   2.0929594516492872E-002
  -4.3861785816288107E-002   1.2885166782423942E-002   2.0921847455894607E-002
  -4.1508455439085545E-002   1.2145267809517080E-002   2.1066878336370165E-002
  -5.4826497596090776E-002   1.6280717769361130E-002   1.3509404673410802E-002
  -5.2297482025978927E-002   1.5533733729592519E-002   1.3322310165564025E-002
  -4.9768466455867119E-002   1.4778568876585144E-002   1.3333808102461625E-002
  -4.7239450885755360E-002   1.4015223210339715E-002   1.3543898484103804E-002
  -4.4710435315643532E-002   1.3243696730855459E-002   1.3952581310490486E-002
  -5.8614946731565816E-002   1.7563130914011349E-002   5.5502327644141453E-003
  -5.5864431464874388E-002   1.6755782269163952E-002   5.4989257243008606E-003
  -5.3113916198182939E-002   1.5949831843911529E-002   5.6920256326026090E-003
  -5.0363400931491553E-002   1.5145279638255045E-002   6.1295324893192449E-003
  -4.7612885664800070E-002   1.4342125652193782E-002   6.8114462944505738E-003
  -6.2287124354321377E-002   1.8845544058661456E-002  -2.4740932660781700E-003
  -5.9269294887379753E-002   1.7977830808735273E-002  -2.3800338056237935E-003
  -5.6251465420438185E-002   1.7121094811238247E-002  -1.9957528930845403E-003
  -5.3233635953496561E-002   1.6275336066170903E-002  -1.3212505284597234E-003
  -5.0215806486554992E-002   1.5440554573532550E-002  -3.5652671174923878E-004
  -3.8006946035125833E-002   1.1046838888178589E-002   2.8154337372089611E-002
  -3.5521779363912487E-002   1.0323051289739538E-002   2.7378472169119483E-002
  -3.3036612692699058E-002   9.5955703059891484E-003   2.6782643561245989E-002
  -3.0551446021485643E-002   8.8643959369268457E-003   2.6366851548468823E-002
  -2.8066279350272283E-002   8.1295281825530807E-003   2.6131096130788012E-002
  -4.1508455439085545E-002   1.2145267809517080E-002   2.1066878336370165E-002
  -3.8880210023495024E-002   1.1392361824217101E-002   2.0547611028069346E-002
  -3.6251964607904613E-002   1.0631201660202788E-002   2.0134464613426384E-002
  -3.3623719192314210E-002   9.8617873174748558E-003   1.9827439092440891E-002
  -3.0995473776723736E-002   9.0841187960322145E-003   1.9626534465113255E-002
  -4.4710435315643532E-002   1.3243696730855459E-002   1.3952581310490486E-002
  -4.2013026857114819E-002   1.2461672358693943E-002   1.3685351103456755E-002
  -3.9315618398586098E-002   1.1666833014416303E-002   1.3450326088641926E-002
  -3.6618209940057392E-002   1.0859178698022252E-002   1.3247506266045872E-002
  -3.3920801481528665E-002   1.0038709409511348E-002   1.3076891635669080E-002
  -4.7612885664800070E-002   1.4342125652193782E-002   6.8114462944505738E-003
  -4.4920229864771823E-002   1.3530982893171145E-002   6.7916923952815525E-003
  -4.2227574064743513E-002   1.2702464368629880E-002   6.7302279868925868E-003
  -3.9534918264715259E-002   1.1856570078569955E-002   6.6270530692836855E-003
  -3.6842262464686956E-002   1.0993300022990593E-002   6.4821676424550723E-003
  -5.0215806486554992E-002   1.5440554573532550E-002  -3.5652671174923878E-004
  -4.7601819046465876E-002   1.4600293427648570E-002  -1.3336509645622829E-004
  -4.4987831606376816E-002   1.3738095722843680E-002  -2.5829691821688261E-005
  -4.2373844166287727E-002   1.2853961459117824E-002  -3.3920497845910114E-005
  -3.9759856726198639E-002   1.1947890636469616E-002  -1.5763751452857466E-004
  -2.8066279350272283E-002   8.1295281825530807E-003   2.6131096130788012E-002
  -2.5720086459368491E-002   7.3699551961836085E-003   2.5585577375707214E-002
  -2.3373893568464699E-002   6.5646651311351001E-003   2.4979471792601793E-002
  -2.1027700677560920E-002   5.7136579874074236E-003   2.4312779381471722E-002
  -1.8681507786657114E-002   4.8169337650009192E-003   2.3585500142317306E-002
  -3.0995473776723736E-002   9.0841187960322145E-003   1.9626534465113255E-002
  -2.8692487466154964E-002   8.3057404000450030E-003   1.9082821354840906E-002
  -2.6389501155586206E-002   7.5341964336817224E-003   1.8513281911923085E-002
  -2.4086514845017386E-002   6.7694868969423797E-003   1.7917916136359777E-002
  -2.1783528534448621E-002   6.0116117898268984E-003   1.7296724028150801E-002
  -3.3920801481528665E-002   1.0038709409511348E-002   1.3076891635669080E-002
  -3.1626261255915805E-002   9.2415256039059812E-003   1.2587535678508316E-002
  -2.9331721030302994E-002   8.5037277362277758E-003   1.2107113884081130E-002
  -2.7037180804690166E-002   7.8253158064769991E-003   1.1635626252387579E-002
  -2.4742640579077324E-002   7.2062898146532661E-003   1.1173072783427523E-002
  -3.6842262464686956E-002   1.0993300022990593E-002   6.4821676424550723E-003
  -3.4521407828651006E-002   1.0177310807767001E-002   6.0997203467092684E-003
  -3.2200553192615201E-002   9.4732590387739471E-003   5.7609677090760883E-003
  -2.9879698556579296E-002   8.8811447160114538E-003   5.4659097295555268E-003
  -2.7558843920543433E-002   8.4009678394794396E-003   5.2145464081473705E-003
  -3.9759856726198639E-002   1.1947890636469616E-002  -1.5763751452857466E-004
  -3.7377927184360726E-002   1.1113096011628465E-002  -3.8062464055604872E-004
  -3.4995997642522703E-002   1.0442790341320729E-002  -5.2515661309257555E-004
  -3.2614068100684707E-002   9.9369736255465885E-003  -5.9123343213662166E-004
  -3.0232138558846766E-002   9.5956458643053910E-003  -5.7885509768973442E-004
  -1.8681507786657114E-002   4.8169337650009192E-003   2.3585500142317306E-002
  -1.5657690928891271E-002   4.0865706827630244E-003   2.4378680427313171E-002
  -1.2633874071125317E-002   3.7346469595409271E-003   2.5644426115892183E-002
  -9.6100572133594464E-003   3.7611625953355363E-003   2.7382737208053676E-002
  -6.5862403555935201E-003   4.1661175901457348E-003   2.9593613703798427E-002
  -2.1783528534448621E-002   6.0116117898268984E-003   1.7296724028150801E-002
  -1.8555830434498238E-002   5.3479361787079904E-003   1.8244130815603665E-002
  -1.5328132334547870E-002   4.8658251299575628E-003   1.9126734683842600E-002
  -1.2100434234597481E-002   4.5652786435749701E-003   1.9944535632867730E-002
  -8.8727361346471190E-003   4.4462967195610936E-003   2.0697533662679013E-002
  -2.4742640579077324E-002   7.2062898146532661E-003   1.1173072783427523E-002
  -2.1848429559739153E-002   6.6093016746534283E-003   1.2077831276689016E-002
  -1.8954218540400983E-002   5.9970033003738793E-003   1.2380418527940085E-002
  -1.6060007521062840E-002   5.3693946918148515E-003   1.2080834537180264E-002
  -1.3165796501724641E-002   4.7264758489762304E-003   1.1179079304410477E-002
  -2.7558843920543433E-002   8.4009678394794396E-003   5.2145464081473705E-003
  -2.5535488304614093E-002   7.8706671705985193E-003   5.8797818105698132E-003
  -2.3512132688684812E-002   7.1281814707899668E-003   5.4054776481847373E-003
  -2.1488777072755462E-002   6.1735107400543981E-003   3.7916339209929078E-003
  -1.9465421456826192E-002   5.0066549783908121E-003   1.0382506289937365E-003
  -3.0232138558846766E-002   9.5956458643053910E-003  -5.7885509768973442E-004
  -2.9617006669122925E-002   9.1320326665444984E-003  -3.5001758275443606E-004
  -2.9001874779399195E-002   8.2593596412067760E-003  -1.7980879554229667E-003
  -2.8386742889675409E-002   6.9776267882944859E-003  -4.9230662156959509E-003
  -2.7771610999951624E-002   5.2868341078062819E-003  -9.7249523635722923E-003
  -6.5862403555935201E-003   4.1661175901457348E-003   2.9593613703798427E-002
  -6.0572762949185066E-003   6.1454925645982872E-003   3.4071713577133678E-002
  -5.5283122342435487E-003   1.0895268139316905E-002   3.9235183645045524E-002
  -4.9993481735685907E-003   1.8415444314302046E-002   4.5084023907533521E-002
  -4.4703841128935773E-003   2.8706021089553335E-002   5.1618234364598781E-002
  -8.8727361346471190E-003   4.4462967195610936E-003   2.0697533662679013E-002
  -7.5863978342203681E-003   5.6604164612742425E-003   2.5868592677842084E-002
  -6.3000595337935061E-003   9.3591749720733919E-003   3.1869029977932561E-002
  -5.0137212333666581E-003   1.5542572251959375E-002   3.8698845562950529E-002
  -3.7273829329401154E-003   2.4210608300931247E-002   4.6358039432895071E-002
  -1.3165796501724641E-002   4.7264758489762304E-003   1.1179079304410477E-002
  -1.0978075871195224E-002   5.1753403579500867E-003   1.6757335630221304E-002
  -8.7903552406656399E-003   7.8230818048302952E-003   2.3308978331310487E-002
  -6.6026346101360558E-003   1.2669700189616863E-002   3.0834007407677430E-002
  -4.4149139796066383E-003   1.9715195512308936E-002   3.9332422859322813E-002
  -1.9465421456826192E-002   5.0066549783908121E-003   1.0382506289937365E-003
  -1.6232310405843088E-002   4.6902642546265416E-003   6.7379424342717542E-003
  -1.2999199354859898E-002   6.2869886375877676E-003   1.3555028705178558E-002
  -9.7660883038768170E-003   9.7968281272742715E-003   2.1489509441714950E-002
  -6.5329772528936042E-003   1.5219782723686626E-002   3.0541384643879815E-002
  -2.7771610999951624E-002   5.2868341078062819E-003  -9.7249523635722923E-003
  -2.3349101438164044E-002   4.2051881513021083E-003  -4.1895869100070926E-003
  -1.8926591876376408E-002   4.7508954703440187E-003   2.6071810995376699E-003
  -1.4504082314588690E-002   6.9239560649319853E-003   1.0665351665062620E-002
  -1.0081572752801193E-002   1.0724369935064537E-002   1.9984924786567548E-002
 </DataArray>
 </PointData>
 </Piece>
 </UnstructuredGrid>
 </VTKFile>
