 <VTKFile type="UnstructuredGrid"  version="0.1"   >
 <UnstructuredGrid>
 <Piece  NumberOfPoints="          1600 "  NumberOfCells="         1024 ">
 <Points>
 <DataArray  type="Float64" NumberOfComponents="3"  format="ascii" >
   0.0000000000000000        0.0000000000000000        0.0000000000000000     
   3.1250000000000000E-002   0.0000000000000000        0.0000000000000000     
   6.2500000000000000E-002   0.0000000000000000        0.0000000000000000     
   9.3750000000000000E-002   0.0000000000000000        0.0000000000000000     
  0.12500000000000000        0.0000000000000000        0.0000000000000000     
   0.0000000000000000        3.1250000000000000E-002   0.0000000000000000     
   3.1250000000000000E-002   3.1250000000000000E-002   0.0000000000000000     
   6.2500000000000000E-002   3.1250000000000000E-002   0.0000000000000000     
   9.3750000000000000E-002   3.1250000000000000E-002   0.0000000000000000     
  0.12500000000000000        3.1250000000000000E-002   0.0000000000000000     
   0.0000000000000000        6.2500000000000000E-002   0.0000000000000000     
   3.1250000000000000E-002   6.2500000000000000E-002   0.0000000000000000     
   6.2500000000000000E-002   6.2500000000000000E-002   0.0000000000000000     
   9.3750000000000000E-002   6.2500000000000000E-002   0.0000000000000000     
  0.12500000000000000        6.2500000000000000E-002   0.0000000000000000     
   0.0000000000000000        9.3750000000000000E-002   0.0000000000000000     
   3.1250000000000000E-002   9.3750000000000000E-002   0.0000000000000000     
   6.2500000000000000E-002   9.3750000000000000E-002   0.0000000000000000     
   9.3750000000000000E-002   9.3750000000000000E-002   0.0000000000000000     
  0.12500000000000000        9.3750000000000000E-002   0.0000000000000000     
   0.0000000000000000       0.12500000000000000        0.0000000000000000     
   3.1250000000000000E-002  0.12500000000000000        0.0000000000000000     
   6.2500000000000000E-002  0.12500000000000000        0.0000000000000000     
   9.3750000000000000E-002  0.12500000000000000        0.0000000000000000     
  0.12500000000000000       0.12500000000000000        0.0000000000000000     
  0.12500000000000000        0.0000000000000000        0.0000000000000000     
  0.15625000000000000        0.0000000000000000        0.0000000000000000     
  0.18750000000000000        0.0000000000000000        0.0000000000000000     
  0.21875000000000000        0.0000000000000000        0.0000000000000000     
  0.25000000000000000        0.0000000000000000        0.0000000000000000     
  0.12500000000000000        3.1250000000000000E-002   0.0000000000000000     
  0.15625000000000000        3.1250000000000000E-002   0.0000000000000000     
  0.18750000000000000        3.1250000000000000E-002   0.0000000000000000     
  0.21875000000000000        3.1250000000000000E-002   0.0000000000000000     
  0.25000000000000000        3.1250000000000000E-002   0.0000000000000000     
  0.12500000000000000        6.2500000000000000E-002   0.0000000000000000     
  0.15625000000000000        6.2500000000000000E-002   0.0000000000000000     
  0.18750000000000000        6.2500000000000000E-002   0.0000000000000000     
  0.21875000000000000        6.2500000000000000E-002   0.0000000000000000     
  0.25000000000000000        6.2500000000000000E-002   0.0000000000000000     
  0.12500000000000000        9.3750000000000000E-002   0.0000000000000000     
  0.15625000000000000        9.3750000000000000E-002   0.0000000000000000     
  0.18750000000000000        9.3750000000000000E-002   0.0000000000000000     
  0.21875000000000000        9.3750000000000000E-002   0.0000000000000000     
  0.25000000000000000        9.3750000000000000E-002   0.0000000000000000     
  0.12500000000000000       0.12500000000000000        0.0000000000000000     
  0.15625000000000000       0.12500000000000000        0.0000000000000000     
  0.18750000000000000       0.12500000000000000        0.0000000000000000     
  0.21875000000000000       0.12500000000000000        0.0000000000000000     
  0.25000000000000000       0.12500000000000000        0.0000000000000000     
  0.25000000000000000        0.0000000000000000        0.0000000000000000     
  0.28125000000000000        0.0000000000000000        0.0000000000000000     
  0.31250000000000000        0.0000000000000000        0.0000000000000000     
  0.34375000000000000        0.0000000000000000        0.0000000000000000     
  0.37500000000000000        0.0000000000000000        0.0000000000000000     
  0.25000000000000000        3.1250000000000000E-002   0.0000000000000000     
  0.28125000000000000        3.1250000000000000E-002   0.0000000000000000     
  0.31250000000000000        3.1250000000000000E-002   0.0000000000000000     
  0.34375000000000000        3.1250000000000000E-002   0.0000000000000000     
  0.37500000000000000        3.1250000000000000E-002   0.0000000000000000     
  0.25000000000000000        6.2500000000000000E-002   0.0000000000000000     
  0.28125000000000000        6.2500000000000000E-002   0.0000000000000000     
  0.31250000000000000        6.2500000000000000E-002   0.0000000000000000     
  0.34375000000000000        6.2500000000000000E-002   0.0000000000000000     
  0.37500000000000000        6.2500000000000000E-002   0.0000000000000000     
  0.25000000000000000        9.3750000000000000E-002   0.0000000000000000     
  0.28125000000000000        9.3750000000000000E-002   0.0000000000000000     
  0.31250000000000000        9.3750000000000000E-002   0.0000000000000000     
  0.34375000000000000        9.3750000000000000E-002   0.0000000000000000     
  0.37500000000000000        9.3750000000000000E-002   0.0000000000000000     
  0.25000000000000000       0.12500000000000000        0.0000000000000000     
  0.28125000000000000       0.12500000000000000        0.0000000000000000     
  0.31250000000000000       0.12500000000000000        0.0000000000000000     
  0.34375000000000000       0.12500000000000000        0.0000000000000000     
  0.37500000000000000       0.12500000000000000        0.0000000000000000     
  0.37500000000000000        0.0000000000000000        0.0000000000000000     
  0.40625000000000000        0.0000000000000000        0.0000000000000000     
  0.43750000000000000        0.0000000000000000        0.0000000000000000     
  0.46875000000000000        0.0000000000000000        0.0000000000000000     
  0.50000000000000000        0.0000000000000000        0.0000000000000000     
  0.37500000000000000        3.1250000000000000E-002   0.0000000000000000     
  0.40625000000000000        3.1250000000000000E-002   0.0000000000000000     
  0.43750000000000000        3.1250000000000000E-002   0.0000000000000000     
  0.46875000000000000        3.1250000000000000E-002   0.0000000000000000     
  0.50000000000000000        3.1250000000000000E-002   0.0000000000000000     
  0.37500000000000000        6.2500000000000000E-002   0.0000000000000000     
  0.40625000000000000        6.2500000000000000E-002   0.0000000000000000     
  0.43750000000000000        6.2500000000000000E-002   0.0000000000000000     
  0.46875000000000000        6.2500000000000000E-002   0.0000000000000000     
  0.50000000000000000        6.2500000000000000E-002   0.0000000000000000     
  0.37500000000000000        9.3750000000000000E-002   0.0000000000000000     
  0.40625000000000000        9.3750000000000000E-002   0.0000000000000000     
  0.43750000000000000        9.3750000000000000E-002   0.0000000000000000     
  0.46875000000000000        9.3750000000000000E-002   0.0000000000000000     
  0.50000000000000000        9.3750000000000000E-002   0.0000000000000000     
  0.37500000000000000       0.12500000000000000        0.0000000000000000     
  0.40625000000000000       0.12500000000000000        0.0000000000000000     
  0.43750000000000000       0.12500000000000000        0.0000000000000000     
  0.46875000000000000       0.12500000000000000        0.0000000000000000     
  0.50000000000000000       0.12500000000000000        0.0000000000000000     
  0.50000000000000000        0.0000000000000000        0.0000000000000000     
  0.53125000000000000        0.0000000000000000        0.0000000000000000     
  0.56250000000000000        0.0000000000000000        0.0000000000000000     
  0.59375000000000000        0.0000000000000000        0.0000000000000000     
  0.62500000000000000        0.0000000000000000        0.0000000000000000     
  0.50000000000000000        3.1250000000000000E-002   0.0000000000000000     
  0.53125000000000000        3.1250000000000000E-002   0.0000000000000000     
  0.56250000000000000        3.1250000000000000E-002   0.0000000000000000     
  0.59375000000000000        3.1250000000000000E-002   0.0000000000000000     
  0.62500000000000000        3.1250000000000000E-002   0.0000000000000000     
  0.50000000000000000        6.2500000000000000E-002   0.0000000000000000     
  0.53125000000000000        6.2500000000000000E-002   0.0000000000000000     
  0.56250000000000000        6.2500000000000000E-002   0.0000000000000000     
  0.59375000000000000        6.2500000000000000E-002   0.0000000000000000     
  0.62500000000000000        6.2500000000000000E-002   0.0000000000000000     
  0.50000000000000000        9.3750000000000000E-002   0.0000000000000000     
  0.53125000000000000        9.3750000000000000E-002   0.0000000000000000     
  0.56250000000000000        9.3750000000000000E-002   0.0000000000000000     
  0.59375000000000000        9.3750000000000000E-002   0.0000000000000000     
  0.62500000000000000        9.3750000000000000E-002   0.0000000000000000     
  0.50000000000000000       0.12500000000000000        0.0000000000000000     
  0.53125000000000000       0.12500000000000000        0.0000000000000000     
  0.56250000000000000       0.12500000000000000        0.0000000000000000     
  0.59375000000000000       0.12500000000000000        0.0000000000000000     
  0.62500000000000000       0.12500000000000000        0.0000000000000000     
  0.62500000000000000        0.0000000000000000        0.0000000000000000     
  0.65625000000000000        0.0000000000000000        0.0000000000000000     
  0.68750000000000000        0.0000000000000000        0.0000000000000000     
  0.71875000000000000        0.0000000000000000        0.0000000000000000     
  0.75000000000000000        0.0000000000000000        0.0000000000000000     
  0.62500000000000000        3.1250000000000000E-002   0.0000000000000000     
  0.65625000000000000        3.1250000000000000E-002   0.0000000000000000     
  0.68750000000000000        3.1250000000000000E-002   0.0000000000000000     
  0.71875000000000000        3.1250000000000000E-002   0.0000000000000000     
  0.75000000000000000        3.1250000000000000E-002   0.0000000000000000     
  0.62500000000000000        6.2500000000000000E-002   0.0000000000000000     
  0.65625000000000000        6.2500000000000000E-002   0.0000000000000000     
  0.68750000000000000        6.2500000000000000E-002   0.0000000000000000     
  0.71875000000000000        6.2500000000000000E-002   0.0000000000000000     
  0.75000000000000000        6.2500000000000000E-002   0.0000000000000000     
  0.62500000000000000        9.3750000000000000E-002   0.0000000000000000     
  0.65625000000000000        9.3750000000000000E-002   0.0000000000000000     
  0.68750000000000000        9.3750000000000000E-002   0.0000000000000000     
  0.71875000000000000        9.3750000000000000E-002   0.0000000000000000     
  0.75000000000000000        9.3750000000000000E-002   0.0000000000000000     
  0.62500000000000000       0.12500000000000000        0.0000000000000000     
  0.65625000000000000       0.12500000000000000        0.0000000000000000     
  0.68750000000000000       0.12500000000000000        0.0000000000000000     
  0.71875000000000000       0.12500000000000000        0.0000000000000000     
  0.75000000000000000       0.12500000000000000        0.0000000000000000     
  0.75000000000000000        0.0000000000000000        0.0000000000000000     
  0.78125000000000000        0.0000000000000000        0.0000000000000000     
  0.81250000000000000        0.0000000000000000        0.0000000000000000     
  0.84375000000000000        0.0000000000000000        0.0000000000000000     
  0.87500000000000000        0.0000000000000000        0.0000000000000000     
  0.75000000000000000        3.1250000000000000E-002   0.0000000000000000     
  0.78125000000000000        3.1250000000000000E-002   0.0000000000000000     
  0.81250000000000000        3.1250000000000000E-002   0.0000000000000000     
  0.84375000000000000        3.1250000000000000E-002   0.0000000000000000     
  0.87500000000000000        3.1250000000000000E-002   0.0000000000000000     
  0.75000000000000000        6.2500000000000000E-002   0.0000000000000000     
  0.78125000000000000        6.2500000000000000E-002   0.0000000000000000     
  0.81250000000000000        6.2500000000000000E-002   0.0000000000000000     
  0.84375000000000000        6.2500000000000000E-002   0.0000000000000000     
  0.87500000000000000        6.2500000000000000E-002   0.0000000000000000     
  0.75000000000000000        9.3750000000000000E-002   0.0000000000000000     
  0.78125000000000000        9.3750000000000000E-002   0.0000000000000000     
  0.81250000000000000        9.3750000000000000E-002   0.0000000000000000     
  0.84375000000000000        9.3750000000000000E-002   0.0000000000000000     
  0.87500000000000000        9.3750000000000000E-002   0.0000000000000000     
  0.75000000000000000       0.12500000000000000        0.0000000000000000     
  0.78125000000000000       0.12500000000000000        0.0000000000000000     
  0.81250000000000000       0.12500000000000000        0.0000000000000000     
  0.84375000000000000       0.12500000000000000        0.0000000000000000     
  0.87500000000000000       0.12500000000000000        0.0000000000000000     
  0.87500000000000000        0.0000000000000000        0.0000000000000000     
  0.90625000000000000        0.0000000000000000        0.0000000000000000     
  0.93750000000000000        0.0000000000000000        0.0000000000000000     
  0.96875000000000000        0.0000000000000000        0.0000000000000000     
   1.0000000000000000        0.0000000000000000        0.0000000000000000     
  0.87500000000000000        3.1250000000000000E-002   0.0000000000000000     
  0.90625000000000000        3.1250000000000000E-002   0.0000000000000000     
  0.93750000000000000        3.1250000000000000E-002   0.0000000000000000     
  0.96875000000000000        3.1250000000000000E-002   0.0000000000000000     
   1.0000000000000000        3.1250000000000000E-002   0.0000000000000000     
  0.87500000000000000        6.2500000000000000E-002   0.0000000000000000     
  0.90625000000000000        6.2500000000000000E-002   0.0000000000000000     
  0.93750000000000000        6.2500000000000000E-002   0.0000000000000000     
  0.96875000000000000        6.2500000000000000E-002   0.0000000000000000     
   1.0000000000000000        6.2500000000000000E-002   0.0000000000000000     
  0.87500000000000000        9.3750000000000000E-002   0.0000000000000000     
  0.90625000000000000        9.3750000000000000E-002   0.0000000000000000     
  0.93750000000000000        9.3750000000000000E-002   0.0000000000000000     
  0.96875000000000000        9.3750000000000000E-002   0.0000000000000000     
   1.0000000000000000        9.3750000000000000E-002   0.0000000000000000     
  0.87500000000000000       0.12500000000000000        0.0000000000000000     
  0.90625000000000000       0.12500000000000000        0.0000000000000000     
  0.93750000000000000       0.12500000000000000        0.0000000000000000     
  0.96875000000000000       0.12500000000000000        0.0000000000000000     
   1.0000000000000000       0.12500000000000000        0.0000000000000000     
   0.0000000000000000       0.12500000000000000        0.0000000000000000     
   3.1250000000000000E-002  0.12500000000000000        0.0000000000000000     
   6.2500000000000000E-002  0.12500000000000000        0.0000000000000000     
   9.3750000000000000E-002  0.12500000000000000        0.0000000000000000     
  0.12500000000000000       0.12500000000000000        0.0000000000000000     
   0.0000000000000000       0.15625000000000000        0.0000000000000000     
   3.1250000000000000E-002  0.15625000000000000        0.0000000000000000     
   6.2500000000000000E-002  0.15625000000000000        0.0000000000000000     
   9.3750000000000000E-002  0.15625000000000000        0.0000000000000000     
  0.12500000000000000       0.15625000000000000        0.0000000000000000     
   0.0000000000000000       0.18750000000000000        0.0000000000000000     
   3.1250000000000000E-002  0.18750000000000000        0.0000000000000000     
   6.2500000000000000E-002  0.18750000000000000        0.0000000000000000     
   9.3750000000000000E-002  0.18750000000000000        0.0000000000000000     
  0.12500000000000000       0.18750000000000000        0.0000000000000000     
   0.0000000000000000       0.21875000000000000        0.0000000000000000     
   3.1250000000000000E-002  0.21875000000000000        0.0000000000000000     
   6.2500000000000000E-002  0.21875000000000000        0.0000000000000000     
   9.3750000000000000E-002  0.21875000000000000        0.0000000000000000     
  0.12500000000000000       0.21875000000000000        0.0000000000000000     
   0.0000000000000000       0.25000000000000000        0.0000000000000000     
   3.1250000000000000E-002  0.25000000000000000        0.0000000000000000     
   6.2500000000000000E-002  0.25000000000000000        0.0000000000000000     
   9.3750000000000000E-002  0.25000000000000000        0.0000000000000000     
  0.12500000000000000       0.25000000000000000        0.0000000000000000     
  0.12500000000000000       0.12500000000000000        0.0000000000000000     
  0.15625000000000000       0.12500000000000000        0.0000000000000000     
  0.18750000000000000       0.12500000000000000        0.0000000000000000     
  0.21875000000000000       0.12500000000000000        0.0000000000000000     
  0.25000000000000000       0.12500000000000000        0.0000000000000000     
  0.12500000000000000       0.15625000000000000        0.0000000000000000     
  0.15625000000000000       0.15625000000000000        0.0000000000000000     
  0.18750000000000000       0.15625000000000000        0.0000000000000000     
  0.21875000000000000       0.15625000000000000        0.0000000000000000     
  0.25000000000000000       0.15625000000000000        0.0000000000000000     
  0.12500000000000000       0.18750000000000000        0.0000000000000000     
  0.15625000000000000       0.18750000000000000        0.0000000000000000     
  0.18750000000000000       0.18750000000000000        0.0000000000000000     
  0.21875000000000000       0.18750000000000000        0.0000000000000000     
  0.25000000000000000       0.18750000000000000        0.0000000000000000     
  0.12500000000000000       0.21875000000000000        0.0000000000000000     
  0.15625000000000000       0.21875000000000000        0.0000000000000000     
  0.18750000000000000       0.21875000000000000        0.0000000000000000     
  0.21875000000000000       0.21875000000000000        0.0000000000000000     
  0.25000000000000000       0.21875000000000000        0.0000000000000000     
  0.12500000000000000       0.25000000000000000        0.0000000000000000     
  0.15625000000000000       0.25000000000000000        0.0000000000000000     
  0.18750000000000000       0.25000000000000000        0.0000000000000000     
  0.21875000000000000       0.25000000000000000        0.0000000000000000     
  0.25000000000000000       0.25000000000000000        0.0000000000000000     
  0.25000000000000000       0.12500000000000000        0.0000000000000000     
  0.28125000000000000       0.12500000000000000        0.0000000000000000     
  0.31250000000000000       0.12500000000000000        0.0000000000000000     
  0.34375000000000000       0.12500000000000000        0.0000000000000000     
  0.37500000000000000       0.12500000000000000        0.0000000000000000     
  0.25000000000000000       0.15625000000000000        0.0000000000000000     
  0.28125000000000000       0.15625000000000000        0.0000000000000000     
  0.31250000000000000       0.15625000000000000        0.0000000000000000     
  0.34375000000000000       0.15625000000000000        0.0000000000000000     
  0.37500000000000000       0.15625000000000000        0.0000000000000000     
  0.25000000000000000       0.18750000000000000        0.0000000000000000     
  0.28125000000000000       0.18750000000000000        0.0000000000000000     
  0.31250000000000000       0.18750000000000000        0.0000000000000000     
  0.34375000000000000       0.18750000000000000        0.0000000000000000     
  0.37500000000000000       0.18750000000000000        0.0000000000000000     
  0.25000000000000000       0.21875000000000000        0.0000000000000000     
  0.28125000000000000       0.21875000000000000        0.0000000000000000     
  0.31250000000000000       0.21875000000000000        0.0000000000000000     
  0.34375000000000000       0.21875000000000000        0.0000000000000000     
  0.37500000000000000       0.21875000000000000        0.0000000000000000     
  0.25000000000000000       0.25000000000000000        0.0000000000000000     
  0.28125000000000000       0.25000000000000000        0.0000000000000000     
  0.31250000000000000       0.25000000000000000        0.0000000000000000     
  0.34375000000000000       0.25000000000000000        0.0000000000000000     
  0.37500000000000000       0.25000000000000000        0.0000000000000000     
  0.37500000000000000       0.12500000000000000        0.0000000000000000     
  0.40625000000000000       0.12500000000000000        0.0000000000000000     
  0.43750000000000000       0.12500000000000000        0.0000000000000000     
  0.46875000000000000       0.12500000000000000        0.0000000000000000     
  0.50000000000000000       0.12500000000000000        0.0000000000000000     
  0.37500000000000000       0.15625000000000000        0.0000000000000000     
  0.40625000000000000       0.15625000000000000        0.0000000000000000     
  0.43750000000000000       0.15625000000000000        0.0000000000000000     
  0.46875000000000000       0.15625000000000000        0.0000000000000000     
  0.50000000000000000       0.15625000000000000        0.0000000000000000     
  0.37500000000000000       0.18750000000000000        0.0000000000000000     
  0.40625000000000000       0.18750000000000000        0.0000000000000000     
  0.43750000000000000       0.18750000000000000        0.0000000000000000     
  0.46875000000000000       0.18750000000000000        0.0000000000000000     
  0.50000000000000000       0.18750000000000000        0.0000000000000000     
  0.37500000000000000       0.21875000000000000        0.0000000000000000     
  0.40625000000000000       0.21875000000000000        0.0000000000000000     
  0.43750000000000000       0.21875000000000000        0.0000000000000000     
  0.46875000000000000       0.21875000000000000        0.0000000000000000     
  0.50000000000000000       0.21875000000000000        0.0000000000000000     
  0.37500000000000000       0.25000000000000000        0.0000000000000000     
  0.40625000000000000       0.25000000000000000        0.0000000000000000     
  0.43750000000000000       0.25000000000000000        0.0000000000000000     
  0.46875000000000000       0.25000000000000000        0.0000000000000000     
  0.50000000000000000       0.25000000000000000        0.0000000000000000     
  0.50000000000000000       0.12500000000000000        0.0000000000000000     
  0.53125000000000000       0.12500000000000000        0.0000000000000000     
  0.56250000000000000       0.12500000000000000        0.0000000000000000     
  0.59375000000000000       0.12500000000000000        0.0000000000000000     
  0.62500000000000000       0.12500000000000000        0.0000000000000000     
  0.50000000000000000       0.15625000000000000        0.0000000000000000     
  0.53125000000000000       0.15625000000000000        0.0000000000000000     
  0.56250000000000000       0.15625000000000000        0.0000000000000000     
  0.59375000000000000       0.15625000000000000        0.0000000000000000     
  0.62500000000000000       0.15625000000000000        0.0000000000000000     
  0.50000000000000000       0.18750000000000000        0.0000000000000000     
  0.53125000000000000       0.18750000000000000        0.0000000000000000     
  0.56250000000000000       0.18750000000000000        0.0000000000000000     
  0.59375000000000000       0.18750000000000000        0.0000000000000000     
  0.62500000000000000       0.18750000000000000        0.0000000000000000     
  0.50000000000000000       0.21875000000000000        0.0000000000000000     
  0.53125000000000000       0.21875000000000000        0.0000000000000000     
  0.56250000000000000       0.21875000000000000        0.0000000000000000     
  0.59375000000000000       0.21875000000000000        0.0000000000000000     
  0.62500000000000000       0.21875000000000000        0.0000000000000000     
  0.50000000000000000       0.25000000000000000        0.0000000000000000     
  0.53125000000000000       0.25000000000000000        0.0000000000000000     
  0.56250000000000000       0.25000000000000000        0.0000000000000000     
  0.59375000000000000       0.25000000000000000        0.0000000000000000     
  0.62500000000000000       0.25000000000000000        0.0000000000000000     
  0.62500000000000000       0.12500000000000000        0.0000000000000000     
  0.65625000000000000       0.12500000000000000        0.0000000000000000     
  0.68750000000000000       0.12500000000000000        0.0000000000000000     
  0.71875000000000000       0.12500000000000000        0.0000000000000000     
  0.75000000000000000       0.12500000000000000        0.0000000000000000     
  0.62500000000000000       0.15625000000000000        0.0000000000000000     
  0.65625000000000000       0.15625000000000000        0.0000000000000000     
  0.68750000000000000       0.15625000000000000        0.0000000000000000     
  0.71875000000000000       0.15625000000000000        0.0000000000000000     
  0.75000000000000000       0.15625000000000000        0.0000000000000000     
  0.62500000000000000       0.18750000000000000        0.0000000000000000     
  0.65625000000000000       0.18750000000000000        0.0000000000000000     
  0.68750000000000000       0.18750000000000000        0.0000000000000000     
  0.71875000000000000       0.18750000000000000        0.0000000000000000     
  0.75000000000000000       0.18750000000000000        0.0000000000000000     
  0.62500000000000000       0.21875000000000000        0.0000000000000000     
  0.65625000000000000       0.21875000000000000        0.0000000000000000     
  0.68750000000000000       0.21875000000000000        0.0000000000000000     
  0.71875000000000000       0.21875000000000000        0.0000000000000000     
  0.75000000000000000       0.21875000000000000        0.0000000000000000     
  0.62500000000000000       0.25000000000000000        0.0000000000000000     
  0.65625000000000000       0.25000000000000000        0.0000000000000000     
  0.68750000000000000       0.25000000000000000        0.0000000000000000     
  0.71875000000000000       0.25000000000000000        0.0000000000000000     
  0.75000000000000000       0.25000000000000000        0.0000000000000000     
  0.75000000000000000       0.12500000000000000        0.0000000000000000     
  0.78125000000000000       0.12500000000000000        0.0000000000000000     
  0.81250000000000000       0.12500000000000000        0.0000000000000000     
  0.84375000000000000       0.12500000000000000        0.0000000000000000     
  0.87500000000000000       0.12500000000000000        0.0000000000000000     
  0.75000000000000000       0.15625000000000000        0.0000000000000000     
  0.78125000000000000       0.15625000000000000        0.0000000000000000     
  0.81250000000000000       0.15625000000000000        0.0000000000000000     
  0.84375000000000000       0.15625000000000000        0.0000000000000000     
  0.87500000000000000       0.15625000000000000        0.0000000000000000     
  0.75000000000000000       0.18750000000000000        0.0000000000000000     
  0.78125000000000000       0.18750000000000000        0.0000000000000000     
  0.81250000000000000       0.18750000000000000        0.0000000000000000     
  0.84375000000000000       0.18750000000000000        0.0000000000000000     
  0.87500000000000000       0.18750000000000000        0.0000000000000000     
  0.75000000000000000       0.21875000000000000        0.0000000000000000     
  0.78125000000000000       0.21875000000000000        0.0000000000000000     
  0.81250000000000000       0.21875000000000000        0.0000000000000000     
  0.84375000000000000       0.21875000000000000        0.0000000000000000     
  0.87500000000000000       0.21875000000000000        0.0000000000000000     
  0.75000000000000000       0.25000000000000000        0.0000000000000000     
  0.78125000000000000       0.25000000000000000        0.0000000000000000     
  0.81250000000000000       0.25000000000000000        0.0000000000000000     
  0.84375000000000000       0.25000000000000000        0.0000000000000000     
  0.87500000000000000       0.25000000000000000        0.0000000000000000     
  0.87500000000000000       0.12500000000000000        0.0000000000000000     
  0.90625000000000000       0.12500000000000000        0.0000000000000000     
  0.93750000000000000       0.12500000000000000        0.0000000000000000     
  0.96875000000000000       0.12500000000000000        0.0000000000000000     
   1.0000000000000000       0.12500000000000000        0.0000000000000000     
  0.87500000000000000       0.15625000000000000        0.0000000000000000     
  0.90625000000000000       0.15625000000000000        0.0000000000000000     
  0.93750000000000000       0.15625000000000000        0.0000000000000000     
  0.96875000000000000       0.15625000000000000        0.0000000000000000     
   1.0000000000000000       0.15625000000000000        0.0000000000000000     
  0.87500000000000000       0.18750000000000000        0.0000000000000000     
  0.90625000000000000       0.18750000000000000        0.0000000000000000     
  0.93750000000000000       0.18750000000000000        0.0000000000000000     
  0.96875000000000000       0.18750000000000000        0.0000000000000000     
   1.0000000000000000       0.18750000000000000        0.0000000000000000     
  0.87500000000000000       0.21875000000000000        0.0000000000000000     
  0.90625000000000000       0.21875000000000000        0.0000000000000000     
  0.93750000000000000       0.21875000000000000        0.0000000000000000     
  0.96875000000000000       0.21875000000000000        0.0000000000000000     
   1.0000000000000000       0.21875000000000000        0.0000000000000000     
  0.87500000000000000       0.25000000000000000        0.0000000000000000     
  0.90625000000000000       0.25000000000000000        0.0000000000000000     
  0.93750000000000000       0.25000000000000000        0.0000000000000000     
  0.96875000000000000       0.25000000000000000        0.0000000000000000     
   1.0000000000000000       0.25000000000000000        0.0000000000000000     
   0.0000000000000000       0.25000000000000000        0.0000000000000000     
   3.1250000000000000E-002  0.25000000000000000        0.0000000000000000     
   6.2500000000000000E-002  0.25000000000000000        0.0000000000000000     
   9.3750000000000000E-002  0.25000000000000000        0.0000000000000000     
  0.12500000000000000       0.25000000000000000        0.0000000000000000     
   0.0000000000000000       0.28125000000000000        0.0000000000000000     
   3.1250000000000000E-002  0.28125000000000000        0.0000000000000000     
   6.2500000000000000E-002  0.28125000000000000        0.0000000000000000     
   9.3750000000000000E-002  0.28125000000000000        0.0000000000000000     
  0.12500000000000000       0.28125000000000000        0.0000000000000000     
   0.0000000000000000       0.31250000000000000        0.0000000000000000     
   3.1250000000000000E-002  0.31250000000000000        0.0000000000000000     
   6.2500000000000000E-002  0.31250000000000000        0.0000000000000000     
   9.3750000000000000E-002  0.31250000000000000        0.0000000000000000     
  0.12500000000000000       0.31250000000000000        0.0000000000000000     
   0.0000000000000000       0.34375000000000000        0.0000000000000000     
   3.1250000000000000E-002  0.34375000000000000        0.0000000000000000     
   6.2500000000000000E-002  0.34375000000000000        0.0000000000000000     
   9.3750000000000000E-002  0.34375000000000000        0.0000000000000000     
  0.12500000000000000       0.34375000000000000        0.0000000000000000     
   0.0000000000000000       0.37500000000000000        0.0000000000000000     
   3.1250000000000000E-002  0.37500000000000000        0.0000000000000000     
   6.2500000000000000E-002  0.37500000000000000        0.0000000000000000     
   9.3750000000000000E-002  0.37500000000000000        0.0000000000000000     
  0.12500000000000000       0.37500000000000000        0.0000000000000000     
  0.12500000000000000       0.25000000000000000        0.0000000000000000     
  0.15625000000000000       0.25000000000000000        0.0000000000000000     
  0.18750000000000000       0.25000000000000000        0.0000000000000000     
  0.21875000000000000       0.25000000000000000        0.0000000000000000     
  0.25000000000000000       0.25000000000000000        0.0000000000000000     
  0.12500000000000000       0.28125000000000000        0.0000000000000000     
  0.15625000000000000       0.28125000000000000        0.0000000000000000     
  0.18750000000000000       0.28125000000000000        0.0000000000000000     
  0.21875000000000000       0.28125000000000000        0.0000000000000000     
  0.25000000000000000       0.28125000000000000        0.0000000000000000     
  0.12500000000000000       0.31250000000000000        0.0000000000000000     
  0.15625000000000000       0.31250000000000000        0.0000000000000000     
  0.18750000000000000       0.31250000000000000        0.0000000000000000     
  0.21875000000000000       0.31250000000000000        0.0000000000000000     
  0.25000000000000000       0.31250000000000000        0.0000000000000000     
  0.12500000000000000       0.34375000000000000        0.0000000000000000     
  0.15625000000000000       0.34375000000000000        0.0000000000000000     
  0.18750000000000000       0.34375000000000000        0.0000000000000000     
  0.21875000000000000       0.34375000000000000        0.0000000000000000     
  0.25000000000000000       0.34375000000000000        0.0000000000000000     
  0.12500000000000000       0.37500000000000000        0.0000000000000000     
  0.15625000000000000       0.37500000000000000        0.0000000000000000     
  0.18750000000000000       0.37500000000000000        0.0000000000000000     
  0.21875000000000000       0.37500000000000000        0.0000000000000000     
  0.25000000000000000       0.37500000000000000        0.0000000000000000     
  0.25000000000000000       0.25000000000000000        0.0000000000000000     
  0.28125000000000000       0.25000000000000000        0.0000000000000000     
  0.31250000000000000       0.25000000000000000        0.0000000000000000     
  0.34375000000000000       0.25000000000000000        0.0000000000000000     
  0.37500000000000000       0.25000000000000000        0.0000000000000000     
  0.25000000000000000       0.28125000000000000        0.0000000000000000     
  0.28125000000000000       0.28125000000000000        0.0000000000000000     
  0.31250000000000000       0.28125000000000000        0.0000000000000000     
  0.34375000000000000       0.28125000000000000        0.0000000000000000     
  0.37500000000000000       0.28125000000000000        0.0000000000000000     
  0.25000000000000000       0.31250000000000000        0.0000000000000000     
  0.28125000000000000       0.31250000000000000        0.0000000000000000     
  0.31250000000000000       0.31250000000000000        0.0000000000000000     
  0.34375000000000000       0.31250000000000000        0.0000000000000000     
  0.37500000000000000       0.31250000000000000        0.0000000000000000     
  0.25000000000000000       0.34375000000000000        0.0000000000000000     
  0.28125000000000000       0.34375000000000000        0.0000000000000000     
  0.31250000000000000       0.34375000000000000        0.0000000000000000     
  0.34375000000000000       0.34375000000000000        0.0000000000000000     
  0.37500000000000000       0.34375000000000000        0.0000000000000000     
  0.25000000000000000       0.37500000000000000        0.0000000000000000     
  0.28125000000000000       0.37500000000000000        0.0000000000000000     
  0.31250000000000000       0.37500000000000000        0.0000000000000000     
  0.34375000000000000       0.37500000000000000        0.0000000000000000     
  0.37500000000000000       0.37500000000000000        0.0000000000000000     
  0.37500000000000000       0.25000000000000000        0.0000000000000000     
  0.40625000000000000       0.25000000000000000        0.0000000000000000     
  0.43750000000000000       0.25000000000000000        0.0000000000000000     
  0.46875000000000000       0.25000000000000000        0.0000000000000000     
  0.50000000000000000       0.25000000000000000        0.0000000000000000     
  0.37500000000000000       0.28125000000000000        0.0000000000000000     
  0.40625000000000000       0.28125000000000000        0.0000000000000000     
  0.43750000000000000       0.28125000000000000        0.0000000000000000     
  0.46875000000000000       0.28125000000000000        0.0000000000000000     
  0.50000000000000000       0.28125000000000000        0.0000000000000000     
  0.37500000000000000       0.31250000000000000        0.0000000000000000     
  0.40625000000000000       0.31250000000000000        0.0000000000000000     
  0.43750000000000000       0.31250000000000000        0.0000000000000000     
  0.46875000000000000       0.31250000000000000        0.0000000000000000     
  0.50000000000000000       0.31250000000000000        0.0000000000000000     
  0.37500000000000000       0.34375000000000000        0.0000000000000000     
  0.40625000000000000       0.34375000000000000        0.0000000000000000     
  0.43750000000000000       0.34375000000000000        0.0000000000000000     
  0.46875000000000000       0.34375000000000000        0.0000000000000000     
  0.50000000000000000       0.34375000000000000        0.0000000000000000     
  0.37500000000000000       0.37500000000000000        0.0000000000000000     
  0.40625000000000000       0.37500000000000000        0.0000000000000000     
  0.43750000000000000       0.37500000000000000        0.0000000000000000     
  0.46875000000000000       0.37500000000000000        0.0000000000000000     
  0.50000000000000000       0.37500000000000000        0.0000000000000000     
  0.50000000000000000       0.25000000000000000        0.0000000000000000     
  0.53125000000000000       0.25000000000000000        0.0000000000000000     
  0.56250000000000000       0.25000000000000000        0.0000000000000000     
  0.59375000000000000       0.25000000000000000        0.0000000000000000     
  0.62500000000000000       0.25000000000000000        0.0000000000000000     
  0.50000000000000000       0.28125000000000000        0.0000000000000000     
  0.53125000000000000       0.28125000000000000        0.0000000000000000     
  0.56250000000000000       0.28125000000000000        0.0000000000000000     
  0.59375000000000000       0.28125000000000000        0.0000000000000000     
  0.62500000000000000       0.28125000000000000        0.0000000000000000     
  0.50000000000000000       0.31250000000000000        0.0000000000000000     
  0.53125000000000000       0.31250000000000000        0.0000000000000000     
  0.56250000000000000       0.31250000000000000        0.0000000000000000     
  0.59375000000000000       0.31250000000000000        0.0000000000000000     
  0.62500000000000000       0.31250000000000000        0.0000000000000000     
  0.50000000000000000       0.34375000000000000        0.0000000000000000     
  0.53125000000000000       0.34375000000000000        0.0000000000000000     
  0.56250000000000000       0.34375000000000000        0.0000000000000000     
  0.59375000000000000       0.34375000000000000        0.0000000000000000     
  0.62500000000000000       0.34375000000000000        0.0000000000000000     
  0.50000000000000000       0.37500000000000000        0.0000000000000000     
  0.53125000000000000       0.37500000000000000        0.0000000000000000     
  0.56250000000000000       0.37500000000000000        0.0000000000000000     
  0.59375000000000000       0.37500000000000000        0.0000000000000000     
  0.62500000000000000       0.37500000000000000        0.0000000000000000     
  0.62500000000000000       0.25000000000000000        0.0000000000000000     
  0.65625000000000000       0.25000000000000000        0.0000000000000000     
  0.68750000000000000       0.25000000000000000        0.0000000000000000     
  0.71875000000000000       0.25000000000000000        0.0000000000000000     
  0.75000000000000000       0.25000000000000000        0.0000000000000000     
  0.62500000000000000       0.28125000000000000        0.0000000000000000     
  0.65625000000000000       0.28125000000000000        0.0000000000000000     
  0.68750000000000000       0.28125000000000000        0.0000000000000000     
  0.71875000000000000       0.28125000000000000        0.0000000000000000     
  0.75000000000000000       0.28125000000000000        0.0000000000000000     
  0.62500000000000000       0.31250000000000000        0.0000000000000000     
  0.65625000000000000       0.31250000000000000        0.0000000000000000     
  0.68750000000000000       0.31250000000000000        0.0000000000000000     
  0.71875000000000000       0.31250000000000000        0.0000000000000000     
  0.75000000000000000       0.31250000000000000        0.0000000000000000     
  0.62500000000000000       0.34375000000000000        0.0000000000000000     
  0.65625000000000000       0.34375000000000000        0.0000000000000000     
  0.68750000000000000       0.34375000000000000        0.0000000000000000     
  0.71875000000000000       0.34375000000000000        0.0000000000000000     
  0.75000000000000000       0.34375000000000000        0.0000000000000000     
  0.62500000000000000       0.37500000000000000        0.0000000000000000     
  0.65625000000000000       0.37500000000000000        0.0000000000000000     
  0.68750000000000000       0.37500000000000000        0.0000000000000000     
  0.71875000000000000       0.37500000000000000        0.0000000000000000     
  0.75000000000000000       0.37500000000000000        0.0000000000000000     
  0.75000000000000000       0.25000000000000000        0.0000000000000000     
  0.78125000000000000       0.25000000000000000        0.0000000000000000     
  0.81250000000000000       0.25000000000000000        0.0000000000000000     
  0.84375000000000000       0.25000000000000000        0.0000000000000000     
  0.87500000000000000       0.25000000000000000        0.0000000000000000     
  0.75000000000000000       0.28125000000000000        0.0000000000000000     
  0.78125000000000000       0.28125000000000000        0.0000000000000000     
  0.81250000000000000       0.28125000000000000        0.0000000000000000     
  0.84375000000000000       0.28125000000000000        0.0000000000000000     
  0.87500000000000000       0.28125000000000000        0.0000000000000000     
  0.75000000000000000       0.31250000000000000        0.0000000000000000     
  0.78125000000000000       0.31250000000000000        0.0000000000000000     
  0.81250000000000000       0.31250000000000000        0.0000000000000000     
  0.84375000000000000       0.31250000000000000        0.0000000000000000     
  0.87500000000000000       0.31250000000000000        0.0000000000000000     
  0.75000000000000000       0.34375000000000000        0.0000000000000000     
  0.78125000000000000       0.34375000000000000        0.0000000000000000     
  0.81250000000000000       0.34375000000000000        0.0000000000000000     
  0.84375000000000000       0.34375000000000000        0.0000000000000000     
  0.87500000000000000       0.34375000000000000        0.0000000000000000     
  0.75000000000000000       0.37500000000000000        0.0000000000000000     
  0.78125000000000000       0.37500000000000000        0.0000000000000000     
  0.81250000000000000       0.37500000000000000        0.0000000000000000     
  0.84375000000000000       0.37500000000000000        0.0000000000000000     
  0.87500000000000000       0.37500000000000000        0.0000000000000000     
  0.87500000000000000       0.25000000000000000        0.0000000000000000     
  0.90625000000000000       0.25000000000000000        0.0000000000000000     
  0.93750000000000000       0.25000000000000000        0.0000000000000000     
  0.96875000000000000       0.25000000000000000        0.0000000000000000     
   1.0000000000000000       0.25000000000000000        0.0000000000000000     
  0.87500000000000000       0.28125000000000000        0.0000000000000000     
  0.90625000000000000       0.28125000000000000        0.0000000000000000     
  0.93750000000000000       0.28125000000000000        0.0000000000000000     
  0.96875000000000000       0.28125000000000000        0.0000000000000000     
   1.0000000000000000       0.28125000000000000        0.0000000000000000     
  0.87500000000000000       0.31250000000000000        0.0000000000000000     
  0.90625000000000000       0.31250000000000000        0.0000000000000000     
  0.93750000000000000       0.31250000000000000        0.0000000000000000     
  0.96875000000000000       0.31250000000000000        0.0000000000000000     
   1.0000000000000000       0.31250000000000000        0.0000000000000000     
  0.87500000000000000       0.34375000000000000        0.0000000000000000     
  0.90625000000000000       0.34375000000000000        0.0000000000000000     
  0.93750000000000000       0.34375000000000000        0.0000000000000000     
  0.96875000000000000       0.34375000000000000        0.0000000000000000     
   1.0000000000000000       0.34375000000000000        0.0000000000000000     
  0.87500000000000000       0.37500000000000000        0.0000000000000000     
  0.90625000000000000       0.37500000000000000        0.0000000000000000     
  0.93750000000000000       0.37500000000000000        0.0000000000000000     
  0.96875000000000000       0.37500000000000000        0.0000000000000000     
   1.0000000000000000       0.37500000000000000        0.0000000000000000     
   0.0000000000000000       0.37500000000000000        0.0000000000000000     
   3.1250000000000000E-002  0.37500000000000000        0.0000000000000000     
   6.2500000000000000E-002  0.37500000000000000        0.0000000000000000     
   9.3750000000000000E-002  0.37500000000000000        0.0000000000000000     
  0.12500000000000000       0.37500000000000000        0.0000000000000000     
   0.0000000000000000       0.40625000000000000        0.0000000000000000     
   3.1250000000000000E-002  0.40625000000000000        0.0000000000000000     
   6.2500000000000000E-002  0.40625000000000000        0.0000000000000000     
   9.3750000000000000E-002  0.40625000000000000        0.0000000000000000     
  0.12500000000000000       0.40625000000000000        0.0000000000000000     
   0.0000000000000000       0.43750000000000000        0.0000000000000000     
   3.1250000000000000E-002  0.43750000000000000        0.0000000000000000     
   6.2500000000000000E-002  0.43750000000000000        0.0000000000000000     
   9.3750000000000000E-002  0.43750000000000000        0.0000000000000000     
  0.12500000000000000       0.43750000000000000        0.0000000000000000     
   0.0000000000000000       0.46875000000000000        0.0000000000000000     
   3.1250000000000000E-002  0.46875000000000000        0.0000000000000000     
   6.2500000000000000E-002  0.46875000000000000        0.0000000000000000     
   9.3750000000000000E-002  0.46875000000000000        0.0000000000000000     
  0.12500000000000000       0.46875000000000000        0.0000000000000000     
   0.0000000000000000       0.50000000000000000        0.0000000000000000     
   3.1250000000000000E-002  0.50000000000000000        0.0000000000000000     
   6.2500000000000000E-002  0.50000000000000000        0.0000000000000000     
   9.3750000000000000E-002  0.50000000000000000        0.0000000000000000     
  0.12500000000000000       0.50000000000000000        0.0000000000000000     
  0.12500000000000000       0.37500000000000000        0.0000000000000000     
  0.15625000000000000       0.37500000000000000        0.0000000000000000     
  0.18750000000000000       0.37500000000000000        0.0000000000000000     
  0.21875000000000000       0.37500000000000000        0.0000000000000000     
  0.25000000000000000       0.37500000000000000        0.0000000000000000     
  0.12500000000000000       0.40625000000000000        0.0000000000000000     
  0.15625000000000000       0.40625000000000000        0.0000000000000000     
  0.18750000000000000       0.40625000000000000        0.0000000000000000     
  0.21875000000000000       0.40625000000000000        0.0000000000000000     
  0.25000000000000000       0.40625000000000000        0.0000000000000000     
  0.12500000000000000       0.43750000000000000        0.0000000000000000     
  0.15625000000000000       0.43750000000000000        0.0000000000000000     
  0.18750000000000000       0.43750000000000000        0.0000000000000000     
  0.21875000000000000       0.43750000000000000        0.0000000000000000     
  0.25000000000000000       0.43750000000000000        0.0000000000000000     
  0.12500000000000000       0.46875000000000000        0.0000000000000000     
  0.15625000000000000       0.46875000000000000        0.0000000000000000     
  0.18750000000000000       0.46875000000000000        0.0000000000000000     
  0.21875000000000000       0.46875000000000000        0.0000000000000000     
  0.25000000000000000       0.46875000000000000        0.0000000000000000     
  0.12500000000000000       0.50000000000000000        0.0000000000000000     
  0.15625000000000000       0.50000000000000000        0.0000000000000000     
  0.18750000000000000       0.50000000000000000        0.0000000000000000     
  0.21875000000000000       0.50000000000000000        0.0000000000000000     
  0.25000000000000000       0.50000000000000000        0.0000000000000000     
  0.25000000000000000       0.37500000000000000        0.0000000000000000     
  0.28125000000000000       0.37500000000000000        0.0000000000000000     
  0.31250000000000000       0.37500000000000000        0.0000000000000000     
  0.34375000000000000       0.37500000000000000        0.0000000000000000     
  0.37500000000000000       0.37500000000000000        0.0000000000000000     
  0.25000000000000000       0.40625000000000000        0.0000000000000000     
  0.28125000000000000       0.40625000000000000        0.0000000000000000     
  0.31250000000000000       0.40625000000000000        0.0000000000000000     
  0.34375000000000000       0.40625000000000000        0.0000000000000000     
  0.37500000000000000       0.40625000000000000        0.0000000000000000     
  0.25000000000000000       0.43750000000000000        0.0000000000000000     
  0.28125000000000000       0.43750000000000000        0.0000000000000000     
  0.31250000000000000       0.43750000000000000        0.0000000000000000     
  0.34375000000000000       0.43750000000000000        0.0000000000000000     
  0.37500000000000000       0.43750000000000000        0.0000000000000000     
  0.25000000000000000       0.46875000000000000        0.0000000000000000     
  0.28125000000000000       0.46875000000000000        0.0000000000000000     
  0.31250000000000000       0.46875000000000000        0.0000000000000000     
  0.34375000000000000       0.46875000000000000        0.0000000000000000     
  0.37500000000000000       0.46875000000000000        0.0000000000000000     
  0.25000000000000000       0.50000000000000000        0.0000000000000000     
  0.28125000000000000       0.50000000000000000        0.0000000000000000     
  0.31250000000000000       0.50000000000000000        0.0000000000000000     
  0.34375000000000000       0.50000000000000000        0.0000000000000000     
  0.37500000000000000       0.50000000000000000        0.0000000000000000     
  0.37500000000000000       0.37500000000000000        0.0000000000000000     
  0.40625000000000000       0.37500000000000000        0.0000000000000000     
  0.43750000000000000       0.37500000000000000        0.0000000000000000     
  0.46875000000000000       0.37500000000000000        0.0000000000000000     
  0.50000000000000000       0.37500000000000000        0.0000000000000000     
  0.37500000000000000       0.40625000000000000        0.0000000000000000     
  0.40625000000000000       0.40625000000000000        0.0000000000000000     
  0.43750000000000000       0.40625000000000000        0.0000000000000000     
  0.46875000000000000       0.40625000000000000        0.0000000000000000     
  0.50000000000000000       0.40625000000000000        0.0000000000000000     
  0.37500000000000000       0.43750000000000000        0.0000000000000000     
  0.40625000000000000       0.43750000000000000        0.0000000000000000     
  0.43750000000000000       0.43750000000000000        0.0000000000000000     
  0.46875000000000000       0.43750000000000000        0.0000000000000000     
  0.50000000000000000       0.43750000000000000        0.0000000000000000     
  0.37500000000000000       0.46875000000000000        0.0000000000000000     
  0.40625000000000000       0.46875000000000000        0.0000000000000000     
  0.43750000000000000       0.46875000000000000        0.0000000000000000     
  0.46875000000000000       0.46875000000000000        0.0000000000000000     
  0.50000000000000000       0.46875000000000000        0.0000000000000000     
  0.37500000000000000       0.50000000000000000        0.0000000000000000     
  0.40625000000000000       0.50000000000000000        0.0000000000000000     
  0.43750000000000000       0.50000000000000000        0.0000000000000000     
  0.46875000000000000       0.50000000000000000        0.0000000000000000     
  0.50000000000000000       0.50000000000000000        0.0000000000000000     
  0.50000000000000000       0.37500000000000000        0.0000000000000000     
  0.53125000000000000       0.37500000000000000        0.0000000000000000     
  0.56250000000000000       0.37500000000000000        0.0000000000000000     
  0.59375000000000000       0.37500000000000000        0.0000000000000000     
  0.62500000000000000       0.37500000000000000        0.0000000000000000     
  0.50000000000000000       0.40625000000000000        0.0000000000000000     
  0.53125000000000000       0.40625000000000000        0.0000000000000000     
  0.56250000000000000       0.40625000000000000        0.0000000000000000     
  0.59375000000000000       0.40625000000000000        0.0000000000000000     
  0.62500000000000000       0.40625000000000000        0.0000000000000000     
  0.50000000000000000       0.43750000000000000        0.0000000000000000     
  0.53125000000000000       0.43750000000000000        0.0000000000000000     
  0.56250000000000000       0.43750000000000000        0.0000000000000000     
  0.59375000000000000       0.43750000000000000        0.0000000000000000     
  0.62500000000000000       0.43750000000000000        0.0000000000000000     
  0.50000000000000000       0.46875000000000000        0.0000000000000000     
  0.53125000000000000       0.46875000000000000        0.0000000000000000     
  0.56250000000000000       0.46875000000000000        0.0000000000000000     
  0.59375000000000000       0.46875000000000000        0.0000000000000000     
  0.62500000000000000       0.46875000000000000        0.0000000000000000     
  0.50000000000000000       0.50000000000000000        0.0000000000000000     
  0.53125000000000000       0.50000000000000000        0.0000000000000000     
  0.56250000000000000       0.50000000000000000        0.0000000000000000     
  0.59375000000000000       0.50000000000000000        0.0000000000000000     
  0.62500000000000000       0.50000000000000000        0.0000000000000000     
  0.62500000000000000       0.37500000000000000        0.0000000000000000     
  0.65625000000000000       0.37500000000000000        0.0000000000000000     
  0.68750000000000000       0.37500000000000000        0.0000000000000000     
  0.71875000000000000       0.37500000000000000        0.0000000000000000     
  0.75000000000000000       0.37500000000000000        0.0000000000000000     
  0.62500000000000000       0.40625000000000000        0.0000000000000000     
  0.65625000000000000       0.40625000000000000        0.0000000000000000     
  0.68750000000000000       0.40625000000000000        0.0000000000000000     
  0.71875000000000000       0.40625000000000000        0.0000000000000000     
  0.75000000000000000       0.40625000000000000        0.0000000000000000     
  0.62500000000000000       0.43750000000000000        0.0000000000000000     
  0.65625000000000000       0.43750000000000000        0.0000000000000000     
  0.68750000000000000       0.43750000000000000        0.0000000000000000     
  0.71875000000000000       0.43750000000000000        0.0000000000000000     
  0.75000000000000000       0.43750000000000000        0.0000000000000000     
  0.62500000000000000       0.46875000000000000        0.0000000000000000     
  0.65625000000000000       0.46875000000000000        0.0000000000000000     
  0.68750000000000000       0.46875000000000000        0.0000000000000000     
  0.71875000000000000       0.46875000000000000        0.0000000000000000     
  0.75000000000000000       0.46875000000000000        0.0000000000000000     
  0.62500000000000000       0.50000000000000000        0.0000000000000000     
  0.65625000000000000       0.50000000000000000        0.0000000000000000     
  0.68750000000000000       0.50000000000000000        0.0000000000000000     
  0.71875000000000000       0.50000000000000000        0.0000000000000000     
  0.75000000000000000       0.50000000000000000        0.0000000000000000     
  0.75000000000000000       0.37500000000000000        0.0000000000000000     
  0.78125000000000000       0.37500000000000000        0.0000000000000000     
  0.81250000000000000       0.37500000000000000        0.0000000000000000     
  0.84375000000000000       0.37500000000000000        0.0000000000000000     
  0.87500000000000000       0.37500000000000000        0.0000000000000000     
  0.75000000000000000       0.40625000000000000        0.0000000000000000     
  0.78125000000000000       0.40625000000000000        0.0000000000000000     
  0.81250000000000000       0.40625000000000000        0.0000000000000000     
  0.84375000000000000       0.40625000000000000        0.0000000000000000     
  0.87500000000000000       0.40625000000000000        0.0000000000000000     
  0.75000000000000000       0.43750000000000000        0.0000000000000000     
  0.78125000000000000       0.43750000000000000        0.0000000000000000     
  0.81250000000000000       0.43750000000000000        0.0000000000000000     
  0.84375000000000000       0.43750000000000000        0.0000000000000000     
  0.87500000000000000       0.43750000000000000        0.0000000000000000     
  0.75000000000000000       0.46875000000000000        0.0000000000000000     
  0.78125000000000000       0.46875000000000000        0.0000000000000000     
  0.81250000000000000       0.46875000000000000        0.0000000000000000     
  0.84375000000000000       0.46875000000000000        0.0000000000000000     
  0.87500000000000000       0.46875000000000000        0.0000000000000000     
  0.75000000000000000       0.50000000000000000        0.0000000000000000     
  0.78125000000000000       0.50000000000000000        0.0000000000000000     
  0.81250000000000000       0.50000000000000000        0.0000000000000000     
  0.84375000000000000       0.50000000000000000        0.0000000000000000     
  0.87500000000000000       0.50000000000000000        0.0000000000000000     
  0.87500000000000000       0.37500000000000000        0.0000000000000000     
  0.90625000000000000       0.37500000000000000        0.0000000000000000     
  0.93750000000000000       0.37500000000000000        0.0000000000000000     
  0.96875000000000000       0.37500000000000000        0.0000000000000000     
   1.0000000000000000       0.37500000000000000        0.0000000000000000     
  0.87500000000000000       0.40625000000000000        0.0000000000000000     
  0.90625000000000000       0.40625000000000000        0.0000000000000000     
  0.93750000000000000       0.40625000000000000        0.0000000000000000     
  0.96875000000000000       0.40625000000000000        0.0000000000000000     
   1.0000000000000000       0.40625000000000000        0.0000000000000000     
  0.87500000000000000       0.43750000000000000        0.0000000000000000     
  0.90625000000000000       0.43750000000000000        0.0000000000000000     
  0.93750000000000000       0.43750000000000000        0.0000000000000000     
  0.96875000000000000       0.43750000000000000        0.0000000000000000     
   1.0000000000000000       0.43750000000000000        0.0000000000000000     
  0.87500000000000000       0.46875000000000000        0.0000000000000000     
  0.90625000000000000       0.46875000000000000        0.0000000000000000     
  0.93750000000000000       0.46875000000000000        0.0000000000000000     
  0.96875000000000000       0.46875000000000000        0.0000000000000000     
   1.0000000000000000       0.46875000000000000        0.0000000000000000     
  0.87500000000000000       0.50000000000000000        0.0000000000000000     
  0.90625000000000000       0.50000000000000000        0.0000000000000000     
  0.93750000000000000       0.50000000000000000        0.0000000000000000     
  0.96875000000000000       0.50000000000000000        0.0000000000000000     
   1.0000000000000000       0.50000000000000000        0.0000000000000000     
   0.0000000000000000       0.50000000000000000        0.0000000000000000     
   3.1250000000000000E-002  0.50000000000000000        0.0000000000000000     
   6.2500000000000000E-002  0.50000000000000000        0.0000000000000000     
   9.3750000000000000E-002  0.50000000000000000        0.0000000000000000     
  0.12500000000000000       0.50000000000000000        0.0000000000000000     
   0.0000000000000000       0.53125000000000000        0.0000000000000000     
   3.1250000000000000E-002  0.53125000000000000        0.0000000000000000     
   6.2500000000000000E-002  0.53125000000000000        0.0000000000000000     
   9.3750000000000000E-002  0.53125000000000000        0.0000000000000000     
  0.12500000000000000       0.53125000000000000        0.0000000000000000     
   0.0000000000000000       0.56250000000000000        0.0000000000000000     
   3.1250000000000000E-002  0.56250000000000000        0.0000000000000000     
   6.2500000000000000E-002  0.56250000000000000        0.0000000000000000     
   9.3750000000000000E-002  0.56250000000000000        0.0000000000000000     
  0.12500000000000000       0.56250000000000000        0.0000000000000000     
   0.0000000000000000       0.59375000000000000        0.0000000000000000     
   3.1250000000000000E-002  0.59375000000000000        0.0000000000000000     
   6.2500000000000000E-002  0.59375000000000000        0.0000000000000000     
   9.3750000000000000E-002  0.59375000000000000        0.0000000000000000     
  0.12500000000000000       0.59375000000000000        0.0000000000000000     
   0.0000000000000000       0.62500000000000000        0.0000000000000000     
   3.1250000000000000E-002  0.62500000000000000        0.0000000000000000     
   6.2500000000000000E-002  0.62500000000000000        0.0000000000000000     
   9.3750000000000000E-002  0.62500000000000000        0.0000000000000000     
  0.12500000000000000       0.62500000000000000        0.0000000000000000     
  0.12500000000000000       0.50000000000000000        0.0000000000000000     
  0.15625000000000000       0.50000000000000000        0.0000000000000000     
  0.18750000000000000       0.50000000000000000        0.0000000000000000     
  0.21875000000000000       0.50000000000000000        0.0000000000000000     
  0.25000000000000000       0.50000000000000000        0.0000000000000000     
  0.12500000000000000       0.53125000000000000        0.0000000000000000     
  0.15625000000000000       0.53125000000000000        0.0000000000000000     
  0.18750000000000000       0.53125000000000000        0.0000000000000000     
  0.21875000000000000       0.53125000000000000        0.0000000000000000     
  0.25000000000000000       0.53125000000000000        0.0000000000000000     
  0.12500000000000000       0.56250000000000000        0.0000000000000000     
  0.15625000000000000       0.56250000000000000        0.0000000000000000     
  0.18750000000000000       0.56250000000000000        0.0000000000000000     
  0.21875000000000000       0.56250000000000000        0.0000000000000000     
  0.25000000000000000       0.56250000000000000        0.0000000000000000     
  0.12500000000000000       0.59375000000000000        0.0000000000000000     
  0.15625000000000000       0.59375000000000000        0.0000000000000000     
  0.18750000000000000       0.59375000000000000        0.0000000000000000     
  0.21875000000000000       0.59375000000000000        0.0000000000000000     
  0.25000000000000000       0.59375000000000000        0.0000000000000000     
  0.12500000000000000       0.62500000000000000        0.0000000000000000     
  0.15625000000000000       0.62500000000000000        0.0000000000000000     
  0.18750000000000000       0.62500000000000000        0.0000000000000000     
  0.21875000000000000       0.62500000000000000        0.0000000000000000     
  0.25000000000000000       0.62500000000000000        0.0000000000000000     
  0.25000000000000000       0.50000000000000000        0.0000000000000000     
  0.28125000000000000       0.50000000000000000        0.0000000000000000     
  0.31250000000000000       0.50000000000000000        0.0000000000000000     
  0.34375000000000000       0.50000000000000000        0.0000000000000000     
  0.37500000000000000       0.50000000000000000        0.0000000000000000     
  0.25000000000000000       0.53125000000000000        0.0000000000000000     
  0.28125000000000000       0.53125000000000000        0.0000000000000000     
  0.31250000000000000       0.53125000000000000        0.0000000000000000     
  0.34375000000000000       0.53125000000000000        0.0000000000000000     
  0.37500000000000000       0.53125000000000000        0.0000000000000000     
  0.25000000000000000       0.56250000000000000        0.0000000000000000     
  0.28125000000000000       0.56250000000000000        0.0000000000000000     
  0.31250000000000000       0.56250000000000000        0.0000000000000000     
  0.34375000000000000       0.56250000000000000        0.0000000000000000     
  0.37500000000000000       0.56250000000000000        0.0000000000000000     
  0.25000000000000000       0.59375000000000000        0.0000000000000000     
  0.28125000000000000       0.59375000000000000        0.0000000000000000     
  0.31250000000000000       0.59375000000000000        0.0000000000000000     
  0.34375000000000000       0.59375000000000000        0.0000000000000000     
  0.37500000000000000       0.59375000000000000        0.0000000000000000     
  0.25000000000000000       0.62500000000000000        0.0000000000000000     
  0.28125000000000000       0.62500000000000000        0.0000000000000000     
  0.31250000000000000       0.62500000000000000        0.0000000000000000     
  0.34375000000000000       0.62500000000000000        0.0000000000000000     
  0.37500000000000000       0.62500000000000000        0.0000000000000000     
  0.37500000000000000       0.50000000000000000        0.0000000000000000     
  0.40625000000000000       0.50000000000000000        0.0000000000000000     
  0.43750000000000000       0.50000000000000000        0.0000000000000000     
  0.46875000000000000       0.50000000000000000        0.0000000000000000     
  0.50000000000000000       0.50000000000000000        0.0000000000000000     
  0.37500000000000000       0.53125000000000000        0.0000000000000000     
  0.40625000000000000       0.53125000000000000        0.0000000000000000     
  0.43750000000000000       0.53125000000000000        0.0000000000000000     
  0.46875000000000000       0.53125000000000000        0.0000000000000000     
  0.50000000000000000       0.53125000000000000        0.0000000000000000     
  0.37500000000000000       0.56250000000000000        0.0000000000000000     
  0.40625000000000000       0.56250000000000000        0.0000000000000000     
  0.43750000000000000       0.56250000000000000        0.0000000000000000     
  0.46875000000000000       0.56250000000000000        0.0000000000000000     
  0.50000000000000000       0.56250000000000000        0.0000000000000000     
  0.37500000000000000       0.59375000000000000        0.0000000000000000     
  0.40625000000000000       0.59375000000000000        0.0000000000000000     
  0.43750000000000000       0.59375000000000000        0.0000000000000000     
  0.46875000000000000       0.59375000000000000        0.0000000000000000     
  0.50000000000000000       0.59375000000000000        0.0000000000000000     
  0.37500000000000000       0.62500000000000000        0.0000000000000000     
  0.40625000000000000       0.62500000000000000        0.0000000000000000     
  0.43750000000000000       0.62500000000000000        0.0000000000000000     
  0.46875000000000000       0.62500000000000000        0.0000000000000000     
  0.50000000000000000       0.62500000000000000        0.0000000000000000     
  0.50000000000000000       0.50000000000000000        0.0000000000000000     
  0.53125000000000000       0.50000000000000000        0.0000000000000000     
  0.56250000000000000       0.50000000000000000        0.0000000000000000     
  0.59375000000000000       0.50000000000000000        0.0000000000000000     
  0.62500000000000000       0.50000000000000000        0.0000000000000000     
  0.50000000000000000       0.53125000000000000        0.0000000000000000     
  0.53125000000000000       0.53125000000000000        0.0000000000000000     
  0.56250000000000000       0.53125000000000000        0.0000000000000000     
  0.59375000000000000       0.53125000000000000        0.0000000000000000     
  0.62500000000000000       0.53125000000000000        0.0000000000000000     
  0.50000000000000000       0.56250000000000000        0.0000000000000000     
  0.53125000000000000       0.56250000000000000        0.0000000000000000     
  0.56250000000000000       0.56250000000000000        0.0000000000000000     
  0.59375000000000000       0.56250000000000000        0.0000000000000000     
  0.62500000000000000       0.56250000000000000        0.0000000000000000     
  0.50000000000000000       0.59375000000000000        0.0000000000000000     
  0.53125000000000000       0.59375000000000000        0.0000000000000000     
  0.56250000000000000       0.59375000000000000        0.0000000000000000     
  0.59375000000000000       0.59375000000000000        0.0000000000000000     
  0.62500000000000000       0.59375000000000000        0.0000000000000000     
  0.50000000000000000       0.62500000000000000        0.0000000000000000     
  0.53125000000000000       0.62500000000000000        0.0000000000000000     
  0.56250000000000000       0.62500000000000000        0.0000000000000000     
  0.59375000000000000       0.62500000000000000        0.0000000000000000     
  0.62500000000000000       0.62500000000000000        0.0000000000000000     
  0.62500000000000000       0.50000000000000000        0.0000000000000000     
  0.65625000000000000       0.50000000000000000        0.0000000000000000     
  0.68750000000000000       0.50000000000000000        0.0000000000000000     
  0.71875000000000000       0.50000000000000000        0.0000000000000000     
  0.75000000000000000       0.50000000000000000        0.0000000000000000     
  0.62500000000000000       0.53125000000000000        0.0000000000000000     
  0.65625000000000000       0.53125000000000000        0.0000000000000000     
  0.68750000000000000       0.53125000000000000        0.0000000000000000     
  0.71875000000000000       0.53125000000000000        0.0000000000000000     
  0.75000000000000000       0.53125000000000000        0.0000000000000000     
  0.62500000000000000       0.56250000000000000        0.0000000000000000     
  0.65625000000000000       0.56250000000000000        0.0000000000000000     
  0.68750000000000000       0.56250000000000000        0.0000000000000000     
  0.71875000000000000       0.56250000000000000        0.0000000000000000     
  0.75000000000000000       0.56250000000000000        0.0000000000000000     
  0.62500000000000000       0.59375000000000000        0.0000000000000000     
  0.65625000000000000       0.59375000000000000        0.0000000000000000     
  0.68750000000000000       0.59375000000000000        0.0000000000000000     
  0.71875000000000000       0.59375000000000000        0.0000000000000000     
  0.75000000000000000       0.59375000000000000        0.0000000000000000     
  0.62500000000000000       0.62500000000000000        0.0000000000000000     
  0.65625000000000000       0.62500000000000000        0.0000000000000000     
  0.68750000000000000       0.62500000000000000        0.0000000000000000     
  0.71875000000000000       0.62500000000000000        0.0000000000000000     
  0.75000000000000000       0.62500000000000000        0.0000000000000000     
  0.75000000000000000       0.50000000000000000        0.0000000000000000     
  0.78125000000000000       0.50000000000000000        0.0000000000000000     
  0.81250000000000000       0.50000000000000000        0.0000000000000000     
  0.84375000000000000       0.50000000000000000        0.0000000000000000     
  0.87500000000000000       0.50000000000000000        0.0000000000000000     
  0.75000000000000000       0.53125000000000000        0.0000000000000000     
  0.78125000000000000       0.53125000000000000        0.0000000000000000     
  0.81250000000000000       0.53125000000000000        0.0000000000000000     
  0.84375000000000000       0.53125000000000000        0.0000000000000000     
  0.87500000000000000       0.53125000000000000        0.0000000000000000     
  0.75000000000000000       0.56250000000000000        0.0000000000000000     
  0.78125000000000000       0.56250000000000000        0.0000000000000000     
  0.81250000000000000       0.56250000000000000        0.0000000000000000     
  0.84375000000000000       0.56250000000000000        0.0000000000000000     
  0.87500000000000000       0.56250000000000000        0.0000000000000000     
  0.75000000000000000       0.59375000000000000        0.0000000000000000     
  0.78125000000000000       0.59375000000000000        0.0000000000000000     
  0.81250000000000000       0.59375000000000000        0.0000000000000000     
  0.84375000000000000       0.59375000000000000        0.0000000000000000     
  0.87500000000000000       0.59375000000000000        0.0000000000000000     
  0.75000000000000000       0.62500000000000000        0.0000000000000000     
  0.78125000000000000       0.62500000000000000        0.0000000000000000     
  0.81250000000000000       0.62500000000000000        0.0000000000000000     
  0.84375000000000000       0.62500000000000000        0.0000000000000000     
  0.87500000000000000       0.62500000000000000        0.0000000000000000     
  0.87500000000000000       0.50000000000000000        0.0000000000000000     
  0.90625000000000000       0.50000000000000000        0.0000000000000000     
  0.93750000000000000       0.50000000000000000        0.0000000000000000     
  0.96875000000000000       0.50000000000000000        0.0000000000000000     
   1.0000000000000000       0.50000000000000000        0.0000000000000000     
  0.87500000000000000       0.53125000000000000        0.0000000000000000     
  0.90625000000000000       0.53125000000000000        0.0000000000000000     
  0.93750000000000000       0.53125000000000000        0.0000000000000000     
  0.96875000000000000       0.53125000000000000        0.0000000000000000     
   1.0000000000000000       0.53125000000000000        0.0000000000000000     
  0.87500000000000000       0.56250000000000000        0.0000000000000000     
  0.90625000000000000       0.56250000000000000        0.0000000000000000     
  0.93750000000000000       0.56250000000000000        0.0000000000000000     
  0.96875000000000000       0.56250000000000000        0.0000000000000000     
   1.0000000000000000       0.56250000000000000        0.0000000000000000     
  0.87500000000000000       0.59375000000000000        0.0000000000000000     
  0.90625000000000000       0.59375000000000000        0.0000000000000000     
  0.93750000000000000       0.59375000000000000        0.0000000000000000     
  0.96875000000000000       0.59375000000000000        0.0000000000000000     
   1.0000000000000000       0.59375000000000000        0.0000000000000000     
  0.87500000000000000       0.62500000000000000        0.0000000000000000     
  0.90625000000000000       0.62500000000000000        0.0000000000000000     
  0.93750000000000000       0.62500000000000000        0.0000000000000000     
  0.96875000000000000       0.62500000000000000        0.0000000000000000     
   1.0000000000000000       0.62500000000000000        0.0000000000000000     
   0.0000000000000000       0.62500000000000000        0.0000000000000000     
   3.1250000000000000E-002  0.62500000000000000        0.0000000000000000     
   6.2500000000000000E-002  0.62500000000000000        0.0000000000000000     
   9.3750000000000000E-002  0.62500000000000000        0.0000000000000000     
  0.12500000000000000       0.62500000000000000        0.0000000000000000     
   0.0000000000000000       0.65625000000000000        0.0000000000000000     
   3.1250000000000000E-002  0.65625000000000000        0.0000000000000000     
   6.2500000000000000E-002  0.65625000000000000        0.0000000000000000     
   9.3750000000000000E-002  0.65625000000000000        0.0000000000000000     
  0.12500000000000000       0.65625000000000000        0.0000000000000000     
   0.0000000000000000       0.68750000000000000        0.0000000000000000     
   3.1250000000000000E-002  0.68750000000000000        0.0000000000000000     
   6.2500000000000000E-002  0.68750000000000000        0.0000000000000000     
   9.3750000000000000E-002  0.68750000000000000        0.0000000000000000     
  0.12500000000000000       0.68750000000000000        0.0000000000000000     
   0.0000000000000000       0.71875000000000000        0.0000000000000000     
   3.1250000000000000E-002  0.71875000000000000        0.0000000000000000     
   6.2500000000000000E-002  0.71875000000000000        0.0000000000000000     
   9.3750000000000000E-002  0.71875000000000000        0.0000000000000000     
  0.12500000000000000       0.71875000000000000        0.0000000000000000     
   0.0000000000000000       0.75000000000000000        0.0000000000000000     
   3.1250000000000000E-002  0.75000000000000000        0.0000000000000000     
   6.2500000000000000E-002  0.75000000000000000        0.0000000000000000     
   9.3750000000000000E-002  0.75000000000000000        0.0000000000000000     
  0.12500000000000000       0.75000000000000000        0.0000000000000000     
  0.12500000000000000       0.62500000000000000        0.0000000000000000     
  0.15625000000000000       0.62500000000000000        0.0000000000000000     
  0.18750000000000000       0.62500000000000000        0.0000000000000000     
  0.21875000000000000       0.62500000000000000        0.0000000000000000     
  0.25000000000000000       0.62500000000000000        0.0000000000000000     
  0.12500000000000000       0.65625000000000000        0.0000000000000000     
  0.15625000000000000       0.65625000000000000        0.0000000000000000     
  0.18750000000000000       0.65625000000000000        0.0000000000000000     
  0.21875000000000000       0.65625000000000000        0.0000000000000000     
  0.25000000000000000       0.65625000000000000        0.0000000000000000     
  0.12500000000000000       0.68750000000000000        0.0000000000000000     
  0.15625000000000000       0.68750000000000000        0.0000000000000000     
  0.18750000000000000       0.68750000000000000        0.0000000000000000     
  0.21875000000000000       0.68750000000000000        0.0000000000000000     
  0.25000000000000000       0.68750000000000000        0.0000000000000000     
  0.12500000000000000       0.71875000000000000        0.0000000000000000     
  0.15625000000000000       0.71875000000000000        0.0000000000000000     
  0.18750000000000000       0.71875000000000000        0.0000000000000000     
  0.21875000000000000       0.71875000000000000        0.0000000000000000     
  0.25000000000000000       0.71875000000000000        0.0000000000000000     
  0.12500000000000000       0.75000000000000000        0.0000000000000000     
  0.15625000000000000       0.75000000000000000        0.0000000000000000     
  0.18750000000000000       0.75000000000000000        0.0000000000000000     
  0.21875000000000000       0.75000000000000000        0.0000000000000000     
  0.25000000000000000       0.75000000000000000        0.0000000000000000     
  0.25000000000000000       0.62500000000000000        0.0000000000000000     
  0.28125000000000000       0.62500000000000000        0.0000000000000000     
  0.31250000000000000       0.62500000000000000        0.0000000000000000     
  0.34375000000000000       0.62500000000000000        0.0000000000000000     
  0.37500000000000000       0.62500000000000000        0.0000000000000000     
  0.25000000000000000       0.65625000000000000        0.0000000000000000     
  0.28125000000000000       0.65625000000000000        0.0000000000000000     
  0.31250000000000000       0.65625000000000000        0.0000000000000000     
  0.34375000000000000       0.65625000000000000        0.0000000000000000     
  0.37500000000000000       0.65625000000000000        0.0000000000000000     
  0.25000000000000000       0.68750000000000000        0.0000000000000000     
  0.28125000000000000       0.68750000000000000        0.0000000000000000     
  0.31250000000000000       0.68750000000000000        0.0000000000000000     
  0.34375000000000000       0.68750000000000000        0.0000000000000000     
  0.37500000000000000       0.68750000000000000        0.0000000000000000     
  0.25000000000000000       0.71875000000000000        0.0000000000000000     
  0.28125000000000000       0.71875000000000000        0.0000000000000000     
  0.31250000000000000       0.71875000000000000        0.0000000000000000     
  0.34375000000000000       0.71875000000000000        0.0000000000000000     
  0.37500000000000000       0.71875000000000000        0.0000000000000000     
  0.25000000000000000       0.75000000000000000        0.0000000000000000     
  0.28125000000000000       0.75000000000000000        0.0000000000000000     
  0.31250000000000000       0.75000000000000000        0.0000000000000000     
  0.34375000000000000       0.75000000000000000        0.0000000000000000     
  0.37500000000000000       0.75000000000000000        0.0000000000000000     
  0.37500000000000000       0.62500000000000000        0.0000000000000000     
  0.40625000000000000       0.62500000000000000        0.0000000000000000     
  0.43750000000000000       0.62500000000000000        0.0000000000000000     
  0.46875000000000000       0.62500000000000000        0.0000000000000000     
  0.50000000000000000       0.62500000000000000        0.0000000000000000     
  0.37500000000000000       0.65625000000000000        0.0000000000000000     
  0.40625000000000000       0.65625000000000000        0.0000000000000000     
  0.43750000000000000       0.65625000000000000        0.0000000000000000     
  0.46875000000000000       0.65625000000000000        0.0000000000000000     
  0.50000000000000000       0.65625000000000000        0.0000000000000000     
  0.37500000000000000       0.68750000000000000        0.0000000000000000     
  0.40625000000000000       0.68750000000000000        0.0000000000000000     
  0.43750000000000000       0.68750000000000000        0.0000000000000000     
  0.46875000000000000       0.68750000000000000        0.0000000000000000     
  0.50000000000000000       0.68750000000000000        0.0000000000000000     
  0.37500000000000000       0.71875000000000000        0.0000000000000000     
  0.40625000000000000       0.71875000000000000        0.0000000000000000     
  0.43750000000000000       0.71875000000000000        0.0000000000000000     
  0.46875000000000000       0.71875000000000000        0.0000000000000000     
  0.50000000000000000       0.71875000000000000        0.0000000000000000     
  0.37500000000000000       0.75000000000000000        0.0000000000000000     
  0.40625000000000000       0.75000000000000000        0.0000000000000000     
  0.43750000000000000       0.75000000000000000        0.0000000000000000     
  0.46875000000000000       0.75000000000000000        0.0000000000000000     
  0.50000000000000000       0.75000000000000000        0.0000000000000000     
  0.50000000000000000       0.62500000000000000        0.0000000000000000     
  0.53125000000000000       0.62500000000000000        0.0000000000000000     
  0.56250000000000000       0.62500000000000000        0.0000000000000000     
  0.59375000000000000       0.62500000000000000        0.0000000000000000     
  0.62500000000000000       0.62500000000000000        0.0000000000000000     
  0.50000000000000000       0.65625000000000000        0.0000000000000000     
  0.53125000000000000       0.65625000000000000        0.0000000000000000     
  0.56250000000000000       0.65625000000000000        0.0000000000000000     
  0.59375000000000000       0.65625000000000000        0.0000000000000000     
  0.62500000000000000       0.65625000000000000        0.0000000000000000     
  0.50000000000000000       0.68750000000000000        0.0000000000000000     
  0.53125000000000000       0.68750000000000000        0.0000000000000000     
  0.56250000000000000       0.68750000000000000        0.0000000000000000     
  0.59375000000000000       0.68750000000000000        0.0000000000000000     
  0.62500000000000000       0.68750000000000000        0.0000000000000000     
  0.50000000000000000       0.71875000000000000        0.0000000000000000     
  0.53125000000000000       0.71875000000000000        0.0000000000000000     
  0.56250000000000000       0.71875000000000000        0.0000000000000000     
  0.59375000000000000       0.71875000000000000        0.0000000000000000     
  0.62500000000000000       0.71875000000000000        0.0000000000000000     
  0.50000000000000000       0.75000000000000000        0.0000000000000000     
  0.53125000000000000       0.75000000000000000        0.0000000000000000     
  0.56250000000000000       0.75000000000000000        0.0000000000000000     
  0.59375000000000000       0.75000000000000000        0.0000000000000000     
  0.62500000000000000       0.75000000000000000        0.0000000000000000     
  0.62500000000000000       0.62500000000000000        0.0000000000000000     
  0.65625000000000000       0.62500000000000000        0.0000000000000000     
  0.68750000000000000       0.62500000000000000        0.0000000000000000     
  0.71875000000000000       0.62500000000000000        0.0000000000000000     
  0.75000000000000000       0.62500000000000000        0.0000000000000000     
  0.62500000000000000       0.65625000000000000        0.0000000000000000     
  0.65625000000000000       0.65625000000000000        0.0000000000000000     
  0.68750000000000000       0.65625000000000000        0.0000000000000000     
  0.71875000000000000       0.65625000000000000        0.0000000000000000     
  0.75000000000000000       0.65625000000000000        0.0000000000000000     
  0.62500000000000000       0.68750000000000000        0.0000000000000000     
  0.65625000000000000       0.68750000000000000        0.0000000000000000     
  0.68750000000000000       0.68750000000000000        0.0000000000000000     
  0.71875000000000000       0.68750000000000000        0.0000000000000000     
  0.75000000000000000       0.68750000000000000        0.0000000000000000     
  0.62500000000000000       0.71875000000000000        0.0000000000000000     
  0.65625000000000000       0.71875000000000000        0.0000000000000000     
  0.68750000000000000       0.71875000000000000        0.0000000000000000     
  0.71875000000000000       0.71875000000000000        0.0000000000000000     
  0.75000000000000000       0.71875000000000000        0.0000000000000000     
  0.62500000000000000       0.75000000000000000        0.0000000000000000     
  0.65625000000000000       0.75000000000000000        0.0000000000000000     
  0.68750000000000000       0.75000000000000000        0.0000000000000000     
  0.71875000000000000       0.75000000000000000        0.0000000000000000     
  0.75000000000000000       0.75000000000000000        0.0000000000000000     
  0.75000000000000000       0.62500000000000000        0.0000000000000000     
  0.78125000000000000       0.62500000000000000        0.0000000000000000     
  0.81250000000000000       0.62500000000000000        0.0000000000000000     
  0.84375000000000000       0.62500000000000000        0.0000000000000000     
  0.87500000000000000       0.62500000000000000        0.0000000000000000     
  0.75000000000000000       0.65625000000000000        0.0000000000000000     
  0.78125000000000000       0.65625000000000000        0.0000000000000000     
  0.81250000000000000       0.65625000000000000        0.0000000000000000     
  0.84375000000000000       0.65625000000000000        0.0000000000000000     
  0.87500000000000000       0.65625000000000000        0.0000000000000000     
  0.75000000000000000       0.68750000000000000        0.0000000000000000     
  0.78125000000000000       0.68750000000000000        0.0000000000000000     
  0.81250000000000000       0.68750000000000000        0.0000000000000000     
  0.84375000000000000       0.68750000000000000        0.0000000000000000     
  0.87500000000000000       0.68750000000000000        0.0000000000000000     
  0.75000000000000000       0.71875000000000000        0.0000000000000000     
  0.78125000000000000       0.71875000000000000        0.0000000000000000     
  0.81250000000000000       0.71875000000000000        0.0000000000000000     
  0.84375000000000000       0.71875000000000000        0.0000000000000000     
  0.87500000000000000       0.71875000000000000        0.0000000000000000     
  0.75000000000000000       0.75000000000000000        0.0000000000000000     
  0.78125000000000000       0.75000000000000000        0.0000000000000000     
  0.81250000000000000       0.75000000000000000        0.0000000000000000     
  0.84375000000000000       0.75000000000000000        0.0000000000000000     
  0.87500000000000000       0.75000000000000000        0.0000000000000000     
  0.87500000000000000       0.62500000000000000        0.0000000000000000     
  0.90625000000000000       0.62500000000000000        0.0000000000000000     
  0.93750000000000000       0.62500000000000000        0.0000000000000000     
  0.96875000000000000       0.62500000000000000        0.0000000000000000     
   1.0000000000000000       0.62500000000000000        0.0000000000000000     
  0.87500000000000000       0.65625000000000000        0.0000000000000000     
  0.90625000000000000       0.65625000000000000        0.0000000000000000     
  0.93750000000000000       0.65625000000000000        0.0000000000000000     
  0.96875000000000000       0.65625000000000000        0.0000000000000000     
   1.0000000000000000       0.65625000000000000        0.0000000000000000     
  0.87500000000000000       0.68750000000000000        0.0000000000000000     
  0.90625000000000000       0.68750000000000000        0.0000000000000000     
  0.93750000000000000       0.68750000000000000        0.0000000000000000     
  0.96875000000000000       0.68750000000000000        0.0000000000000000     
   1.0000000000000000       0.68750000000000000        0.0000000000000000     
  0.87500000000000000       0.71875000000000000        0.0000000000000000     
  0.90625000000000000       0.71875000000000000        0.0000000000000000     
  0.93750000000000000       0.71875000000000000        0.0000000000000000     
  0.96875000000000000       0.71875000000000000        0.0000000000000000     
   1.0000000000000000       0.71875000000000000        0.0000000000000000     
  0.87500000000000000       0.75000000000000000        0.0000000000000000     
  0.90625000000000000       0.75000000000000000        0.0000000000000000     
  0.93750000000000000       0.75000000000000000        0.0000000000000000     
  0.96875000000000000       0.75000000000000000        0.0000000000000000     
   1.0000000000000000       0.75000000000000000        0.0000000000000000     
   0.0000000000000000       0.75000000000000000        0.0000000000000000     
   3.1250000000000000E-002  0.75000000000000000        0.0000000000000000     
   6.2500000000000000E-002  0.75000000000000000        0.0000000000000000     
   9.3750000000000000E-002  0.75000000000000000        0.0000000000000000     
  0.12500000000000000       0.75000000000000000        0.0000000000000000     
   0.0000000000000000       0.78125000000000000        0.0000000000000000     
   3.1250000000000000E-002  0.78125000000000000        0.0000000000000000     
   6.2500000000000000E-002  0.78125000000000000        0.0000000000000000     
   9.3750000000000000E-002  0.78125000000000000        0.0000000000000000     
  0.12500000000000000       0.78125000000000000        0.0000000000000000     
   0.0000000000000000       0.81250000000000000        0.0000000000000000     
   3.1250000000000000E-002  0.81250000000000000        0.0000000000000000     
   6.2500000000000000E-002  0.81250000000000000        0.0000000000000000     
   9.3750000000000000E-002  0.81250000000000000        0.0000000000000000     
  0.12500000000000000       0.81250000000000000        0.0000000000000000     
   0.0000000000000000       0.84375000000000000        0.0000000000000000     
   3.1250000000000000E-002  0.84375000000000000        0.0000000000000000     
   6.2500000000000000E-002  0.84375000000000000        0.0000000000000000     
   9.3750000000000000E-002  0.84375000000000000        0.0000000000000000     
  0.12500000000000000       0.84375000000000000        0.0000000000000000     
   0.0000000000000000       0.87500000000000000        0.0000000000000000     
   3.1250000000000000E-002  0.87500000000000000        0.0000000000000000     
   6.2500000000000000E-002  0.87500000000000000        0.0000000000000000     
   9.3750000000000000E-002  0.87500000000000000        0.0000000000000000     
  0.12500000000000000       0.87500000000000000        0.0000000000000000     
  0.12500000000000000       0.75000000000000000        0.0000000000000000     
  0.15625000000000000       0.75000000000000000        0.0000000000000000     
  0.18750000000000000       0.75000000000000000        0.0000000000000000     
  0.21875000000000000       0.75000000000000000        0.0000000000000000     
  0.25000000000000000       0.75000000000000000        0.0000000000000000     
  0.12500000000000000       0.78125000000000000        0.0000000000000000     
  0.15625000000000000       0.78125000000000000        0.0000000000000000     
  0.18750000000000000       0.78125000000000000        0.0000000000000000     
  0.21875000000000000       0.78125000000000000        0.0000000000000000     
  0.25000000000000000       0.78125000000000000        0.0000000000000000     
  0.12500000000000000       0.81250000000000000        0.0000000000000000     
  0.15625000000000000       0.81250000000000000        0.0000000000000000     
  0.18750000000000000       0.81250000000000000        0.0000000000000000     
  0.21875000000000000       0.81250000000000000        0.0000000000000000     
  0.25000000000000000       0.81250000000000000        0.0000000000000000     
  0.12500000000000000       0.84375000000000000        0.0000000000000000     
  0.15625000000000000       0.84375000000000000        0.0000000000000000     
  0.18750000000000000       0.84375000000000000        0.0000000000000000     
  0.21875000000000000       0.84375000000000000        0.0000000000000000     
  0.25000000000000000       0.84375000000000000        0.0000000000000000     
  0.12500000000000000       0.87500000000000000        0.0000000000000000     
  0.15625000000000000       0.87500000000000000        0.0000000000000000     
  0.18750000000000000       0.87500000000000000        0.0000000000000000     
  0.21875000000000000       0.87500000000000000        0.0000000000000000     
  0.25000000000000000       0.87500000000000000        0.0000000000000000     
  0.25000000000000000       0.75000000000000000        0.0000000000000000     
  0.28125000000000000       0.75000000000000000        0.0000000000000000     
  0.31250000000000000       0.75000000000000000        0.0000000000000000     
  0.34375000000000000       0.75000000000000000        0.0000000000000000     
  0.37500000000000000       0.75000000000000000        0.0000000000000000     
  0.25000000000000000       0.78125000000000000        0.0000000000000000     
  0.28125000000000000       0.78125000000000000        0.0000000000000000     
  0.31250000000000000       0.78125000000000000        0.0000000000000000     
  0.34375000000000000       0.78125000000000000        0.0000000000000000     
  0.37500000000000000       0.78125000000000000        0.0000000000000000     
  0.25000000000000000       0.81250000000000000        0.0000000000000000     
  0.28125000000000000       0.81250000000000000        0.0000000000000000     
  0.31250000000000000       0.81250000000000000        0.0000000000000000     
  0.34375000000000000       0.81250000000000000        0.0000000000000000     
  0.37500000000000000       0.81250000000000000        0.0000000000000000     
  0.25000000000000000       0.84375000000000000        0.0000000000000000     
  0.28125000000000000       0.84375000000000000        0.0000000000000000     
  0.31250000000000000       0.84375000000000000        0.0000000000000000     
  0.34375000000000000       0.84375000000000000        0.0000000000000000     
  0.37500000000000000       0.84375000000000000        0.0000000000000000     
  0.25000000000000000       0.87500000000000000        0.0000000000000000     
  0.28125000000000000       0.87500000000000000        0.0000000000000000     
  0.31250000000000000       0.87500000000000000        0.0000000000000000     
  0.34375000000000000       0.87500000000000000        0.0000000000000000     
  0.37500000000000000       0.87500000000000000        0.0000000000000000     
  0.37500000000000000       0.75000000000000000        0.0000000000000000     
  0.40625000000000000       0.75000000000000000        0.0000000000000000     
  0.43750000000000000       0.75000000000000000        0.0000000000000000     
  0.46875000000000000       0.75000000000000000        0.0000000000000000     
  0.50000000000000000       0.75000000000000000        0.0000000000000000     
  0.37500000000000000       0.78125000000000000        0.0000000000000000     
  0.40625000000000000       0.78125000000000000        0.0000000000000000     
  0.43750000000000000       0.78125000000000000        0.0000000000000000     
  0.46875000000000000       0.78125000000000000        0.0000000000000000     
  0.50000000000000000       0.78125000000000000        0.0000000000000000     
  0.37500000000000000       0.81250000000000000        0.0000000000000000     
  0.40625000000000000       0.81250000000000000        0.0000000000000000     
  0.43750000000000000       0.81250000000000000        0.0000000000000000     
  0.46875000000000000       0.81250000000000000        0.0000000000000000     
  0.50000000000000000       0.81250000000000000        0.0000000000000000     
  0.37500000000000000       0.84375000000000000        0.0000000000000000     
  0.40625000000000000       0.84375000000000000        0.0000000000000000     
  0.43750000000000000       0.84375000000000000        0.0000000000000000     
  0.46875000000000000       0.84375000000000000        0.0000000000000000     
  0.50000000000000000       0.84375000000000000        0.0000000000000000     
  0.37500000000000000       0.87500000000000000        0.0000000000000000     
  0.40625000000000000       0.87500000000000000        0.0000000000000000     
  0.43750000000000000       0.87500000000000000        0.0000000000000000     
  0.46875000000000000       0.87500000000000000        0.0000000000000000     
  0.50000000000000000       0.87500000000000000        0.0000000000000000     
  0.50000000000000000       0.75000000000000000        0.0000000000000000     
  0.53125000000000000       0.75000000000000000        0.0000000000000000     
  0.56250000000000000       0.75000000000000000        0.0000000000000000     
  0.59375000000000000       0.75000000000000000        0.0000000000000000     
  0.62500000000000000       0.75000000000000000        0.0000000000000000     
  0.50000000000000000       0.78125000000000000        0.0000000000000000     
  0.53125000000000000       0.78125000000000000        0.0000000000000000     
  0.56250000000000000       0.78125000000000000        0.0000000000000000     
  0.59375000000000000       0.78125000000000000        0.0000000000000000     
  0.62500000000000000       0.78125000000000000        0.0000000000000000     
  0.50000000000000000       0.81250000000000000        0.0000000000000000     
  0.53125000000000000       0.81250000000000000        0.0000000000000000     
  0.56250000000000000       0.81250000000000000        0.0000000000000000     
  0.59375000000000000       0.81250000000000000        0.0000000000000000     
  0.62500000000000000       0.81250000000000000        0.0000000000000000     
  0.50000000000000000       0.84375000000000000        0.0000000000000000     
  0.53125000000000000       0.84375000000000000        0.0000000000000000     
  0.56250000000000000       0.84375000000000000        0.0000000000000000     
  0.59375000000000000       0.84375000000000000        0.0000000000000000     
  0.62500000000000000       0.84375000000000000        0.0000000000000000     
  0.50000000000000000       0.87500000000000000        0.0000000000000000     
  0.53125000000000000       0.87500000000000000        0.0000000000000000     
  0.56250000000000000       0.87500000000000000        0.0000000000000000     
  0.59375000000000000       0.87500000000000000        0.0000000000000000     
  0.62500000000000000       0.87500000000000000        0.0000000000000000     
  0.62500000000000000       0.75000000000000000        0.0000000000000000     
  0.65625000000000000       0.75000000000000000        0.0000000000000000     
  0.68750000000000000       0.75000000000000000        0.0000000000000000     
  0.71875000000000000       0.75000000000000000        0.0000000000000000     
  0.75000000000000000       0.75000000000000000        0.0000000000000000     
  0.62500000000000000       0.78125000000000000        0.0000000000000000     
  0.65625000000000000       0.78125000000000000        0.0000000000000000     
  0.68750000000000000       0.78125000000000000        0.0000000000000000     
  0.71875000000000000       0.78125000000000000        0.0000000000000000     
  0.75000000000000000       0.78125000000000000        0.0000000000000000     
  0.62500000000000000       0.81250000000000000        0.0000000000000000     
  0.65625000000000000       0.81250000000000000        0.0000000000000000     
  0.68750000000000000       0.81250000000000000        0.0000000000000000     
  0.71875000000000000       0.81250000000000000        0.0000000000000000     
  0.75000000000000000       0.81250000000000000        0.0000000000000000     
  0.62500000000000000       0.84375000000000000        0.0000000000000000     
  0.65625000000000000       0.84375000000000000        0.0000000000000000     
  0.68750000000000000       0.84375000000000000        0.0000000000000000     
  0.71875000000000000       0.84375000000000000        0.0000000000000000     
  0.75000000000000000       0.84375000000000000        0.0000000000000000     
  0.62500000000000000       0.87500000000000000        0.0000000000000000     
  0.65625000000000000       0.87500000000000000        0.0000000000000000     
  0.68750000000000000       0.87500000000000000        0.0000000000000000     
  0.71875000000000000       0.87500000000000000        0.0000000000000000     
  0.75000000000000000       0.87500000000000000        0.0000000000000000     
  0.75000000000000000       0.75000000000000000        0.0000000000000000     
  0.78125000000000000       0.75000000000000000        0.0000000000000000     
  0.81250000000000000       0.75000000000000000        0.0000000000000000     
  0.84375000000000000       0.75000000000000000        0.0000000000000000     
  0.87500000000000000       0.75000000000000000        0.0000000000000000     
  0.75000000000000000       0.78125000000000000        0.0000000000000000     
  0.78125000000000000       0.78125000000000000        0.0000000000000000     
  0.81250000000000000       0.78125000000000000        0.0000000000000000     
  0.84375000000000000       0.78125000000000000        0.0000000000000000     
  0.87500000000000000       0.78125000000000000        0.0000000000000000     
  0.75000000000000000       0.81250000000000000        0.0000000000000000     
  0.78125000000000000       0.81250000000000000        0.0000000000000000     
  0.81250000000000000       0.81250000000000000        0.0000000000000000     
  0.84375000000000000       0.81250000000000000        0.0000000000000000     
  0.87500000000000000       0.81250000000000000        0.0000000000000000     
  0.75000000000000000       0.84375000000000000        0.0000000000000000     
  0.78125000000000000       0.84375000000000000        0.0000000000000000     
  0.81250000000000000       0.84375000000000000        0.0000000000000000     
  0.84375000000000000       0.84375000000000000        0.0000000000000000     
  0.87500000000000000       0.84375000000000000        0.0000000000000000     
  0.75000000000000000       0.87500000000000000        0.0000000000000000     
  0.78125000000000000       0.87500000000000000        0.0000000000000000     
  0.81250000000000000       0.87500000000000000        0.0000000000000000     
  0.84375000000000000       0.87500000000000000        0.0000000000000000     
  0.87500000000000000       0.87500000000000000        0.0000000000000000     
  0.87500000000000000       0.75000000000000000        0.0000000000000000     
  0.90625000000000000       0.75000000000000000        0.0000000000000000     
  0.93750000000000000       0.75000000000000000        0.0000000000000000     
  0.96875000000000000       0.75000000000000000        0.0000000000000000     
   1.0000000000000000       0.75000000000000000        0.0000000000000000     
  0.87500000000000000       0.78125000000000000        0.0000000000000000     
  0.90625000000000000       0.78125000000000000        0.0000000000000000     
  0.93750000000000000       0.78125000000000000        0.0000000000000000     
  0.96875000000000000       0.78125000000000000        0.0000000000000000     
   1.0000000000000000       0.78125000000000000        0.0000000000000000     
  0.87500000000000000       0.81250000000000000        0.0000000000000000     
  0.90625000000000000       0.81250000000000000        0.0000000000000000     
  0.93750000000000000       0.81250000000000000        0.0000000000000000     
  0.96875000000000000       0.81250000000000000        0.0000000000000000     
   1.0000000000000000       0.81250000000000000        0.0000000000000000     
  0.87500000000000000       0.84375000000000000        0.0000000000000000     
  0.90625000000000000       0.84375000000000000        0.0000000000000000     
  0.93750000000000000       0.84375000000000000        0.0000000000000000     
  0.96875000000000000       0.84375000000000000        0.0000000000000000     
   1.0000000000000000       0.84375000000000000        0.0000000000000000     
  0.87500000000000000       0.87500000000000000        0.0000000000000000     
  0.90625000000000000       0.87500000000000000        0.0000000000000000     
  0.93750000000000000       0.87500000000000000        0.0000000000000000     
  0.96875000000000000       0.87500000000000000        0.0000000000000000     
   1.0000000000000000       0.87500000000000000        0.0000000000000000     
   0.0000000000000000       0.87500000000000000        0.0000000000000000     
   3.1250000000000000E-002  0.87500000000000000        0.0000000000000000     
   6.2500000000000000E-002  0.87500000000000000        0.0000000000000000     
   9.3750000000000000E-002  0.87500000000000000        0.0000000000000000     
  0.12500000000000000       0.87500000000000000        0.0000000000000000     
   0.0000000000000000       0.90625000000000000        0.0000000000000000     
   3.1250000000000000E-002  0.90625000000000000        0.0000000000000000     
   6.2500000000000000E-002  0.90625000000000000        0.0000000000000000     
   9.3750000000000000E-002  0.90625000000000000        0.0000000000000000     
  0.12500000000000000       0.90625000000000000        0.0000000000000000     
   0.0000000000000000       0.93750000000000000        0.0000000000000000     
   3.1250000000000000E-002  0.93750000000000000        0.0000000000000000     
   6.2500000000000000E-002  0.93750000000000000        0.0000000000000000     
   9.3750000000000000E-002  0.93750000000000000        0.0000000000000000     
  0.12500000000000000       0.93750000000000000        0.0000000000000000     
   0.0000000000000000       0.96875000000000000        0.0000000000000000     
   3.1250000000000000E-002  0.96875000000000000        0.0000000000000000     
   6.2500000000000000E-002  0.96875000000000000        0.0000000000000000     
   9.3750000000000000E-002  0.96875000000000000        0.0000000000000000     
  0.12500000000000000       0.96875000000000000        0.0000000000000000     
   0.0000000000000000        1.0000000000000000        0.0000000000000000     
   3.1250000000000000E-002   1.0000000000000000        0.0000000000000000     
   6.2500000000000000E-002   1.0000000000000000        0.0000000000000000     
   9.3750000000000000E-002   1.0000000000000000        0.0000000000000000     
  0.12500000000000000        1.0000000000000000        0.0000000000000000     
  0.12500000000000000       0.87500000000000000        0.0000000000000000     
  0.15625000000000000       0.87500000000000000        0.0000000000000000     
  0.18750000000000000       0.87500000000000000        0.0000000000000000     
  0.21875000000000000       0.87500000000000000        0.0000000000000000     
  0.25000000000000000       0.87500000000000000        0.0000000000000000     
  0.12500000000000000       0.90625000000000000        0.0000000000000000     
  0.15625000000000000       0.90625000000000000        0.0000000000000000     
  0.18750000000000000       0.90625000000000000        0.0000000000000000     
  0.21875000000000000       0.90625000000000000        0.0000000000000000     
  0.25000000000000000       0.90625000000000000        0.0000000000000000     
  0.12500000000000000       0.93750000000000000        0.0000000000000000     
  0.15625000000000000       0.93750000000000000        0.0000000000000000     
  0.18750000000000000       0.93750000000000000        0.0000000000000000     
  0.21875000000000000       0.93750000000000000        0.0000000000000000     
  0.25000000000000000       0.93750000000000000        0.0000000000000000     
  0.12500000000000000       0.96875000000000000        0.0000000000000000     
  0.15625000000000000       0.96875000000000000        0.0000000000000000     
  0.18750000000000000       0.96875000000000000        0.0000000000000000     
  0.21875000000000000       0.96875000000000000        0.0000000000000000     
  0.25000000000000000       0.96875000000000000        0.0000000000000000     
  0.12500000000000000        1.0000000000000000        0.0000000000000000     
  0.15625000000000000        1.0000000000000000        0.0000000000000000     
  0.18750000000000000        1.0000000000000000        0.0000000000000000     
  0.21875000000000000        1.0000000000000000        0.0000000000000000     
  0.25000000000000000        1.0000000000000000        0.0000000000000000     
  0.25000000000000000       0.87500000000000000        0.0000000000000000     
  0.28125000000000000       0.87500000000000000        0.0000000000000000     
  0.31250000000000000       0.87500000000000000        0.0000000000000000     
  0.34375000000000000       0.87500000000000000        0.0000000000000000     
  0.37500000000000000       0.87500000000000000        0.0000000000000000     
  0.25000000000000000       0.90625000000000000        0.0000000000000000     
  0.28125000000000000       0.90625000000000000        0.0000000000000000     
  0.31250000000000000       0.90625000000000000        0.0000000000000000     
  0.34375000000000000       0.90625000000000000        0.0000000000000000     
  0.37500000000000000       0.90625000000000000        0.0000000000000000     
  0.25000000000000000       0.93750000000000000        0.0000000000000000     
  0.28125000000000000       0.93750000000000000        0.0000000000000000     
  0.31250000000000000       0.93750000000000000        0.0000000000000000     
  0.34375000000000000       0.93750000000000000        0.0000000000000000     
  0.37500000000000000       0.93750000000000000        0.0000000000000000     
  0.25000000000000000       0.96875000000000000        0.0000000000000000     
  0.28125000000000000       0.96875000000000000        0.0000000000000000     
  0.31250000000000000       0.96875000000000000        0.0000000000000000     
  0.34375000000000000       0.96875000000000000        0.0000000000000000     
  0.37500000000000000       0.96875000000000000        0.0000000000000000     
  0.25000000000000000        1.0000000000000000        0.0000000000000000     
  0.28125000000000000        1.0000000000000000        0.0000000000000000     
  0.31250000000000000        1.0000000000000000        0.0000000000000000     
  0.34375000000000000        1.0000000000000000        0.0000000000000000     
  0.37500000000000000        1.0000000000000000        0.0000000000000000     
  0.37500000000000000       0.87500000000000000        0.0000000000000000     
  0.40625000000000000       0.87500000000000000        0.0000000000000000     
  0.43750000000000000       0.87500000000000000        0.0000000000000000     
  0.46875000000000000       0.87500000000000000        0.0000000000000000     
  0.50000000000000000       0.87500000000000000        0.0000000000000000     
  0.37500000000000000       0.90625000000000000        0.0000000000000000     
  0.40625000000000000       0.90625000000000000        0.0000000000000000     
  0.43750000000000000       0.90625000000000000        0.0000000000000000     
  0.46875000000000000       0.90625000000000000        0.0000000000000000     
  0.50000000000000000       0.90625000000000000        0.0000000000000000     
  0.37500000000000000       0.93750000000000000        0.0000000000000000     
  0.40625000000000000       0.93750000000000000        0.0000000000000000     
  0.43750000000000000       0.93750000000000000        0.0000000000000000     
  0.46875000000000000       0.93750000000000000        0.0000000000000000     
  0.50000000000000000       0.93750000000000000        0.0000000000000000     
  0.37500000000000000       0.96875000000000000        0.0000000000000000     
  0.40625000000000000       0.96875000000000000        0.0000000000000000     
  0.43750000000000000       0.96875000000000000        0.0000000000000000     
  0.46875000000000000       0.96875000000000000        0.0000000000000000     
  0.50000000000000000       0.96875000000000000        0.0000000000000000     
  0.37500000000000000        1.0000000000000000        0.0000000000000000     
  0.40625000000000000        1.0000000000000000        0.0000000000000000     
  0.43750000000000000        1.0000000000000000        0.0000000000000000     
  0.46875000000000000        1.0000000000000000        0.0000000000000000     
  0.50000000000000000        1.0000000000000000        0.0000000000000000     
  0.50000000000000000       0.87500000000000000        0.0000000000000000     
  0.53125000000000000       0.87500000000000000        0.0000000000000000     
  0.56250000000000000       0.87500000000000000        0.0000000000000000     
  0.59375000000000000       0.87500000000000000        0.0000000000000000     
  0.62500000000000000       0.87500000000000000        0.0000000000000000     
  0.50000000000000000       0.90625000000000000        0.0000000000000000     
  0.53125000000000000       0.90625000000000000        0.0000000000000000     
  0.56250000000000000       0.90625000000000000        0.0000000000000000     
  0.59375000000000000       0.90625000000000000        0.0000000000000000     
  0.62500000000000000       0.90625000000000000        0.0000000000000000     
  0.50000000000000000       0.93750000000000000        0.0000000000000000     
  0.53125000000000000       0.93750000000000000        0.0000000000000000     
  0.56250000000000000       0.93750000000000000        0.0000000000000000     
  0.59375000000000000       0.93750000000000000        0.0000000000000000     
  0.62500000000000000       0.93750000000000000        0.0000000000000000     
  0.50000000000000000       0.96875000000000000        0.0000000000000000     
  0.53125000000000000       0.96875000000000000        0.0000000000000000     
  0.56250000000000000       0.96875000000000000        0.0000000000000000     
  0.59375000000000000       0.96875000000000000        0.0000000000000000     
  0.62500000000000000       0.96875000000000000        0.0000000000000000     
  0.50000000000000000        1.0000000000000000        0.0000000000000000     
  0.53125000000000000        1.0000000000000000        0.0000000000000000     
  0.56250000000000000        1.0000000000000000        0.0000000000000000     
  0.59375000000000000        1.0000000000000000        0.0000000000000000     
  0.62500000000000000        1.0000000000000000        0.0000000000000000     
  0.62500000000000000       0.87500000000000000        0.0000000000000000     
  0.65625000000000000       0.87500000000000000        0.0000000000000000     
  0.68750000000000000       0.87500000000000000        0.0000000000000000     
  0.71875000000000000       0.87500000000000000        0.0000000000000000     
  0.75000000000000000       0.87500000000000000        0.0000000000000000     
  0.62500000000000000       0.90625000000000000        0.0000000000000000     
  0.65625000000000000       0.90625000000000000        0.0000000000000000     
  0.68750000000000000       0.90625000000000000        0.0000000000000000     
  0.71875000000000000       0.90625000000000000        0.0000000000000000     
  0.75000000000000000       0.90625000000000000        0.0000000000000000     
  0.62500000000000000       0.93750000000000000        0.0000000000000000     
  0.65625000000000000       0.93750000000000000        0.0000000000000000     
  0.68750000000000000       0.93750000000000000        0.0000000000000000     
  0.71875000000000000       0.93750000000000000        0.0000000000000000     
  0.75000000000000000       0.93750000000000000        0.0000000000000000     
  0.62500000000000000       0.96875000000000000        0.0000000000000000     
  0.65625000000000000       0.96875000000000000        0.0000000000000000     
  0.68750000000000000       0.96875000000000000        0.0000000000000000     
  0.71875000000000000       0.96875000000000000        0.0000000000000000     
  0.75000000000000000       0.96875000000000000        0.0000000000000000     
  0.62500000000000000        1.0000000000000000        0.0000000000000000     
  0.65625000000000000        1.0000000000000000        0.0000000000000000     
  0.68750000000000000        1.0000000000000000        0.0000000000000000     
  0.71875000000000000        1.0000000000000000        0.0000000000000000     
  0.75000000000000000        1.0000000000000000        0.0000000000000000     
  0.75000000000000000       0.87500000000000000        0.0000000000000000     
  0.78125000000000000       0.87500000000000000        0.0000000000000000     
  0.81250000000000000       0.87500000000000000        0.0000000000000000     
  0.84375000000000000       0.87500000000000000        0.0000000000000000     
  0.87500000000000000       0.87500000000000000        0.0000000000000000     
  0.75000000000000000       0.90625000000000000        0.0000000000000000     
  0.78125000000000000       0.90625000000000000        0.0000000000000000     
  0.81250000000000000       0.90625000000000000        0.0000000000000000     
  0.84375000000000000       0.90625000000000000        0.0000000000000000     
  0.87500000000000000       0.90625000000000000        0.0000000000000000     
  0.75000000000000000       0.93750000000000000        0.0000000000000000     
  0.78125000000000000       0.93750000000000000        0.0000000000000000     
  0.81250000000000000       0.93750000000000000        0.0000000000000000     
  0.84375000000000000       0.93750000000000000        0.0000000000000000     
  0.87500000000000000       0.93750000000000000        0.0000000000000000     
  0.75000000000000000       0.96875000000000000        0.0000000000000000     
  0.78125000000000000       0.96875000000000000        0.0000000000000000     
  0.81250000000000000       0.96875000000000000        0.0000000000000000     
  0.84375000000000000       0.96875000000000000        0.0000000000000000     
  0.87500000000000000       0.96875000000000000        0.0000000000000000     
  0.75000000000000000        1.0000000000000000        0.0000000000000000     
  0.78125000000000000        1.0000000000000000        0.0000000000000000     
  0.81250000000000000        1.0000000000000000        0.0000000000000000     
  0.84375000000000000        1.0000000000000000        0.0000000000000000     
  0.87500000000000000        1.0000000000000000        0.0000000000000000     
  0.87500000000000000       0.87500000000000000        0.0000000000000000     
  0.90625000000000000       0.87500000000000000        0.0000000000000000     
  0.93750000000000000       0.87500000000000000        0.0000000000000000     
  0.96875000000000000       0.87500000000000000        0.0000000000000000     
   1.0000000000000000       0.87500000000000000        0.0000000000000000     
  0.87500000000000000       0.90625000000000000        0.0000000000000000     
  0.90625000000000000       0.90625000000000000        0.0000000000000000     
  0.93750000000000000       0.90625000000000000        0.0000000000000000     
  0.96875000000000000       0.90625000000000000        0.0000000000000000     
   1.0000000000000000       0.90625000000000000        0.0000000000000000     
  0.87500000000000000       0.93750000000000000        0.0000000000000000     
  0.90625000000000000       0.93750000000000000        0.0000000000000000     
  0.93750000000000000       0.93750000000000000        0.0000000000000000     
  0.96875000000000000       0.93750000000000000        0.0000000000000000     
   1.0000000000000000       0.93750000000000000        0.0000000000000000     
  0.87500000000000000       0.96875000000000000        0.0000000000000000     
  0.90625000000000000       0.96875000000000000        0.0000000000000000     
  0.93750000000000000       0.96875000000000000        0.0000000000000000     
  0.96875000000000000       0.96875000000000000        0.0000000000000000     
   1.0000000000000000       0.96875000000000000        0.0000000000000000     
  0.87500000000000000        1.0000000000000000        0.0000000000000000     
  0.90625000000000000        1.0000000000000000        0.0000000000000000     
  0.93750000000000000        1.0000000000000000        0.0000000000000000     
  0.96875000000000000        1.0000000000000000        0.0000000000000000     
   1.0000000000000000        1.0000000000000000        0.0000000000000000     
 </DataArray>
 </Points>
 <Cells>
 <DataArray  type="Int32"  Name="connectivity"  format="ascii">
           0           1           6           5
           1           2           7           6
           2           3           8           7
           3           4           9           8
           5           6          11          10
           6           7          12          11
           7           8          13          12
           8           9          14          13
          10          11          16          15
          11          12          17          16
          12          13          18          17
          13          14          19          18
          15          16          21          20
          16          17          22          21
          17          18          23          22
          18          19          24          23
          25          26          31          30
          26          27          32          31
          27          28          33          32
          28          29          34          33
          30          31          36          35
          31          32          37          36
          32          33          38          37
          33          34          39          38
          35          36          41          40
          36          37          42          41
          37          38          43          42
          38          39          44          43
          40          41          46          45
          41          42          47          46
          42          43          48          47
          43          44          49          48
          50          51          56          55
          51          52          57          56
          52          53          58          57
          53          54          59          58
          55          56          61          60
          56          57          62          61
          57          58          63          62
          58          59          64          63
          60          61          66          65
          61          62          67          66
          62          63          68          67
          63          64          69          68
          65          66          71          70
          66          67          72          71
          67          68          73          72
          68          69          74          73
          75          76          81          80
          76          77          82          81
          77          78          83          82
          78          79          84          83
          80          81          86          85
          81          82          87          86
          82          83          88          87
          83          84          89          88
          85          86          91          90
          86          87          92          91
          87          88          93          92
          88          89          94          93
          90          91          96          95
          91          92          97          96
          92          93          98          97
          93          94          99          98
         100         101         106         105
         101         102         107         106
         102         103         108         107
         103         104         109         108
         105         106         111         110
         106         107         112         111
         107         108         113         112
         108         109         114         113
         110         111         116         115
         111         112         117         116
         112         113         118         117
         113         114         119         118
         115         116         121         120
         116         117         122         121
         117         118         123         122
         118         119         124         123
         125         126         131         130
         126         127         132         131
         127         128         133         132
         128         129         134         133
         130         131         136         135
         131         132         137         136
         132         133         138         137
         133         134         139         138
         135         136         141         140
         136         137         142         141
         137         138         143         142
         138         139         144         143
         140         141         146         145
         141         142         147         146
         142         143         148         147
         143         144         149         148
         150         151         156         155
         151         152         157         156
         152         153         158         157
         153         154         159         158
         155         156         161         160
         156         157         162         161
         157         158         163         162
         158         159         164         163
         160         161         166         165
         161         162         167         166
         162         163         168         167
         163         164         169         168
         165         166         171         170
         166         167         172         171
         167         168         173         172
         168         169         174         173
         175         176         181         180
         176         177         182         181
         177         178         183         182
         178         179         184         183
         180         181         186         185
         181         182         187         186
         182         183         188         187
         183         184         189         188
         185         186         191         190
         186         187         192         191
         187         188         193         192
         188         189         194         193
         190         191         196         195
         191         192         197         196
         192         193         198         197
         193         194         199         198
         200         201         206         205
         201         202         207         206
         202         203         208         207
         203         204         209         208
         205         206         211         210
         206         207         212         211
         207         208         213         212
         208         209         214         213
         210         211         216         215
         211         212         217         216
         212         213         218         217
         213         214         219         218
         215         216         221         220
         216         217         222         221
         217         218         223         222
         218         219         224         223
         225         226         231         230
         226         227         232         231
         227         228         233         232
         228         229         234         233
         230         231         236         235
         231         232         237         236
         232         233         238         237
         233         234         239         238
         235         236         241         240
         236         237         242         241
         237         238         243         242
         238         239         244         243
         240         241         246         245
         241         242         247         246
         242         243         248         247
         243         244         249         248
         250         251         256         255
         251         252         257         256
         252         253         258         257
         253         254         259         258
         255         256         261         260
         256         257         262         261
         257         258         263         262
         258         259         264         263
         260         261         266         265
         261         262         267         266
         262         263         268         267
         263         264         269         268
         265         266         271         270
         266         267         272         271
         267         268         273         272
         268         269         274         273
         275         276         281         280
         276         277         282         281
         277         278         283         282
         278         279         284         283
         280         281         286         285
         281         282         287         286
         282         283         288         287
         283         284         289         288
         285         286         291         290
         286         287         292         291
         287         288         293         292
         288         289         294         293
         290         291         296         295
         291         292         297         296
         292         293         298         297
         293         294         299         298
         300         301         306         305
         301         302         307         306
         302         303         308         307
         303         304         309         308
         305         306         311         310
         306         307         312         311
         307         308         313         312
         308         309         314         313
         310         311         316         315
         311         312         317         316
         312         313         318         317
         313         314         319         318
         315         316         321         320
         316         317         322         321
         317         318         323         322
         318         319         324         323
         325         326         331         330
         326         327         332         331
         327         328         333         332
         328         329         334         333
         330         331         336         335
         331         332         337         336
         332         333         338         337
         333         334         339         338
         335         336         341         340
         336         337         342         341
         337         338         343         342
         338         339         344         343
         340         341         346         345
         341         342         347         346
         342         343         348         347
         343         344         349         348
         350         351         356         355
         351         352         357         356
         352         353         358         357
         353         354         359         358
         355         356         361         360
         356         357         362         361
         357         358         363         362
         358         359         364         363
         360         361         366         365
         361         362         367         366
         362         363         368         367
         363         364         369         368
         365         366         371         370
         366         367         372         371
         367         368         373         372
         368         369         374         373
         375         376         381         380
         376         377         382         381
         377         378         383         382
         378         379         384         383
         380         381         386         385
         381         382         387         386
         382         383         388         387
         383         384         389         388
         385         386         391         390
         386         387         392         391
         387         388         393         392
         388         389         394         393
         390         391         396         395
         391         392         397         396
         392         393         398         397
         393         394         399         398
         400         401         406         405
         401         402         407         406
         402         403         408         407
         403         404         409         408
         405         406         411         410
         406         407         412         411
         407         408         413         412
         408         409         414         413
         410         411         416         415
         411         412         417         416
         412         413         418         417
         413         414         419         418
         415         416         421         420
         416         417         422         421
         417         418         423         422
         418         419         424         423
         425         426         431         430
         426         427         432         431
         427         428         433         432
         428         429         434         433
         430         431         436         435
         431         432         437         436
         432         433         438         437
         433         434         439         438
         435         436         441         440
         436         437         442         441
         437         438         443         442
         438         439         444         443
         440         441         446         445
         441         442         447         446
         442         443         448         447
         443         444         449         448
         450         451         456         455
         451         452         457         456
         452         453         458         457
         453         454         459         458
         455         456         461         460
         456         457         462         461
         457         458         463         462
         458         459         464         463
         460         461         466         465
         461         462         467         466
         462         463         468         467
         463         464         469         468
         465         466         471         470
         466         467         472         471
         467         468         473         472
         468         469         474         473
         475         476         481         480
         476         477         482         481
         477         478         483         482
         478         479         484         483
         480         481         486         485
         481         482         487         486
         482         483         488         487
         483         484         489         488
         485         486         491         490
         486         487         492         491
         487         488         493         492
         488         489         494         493
         490         491         496         495
         491         492         497         496
         492         493         498         497
         493         494         499         498
         500         501         506         505
         501         502         507         506
         502         503         508         507
         503         504         509         508
         505         506         511         510
         506         507         512         511
         507         508         513         512
         508         509         514         513
         510         511         516         515
         511         512         517         516
         512         513         518         517
         513         514         519         518
         515         516         521         520
         516         517         522         521
         517         518         523         522
         518         519         524         523
         525         526         531         530
         526         527         532         531
         527         528         533         532
         528         529         534         533
         530         531         536         535
         531         532         537         536
         532         533         538         537
         533         534         539         538
         535         536         541         540
         536         537         542         541
         537         538         543         542
         538         539         544         543
         540         541         546         545
         541         542         547         546
         542         543         548         547
         543         544         549         548
         550         551         556         555
         551         552         557         556
         552         553         558         557
         553         554         559         558
         555         556         561         560
         556         557         562         561
         557         558         563         562
         558         559         564         563
         560         561         566         565
         561         562         567         566
         562         563         568         567
         563         564         569         568
         565         566         571         570
         566         567         572         571
         567         568         573         572
         568         569         574         573
         575         576         581         580
         576         577         582         581
         577         578         583         582
         578         579         584         583
         580         581         586         585
         581         582         587         586
         582         583         588         587
         583         584         589         588
         585         586         591         590
         586         587         592         591
         587         588         593         592
         588         589         594         593
         590         591         596         595
         591         592         597         596
         592         593         598         597
         593         594         599         598
         600         601         606         605
         601         602         607         606
         602         603         608         607
         603         604         609         608
         605         606         611         610
         606         607         612         611
         607         608         613         612
         608         609         614         613
         610         611         616         615
         611         612         617         616
         612         613         618         617
         613         614         619         618
         615         616         621         620
         616         617         622         621
         617         618         623         622
         618         619         624         623
         625         626         631         630
         626         627         632         631
         627         628         633         632
         628         629         634         633
         630         631         636         635
         631         632         637         636
         632         633         638         637
         633         634         639         638
         635         636         641         640
         636         637         642         641
         637         638         643         642
         638         639         644         643
         640         641         646         645
         641         642         647         646
         642         643         648         647
         643         644         649         648
         650         651         656         655
         651         652         657         656
         652         653         658         657
         653         654         659         658
         655         656         661         660
         656         657         662         661
         657         658         663         662
         658         659         664         663
         660         661         666         665
         661         662         667         666
         662         663         668         667
         663         664         669         668
         665         666         671         670
         666         667         672         671
         667         668         673         672
         668         669         674         673
         675         676         681         680
         676         677         682         681
         677         678         683         682
         678         679         684         683
         680         681         686         685
         681         682         687         686
         682         683         688         687
         683         684         689         688
         685         686         691         690
         686         687         692         691
         687         688         693         692
         688         689         694         693
         690         691         696         695
         691         692         697         696
         692         693         698         697
         693         694         699         698
         700         701         706         705
         701         702         707         706
         702         703         708         707
         703         704         709         708
         705         706         711         710
         706         707         712         711
         707         708         713         712
         708         709         714         713
         710         711         716         715
         711         712         717         716
         712         713         718         717
         713         714         719         718
         715         716         721         720
         716         717         722         721
         717         718         723         722
         718         719         724         723
         725         726         731         730
         726         727         732         731
         727         728         733         732
         728         729         734         733
         730         731         736         735
         731         732         737         736
         732         733         738         737
         733         734         739         738
         735         736         741         740
         736         737         742         741
         737         738         743         742
         738         739         744         743
         740         741         746         745
         741         742         747         746
         742         743         748         747
         743         744         749         748
         750         751         756         755
         751         752         757         756
         752         753         758         757
         753         754         759         758
         755         756         761         760
         756         757         762         761
         757         758         763         762
         758         759         764         763
         760         761         766         765
         761         762         767         766
         762         763         768         767
         763         764         769         768
         765         766         771         770
         766         767         772         771
         767         768         773         772
         768         769         774         773
         775         776         781         780
         776         777         782         781
         777         778         783         782
         778         779         784         783
         780         781         786         785
         781         782         787         786
         782         783         788         787
         783         784         789         788
         785         786         791         790
         786         787         792         791
         787         788         793         792
         788         789         794         793
         790         791         796         795
         791         792         797         796
         792         793         798         797
         793         794         799         798
         800         801         806         805
         801         802         807         806
         802         803         808         807
         803         804         809         808
         805         806         811         810
         806         807         812         811
         807         808         813         812
         808         809         814         813
         810         811         816         815
         811         812         817         816
         812         813         818         817
         813         814         819         818
         815         816         821         820
         816         817         822         821
         817         818         823         822
         818         819         824         823
         825         826         831         830
         826         827         832         831
         827         828         833         832
         828         829         834         833
         830         831         836         835
         831         832         837         836
         832         833         838         837
         833         834         839         838
         835         836         841         840
         836         837         842         841
         837         838         843         842
         838         839         844         843
         840         841         846         845
         841         842         847         846
         842         843         848         847
         843         844         849         848
         850         851         856         855
         851         852         857         856
         852         853         858         857
         853         854         859         858
         855         856         861         860
         856         857         862         861
         857         858         863         862
         858         859         864         863
         860         861         866         865
         861         862         867         866
         862         863         868         867
         863         864         869         868
         865         866         871         870
         866         867         872         871
         867         868         873         872
         868         869         874         873
         875         876         881         880
         876         877         882         881
         877         878         883         882
         878         879         884         883
         880         881         886         885
         881         882         887         886
         882         883         888         887
         883         884         889         888
         885         886         891         890
         886         887         892         891
         887         888         893         892
         888         889         894         893
         890         891         896         895
         891         892         897         896
         892         893         898         897
         893         894         899         898
         900         901         906         905
         901         902         907         906
         902         903         908         907
         903         904         909         908
         905         906         911         910
         906         907         912         911
         907         908         913         912
         908         909         914         913
         910         911         916         915
         911         912         917         916
         912         913         918         917
         913         914         919         918
         915         916         921         920
         916         917         922         921
         917         918         923         922
         918         919         924         923
         925         926         931         930
         926         927         932         931
         927         928         933         932
         928         929         934         933
         930         931         936         935
         931         932         937         936
         932         933         938         937
         933         934         939         938
         935         936         941         940
         936         937         942         941
         937         938         943         942
         938         939         944         943
         940         941         946         945
         941         942         947         946
         942         943         948         947
         943         944         949         948
         950         951         956         955
         951         952         957         956
         952         953         958         957
         953         954         959         958
         955         956         961         960
         956         957         962         961
         957         958         963         962
         958         959         964         963
         960         961         966         965
         961         962         967         966
         962         963         968         967
         963         964         969         968
         965         966         971         970
         966         967         972         971
         967         968         973         972
         968         969         974         973
         975         976         981         980
         976         977         982         981
         977         978         983         982
         978         979         984         983
         980         981         986         985
         981         982         987         986
         982         983         988         987
         983         984         989         988
         985         986         991         990
         986         987         992         991
         987         988         993         992
         988         989         994         993
         990         991         996         995
         991         992         997         996
         992         993         998         997
         993         994         999         998
        1000        1001        1006        1005
        1001        1002        1007        1006
        1002        1003        1008        1007
        1003        1004        1009        1008
        1005        1006        1011        1010
        1006        1007        1012        1011
        1007        1008        1013        1012
        1008        1009        1014        1013
        1010        1011        1016        1015
        1011        1012        1017        1016
        1012        1013        1018        1017
        1013        1014        1019        1018
        1015        1016        1021        1020
        1016        1017        1022        1021
        1017        1018        1023        1022
        1018        1019        1024        1023
        1025        1026        1031        1030
        1026        1027        1032        1031
        1027        1028        1033        1032
        1028        1029        1034        1033
        1030        1031        1036        1035
        1031        1032        1037        1036
        1032        1033        1038        1037
        1033        1034        1039        1038
        1035        1036        1041        1040
        1036        1037        1042        1041
        1037        1038        1043        1042
        1038        1039        1044        1043
        1040        1041        1046        1045
        1041        1042        1047        1046
        1042        1043        1048        1047
        1043        1044        1049        1048
        1050        1051        1056        1055
        1051        1052        1057        1056
        1052        1053        1058        1057
        1053        1054        1059        1058
        1055        1056        1061        1060
        1056        1057        1062        1061
        1057        1058        1063        1062
        1058        1059        1064        1063
        1060        1061        1066        1065
        1061        1062        1067        1066
        1062        1063        1068        1067
        1063        1064        1069        1068
        1065        1066        1071        1070
        1066        1067        1072        1071
        1067        1068        1073        1072
        1068        1069        1074        1073
        1075        1076        1081        1080
        1076        1077        1082        1081
        1077        1078        1083        1082
        1078        1079        1084        1083
        1080        1081        1086        1085
        1081        1082        1087        1086
        1082        1083        1088        1087
        1083        1084        1089        1088
        1085        1086        1091        1090
        1086        1087        1092        1091
        1087        1088        1093        1092
        1088        1089        1094        1093
        1090        1091        1096        1095
        1091        1092        1097        1096
        1092        1093        1098        1097
        1093        1094        1099        1098
        1100        1101        1106        1105
        1101        1102        1107        1106
        1102        1103        1108        1107
        1103        1104        1109        1108
        1105        1106        1111        1110
        1106        1107        1112        1111
        1107        1108        1113        1112
        1108        1109        1114        1113
        1110        1111        1116        1115
        1111        1112        1117        1116
        1112        1113        1118        1117
        1113        1114        1119        1118
        1115        1116        1121        1120
        1116        1117        1122        1121
        1117        1118        1123        1122
        1118        1119        1124        1123
        1125        1126        1131        1130
        1126        1127        1132        1131
        1127        1128        1133        1132
        1128        1129        1134        1133
        1130        1131        1136        1135
        1131        1132        1137        1136
        1132        1133        1138        1137
        1133        1134        1139        1138
        1135        1136        1141        1140
        1136        1137        1142        1141
        1137        1138        1143        1142
        1138        1139        1144        1143
        1140        1141        1146        1145
        1141        1142        1147        1146
        1142        1143        1148        1147
        1143        1144        1149        1148
        1150        1151        1156        1155
        1151        1152        1157        1156
        1152        1153        1158        1157
        1153        1154        1159        1158
        1155        1156        1161        1160
        1156        1157        1162        1161
        1157        1158        1163        1162
        1158        1159        1164        1163
        1160        1161        1166        1165
        1161        1162        1167        1166
        1162        1163        1168        1167
        1163        1164        1169        1168
        1165        1166        1171        1170
        1166        1167        1172        1171
        1167        1168        1173        1172
        1168        1169        1174        1173
        1175        1176        1181        1180
        1176        1177        1182        1181
        1177        1178        1183        1182
        1178        1179        1184        1183
        1180        1181        1186        1185
        1181        1182        1187        1186
        1182        1183        1188        1187
        1183        1184        1189        1188
        1185        1186        1191        1190
        1186        1187        1192        1191
        1187        1188        1193        1192
        1188        1189        1194        1193
        1190        1191        1196        1195
        1191        1192        1197        1196
        1192        1193        1198        1197
        1193        1194        1199        1198
        1200        1201        1206        1205
        1201        1202        1207        1206
        1202        1203        1208        1207
        1203        1204        1209        1208
        1205        1206        1211        1210
        1206        1207        1212        1211
        1207        1208        1213        1212
        1208        1209        1214        1213
        1210        1211        1216        1215
        1211        1212        1217        1216
        1212        1213        1218        1217
        1213        1214        1219        1218
        1215        1216        1221        1220
        1216        1217        1222        1221
        1217        1218        1223        1222
        1218        1219        1224        1223
        1225        1226        1231        1230
        1226        1227        1232        1231
        1227        1228        1233        1232
        1228        1229        1234        1233
        1230        1231        1236        1235
        1231        1232        1237        1236
        1232        1233        1238        1237
        1233        1234        1239        1238
        1235        1236        1241        1240
        1236        1237        1242        1241
        1237        1238        1243        1242
        1238        1239        1244        1243
        1240        1241        1246        1245
        1241        1242        1247        1246
        1242        1243        1248        1247
        1243        1244        1249        1248
        1250        1251        1256        1255
        1251        1252        1257        1256
        1252        1253        1258        1257
        1253        1254        1259        1258
        1255        1256        1261        1260
        1256        1257        1262        1261
        1257        1258        1263        1262
        1258        1259        1264        1263
        1260        1261        1266        1265
        1261        1262        1267        1266
        1262        1263        1268        1267
        1263        1264        1269        1268
        1265        1266        1271        1270
        1266        1267        1272        1271
        1267        1268        1273        1272
        1268        1269        1274        1273
        1275        1276        1281        1280
        1276        1277        1282        1281
        1277        1278        1283        1282
        1278        1279        1284        1283
        1280        1281        1286        1285
        1281        1282        1287        1286
        1282        1283        1288        1287
        1283        1284        1289        1288
        1285        1286        1291        1290
        1286        1287        1292        1291
        1287        1288        1293        1292
        1288        1289        1294        1293
        1290        1291        1296        1295
        1291        1292        1297        1296
        1292        1293        1298        1297
        1293        1294        1299        1298
        1300        1301        1306        1305
        1301        1302        1307        1306
        1302        1303        1308        1307
        1303        1304        1309        1308
        1305        1306        1311        1310
        1306        1307        1312        1311
        1307        1308        1313        1312
        1308        1309        1314        1313
        1310        1311        1316        1315
        1311        1312        1317        1316
        1312        1313        1318        1317
        1313        1314        1319        1318
        1315        1316        1321        1320
        1316        1317        1322        1321
        1317        1318        1323        1322
        1318        1319        1324        1323
        1325        1326        1331        1330
        1326        1327        1332        1331
        1327        1328        1333        1332
        1328        1329        1334        1333
        1330        1331        1336        1335
        1331        1332        1337        1336
        1332        1333        1338        1337
        1333        1334        1339        1338
        1335        1336        1341        1340
        1336        1337        1342        1341
        1337        1338        1343        1342
        1338        1339        1344        1343
        1340        1341        1346        1345
        1341        1342        1347        1346
        1342        1343        1348        1347
        1343        1344        1349        1348
        1350        1351        1356        1355
        1351        1352        1357        1356
        1352        1353        1358        1357
        1353        1354        1359        1358
        1355        1356        1361        1360
        1356        1357        1362        1361
        1357        1358        1363        1362
        1358        1359        1364        1363
        1360        1361        1366        1365
        1361        1362        1367        1366
        1362        1363        1368        1367
        1363        1364        1369        1368
        1365        1366        1371        1370
        1366        1367        1372        1371
        1367        1368        1373        1372
        1368        1369        1374        1373
        1375        1376        1381        1380
        1376        1377        1382        1381
        1377        1378        1383        1382
        1378        1379        1384        1383
        1380        1381        1386        1385
        1381        1382        1387        1386
        1382        1383        1388        1387
        1383        1384        1389        1388
        1385        1386        1391        1390
        1386        1387        1392        1391
        1387        1388        1393        1392
        1388        1389        1394        1393
        1390        1391        1396        1395
        1391        1392        1397        1396
        1392        1393        1398        1397
        1393        1394        1399        1398
        1400        1401        1406        1405
        1401        1402        1407        1406
        1402        1403        1408        1407
        1403        1404        1409        1408
        1405        1406        1411        1410
        1406        1407        1412        1411
        1407        1408        1413        1412
        1408        1409        1414        1413
        1410        1411        1416        1415
        1411        1412        1417        1416
        1412        1413        1418        1417
        1413        1414        1419        1418
        1415        1416        1421        1420
        1416        1417        1422        1421
        1417        1418        1423        1422
        1418        1419        1424        1423
        1425        1426        1431        1430
        1426        1427        1432        1431
        1427        1428        1433        1432
        1428        1429        1434        1433
        1430        1431        1436        1435
        1431        1432        1437        1436
        1432        1433        1438        1437
        1433        1434        1439        1438
        1435        1436        1441        1440
        1436        1437        1442        1441
        1437        1438        1443        1442
        1438        1439        1444        1443
        1440        1441        1446        1445
        1441        1442        1447        1446
        1442        1443        1448        1447
        1443        1444        1449        1448
        1450        1451        1456        1455
        1451        1452        1457        1456
        1452        1453        1458        1457
        1453        1454        1459        1458
        1455        1456        1461        1460
        1456        1457        1462        1461
        1457        1458        1463        1462
        1458        1459        1464        1463
        1460        1461        1466        1465
        1461        1462        1467        1466
        1462        1463        1468        1467
        1463        1464        1469        1468
        1465        1466        1471        1470
        1466        1467        1472        1471
        1467        1468        1473        1472
        1468        1469        1474        1473
        1475        1476        1481        1480
        1476        1477        1482        1481
        1477        1478        1483        1482
        1478        1479        1484        1483
        1480        1481        1486        1485
        1481        1482        1487        1486
        1482        1483        1488        1487
        1483        1484        1489        1488
        1485        1486        1491        1490
        1486        1487        1492        1491
        1487        1488        1493        1492
        1488        1489        1494        1493
        1490        1491        1496        1495
        1491        1492        1497        1496
        1492        1493        1498        1497
        1493        1494        1499        1498
        1500        1501        1506        1505
        1501        1502        1507        1506
        1502        1503        1508        1507
        1503        1504        1509        1508
        1505        1506        1511        1510
        1506        1507        1512        1511
        1507        1508        1513        1512
        1508        1509        1514        1513
        1510        1511        1516        1515
        1511        1512        1517        1516
        1512        1513        1518        1517
        1513        1514        1519        1518
        1515        1516        1521        1520
        1516        1517        1522        1521
        1517        1518        1523        1522
        1518        1519        1524        1523
        1525        1526        1531        1530
        1526        1527        1532        1531
        1527        1528        1533        1532
        1528        1529        1534        1533
        1530        1531        1536        1535
        1531        1532        1537        1536
        1532        1533        1538        1537
        1533        1534        1539        1538
        1535        1536        1541        1540
        1536        1537        1542        1541
        1537        1538        1543        1542
        1538        1539        1544        1543
        1540        1541        1546        1545
        1541        1542        1547        1546
        1542        1543        1548        1547
        1543        1544        1549        1548
        1550        1551        1556        1555
        1551        1552        1557        1556
        1552        1553        1558        1557
        1553        1554        1559        1558
        1555        1556        1561        1560
        1556        1557        1562        1561
        1557        1558        1563        1562
        1558        1559        1564        1563
        1560        1561        1566        1565
        1561        1562        1567        1566
        1562        1563        1568        1567
        1563        1564        1569        1568
        1565        1566        1571        1570
        1566        1567        1572        1571
        1567        1568        1573        1572
        1568        1569        1574        1573
        1575        1576        1581        1580
        1576        1577        1582        1581
        1577        1578        1583        1582
        1578        1579        1584        1583
        1580        1581        1586        1585
        1581        1582        1587        1586
        1582        1583        1588        1587
        1583        1584        1589        1588
        1585        1586        1591        1590
        1586        1587        1592        1591
        1587        1588        1593        1592
        1588        1589        1594        1593
        1590        1591        1596        1595
        1591        1592        1597        1596
        1592        1593        1598        1597
        1593        1594        1599        1598
 </DataArray>
 <DataArray  type="Int32"  Name="offsets"  format="ascii"> 
           4
           8
          12
          16
          20
          24
          28
          32
          36
          40
          44
          48
          52
          56
          60
          64
          68
          72
          76
          80
          84
          88
          92
          96
         100
         104
         108
         112
         116
         120
         124
         128
         132
         136
         140
         144
         148
         152
         156
         160
         164
         168
         172
         176
         180
         184
         188
         192
         196
         200
         204
         208
         212
         216
         220
         224
         228
         232
         236
         240
         244
         248
         252
         256
         260
         264
         268
         272
         276
         280
         284
         288
         292
         296
         300
         304
         308
         312
         316
         320
         324
         328
         332
         336
         340
         344
         348
         352
         356
         360
         364
         368
         372
         376
         380
         384
         388
         392
         396
         400
         404
         408
         412
         416
         420
         424
         428
         432
         436
         440
         444
         448
         452
         456
         460
         464
         468
         472
         476
         480
         484
         488
         492
         496
         500
         504
         508
         512
         516
         520
         524
         528
         532
         536
         540
         544
         548
         552
         556
         560
         564
         568
         572
         576
         580
         584
         588
         592
         596
         600
         604
         608
         612
         616
         620
         624
         628
         632
         636
         640
         644
         648
         652
         656
         660
         664
         668
         672
         676
         680
         684
         688
         692
         696
         700
         704
         708
         712
         716
         720
         724
         728
         732
         736
         740
         744
         748
         752
         756
         760
         764
         768
         772
         776
         780
         784
         788
         792
         796
         800
         804
         808
         812
         816
         820
         824
         828
         832
         836
         840
         844
         848
         852
         856
         860
         864
         868
         872
         876
         880
         884
         888
         892
         896
         900
         904
         908
         912
         916
         920
         924
         928
         932
         936
         940
         944
         948
         952
         956
         960
         964
         968
         972
         976
         980
         984
         988
         992
         996
        1000
        1004
        1008
        1012
        1016
        1020
        1024
        1028
        1032
        1036
        1040
        1044
        1048
        1052
        1056
        1060
        1064
        1068
        1072
        1076
        1080
        1084
        1088
        1092
        1096
        1100
        1104
        1108
        1112
        1116
        1120
        1124
        1128
        1132
        1136
        1140
        1144
        1148
        1152
        1156
        1160
        1164
        1168
        1172
        1176
        1180
        1184
        1188
        1192
        1196
        1200
        1204
        1208
        1212
        1216
        1220
        1224
        1228
        1232
        1236
        1240
        1244
        1248
        1252
        1256
        1260
        1264
        1268
        1272
        1276
        1280
        1284
        1288
        1292
        1296
        1300
        1304
        1308
        1312
        1316
        1320
        1324
        1328
        1332
        1336
        1340
        1344
        1348
        1352
        1356
        1360
        1364
        1368
        1372
        1376
        1380
        1384
        1388
        1392
        1396
        1400
        1404
        1408
        1412
        1416
        1420
        1424
        1428
        1432
        1436
        1440
        1444
        1448
        1452
        1456
        1460
        1464
        1468
        1472
        1476
        1480
        1484
        1488
        1492
        1496
        1500
        1504
        1508
        1512
        1516
        1520
        1524
        1528
        1532
        1536
        1540
        1544
        1548
        1552
        1556
        1560
        1564
        1568
        1572
        1576
        1580
        1584
        1588
        1592
        1596
        1600
        1604
        1608
        1612
        1616
        1620
        1624
        1628
        1632
        1636
        1640
        1644
        1648
        1652
        1656
        1660
        1664
        1668
        1672
        1676
        1680
        1684
        1688
        1692
        1696
        1700
        1704
        1708
        1712
        1716
        1720
        1724
        1728
        1732
        1736
        1740
        1744
        1748
        1752
        1756
        1760
        1764
        1768
        1772
        1776
        1780
        1784
        1788
        1792
        1796
        1800
        1804
        1808
        1812
        1816
        1820
        1824
        1828
        1832
        1836
        1840
        1844
        1848
        1852
        1856
        1860
        1864
        1868
        1872
        1876
        1880
        1884
        1888
        1892
        1896
        1900
        1904
        1908
        1912
        1916
        1920
        1924
        1928
        1932
        1936
        1940
        1944
        1948
        1952
        1956
        1960
        1964
        1968
        1972
        1976
        1980
        1984
        1988
        1992
        1996
        2000
        2004
        2008
        2012
        2016
        2020
        2024
        2028
        2032
        2036
        2040
        2044
        2048
        2052
        2056
        2060
        2064
        2068
        2072
        2076
        2080
        2084
        2088
        2092
        2096
        2100
        2104
        2108
        2112
        2116
        2120
        2124
        2128
        2132
        2136
        2140
        2144
        2148
        2152
        2156
        2160
        2164
        2168
        2172
        2176
        2180
        2184
        2188
        2192
        2196
        2200
        2204
        2208
        2212
        2216
        2220
        2224
        2228
        2232
        2236
        2240
        2244
        2248
        2252
        2256
        2260
        2264
        2268
        2272
        2276
        2280
        2284
        2288
        2292
        2296
        2300
        2304
        2308
        2312
        2316
        2320
        2324
        2328
        2332
        2336
        2340
        2344
        2348
        2352
        2356
        2360
        2364
        2368
        2372
        2376
        2380
        2384
        2388
        2392
        2396
        2400
        2404
        2408
        2412
        2416
        2420
        2424
        2428
        2432
        2436
        2440
        2444
        2448
        2452
        2456
        2460
        2464
        2468
        2472
        2476
        2480
        2484
        2488
        2492
        2496
        2500
        2504
        2508
        2512
        2516
        2520
        2524
        2528
        2532
        2536
        2540
        2544
        2548
        2552
        2556
        2560
        2564
        2568
        2572
        2576
        2580
        2584
        2588
        2592
        2596
        2600
        2604
        2608
        2612
        2616
        2620
        2624
        2628
        2632
        2636
        2640
        2644
        2648
        2652
        2656
        2660
        2664
        2668
        2672
        2676
        2680
        2684
        2688
        2692
        2696
        2700
        2704
        2708
        2712
        2716
        2720
        2724
        2728
        2732
        2736
        2740
        2744
        2748
        2752
        2756
        2760
        2764
        2768
        2772
        2776
        2780
        2784
        2788
        2792
        2796
        2800
        2804
        2808
        2812
        2816
        2820
        2824
        2828
        2832
        2836
        2840
        2844
        2848
        2852
        2856
        2860
        2864
        2868
        2872
        2876
        2880
        2884
        2888
        2892
        2896
        2900
        2904
        2908
        2912
        2916
        2920
        2924
        2928
        2932
        2936
        2940
        2944
        2948
        2952
        2956
        2960
        2964
        2968
        2972
        2976
        2980
        2984
        2988
        2992
        2996
        3000
        3004
        3008
        3012
        3016
        3020
        3024
        3028
        3032
        3036
        3040
        3044
        3048
        3052
        3056
        3060
        3064
        3068
        3072
        3076
        3080
        3084
        3088
        3092
        3096
        3100
        3104
        3108
        3112
        3116
        3120
        3124
        3128
        3132
        3136
        3140
        3144
        3148
        3152
        3156
        3160
        3164
        3168
        3172
        3176
        3180
        3184
        3188
        3192
        3196
        3200
        3204
        3208
        3212
        3216
        3220
        3224
        3228
        3232
        3236
        3240
        3244
        3248
        3252
        3256
        3260
        3264
        3268
        3272
        3276
        3280
        3284
        3288
        3292
        3296
        3300
        3304
        3308
        3312
        3316
        3320
        3324
        3328
        3332
        3336
        3340
        3344
        3348
        3352
        3356
        3360
        3364
        3368
        3372
        3376
        3380
        3384
        3388
        3392
        3396
        3400
        3404
        3408
        3412
        3416
        3420
        3424
        3428
        3432
        3436
        3440
        3444
        3448
        3452
        3456
        3460
        3464
        3468
        3472
        3476
        3480
        3484
        3488
        3492
        3496
        3500
        3504
        3508
        3512
        3516
        3520
        3524
        3528
        3532
        3536
        3540
        3544
        3548
        3552
        3556
        3560
        3564
        3568
        3572
        3576
        3580
        3584
        3588
        3592
        3596
        3600
        3604
        3608
        3612
        3616
        3620
        3624
        3628
        3632
        3636
        3640
        3644
        3648
        3652
        3656
        3660
        3664
        3668
        3672
        3676
        3680
        3684
        3688
        3692
        3696
        3700
        3704
        3708
        3712
        3716
        3720
        3724
        3728
        3732
        3736
        3740
        3744
        3748
        3752
        3756
        3760
        3764
        3768
        3772
        3776
        3780
        3784
        3788
        3792
        3796
        3800
        3804
        3808
        3812
        3816
        3820
        3824
        3828
        3832
        3836
        3840
        3844
        3848
        3852
        3856
        3860
        3864
        3868
        3872
        3876
        3880
        3884
        3888
        3892
        3896
        3900
        3904
        3908
        3912
        3916
        3920
        3924
        3928
        3932
        3936
        3940
        3944
        3948
        3952
        3956
        3960
        3964
        3968
        3972
        3976
        3980
        3984
        3988
        3992
        3996
        4000
        4004
        4008
        4012
        4016
        4020
        4024
        4028
        4032
        4036
        4040
        4044
        4048
        4052
        4056
        4060
        4064
        4068
        4072
        4076
        4080
        4084
        4088
        4092
        4096
 </DataArray>
 <DataArray  type="UInt8"  Name="types"  format="ascii">
 9
 9
 9
 9
 9
 9
 9
 9
 9
 9
 9
 9
 9
 9
 9
 9
 9
 9
 9
 9
 9
 9
 9
 9
 9
 9
 9
 9
 9
 9
 9
 9
 9
 9
 9
 9
 9
 9
 9
 9
 9
 9
 9
 9
 9
 9
 9
 9
 9
 9
 9
 9
 9
 9
 9
 9
 9
 9
 9
 9
 9
 9
 9
 9
 9
 9
 9
 9
 9
 9
 9
 9
 9
 9
 9
 9
 9
 9
 9
 9
 9
 9
 9
 9
 9
 9
 9
 9
 9
 9
 9
 9
 9
 9
 9
 9
 9
 9
 9
 9
 9
 9
 9
 9
 9
 9
 9
 9
 9
 9
 9
 9
 9
 9
 9
 9
 9
 9
 9
 9
 9
 9
 9
 9
 9
 9
 9
 9
 9
 9
 9
 9
 9
 9
 9
 9
 9
 9
 9
 9
 9
 9
 9
 9
 9
 9
 9
 9
 9
 9
 9
 9
 9
 9
 9
 9
 9
 9
 9
 9
 9
 9
 9
 9
 9
 9
 9
 9
 9
 9
 9
 9
 9
 9
 9
 9
 9
 9
 9
 9
 9
 9
 9
 9
 9
 9
 9
 9
 9
 9
 9
 9
 9
 9
 9
 9
 9
 9
 9
 9
 9
 9
 9
 9
 9
 9
 9
 9
 9
 9
 9
 9
 9
 9
 9
 9
 9
 9
 9
 9
 9
 9
 9
 9
 9
 9
 9
 9
 9
 9
 9
 9
 9
 9
 9
 9
 9
 9
 9
 9
 9
 9
 9
 9
 9
 9
 9
 9
 9
 9
 9
 9
 9
 9
 9
 9
 9
 9
 9
 9
 9
 9
 9
 9
 9
 9
 9
 9
 9
 9
 9
 9
 9
 9
 9
 9
 9
 9
 9
 9
 9
 9
 9
 9
 9
 9
 9
 9
 9
 9
 9
 9
 9
 9
 9
 9
 9
 9
 9
 9
 9
 9
 9
 9
 9
 9
 9
 9
 9
 9
 9
 9
 9
 9
 9
 9
 9
 9
 9
 9
 9
 9
 9
 9
 9
 9
 9
 9
 9
 9
 9
 9
 9
 9
 9
 9
 9
 9
 9
 9
 9
 9
 9
 9
 9
 9
 9
 9
 9
 9
 9
 9
 9
 9
 9
 9
 9
 9
 9
 9
 9
 9
 9
 9
 9
 9
 9
 9
 9
 9
 9
 9
 9
 9
 9
 9
 9
 9
 9
 9
 9
 9
 9
 9
 9
 9
 9
 9
 9
 9
 9
 9
 9
 9
 9
 9
 9
 9
 9
 9
 9
 9
 9
 9
 9
 9
 9
 9
 9
 9
 9
 9
 9
 9
 9
 9
 9
 9
 9
 9
 9
 9
 9
 9
 9
 9
 9
 9
 9
 9
 9
 9
 9
 9
 9
 9
 9
 9
 9
 9
 9
 9
 9
 9
 9
 9
 9
 9
 9
 9
 9
 9
 9
 9
 9
 9
 9
 9
 9
 9
 9
 9
 9
 9
 9
 9
 9
 9
 9
 9
 9
 9
 9
 9
 9
 9
 9
 9
 9
 9
 9
 9
 9
 9
 9
 9
 9
 9
 9
 9
 9
 9
 9
 9
 9
 9
 9
 9
 9
 9
 9
 9
 9
 9
 9
 9
 9
 9
 9
 9
 9
 9
 9
 9
 9
 9
 9
 9
 9
 9
 9
 9
 9
 9
 9
 9
 9
 9
 9
 9
 9
 9
 9
 9
 9
 9
 9
 9
 9
 9
 9
 9
 9
 9
 9
 9
 9
 9
 9
 9
 9
 9
 9
 9
 9
 9
 9
 9
 9
 9
 9
 9
 9
 9
 9
 9
 9
 9
 9
 9
 9
 9
 9
 9
 9
 9
 9
 9
 9
 9
 9
 9
 9
 9
 9
 9
 9
 9
 9
 9
 9
 9
 9
 9
 9
 9
 9
 9
 9
 9
 9
 9
 9
 9
 9
 9
 9
 9
 9
 9
 9
 9
 9
 9
 9
 9
 9
 9
 9
 9
 9
 9
 9
 9
 9
 9
 9
 9
 9
 9
 9
 9
 9
 9
 9
 9
 9
 9
 9
 9
 9
 9
 9
 9
 9
 9
 9
 9
 9
 9
 9
 9
 9
 9
 9
 9
 9
 9
 9
 9
 9
 9
 9
 9
 9
 9
 9
 9
 9
 9
 9
 9
 9
 9
 9
 9
 9
 9
 9
 9
 9
 9
 9
 9
 9
 9
 9
 9
 9
 9
 9
 9
 9
 9
 9
 9
 9
 9
 9
 9
 9
 9
 9
 9
 9
 9
 9
 9
 9
 9
 9
 9
 9
 9
 9
 9
 9
 9
 9
 9
 9
 9
 9
 9
 9
 9
 9
 9
 9
 9
 9
 9
 9
 9
 9
 9
 9
 9
 9
 9
 9
 9
 9
 9
 9
 9
 9
 9
 9
 9
 9
 9
 9
 9
 9
 9
 9
 9
 9
 9
 9
 9
 9
 9
 9
 9
 9
 9
 9
 9
 9
 9
 9
 9
 9
 9
 9
 9
 9
 9
 9
 9
 9
 9
 9
 9
 9
 9
 9
 9
 9
 9
 9
 9
 9
 9
 9
 9
 9
 9
 9
 9
 9
 9
 9
 9
 9
 9
 9
 9
 9
 9
 9
 9
 9
 9
 9
 9
 9
 9
 9
 9
 9
 9
 9
 9
 9
 9
 9
 9
 9
 9
 9
 9
 9
 9
 9
 9
 9
 9
 9
 9
 9
 9
 9
 9
 9
 9
 9
 9
 9
 9
 9
 9
 9
 9
 9
 9
 9
 9
 9
 9
 9
 9
 9
 9
 9
 9
 9
 9
 9
 9
 9
 9
 9
 9
 9
 9
 9
 9
 9
 9
 9
 9
 9
 9
 9
 9
 9
 9
 9
 9
 9
 9
 9
 9
 9
 9
 9
 9
 9
 9
 9
 9
 9
 9
 9
 9
 9
 9
 9
 9
 9
 9
 9
 9
 9
 9
 9
 9
 9
 9
 9
 9
 9
 9
 9
 9
 9
 9
 9
 9
 9
 9
 9
 9
 9
 9
 9
 9
 9
 9
 9
 9
 9
 9
 9
 9
 9
 9
 9
 9
 9
 9
 9
 9
 9
 9
 9
 9
 9
 9
 9
 9
 9
 9
 9
 9
 9
 9
 9
 9
 9
 9
 9
 9
 9
 9
 9
 9
 9
 9
 9
 9
 9
 9
 9
 9
 9
 9
 9
 9
 9
 9
 9
 9
 9
 9
 9
 9
 9
 9
 9
 9
 9
 9
 9
 9
 9
 9
 9
 9
 9
 9
 9
 9
 9
 9
 9
 9
 9
 9
 9
 9
 </DataArray>
 </Cells> 
 <PointData>
 <DataArray  type="Float64" Name="disp" NumberOfComponents="3" format="ascii">
   0.0000000000000000        0.0000000000000000        0.0000000000000000     
   6.0991052940052894E-003   3.7862841349378994E-003   0.0000000000000000     
   1.1674275482098354E-002   7.3162731965416014E-003   0.0000000000000000     
   1.6725510564279199E-002   1.0589967184811106E-002   0.0000000000000000     
   2.1252810540547812E-002   1.3607366099746413E-002   0.0000000000000000     
   0.0000000000000000        0.0000000000000000        0.0000000000000000     
   4.8950197454527729E-003   3.0169523259064583E-003   0.0000000000000000     
   9.5826980898211164E-003   6.0509884222912664E-003   0.0000000000000000     
   1.4063035033105029E-002   9.1021082891544237E-003   0.0000000000000000     
   1.8336030575304512E-002   1.2170311926495933E-002   0.0000000000000000     
   0.0000000000000000        0.0000000000000000        0.0000000000000000     
   3.9574056522309851E-003   2.4192328125168107E-003   0.0000000000000000     
   7.9190469393488200E-003   5.0520547053563673E-003   0.0000000000000000     
   1.1884923861353506E-002   7.8984656785186704E-003   0.0000000000000000     
   1.5855036418245039E-002   1.0958465732003717E-002   0.0000000000000000     
   0.0000000000000000        0.0000000000000000        0.0000000000000000     
   3.2862630143399257E-003   1.9931255947689564E-003   0.0000000000000000     
   6.6833220306814680E-003   4.3194720457369034E-003   0.0000000000000000     
   1.0191177049024624E-002   6.9790393529038401E-003   0.0000000000000000     
   1.3809828069369402E-002   9.9718275162697673E-003   0.0000000000000000     
   0.0000000000000000        0.0000000000000000        0.0000000000000000     
   2.8815918317795946E-003   1.7386306726628964E-003   0.0000000000000000     
   5.8755233638190579E-003   3.8532404434328755E-003   0.0000000000000000     
   8.9817945961183903E-003   6.3438293123099371E-003   0.0000000000000000     
   1.2200405528677592E-002   9.2103972792940813E-003   0.0000000000000000     
   2.1252810540547812E-002   1.3607366099746413E-002   0.0000000000000000     
   2.5469507307488773E-002   1.6599305734713913E-002   0.0000000000000000     
   2.9588932761686653E-002   1.9796621883080002E-002   0.0000000000000000     
   3.3611086903141442E-002   2.3199314544844668E-002   0.0000000000000000     
   3.7535969731853150E-002   2.6807383720007925E-002   0.0000000000000000     
   1.8336030575304512E-002   1.2170311926495933E-002   0.0000000000000000     
   2.2440321181074117E-002   1.5324141058251167E-002   0.0000000000000000     
   2.6414543315068401E-002   1.8632137408355509E-002   0.0000000000000000     
   3.0258696977287353E-002   2.2094300976808950E-002   0.0000000000000000     
   3.3972782167730989E-002   2.5710631763611498E-002   0.0000000000000000     
   1.5855036418245039E-002   1.0958465732003717E-002   0.0000000000000000     
   1.9757952495491678E-002   1.4191064829884560E-002   0.0000000000000000     
   2.3522239978561676E-002   1.7555272936234233E-002   0.0000000000000000     
   2.7147898867455042E-002   2.1051090051052743E-002   0.0000000000000000     
   3.0634929162171764E-002   2.4678516174340089E-002   0.0000000000000000     
   1.3809828069369402E-002   9.9718275162697673E-003   0.0000000000000000     
   1.7422401250741466E-002   1.3200077049614083E-002   0.0000000000000000     
   2.0912022752166502E-002   1.6566028466716176E-002   0.0000000000000000     
   2.4278692573644508E-002   2.0069681767576054E-002   0.0000000000000000     
   2.7522410715175478E-002   2.3711036952193711E-002   0.0000000000000000     
   1.2200405528677592E-002   9.2103972792940813E-003   0.0000000000000000     
   1.5433667446823474E-002   1.2351177717439737E-002   0.0000000000000000     
   1.8583891635882862E-002   1.5664403999801336E-002   0.0000000000000000     
   2.1651078095855748E-002   1.9150076126378878E-002   0.0000000000000000     
   2.4635226826742133E-002   2.2808194097172357E-002   0.0000000000000000     
   3.7535969731853150E-002   2.6807383720007925E-002   0.0000000000000000     
   4.1370409958447950E-002   3.0621255586557750E-002   0.0000000000000000     
   4.5121236293552025E-002   3.4641356322482136E-002   0.0000000000000000     
   4.8788448737165369E-002   3.8867685927781066E-002   0.0000000000000000     
   5.2372047289288001E-002   4.3300244402454557E-002   0.0000000000000000     
   3.3972782167730989E-002   2.5710631763611498E-002   0.0000000000000000     
   3.7580913008639479E-002   2.9514694421100770E-002   0.0000000000000000     
   4.1107203622253029E-002   3.3540053601614397E-002   0.0000000000000000     
   4.4551654008571626E-002   3.7786709305152377E-002   0.0000000000000000     
   4.7914264167595269E-002   4.2254661531714720E-002   0.0000000000000000     
   3.0634929162171764E-002   2.4678516174340089E-002   0.0000000000000000     
   3.4012674774124882E-002   2.8486301715961431E-002   0.0000000000000000     
   3.7310479614727457E-002   3.2523197085781941E-002   0.0000000000000000     
   4.0528343683979472E-002   3.6789202283801579E-002   0.0000000000000000     
   4.3666266981880954E-002   4.1284317310020392E-002   0.0000000000000000     
   2.7522410715175478E-002   2.3711036952193711E-002   0.0000000000000000     
   3.0665695254904174E-002   2.7536077471139741E-002   0.0000000000000000     
   3.3731064270975317E-002   3.1590786774984718E-002   0.0000000000000000     
   3.6718517763388941E-002   3.5875164863728659E-002   0.0000000000000000     
   3.9628055732145014E-002   4.0389211737371561E-002   0.0000000000000000     
   2.4635226826742133E-002   2.2808194097172357E-002   0.0000000000000000     
   2.7539974450977323E-002   2.6664021686635689E-002   0.0000000000000000     
   3.0368957590996611E-002   3.0742822669222777E-002   0.0000000000000000     
   3.3122176246800000E-002   3.5044597044933623E-002   0.0000000000000000     
   3.5799630418387483E-002   3.9569344813768226E-002   0.0000000000000000     
   5.2372047289288001E-002   4.3300244402454557E-002   0.0000000000000000     
   5.5861067666737672E-002   4.7948696680752703E-002   0.0000000000000000     
   5.9244545586332152E-002   5.2822707696925604E-002   0.0000000000000000     
   6.2522481048071440E-002   5.7922277450973274E-002   0.0000000000000000     
   6.5694874051955537E-002   6.3247405942895699E-002   0.0000000000000000     
   4.7914264167595269E-002   4.2254661531714720E-002   0.0000000000000000     
   5.1189540166183663E-002   4.6943289927994535E-002   0.0000000000000000     
   5.4371988071196482E-002   5.1851974140684945E-002   0.0000000000000000     
   5.7461607882633714E-002   5.6980714169785944E-002   0.0000000000000000     
   6.0458399600495372E-002   6.2329510015297532E-002   0.0000000000000000     
   4.3666266981880954E-002   4.1284317310020392E-002   0.0000000000000000     
   4.6723252323681998E-002   4.6002208785949711E-002   0.0000000000000000     
   4.9698302524632774E-002   5.0936543333100888E-002   0.0000000000000000     
   5.2591417584733270E-002   5.6087320951473930E-002   0.0000000000000000     
   5.5402597503983478E-002   6.1454541641068845E-002   0.0000000000000000     
   3.9628055732145014E-002   4.0389211737371561E-002   0.0000000000000000     
   4.2462204139232684E-002   4.5125453254618211E-002   0.0000000000000000     
   4.5223488946641043E-002   5.0076415274173447E-002   0.0000000000000000     
   4.7911910154370095E-002   5.5242097796037240E-002   0.0000000000000000     
   5.0527467762419856E-002   6.0622500820209597E-002   0.0000000000000000     
   3.5799630418387483E-002   3.9569344813768226E-002   0.0000000000000000     
   3.8406395612835695E-002   4.4313023334000064E-002   0.0000000000000000     
   4.0947547337221266E-002   4.9271589963902615E-002   0.0000000000000000     
   4.3423085591544210E-002   5.4445044703475859E-002   0.0000000000000000     
   4.5833010375804492E-002   5.9833387552719816E-002   0.0000000000000000     
   6.5694874051955537E-002   6.3247405942895699E-002   0.0000000000000000     
   6.8767133705779818E-002   6.8770725474696384E-002   0.0000000000000000     
   7.1744669117339649E-002   7.4464868348378829E-002   0.0000000000000000     
   7.4627480286635045E-002   8.0329834563943020E-002   0.0000000000000000     
   7.7415567213665992E-002   8.6365624121388984E-002   0.0000000000000000     
   6.0458399600495372E-002   6.2329510015297532E-002   0.0000000000000000     
   6.3361547556659320E-002   6.7875054361842532E-002   0.0000000000000000     
   6.6170236083003417E-002   7.3594039894043728E-002   0.0000000000000000     
   6.8884465179527662E-002   7.9486466611901119E-002   0.0000000000000000     
   7.1504234846232056E-002   8.5552334515414719E-002   0.0000000000000000     
   5.5402597503983478E-002   6.1454541641068845E-002   0.0000000000000000     
   5.8126752830872055E-002   6.7017885782634901E-002   0.0000000000000000     
   6.0758794113887668E-002   7.2757033756921441E-002   0.0000000000000000     
   6.3298721353030302E-002   7.8671985563928445E-002   0.0000000000000000     
   6.5746534548299929E-002   8.4762741203655914E-002   0.0000000000000000     
   5.0527467762419856E-002   6.0622500820209597E-002   0.0000000000000000     
   5.3062749528418038E-002   6.6199219737073517E-002   0.0000000000000000     
   5.5510343209992395E-002   7.1953849937011996E-002   0.0000000000000000     
   5.7870248807142921E-002   7.7886391420025000E-002   0.0000000000000000     
   6.0142466319869609E-002   8.3996844186112599E-002   0.0000000000000000     
   4.5833010375804492E-002   5.9833387552719816E-002   0.0000000000000000     
   4.8169537649297260E-002   6.5419056225158354E-002   0.0000000000000000     
   5.0424883371317612E-002   7.1184488434315366E-002   0.0000000000000000     
   5.2599047541865555E-002   7.7129684180190825E-002   0.0000000000000000     
   5.4692030160941096E-002   8.3254643462784758E-002   0.0000000000000000     
   7.7415567213665992E-002   8.6365624121388984E-002   0.0000000000000000     
   8.0113546004027827E-002   9.2579917601324904E-002   0.0000000000000000     
   8.2726032763315901E-002   9.8980395584358935E-002   0.0000000000000000     
   8.5253027491530214E-002  0.10556705807049113        0.0000000000000000     
   8.7694530188670752E-002  0.11233990505972145        0.0000000000000000     
   7.1504234846232056E-002   8.5552334515414719E-002   0.0000000000000000     
   7.4033157402953811E-002   9.1796861293923823E-002   0.0000000000000000     
   7.6474845169530126E-002   9.8225264636767701E-002   0.0000000000000000     
   7.8829298145961013E-002  0.10483754454394638        0.0000000000000000     
   8.1096516332246488E-002  0.11163370101545987        0.0000000000000000     
   6.5746534548299929E-002   8.4762741203655914E-002   0.0000000000000000     
   6.8104947752758396E-002   9.1032006224059256E-002   0.0000000000000000     
   7.0376675019467497E-002   9.7482486173093894E-002   0.0000000000000000     
   7.2561716348427244E-002  0.10411418105075981        0.0000000000000000     
   7.4660071739637623E-002  0.11092709085705701        0.0000000000000000     
   6.0142466319869609E-002   8.3996844186112599E-002   0.0000000000000000     
   6.2328917053441596E-002   9.0285352391731244E-002   0.0000000000000000     
   6.4431522313128028E-002   9.6752060193337514E-002   0.0000000000000000     
   6.6450282098928906E-002  0.10339696759093137        0.0000000000000000     
   6.8385196410844201E-002  0.11022007458451288        0.0000000000000000     
   5.4692030160941096E-002   8.3254643462784758E-002   0.0000000000000000     
   5.6705065305003417E-002   8.9556899796939787E-002   0.0000000000000000     
   5.8639387050511707E-002   9.6033986697498575E-002   0.0000000000000000     
   6.0494995397465973E-002  0.10268590416446115        0.0000000000000000     
   6.2271890345866207E-002  0.10951265219782746        0.0000000000000000     
   8.7694530188670752E-002  0.11233990505972145        0.0000000000000000     
   9.0041203703678144E-002  0.11930636334220764        0.0000000000000000     
   9.2283710885492989E-002  0.12647385970810746        0.0000000000000000     
   9.4422051734115289E-002  0.13384239415742086        0.0000000000000000     
   9.6456226249545057E-002  0.14141196669014791        0.0000000000000000     
   8.1096516332246488E-002  0.11163370101545987        0.0000000000000000     
   8.3274506988042188E-002  0.11862290738315001        0.0000000000000000     
   8.5361277373003849E-002  0.12581433697885869        0.0000000000000000     
   8.7356827487131444E-002  0.13320798980258583        0.0000000000000000     
   8.9261157330425001E-002  0.14080386585433158        0.0000000000000000     
   7.4660071739637623E-002  0.11092709085705701        0.0000000000000000     
   7.6674853563589593E-002  0.11793045951841197        0.0000000000000000     
   7.8609174190774095E-002  0.12513353096125115        0.0000000000000000     
   8.0463033621191143E-002  0.13253630518557460        0.0000000000000000     
   8.2236431854840725E-002  0.14013878219138226        0.0000000000000000     
   6.8385196410844201E-002  0.11022007458451288        0.0000000000000000     
   7.0242243430320359E-002  0.11722901974799353        0.0000000000000000     
   7.2027401338803740E-002  0.12443144165528494        0.0000000000000000     
   7.3740670136294373E-002  0.13182734030638707        0.0000000000000000     
   7.5382049822792271E-002  0.13941671570129999        0.0000000000000000     
   6.2271890345866207E-002  0.10951265219782746        0.0000000000000000     
   6.3976676588234471E-002  0.11651858807189472        0.0000000000000000     
   6.5615958817092784E-002  0.12370806906095999        0.0000000000000000     
   6.7189737032441174E-002  0.13108109516502334        0.0000000000000000     
   6.8698011234279613E-002  0.13863766638408470        0.0000000000000000     
   9.6456226249545057E-002  0.14141196669014791        0.0000000000000000     
   9.8305094639809215E-002  0.14914893915673794        0.0000000000000000     
   9.9887517112934726E-002  0.15701967340764034        0.0000000000000000     
  0.10120349366892155       0.16502416944285506        0.0000000000000000     
  0.10225302430776972       0.17316242726238212        0.0000000000000000     
   8.9261157330425001E-002  0.14080386585433158        0.0000000000000000     
   9.1023886195346987E-002  0.14858351861729230        0.0000000000000000     
   9.2594633374359969E-002  0.15652850157466464        0.0000000000000000     
   9.3973398867463878E-002  0.16463881472644859        0.0000000000000000     
   9.5160182674658811E-002  0.17291445807264405        0.0000000000000000     
   8.2236431854840725E-002  0.14013878219138226        0.0000000000000000     
   8.3901186168812814E-002  0.14793060063831559        0.0000000000000000     
   8.5429113840197426E-002  0.15590139918601600        0.0000000000000000     
   8.6820214868994550E-002  0.16405117783448356        0.0000000000000000     
   8.8074489255204155E-002  0.17237993658371820        0.0000000000000000     
   7.5382049822792271E-002  0.13941671570129999        0.0000000000000000     
   7.6936994560206737E-002  0.14719018521980770        0.0000000000000000     
   7.8390958510447153E-002  0.15513836624169439        0.0000000000000000     
   7.9743941673513466E-002  0.16326125876696004        0.0000000000000000     
   8.0995944049405730E-002  0.17155886279560464        0.0000000000000000     
   6.8698011234279613E-002  0.13863766638408470        0.0000000000000000     
   7.0131311369528729E-002  0.14636227236176866        0.0000000000000000     
   7.1480167385109081E-002  0.15423940274169978        0.0000000000000000     
   7.2744579281020696E-002  0.16226905752387799        0.0000000000000000     
   7.3924547057263576E-002  0.17045123670830334        0.0000000000000000     
   0.0000000000000000        0.0000000000000000        0.0000000000000000     
   2.8815918317795946E-003   1.7386306726628964E-003   0.0000000000000000     
   5.8755233638190579E-003   3.8532404434328755E-003   0.0000000000000000     
   8.9817945961183903E-003   6.3438293123099371E-003   0.0000000000000000     
   1.2200405528677592E-002   9.2103972792940813E-003   0.0000000000000000     
   0.0000000000000000        0.0000000000000000        0.0000000000000000     
   2.6100593397435637E-003   1.5831357555387148E-003   0.0000000000000000     
   5.2886754407346004E-003   3.5461309995901144E-003   0.0000000000000000     
   8.0358483029731084E-003   5.8889857321541986E-003   0.0000000000000000     
   1.0851577926459089E-002   8.6116999532309703E-003   0.0000000000000000     
   0.0000000000000000        0.0000000000000000        0.0000000000000000     
   2.3383327734254047E-003   1.4540285527364963E-003   0.0000000000000000     
   4.7158027634011017E-003   3.2909148153544522E-003   0.0000000000000000     
   7.1324099699270919E-003   5.5106587878538662E-003   0.0000000000000000     
   9.5881543930033761E-003   8.1132604702347406E-003   0.0000000000000000     
   0.0000000000000000        0.0000000000000000        0.0000000000000000     
   2.0664121328251178E-003   1.3513090642562418E-003   0.0000000000000000     
   4.1569053318185646E-003   3.0875918907258882E-003   0.0000000000000000     
   6.2714795969803410E-003   5.2088484794089391E-003   0.0000000000000000     
   8.4101349283104490E-003   7.7150788303053941E-003   0.0000000000000000     
   0.0000000000000000        0.0000000000000000        0.0000000000000000     
   1.7942974179427028E-003   1.2749772900979505E-003   0.0000000000000000     
   3.6119831459869882E-003   2.9361622257044221E-003   0.0000000000000000     
   5.4530571841328564E-003   4.9835548068194154E-003   0.0000000000000000     
   7.3175195323803080E-003   7.4171550334429306E-003   0.0000000000000000     
   1.2200405528677592E-002   9.2103972792940813E-003   0.0000000000000000     
   1.5433667446823474E-002   1.2351177717439737E-002   0.0000000000000000     
   1.8583891635882862E-002   1.5664403999801336E-002   0.0000000000000000     
   2.1651078095855748E-002   1.9150076126378878E-002   0.0000000000000000     
   2.4635226826742133E-002   2.2808194097172357E-002   0.0000000000000000     
   1.0851577926459089E-002   8.6116999532309703E-003   0.0000000000000000     
   1.3682416682527366E-002   1.1632390539468697E-002   0.0000000000000000     
   1.6474916942512761E-002   1.4869174367515645E-002   0.0000000000000000     
   1.9229078706415274E-002   1.8322051437371822E-002   0.0000000000000000     
   2.1944901974234904E-002   2.1991021749037221E-002   0.0000000000000000     
   9.5881543930033761E-003   8.1132604702347406E-003   0.0000000000000000     
   1.2059314556642796E-002   1.1031739221808114E-002   0.0000000000000000     
   1.4522168984858197E-002   1.4199114401885033E-002   0.0000000000000000     
   1.6976717677649581E-002   1.7615386010465490E-002   0.0000000000000000     
   1.9422960635016945E-002   2.1280554047549496E-002   0.0000000000000000     
   8.4101349283104490E-003   7.7150788303053941E-003   0.0000000000000000     
   1.0564361069169767E-002   1.0549223764458000E-002   0.0000000000000000     
   1.2725647762919175E-002   1.3654224102909496E-002   0.0000000000000000     
   1.4893995009558675E-002   1.7030079845659893E-002   0.0000000000000000     
   1.7069402809088266E-002   2.0676790992709186E-002   0.0000000000000000     
   7.3175195323803080E-003   7.4171550334429306E-003   0.0000000000000000     
   9.1975562201082744E-003   1.0184844167418347E-002   0.0000000000000000     
   1.1085353276695688E-002   1.3234503470589045E-002   0.0000000000000000     
   1.2980910702142554E-002   1.6566132942955024E-002   0.0000000000000000     
   1.4884228496448867E-002   2.0179732584516281E-002   0.0000000000000000     
   2.4635226826742133E-002   2.2808194097172357E-002   0.0000000000000000     
   2.7539974450977323E-002   2.6664021686635689E-002   0.0000000000000000     
   3.0368957590996611E-002   3.0742822669222777E-002   0.0000000000000000     
   3.3122176246800000E-002   3.5044597044933623E-002   0.0000000000000000     
   3.5799630418387483E-002   3.9569344813768226E-002   0.0000000000000000     
   2.1944901974234904E-002   2.1991021749037221E-002   0.0000000000000000     
   2.4605510062243711E-002   2.5875706618549925E-002   0.0000000000000000     
   2.7194026286713763E-002   2.9975727361947997E-002   0.0000000000000000     
   2.9710450647645048E-002   3.4291083979231439E-002   0.0000000000000000     
   3.2154783145037572E-002   3.8821776470400263E-002   0.0000000000000000     
   1.9422960635016945E-002   2.1280554047549496E-002   0.0000000000000000     
   2.1832299788602690E-002   2.5176704522983085E-002   0.0000000000000000     
   2.4176137070049186E-002   2.9285923446612277E-002   0.0000000000000000     
   2.6454472479356464E-002   3.3608210818437095E-002   0.0000000000000000     
   2.8667306016524490E-002   3.8143566638457527E-002   0.0000000000000000     
   1.7069402809088266E-002   2.0676790992709186E-002   0.0000000000000000     
   1.9220343630054249E-002   2.4567015399935166E-002   0.0000000000000000     
   2.1315289941002905E-002   2.8673410923215632E-002   0.0000000000000000     
   2.3354241741934238E-002   3.2995977562550592E-002   0.0000000000000000     
   2.5337199032848239E-002   3.7534715317940011E-002   0.0000000000000000     
   1.4884228496448867E-002   2.0179732584516281E-002   0.0000000000000000     
   1.6769641586598393E-002   2.4046639249406174E-002   0.0000000000000000     
   1.8611484899574895E-002   2.8138189791758052E-002   0.0000000000000000     
   2.0409758435378379E-002   3.2454384211571909E-002   0.0000000000000000     
   2.2164462194008833E-002   3.6995222508847743E-002   0.0000000000000000     
   3.5799630418387483E-002   3.9569344813768226E-002   0.0000000000000000     
   3.8406395612835695E-002   4.4313023334000064E-002   0.0000000000000000     
   4.0947547337221266E-002   4.9271589963902615E-002   0.0000000000000000     
   4.3423085591544210E-002   5.4445044703475859E-002   0.0000000000000000     
   4.5833010375804492E-002   5.9833387552719816E-002   0.0000000000000000     
   3.2154783145037572E-002   3.8821776470400263E-002   0.0000000000000000     
   3.4533339075029541E-002   4.3567806347968890E-002   0.0000000000000000     
   3.6852433733759168E-002   4.8529175124451776E-002   0.0000000000000000     
   3.9112067121226446E-002   5.3705882799848920E-002   0.0000000000000000     
   4.1312239237431381E-002   5.9097929374160307E-002   0.0000000000000000     
   2.8667306016524490E-002   3.8143566638457527E-002   0.0000000000000000     
   3.0820546856352677E-002   4.2892689620398348E-002   0.0000000000000000     
   3.2920104173640406E-002   4.7856278477984349E-002   0.0000000000000000     
   3.4965977968387671E-002   5.3034333211215534E-002   0.0000000000000000     
   3.6958168240594481E-002   5.8426853820091898E-002   0.0000000000000000     
   2.5337199032848239E-002   3.7534715317940011E-002   0.0000000000000000     
   2.7268018956805095E-002   4.2287673151288424E-002   0.0000000000000000     
   2.9150558656864979E-002   4.7252900024500333E-002   0.0000000000000000     
   3.0984818133027874E-002   5.2430395937575702E-002   0.0000000000000000     
   3.2770797385293787E-002   5.7820160890514553E-002   0.0000000000000000     
   2.2164462194008833E-002   3.6995222508847743E-002   0.0000000000000000     
   2.3875755376386823E-002   4.1752756940639145E-002   0.0000000000000000     
   2.5543797183432897E-002   4.6719039763999708E-002   0.0000000000000000     
   2.7168587615147063E-002   5.1894070978929417E-002   0.0000000000000000     
   2.8750126671529319E-002   5.7277850585428287E-002   0.0000000000000000     
   4.5833010375804492E-002   5.9833387552719816E-002   0.0000000000000000     
   4.8169537649297260E-002   6.5419056225158354E-002   0.0000000000000000     
   5.0424883371317612E-002   7.1184488434315366E-002   0.0000000000000000     
   5.2599047541865555E-002   7.7129684180190825E-002   0.0000000000000000     
   5.4692030160941096E-002   8.3254643462784758E-002   0.0000000000000000     
   4.1312239237431381E-002   5.9097929374160307E-002   0.0000000000000000     
   4.3445853270709760E-002   6.4688401700472201E-002   0.0000000000000000     
   4.5505812409397370E-002   7.0460386631870792E-002   0.0000000000000000     
   4.7492116653494204E-002   7.6413884168356094E-002   0.0000000000000000     
   4.9404766003000283E-002   8.2548894309928136E-002   0.0000000000000000     
   3.6958168240594481E-002   5.8426853820091898E-002   0.0000000000000000     
   3.8890432469855581E-002   6.4018262616597765E-002   0.0000000000000000     
   4.0756528135765697E-002   6.9792981912717489E-002   0.0000000000000000     
   4.2556455238324853E-002   7.5751011708451055E-002   0.0000000000000000     
   4.4290213777533047E-002   8.1892352003798505E-002   0.0000000000000000     
   3.2770797385293787E-002   5.7820160890514553E-002   0.0000000000000000     
   3.4503275246734716E-002   6.3408638973535075E-002   0.0000000000000000     
   3.6177030550422623E-002   6.9182274276855457E-002   0.0000000000000000     
   3.7792063296357516E-002   7.5141066800475734E-002   0.0000000000000000     
   3.9348373484539387E-002   8.1285016544395863E-002   0.0000000000000000     
   2.8750126671529319E-002   5.7277850585428287E-002   0.0000000000000000     
   3.0284381601347166E-002   6.2859530771284117E-002   0.0000000000000000     
   3.1767319653368112E-002   6.8628263724284724E-002   0.0000000000000000     
   3.3198940827592158E-002   7.4584049444430076E-002   0.0000000000000000     
   3.4579245124019303E-002   8.0726887931720212E-002   0.0000000000000000     
   5.4692030160941096E-002   8.3254643462784758E-002   0.0000000000000000     
   5.6705065305003417E-002   8.9556899796939787E-002   0.0000000000000000     
   5.8639387050511707E-002   9.6033986697498575E-002   0.0000000000000000     
   6.0494995397465973E-002  0.10268590416446115        0.0000000000000000     
   6.2271890345866207E-002  0.10951265219782746        0.0000000000000000     
   4.9404766003000283E-002   8.2548894309928136E-002   0.0000000000000000     
   5.1244408502299624E-002   8.8860309846100022E-002   0.0000000000000000     
   5.3011692195776290E-002   9.5343023566384924E-002   0.0000000000000000     
   5.4706617083430255E-002  0.10199703547078283        0.0000000000000000     
   5.6329183165261545E-002  0.10882234555929374        0.0000000000000000     
   4.4290213777533047E-002   8.1892352003798505E-002   0.0000000000000000     
   4.5957962640186006E-002   8.8209243945627153E-002   0.0000000000000000     
   4.7559860713079521E-002   9.4693928680804382E-002   0.0000000000000000     
   4.9095907996213564E-002  0.10134640620933022        0.0000000000000000     
   5.0566104489588141E-002  0.10816667653120458        0.0000000000000000     
   3.9348373484539387E-002   8.1285016544395863E-002   0.0000000000000000     
   4.0845727718662565E-002   8.7603702095521166E-002   0.0000000000000000     
   4.2283892602421394E-002   9.4086702040756975E-002   0.0000000000000000     
   4.3662868135815866E-002  0.10073401638010328        0.0000000000000000     
   4.4982654318845967E-002  0.10754564511356007        0.0000000000000000     
   3.4579245124019303E-002   8.0726887931720212E-002   0.0000000000000000     
   3.5907703737729307E-002   8.7043684295782089E-002   0.0000000000000000     
   3.7183787863801936E-002   9.3521343646242705E-002   0.0000000000000000     
   3.8407497502237181E-002  0.10015986598310206        0.0000000000000000     
   3.9578832653035044E-002  0.10695925130636014        0.0000000000000000     
   6.2271890345866207E-002  0.10951265219782746        0.0000000000000000     
   6.3976676588234471E-002  0.11651858807189472        0.0000000000000000     
   6.5615958817092784E-002  0.12370806906095999        0.0000000000000000     
   6.7189737032441174E-002  0.13108109516502334        0.0000000000000000     
   6.8698011234279613E-002  0.13863766638408470        0.0000000000000000     
   5.6329183165261545E-002  0.10882234555929374        0.0000000000000000     
   5.7885590871853632E-002  0.11581931856024132        0.0000000000000000     
   5.9382040633789962E-002  0.12298831920194926        0.0000000000000000     
   6.0818532451070544E-002  0.13032934748441760        0.0000000000000000     
   6.2195066323695383E-002  0.13784240340764628        0.0000000000000000     
   5.0566104489588141E-002  0.10816667653120458        0.0000000000000000     
   5.1976424115699513E-002  0.11515136528315922        0.0000000000000000     
   5.3332840797044000E-002  0.12229709810192578        0.0000000000000000     
   5.4635354533621533E-002  0.12960387498750420        0.0000000000000000     
   5.5883965325432175E-002  0.13707169593989457        0.0000000000000000     
   4.4982654318845967E-002  0.10754564511356007        0.0000000000000000     
   4.6249176319772163E-002  0.11451472824064843        0.0000000000000000     
   4.7468359306854904E-002  0.12163440576088946        0.0000000000000000     
   4.8640203280094177E-002  0.12890467767428315        0.0000000000000000     
   4.9764708239489988E-002  0.13632554398082952        0.0000000000000000     
   3.9578832653035044E-002  0.10695925130636014        0.0000000000000000     
   4.0703847484071541E-002  0.11390940743270893        0.0000000000000000     
   4.1788596163222676E-002  0.12100024217884035        0.0000000000000000     
   4.2833078690488434E-002  0.12823175554475444        0.0000000000000000     
   4.3837295065868837E-002  0.13560394753045119        0.0000000000000000     
   6.8698011234279613E-002  0.13863766638408470        0.0000000000000000     
   7.0131311369528729E-002  0.14636227236176866        0.0000000000000000     
   7.1480167385109081E-002  0.15423940274169978        0.0000000000000000     
   7.2744579281020696E-002  0.16226905752387799        0.0000000000000000     
   7.3924547057263576E-002  0.17045123670830334        0.0000000000000000     
   6.2195066323695383E-002  0.13784240340764628        0.0000000000000000     
   6.3503105082790168E-002  0.14550287183592170        0.0000000000000000     
   6.4734111559480556E-002  0.15328613763353022        0.0000000000000000     
   6.5888085753766576E-002  0.16119220080047181        0.0000000000000000     
   6.6965027665648227E-002  0.16922106133674655        0.0000000000000000     
   5.5883965325432175E-002  0.13707169593989457        0.0000000000000000     
   5.7071344186002432E-002  0.14466799341399000        0.0000000000000000     
   5.8190162128858872E-002  0.15236019986468385        0.0000000000000000     
   5.9240419154001488E-002  0.16014831529197604        0.0000000000000000     
   6.0222115261430287E-002  0.16803233969586653        0.0000000000000000     
   4.9764708239489988E-002  0.13632554398082952        0.0000000000000000     
   5.0836028679165542E-002  0.14385763709597371        0.0000000000000000     
   5.1848319093244007E-002  0.15146158943516069        0.0000000000000000     
   5.2801579481725411E-002  0.15913740099839058        0.0000000000000000     
   5.3695809844609747E-002  0.16688507178566334        0.0000000000000000     
   4.3837295065868837E-002  0.13560394753045119        0.0000000000000000     
   4.4797158562279484E-002  0.14307180288187260        0.0000000000000000     
   4.5708582452635996E-002  0.15059030634496068        0.0000000000000000     
   4.6571566736938366E-002  0.15815945791971545        0.0000000000000000     
   4.7386111415186602E-002  0.16577925760613693        0.0000000000000000     
   0.0000000000000000        0.0000000000000000        0.0000000000000000     
   1.7942974179427028E-003   1.2749772900979505E-003   0.0000000000000000     
   3.6119831459869882E-003   2.9361622257044221E-003   0.0000000000000000     
   5.4530571841328564E-003   4.9835548068194154E-003   0.0000000000000000     
   7.3175195323803080E-003   7.4171550334429306E-003   0.0000000000000000     
   0.0000000000000000        0.0000000000000000        0.0000000000000000     
   1.5303223999958088E-003   1.2176791160682008E-003   0.0000000000000000     
   3.0885403399205677E-003   2.8216438229826100E-003   0.0000000000000000     
   4.6746538197742771E-003   4.8118941207432268E-003   0.0000000000000000     
   6.2886628395569357E-003   7.1884300093500502E-003   0.0000000000000000     
   0.0000000000000000        0.0000000000000000        0.0000000000000000     
   1.2828208502020844E-003   1.1720604279735712E-003   0.0000000000000000     
   2.5940810476334985E-003   2.7290546852530035E-003   0.0000000000000000     
   3.9337805922942427E-003   4.6709827718382961E-003   0.0000000000000000     
   5.3019194841843172E-003   6.9978446877294520E-003   0.0000000000000000     
   0.0000000000000000        0.0000000000000000        0.0000000000000000     
   1.0517927685615295E-003   1.1381212258140614E-003   0.0000000000000000     
   2.1286052691257802E-003   2.6583948125156044E-003   0.0000000000000000     
   3.2304375016927538E-003   4.5608207601046278E-003   0.0000000000000000     
   4.3572894662624474E-003   6.8453990685811332E-003   0.0000000000000000     
   0.0000000000000000        0.0000000000000000        0.0000000000000000     
   8.3723815507414430E-004   1.1158615095896718E-003   0.0000000000000000     
   1.6921130043974142E-003   2.6096642047704123E-003   0.0000000000000000     
   2.5646245479698099E-003   4.4814080855422210E-003   0.0000000000000000     
   3.4547727857913309E-003   6.7310931519050975E-003   0.0000000000000000     
   7.3175195323803080E-003   7.4171550334429306E-003   0.0000000000000000     
   9.1975562201082744E-003   1.0184844167418347E-002   0.0000000000000000     
   1.1085353276695688E-002   1.3234503470589045E-002   0.0000000000000000     
   1.2980910702142554E-002   1.6566132942955024E-002   0.0000000000000000     
   1.4884228496448867E-002   2.0179732584516281E-002   0.0000000000000000     
   6.2886628395569357E-003   7.1884300093500502E-003   0.0000000000000000     
   7.9178029633371443E-003   9.9019085421193139E-003   0.0000000000000000     
   9.5493097551834997E-003   1.2902986772367253E-002   0.0000000000000000     
   1.1183183215096003E-002   1.6191664700093866E-002   0.0000000000000000     
   1.2819423343074652E-002   1.9767942325299156E-002   0.0000000000000000     
   5.3019194841843172E-003   6.9978446877294520E-003   0.0000000000000000     
   6.6840042527351960E-003   9.6637249999910572E-003   0.0000000000000000     
   8.0655414273783609E-003   1.2622708275687714E-002   0.0000000000000000     
   9.4465310081138058E-003   1.5874794514819414E-002   0.0000000000000000     
   1.0826972994941536E-002   1.9419983717386163E-002   0.0000000000000000     
   4.3572894662624474E-003   6.8453990685811332E-003   0.0000000000000000     
   5.4961600883024321E-003   9.4702935410335785E-003   0.0000000000000000     
   6.6340482932802690E-003   1.2393667980550421E-002   0.0000000000000000     
   7.7709540811959632E-003   1.5615522387131663E-002   0.0000000000000000     
   8.9068774520495112E-003   1.9135856760777302E-002   0.0000000000000000     
   3.4547727857913309E-003   6.7310931519050975E-003   0.0000000000000000     
   4.3542704700388467E-003   9.3216141652468724E-003   0.0000000000000000     
   5.2548303528892285E-003   1.2215865886955378E-002   0.0000000000000000     
   6.1564524343424749E-003   1.5413848317030613E-002   0.0000000000000000     
   7.0591367143985851E-003   1.8915561455472577E-002   0.0000000000000000     
   1.4884228496448867E-002   2.0179732584516281E-002   0.0000000000000000     
   1.6769641586598393E-002   2.4046639249406174E-002   0.0000000000000000     
   1.8611484899574895E-002   2.8138189791758052E-002   0.0000000000000000     
   2.0409758435378379E-002   3.2454384211571909E-002   0.0000000000000000     
   2.2164462194008833E-002   3.6995222508847743E-002   0.0000000000000000     
   1.2819423343074652E-002   1.9767942325299156E-002   0.0000000000000000     
   1.4441232440559459E-002   2.3605297137864006E-002   0.0000000000000000     
   1.6031812808990433E-002   2.7677206627669305E-002   0.0000000000000000     
   1.7591164448367568E-002   3.1983670794715043E-002   0.0000000000000000     
   1.9119287358690874E-002   3.6524689639001233E-002   0.0000000000000000     
   1.0826972994941536E-002   1.9419983717386163E-002   0.0000000000000000     
   1.2196154974261776E-002   2.3232710131776545E-002   0.0000000000000000     
   1.3543364532474763E-002   2.7287408006379153E-002   0.0000000000000000     
   1.4868601669580494E-002   3.1584077341193978E-002   0.0000000000000000     
   1.6171866385578972E-002   3.6122718136221039E-002   0.0000000000000000     
   8.9068774520495112E-003   1.9135856760777302E-002   0.0000000000000000     
   1.0034409187705345E-002   2.2928878231143795E-002   0.0000000000000000     
   1.1146140070027894E-002   2.6968793927887598E-002   0.0000000000000000     
   1.2242070099017153E-002   3.1255603851008722E-002   0.0000000000000000     
   1.3322199274673128E-002   3.5789308000507149E-002   0.0000000000000000     
   7.0591367143985851E-003   1.8915561455472577E-002   0.0000000000000000     
   7.9559950808901665E-003   2.2693801435965756E-002   0.0000000000000000     
   8.8401394216498196E-003   2.6721364392194649E-002   0.0000000000000000     
   9.7115697366775451E-003   3.0998250324159256E-002   0.0000000000000000     
   1.0570286025973345E-002   3.5524459231859568E-002   0.0000000000000000     
   2.2164462194008833E-002   3.6995222508847743E-002   0.0000000000000000     
   2.3875755376386823E-002   4.1752756940639145E-002   0.0000000000000000     
   2.5543797183432897E-002   4.6719039763999708E-002   0.0000000000000000     
   2.7168587615147063E-002   5.1894070978929417E-002   0.0000000000000000     
   2.8750126671529319E-002   5.7277850585428287E-002   0.0000000000000000     
   1.9119287358690874E-002   3.6524689639001233E-002   0.0000000000000000     
   2.0612702209904212E-002   4.1285562318310445E-002   0.0000000000000000     
   2.2067929671951474E-002   4.6251587990425259E-002   0.0000000000000000     
   2.3484969744832652E-002   5.1422766655345648E-002   0.0000000000000000     
   2.4863822428547740E-002   5.6799098313071637E-002   0.0000000000000000     
   1.6171866385578972E-002   3.6122718136221039E-002   0.0000000000000000     
   1.7447805552163652E-002   4.0883710614162294E-002   0.0000000000000000     
   1.8691066041028007E-002   4.5847434997719712E-002   0.0000000000000000     
   1.9901647852172036E-002   5.1013891286893334E-002   0.0000000000000000     
   2.1079550985595729E-002   5.6383079481683113E-002   0.0000000000000000     
   1.3322199274673128E-002   3.5789308000507149E-002   0.0000000000000000     
   1.4381065403165135E-002   4.0547201828194684E-002   0.0000000000000000     
   1.5413206290662501E-002   4.5506580785883127E-002   0.0000000000000000     
   1.6418621937165218E-002   5.0667444873572484E-002   0.0000000000000000     
   1.7397312342673294E-002   5.6029794091262727E-002   0.0000000000000000     
   1.0570286025973345E-002   3.5524459231859568E-002   0.0000000000000000     
   1.1412481762908665E-002   4.0276035960407623E-002   0.0000000000000000     
   1.2234350420854953E-002   4.5229025354915464E-002   0.0000000000000000     
   1.3035891999812204E-002   5.0383427415383077E-002   0.0000000000000000     
   1.3817106499780425E-002   5.5739242141810467E-002   0.0000000000000000     
   2.8750126671529319E-002   5.7277850585428287E-002   0.0000000000000000     
   3.0284381601347166E-002   6.2859530771284117E-002   0.0000000000000000     
   3.1767319653368112E-002   6.8628263724284724E-002   0.0000000000000000     
   3.3198940827592158E-002   7.4584049444430076E-002   0.0000000000000000     
   3.4579245124019303E-002   8.0726887931720212E-002   0.0000000000000000     
   2.4863822428547740E-002   5.6799098313071637E-002   0.0000000000000000     
   2.6201521212532258E-002   6.2372380879801237E-002   0.0000000000000000     
   2.7495099586221705E-002   6.8134412271732420E-002   0.0000000000000000     
   2.8744557549616096E-002   7.4085192488865234E-002   0.0000000000000000     
   2.9949895102715424E-002   8.0224721531199625E-002   0.0000000000000000     
   2.1079550985595729E-002   5.6383079481683113E-002   0.0000000000000000     
   2.2222463759129292E-002   6.1948632169042721E-002   0.0000000000000000     
   2.3328074490602927E-002   6.7704181935925770E-002   0.0000000000000000     
   2.4396383180016613E-002   7.3649728782332280E-002   0.0000000000000000     
   2.5427389827370368E-002   7.9785272708262231E-002   0.0000000000000000     
   1.7397312342673294E-002   5.6029794091262727E-002   0.0000000000000000     
   1.8347209241138286E-002   6.1588284639008596E-002   0.0000000000000000     
   1.9266244366511753E-002   6.7337572716864774E-002   0.0000000000000000     
   2.0154417718793706E-002   7.3277658324831241E-002   0.0000000000000000     
   2.1011729297984144E-002   7.9408541462908017E-002   0.0000000000000000     
   1.3817106499780425E-002   5.5739242141810467E-002   0.0000000000000000     
   1.4575757658559224E-002   6.1291338289698835E-002   0.0000000000000000     
   1.5309609213948206E-002   6.7034584614549392E-002   0.0000000000000000     
   1.6018661165947377E-002   7.2968981116362103E-002   0.0000000000000000     
   1.6702913514556734E-002   7.9094527795136968E-002   0.0000000000000000     
   3.4579245124019303E-002   8.0726887931720212E-002   0.0000000000000000     
   3.5907703737729307E-002   8.7043684295782089E-002   0.0000000000000000     
   3.7183787863801936E-002   9.3521343646242705E-002   0.0000000000000000     
   3.8407497502237181E-002  0.10015986598310206        0.0000000000000000     
   3.9578832653035044E-002  0.10695925130636014        0.0000000000000000     
   2.9949895102715424E-002   8.0224721531199625E-002   0.0000000000000000     
   3.1110419831369564E-002   8.6537436834926817E-002   0.0000000000000000     
   3.2225439321428406E-002   9.3007775836237955E-002   0.0000000000000000     
   3.3294953572891958E-002   9.9635738535133064E-002   0.0000000000000000     
   3.4318962585760206E-002  0.10642132493161213        0.0000000000000000     
   2.5427389827370368E-002   7.9785272708262231E-002   0.0000000000000000     
   2.6420405133566700E-002   8.6093206001472314E-002   0.0000000000000000     
   2.7374739799508132E-002   9.2555920949719206E-002   0.0000000000000000     
   2.8290393825194663E-002   9.9173417553002852E-002   0.0000000000000000     
   2.9167367210626280E-002  0.10594569581132335        0.0000000000000000     
   2.1011729297984144E-002   7.9408541462908017E-002   0.0000000000000000     
   2.1837659644320714E-002   8.5710991795418578E-002   0.0000000000000000     
   2.2631689298041092E-002   9.2165778986686403E-002   0.0000000000000000     
   2.3393818259145282E-002   9.8772903036711490E-002   0.0000000000000000     
   2.4124046527633274E-002  0.10553236394549383        0.0000000000000000     
   1.6702913514556734E-002   7.9094527795136968E-002   0.0000000000000000     
   1.7362183363631600E-002   8.5390794216765598E-002   0.0000000000000000     
   1.7996287817027296E-002   9.1837349947139574E-002   0.0000000000000000     
   1.8605226874743822E-002   9.8434194986258869E-002   0.0000000000000000     
   1.9189000536781180E-002  0.10518132933412352        0.0000000000000000     
   3.9578832653035044E-002  0.10695925130636014        0.0000000000000000     
   4.0703847484071541E-002  0.11390940743270893        0.0000000000000000     
   4.1788596163222676E-002  0.12100024217884035        0.0000000000000000     
   4.2833078690488434E-002  0.12823175554475444        0.0000000000000000     
   4.3837295065868837E-002  0.13560394753045119        0.0000000000000000     
   3.4318962585760206E-002  0.10642132493161213        0.0000000000000000     
   3.5303552488161444E-002  0.11335147714265746        0.0000000000000000     
   3.6254809408223933E-002  0.12041313728525124        0.0000000000000000     
   3.7172733345947707E-002  0.12760630535939360        0.0000000000000000     
   3.8057324301332740E-002  0.13493098136508447        0.0000000000000000     
   2.9167367210626280E-002  0.10594569581132335        0.0000000000000000     
   3.0011406211605623E-002  0.11285701165381071        0.0000000000000000     
   3.0828257083935318E-002  0.11989162100959500        0.0000000000000000     
   3.1617919827615353E-002  0.12704952387867621        0.0000000000000000     
   3.2380394442645739E-002  0.13433072026105441        0.0000000000000000     
   2.4124046527633274E-002  0.10553236394549383        0.0000000000000000     
   2.4827408654404106E-002  0.11242601096616875        0.0000000000000000     
   2.5508939190356805E-002  0.11943569335187156        0.0000000000000000     
   2.6168638135491390E-002  0.12656141110260227        0.0000000000000000     
   2.6806505489807838E-002  0.13380316421836091        0.0000000000000000     
   1.9189000536781180E-002  0.10518132933412352        0.0000000000000000     
   1.9751559816556873E-002  0.11205847507973155        0.0000000000000000     
   2.0296855727488412E-002  0.11904535431208096        0.0000000000000000     
   2.0824888269575799E-002  0.12614196703117181        0.0000000000000000     
   2.1335657442819032E-002  0.13334831323700405        0.0000000000000000     
   4.3837295065868837E-002  0.13560394753045119        0.0000000000000000     
   4.4797158562279484E-002  0.14307180288187260        0.0000000000000000     
   4.5708582452635996E-002  0.15059030634496068        0.0000000000000000     
   4.6571566736938366E-002  0.15815945791971545        0.0000000000000000     
   4.7386111415186602E-002  0.16577925760613693        0.0000000000000000     
   3.8057324301332740E-002  0.13493098136508447        0.0000000000000000     
   3.8906132342704625E-002  0.14233754133423548        0.0000000000000000     
   3.9716707538388969E-002  0.14977636129875824        0.0000000000000000     
   4.0489049888385760E-002  0.15724744125865273        0.0000000000000000     
   4.1223159392694997E-002  0.16475078121391898        0.0000000000000000     
   3.2380394442645739E-002  0.13433072026105441        0.0000000000000000     
   3.3114348527801367E-002  0.14168190301561104        0.0000000000000000     
   3.3818449681857141E-002  0.14904976500122771        0.0000000000000000     
   3.4492697904813061E-002  0.15643430621790447        0.0000000000000000     
   3.5137093196669113E-002  0.16383552666564122        0.0000000000000000     
   2.6806505489807838E-002  0.13380316421836091        0.0000000000000000     
   2.7421807117569696E-002  0.14110488792599923        0.0000000000000000     
   2.8013808883040493E-002  0.14841051745236916        0.0000000000000000     
   2.8582510786220240E-002  0.15572005279747062        0.0000000000000000     
   2.9127912827108925E-002  0.16303349396130362        0.0000000000000000     
   2.1335657442819032E-002  0.13334831323700405        0.0000000000000000     
   2.1828508112009610E-002  0.14060649606540015        0.0000000000000000     
   2.2302785141939039E-002  0.14785861865218256        0.0000000000000000     
   2.2758488532607316E-002  0.15510468099735125        0.0000000000000000     
   2.3195618284014445E-002  0.16234468310090622        0.0000000000000000     
   0.0000000000000000        0.0000000000000000        0.0000000000000000     
   8.3723815507414430E-004   1.1158615095896718E-003   0.0000000000000000     
   1.6921130043974142E-003   2.6096642047704123E-003   0.0000000000000000     
   2.5646245479698099E-003   4.4814080855422210E-003   0.0000000000000000     
   3.4547727857913309E-003   6.7310931519050975E-003   0.0000000000000000     
   0.0000000000000000        0.0000000000000000        0.0000000000000000     
   6.3017236082391287E-004   1.1014940329899412E-003   0.0000000000000000     
   1.2698555607435630E-003   2.5766189764274525E-003   0.0000000000000000     
   1.9190495997589505E-003   4.4253748303125333E-003   0.0000000000000000     
   2.5777544778700754E-003   6.6477615946451841E-003   0.0000000000000000     
   0.0000000000000000        0.0000000000000000        0.0000000000000000     
   4.2161073689481990E-004   1.0912315497044092E-003   0.0000000000000000     
   8.4708424545939132E-004   2.5530152418967514E-003   0.0000000000000000     
   1.2764205256937146E-003   4.3853510765770260E-003   0.0000000000000000     
   1.7096195775977898E-003   6.5882390537452332E-003   0.0000000000000000     
   0.0000000000000000        0.0000000000000000        0.0000000000000000     
   2.1155328328686490E-004   1.0850740597330758E-003   0.0000000000000000     
   4.2379905854489917E-004   2.5388530011783090E-003   0.0000000000000000     
   6.3673732577410264E-004   4.3613368243356982E-003   0.0000000000000000     
   8.5036808497447570E-004   6.5525255292052456E-003   0.0000000000000000     
   0.0000000000000000        0.0000000000000000        0.0000000000000000     
   4.8165681512668534E-017   1.0830215630759409E-003   0.0000000000000000     
   8.6302492929846153E-017   2.5341322542721252E-003   0.0000000000000000     
   1.1432911908859644E-016   4.3533320735885516E-003   0.0000000000000000     
   1.3235398020616795E-016   6.5406210210252214E-003   0.0000000000000000     
   3.4547727857913309E-003   6.7310931519050975E-003   0.0000000000000000     
   4.3542704700388467E-003   9.3216141652468724E-003   0.0000000000000000     
   5.2548303528892285E-003   1.2215865886955378E-002   0.0000000000000000     
   6.1564524343424749E-003   1.5413848317030613E-002   0.0000000000000000     
   7.0591367143985851E-003   1.8915561455472577E-002   0.0000000000000000     
   2.5777544778700754E-003   6.6477615946451841E-003   0.0000000000000000     
   3.2429443067771842E-003   9.2110987478207177E-003   0.0000000000000000     
   3.9115931981805246E-003   1.2082705768234447E-002   0.0000000000000000     
   4.5837011520800976E-003   1.5262582655886373E-002   0.0000000000000000     
   5.2592681684759026E-003   1.8750729410776497E-002   0.0000000000000000     
   1.7096195775977898E-003   6.5882390537452332E-003   0.0000000000000000     
   2.1467905073501796E-003   9.1321591639448845E-003   0.0000000000000000     
   2.5880424211294465E-003   1.1987591397719495E-002   0.0000000000000000     
   3.0333753189355898E-003   1.5154535755069061E-002   0.0000000000000000     
   3.4827892007686110E-003   1.8632992235993583E-002   0.0000000000000000     
   8.5036808497447570E-004   6.5525255292052456E-003   0.0000000000000000     
   1.0658090717578336E-003   9.0847954136193780E-003   0.0000000000000000     
   1.2841780217359919E-003   1.1930522775410519E-002   0.0000000000000000     
   1.5054749349089503E-003   1.5089707614578670E-002   0.0000000000000000     
   1.7296998112767093E-003   1.8562349931123830E-002   0.0000000000000000     
   1.3235398020616795E-016   6.5406210210252214E-003   0.0000000000000000     
   1.4634018823123096E-016   9.0690074968441930E-003   0.0000000000000000     
   1.6191881819713205E-016   1.1911499901307519E-002   0.0000000000000000     
   1.7974547360504606E-016   1.5068098234415201E-002   0.0000000000000000     
   1.9916793908558716E-016   1.8538802496167239E-002   0.0000000000000000     
   7.0591367143985851E-003   1.8915561455472577E-002   0.0000000000000000     
   7.9559950808901665E-003   2.2693801435965756E-002   0.0000000000000000     
   8.8401394216498196E-003   2.6721364392194649E-002   0.0000000000000000     
   9.7115697366775451E-003   3.0998250324159256E-002   0.0000000000000000     
   1.0570286025973345E-002   3.5524459231859568E-002   0.0000000000000000     
   5.2592681684759026E-003   1.8750729410776497E-002   0.0000000000000000     
   5.9311841881261292E-003   2.2518189598821410E-002   0.0000000000000000     
   6.5923391517889642E-003   2.6536006785937708E-002   0.0000000000000000     
   7.2427330594644129E-003   3.0804180972125384E-002   0.0000000000000000     
   7.8823659111524700E-003   3.5322712157384445E-002   0.0000000000000000     
   3.4827892007686110E-003   1.8632992235993583E-002   0.0000000000000000     
   3.9302480437231266E-003   2.2392752572289731E-002   0.0000000000000000     
   4.3697158248937537E-003   2.6403608495754172E-002   0.0000000000000000     
   4.8011925442804949E-003   3.0665560006386903E-002   0.0000000000000000     
   5.2246782018833477E-003   3.5178607104187930E-002   0.0000000000000000     
   1.7296998112767093E-003   1.8562349931123830E-002   0.0000000000000000     
   1.9531866476811583E-003   2.2317490356370713E-002   0.0000000000000000     
   2.1722694409641858E-003   2.6324169521644045E-002   0.0000000000000000     
   2.3869481911257934E-003   3.0582387426943813E-002   0.0000000000000000     
   2.5972228981659792E-003   3.5092144072270022E-002   0.0000000000000000     
   1.9916793908558716E-016   1.8538802496167239E-002   0.0000000000000000     
   2.2480932046486934E-016   2.2292402951064366E-002   0.0000000000000000     
   2.6126561851469443E-016   2.6297689863607331E-002   0.0000000000000000     
   3.0725611941881392E-016   3.0554663233796114E-002   0.0000000000000000     
   3.6429192995512949E-016   3.5063323061630729E-002   0.0000000000000000     
   1.0570286025973345E-002   3.5524459231859568E-002   0.0000000000000000     
   1.1412481762908665E-002   4.0276035960407623E-002   0.0000000000000000     
   1.2234350420854953E-002   4.5229025354915464E-002   0.0000000000000000     
   1.3035891999812204E-002   5.0383427415383077E-002   0.0000000000000000     
   1.3817106499780425E-002   5.5739242141810467E-002   0.0000000000000000     
   7.8823659111524700E-003   3.5322712157384445E-002   0.0000000000000000     
   8.5095726133128137E-003   4.0067353352797944E-002   0.0000000000000000     
   9.1226880724051204E-003   4.5013857569448909E-002   0.0000000000000000     
   9.7217122884293867E-003   5.0162224807337376E-002   0.0000000000000000     
   1.0306645261385618E-002   5.5512455066463309E-002   0.0000000000000000     
   5.2246782018833477E-003   3.5178607104187930E-002   0.0000000000000000     
   5.6398559362961561E-003   3.9918294347362451E-002   0.0000000000000000     
   6.0464088861127592E-003   4.4860166294115676E-002   0.0000000000000000     
   6.4443370513331596E-003   5.0004222944447597E-002   0.0000000000000000     
   6.8336404319573555E-003   5.5350464298358215E-002   0.0000000000000000     
   2.5972228981659792E-003   3.5092144072270022E-002   0.0000000000000000     
   2.8033317318586900E-003   3.9828858944101167E-002   0.0000000000000000     
   3.0055128619778703E-003   4.4767951528915752E-002   0.0000000000000000     
   3.2037662885235204E-003   4.9909421826713748E-002   0.0000000000000000     
   3.3980920114956392E-003   5.5253269837495192E-002   0.0000000000000000     
   3.6429192995512949E-016   3.5063323061630729E-002   0.0000000000000000     
   4.1774309705866486E-016   3.9799047143014091E-002   0.0000000000000000     
   4.5194967560058252E-016   4.4737213273849129E-002   0.0000000000000000     
   4.6882257190988819E-016   4.9877821454135843E-002   0.0000000000000000     
   4.6815849807924081E-016   5.5220871683874219E-002   0.0000000000000000     
   1.3817106499780425E-002   5.5739242141810467E-002   0.0000000000000000     
   1.4575757658559224E-002   6.1291338289698835E-002   0.0000000000000000     
   1.5309609213948206E-002   6.7034584614549392E-002   0.0000000000000000     
   1.6018661165947377E-002   7.2968981116362103E-002   0.0000000000000000     
   1.6702913514556734E-002   7.9094527795136968E-002   0.0000000000000000     
   1.0306645261385618E-002   5.5512455066463309E-002   0.0000000000000000     
   1.0875110218744485E-002   6.1059248250619744E-002   0.0000000000000000     
   1.1424730387976669E-002   6.6797304263599672E-002   0.0000000000000000     
   1.1955505769082166E-002   7.2726623105403065E-002   0.0000000000000000     
   1.2467436362060977E-002   7.8847204776029967E-002   0.0000000000000000     
   6.8336404319573555E-003   5.5350464298358215E-002   0.0000000000000000     
   7.2122681290464462E-003   6.0893469651277565E-002   0.0000000000000000     
   7.5781692436615302E-003   6.6627818298635594E-002   0.0000000000000000     
   7.9313437758026118E-003   7.2553510240432370E-002   0.0000000000000000     
   8.2717917254696814E-003   7.8670545476667866E-002   0.0000000000000000     
   3.3980920114956392E-003   5.5253269837495192E-002   0.0000000000000000     
   3.5872313894651053E-003   6.0794002491672272E-002   0.0000000000000000     
   3.7699257810027962E-003   6.6526126719657214E-002   0.0000000000000000     
   3.9461751861087123E-003   7.2449642521450003E-002   0.0000000000000000     
   4.1159796047828528E-003   7.8564549897050653E-002   0.0000000000000000     
   4.6815849807924081E-016   5.5220871683874219E-002   0.0000000000000000     
   4.6219538613057054E-016   6.0760846771803892E-002   0.0000000000000000     
   4.6290011754268612E-016   6.6492229526664476E-002   0.0000000000000000     
   4.7275280478514814E-016   7.2415019948455950E-002   0.0000000000000000     
   4.8919202022545960E-016   7.8529218037178328E-002   0.0000000000000000     
   1.6702913514556734E-002   7.9094527795136968E-002   0.0000000000000000     
   1.7362183363631600E-002   8.5390794216765598E-002   0.0000000000000000     
   1.7996287817027296E-002   9.1837349947139574E-002   0.0000000000000000     
   1.8605226874743822E-002   9.8434194986258869E-002   0.0000000000000000     
   1.9189000536781180E-002  0.10518132933412352        0.0000000000000000     
   1.2467436362060977E-002   7.8847204776029967E-002   0.0000000000000000     
   1.2960665646096650E-002   8.5137753609932101E-002   0.0000000000000000     
   1.3435337100372740E-002   9.1576973941561224E-002   0.0000000000000000     
   1.3891450724889244E-002   9.8164865770917348E-002   0.0000000000000000     
   1.4329006519646159E-002  0.10490142909800043        0.0000000000000000     
   8.2717917254696814E-003   7.8670545476667866E-002   0.0000000000000000     
   8.5997958463131536E-003   8.4957010319336793E-002   0.0000000000000000     
   8.9156388919834229E-003   9.1390991080433887E-002   0.0000000000000000     
   9.2193208624804963E-003   9.7972487759959162E-002   0.0000000000000000     
   9.5108417578043704E-003  0.10470150035791262        0.0000000000000000     
   4.1159796047828528E-003   7.8564549897050653E-002   0.0000000000000000     
   4.2795739642811029E-003   8.4848564344979657E-002   0.0000000000000000     
   4.4371931918593451E-003   9.1279401363757576E-002   0.0000000000000000     
   4.5888372875175819E-003   9.7857060953384353E-002   0.0000000000000000     
   4.7345062512558116E-003  0.10458154311386003        0.0000000000000000     
   4.8919202022545960E-016   7.8529218037178328E-002   0.0000000000000000     
   5.0502137194374797E-016   8.4812415686860723E-002   0.0000000000000000     
   5.0849081889570158E-016   9.1242204791532264E-002   0.0000000000000000     
   5.0203981596941283E-016   9.7818585351192908E-002   0.0000000000000000     
   4.8312048805954078E-016  0.10454155736584270        0.0000000000000000     
   1.9189000536781180E-002  0.10518132933412352        0.0000000000000000     
   1.9751559816556873E-002  0.11205847507973155        0.0000000000000000     
   2.0296855727488412E-002  0.11904535431208096        0.0000000000000000     
   2.0824888269575799E-002  0.12614196703117181        0.0000000000000000     
   2.1335657442819032E-002  0.13334831323700405        0.0000000000000000     
   1.4329006519646159E-002  0.10490142909800043        0.0000000000000000     
   1.4750756469394534E-002  0.11176464702962607        0.0000000000000000     
   1.5159452558885411E-002  0.11873250267260986        0.0000000000000000     
   1.5555094788118787E-002  0.12580499602695167        0.0000000000000000     
   1.5937683157094665E-002  0.13298212709265164        0.0000000000000000     
   9.5108417578043704E-003  0.10470150035791262        0.0000000000000000     
   9.7918953842476841E-003  0.11155476985097945        0.0000000000000000     
   1.0064175548103073E-002  0.11850903721584485        0.0000000000000000     
   1.0327682249370538E-002  0.12556430245250888        0.0000000000000000     
   1.0582415488050079E-002  0.13272056556097145        0.0000000000000000     
   4.7345062512558116E-003  0.10458154311386003        0.0000000000000000     
   4.8749765611163232E-003  0.11142884354379158        0.0000000000000000     
   5.0110246951414038E-003  0.11837495794178604        0.0000000000000000     
   5.1426506533310545E-003  0.12541988630784334        0.0000000000000000     
   5.2698544356852752E-003  0.13256362864196358        0.0000000000000000     
   4.8312048805954078E-016  0.10454155736584270        0.0000000000000000     
   4.5124494418846695E-016  0.11138686810806252        0.0000000000000000     
   4.0180532512312794E-016  0.11833026485043335        0.0000000000000000     
   3.3637372401362775E-016  0.12537174759295516        0.0000000000000000     
   2.5413698923060224E-016  0.13251131633562799        0.0000000000000000     
   2.1335657442819032E-002  0.13334831323700405        0.0000000000000000     
   2.1828508112009610E-002  0.14060649606540015        0.0000000000000000     
   2.2302785141939039E-002  0.14785861865218256        0.0000000000000000     
   2.2758488532607316E-002  0.15510468099735125        0.0000000000000000     
   2.3195618284014445E-002  0.16234468310090622        0.0000000000000000     
   1.5937683157094665E-002  0.13298212709265164        0.0000000000000000     
   1.6306468002590797E-002  0.14020480085006903        0.0000000000000000     
   1.6660699661384951E-002  0.14741392227956332        0.0000000000000000     
   1.7000378133477122E-002  0.15460949138113442        0.0000000000000000     
   1.7325503418867301E-002  0.16179150815478241        0.0000000000000000     
   1.0582415488050079E-002  0.13272056556097145        0.0000000000000000     
   1.0827703280782953E-002  0.13991787569626127        0.0000000000000000     
   1.1062873644210418E-002  0.14709628201340694        0.0000000000000000     
   1.1287926578332481E-002  0.15425578451240834        0.0000000000000000     
   1.1502862083149133E-002  0.16139638319326566        0.0000000000000000     
   5.2698544356852752E-003  0.13256362864196358        0.0000000000000000     
   5.3922139465860707E-003  0.13974572060397683        0.0000000000000000     
   5.5093070904154466E-003  0.14690569785371335        0.0000000000000000     
   5.6211338671734029E-003  0.15404356039117303        0.0000000000000000     
   5.7276942768599397E-003  0.16115930821635596        0.0000000000000000     
   2.5413698923060224E-016  0.13251131633562799        0.0000000000000000     
   1.5265566588595902E-016  0.13968833557321578        0.0000000000000000     
   2.9923979960599922E-017  0.14684216980048262        0.0000000000000000     
  -1.1243176528674681E-016  0.15397281901742846        0.0000000000000000     
  -2.7668839441830073E-016  0.16108028322405329        0.0000000000000000     
   0.0000000000000000        0.0000000000000000        0.0000000000000000     
   4.8165681512668534E-017   1.0830215630759409E-003   0.0000000000000000     
   8.6302492929846153E-017   2.5341322542721252E-003   0.0000000000000000     
   1.1432911908859644E-016   4.3533320735885516E-003   0.0000000000000000     
   1.3235398020616795E-016   6.5406210210252214E-003   0.0000000000000000     
   0.0000000000000000        0.0000000000000000        0.0000000000000000     
  -2.1155328328677209E-004   1.0850740597330166E-003   0.0000000000000000     
  -4.2379905854473296E-004   2.5388530011782179E-003   0.0000000000000000     
  -6.3673732577388276E-004   4.3613368243356028E-003   0.0000000000000000     
  -8.5036808497422091E-004   6.5525255292051719E-003   0.0000000000000000     
   0.0000000000000000        0.0000000000000000        0.0000000000000000     
  -4.2161073689473756E-004   1.0912315497043142E-003   0.0000000000000000     
  -8.4708424545924430E-004   2.5530152418966035E-003   0.0000000000000000     
  -1.2764205256935201E-003   4.3853510765768681E-003   0.0000000000000000     
  -1.7096195775975652E-003   6.5882390537451091E-003   0.0000000000000000     
   0.0000000000000000        0.0000000000000000        0.0000000000000000     
  -6.3017236082384815E-004   1.1014940329898341E-003   0.0000000000000000     
  -1.2698555607434478E-003   2.5766189764272842E-003   0.0000000000000000     
  -1.9190495997587988E-003   4.4253748303123494E-003   0.0000000000000000     
  -2.5777544778699006E-003   6.6477615946450306E-003   0.0000000000000000     
   0.0000000000000000        0.0000000000000000        0.0000000000000000     
  -8.3723815507410408E-004   1.1158615095895762E-003   0.0000000000000000     
  -1.6921130043973432E-003   2.6096642047702579E-003   0.0000000000000000     
  -2.5646245479697171E-003   4.4814080855420458E-003   0.0000000000000000     
  -3.4547727857912260E-003   6.7310931519049396E-003   0.0000000000000000     
   1.3235398020616795E-016   6.5406210210252214E-003   0.0000000000000000     
   1.4634018823123096E-016   9.0690074968441930E-003   0.0000000000000000     
   1.6191881819713205E-016   1.1911499901307519E-002   0.0000000000000000     
   1.7974547360504606E-016   1.5068098234415201E-002   0.0000000000000000     
   1.9916793908558716E-016   1.8538802496167239E-002   0.0000000000000000     
  -8.5036808497422091E-004   6.5525255292051719E-003   0.0000000000000000     
  -1.0658090717575518E-003   9.0847954136193312E-003   0.0000000000000000     
  -1.2841780217356790E-003   1.1930522775410492E-002   0.0000000000000000     
  -1.5054749349086023E-003   1.5089707614578649E-002   0.0000000000000000     
  -1.7296998112763216E-003   1.8562349931123805E-002   0.0000000000000000     
  -1.7096195775975652E-003   6.5882390537451091E-003   0.0000000000000000     
  -2.1467905073499303E-003   9.1321591639448047E-003   0.0000000000000000     
  -2.5880424211291676E-003   1.1987591397719445E-002   0.0000000000000000     
  -3.0333753189352754E-003   1.5154535755069020E-002   0.0000000000000000     
  -3.4827892007682545E-003   1.8632992235993538E-002   0.0000000000000000     
  -2.5777544778699006E-003   6.6477615946450306E-003   0.0000000000000000     
  -3.2429443067769899E-003   9.2110987478206102E-003   0.0000000000000000     
  -3.9115931981803034E-003   1.2082705768234369E-002   0.0000000000000000     
  -4.5837011520798400E-003   1.5262582655886307E-002   0.0000000000000000     
  -5.2592681684755999E-003   1.8750729410776427E-002   0.0000000000000000     
  -3.4547727857912260E-003   6.7310931519049396E-003   0.0000000000000000     
  -4.3542704700387297E-003   9.3216141652467457E-003   0.0000000000000000     
  -5.2548303528890854E-003   1.2215865886955269E-002   0.0000000000000000     
  -6.1564524343422954E-003   1.5413848317030514E-002   0.0000000000000000     
  -7.0591367143983579E-003   1.8915561455472477E-002   0.0000000000000000     
   1.9916793908558716E-016   1.8538802496167239E-002   0.0000000000000000     
   2.2480932046486934E-016   2.2292402951064366E-002   0.0000000000000000     
   2.6126561851469443E-016   2.6297689863607331E-002   0.0000000000000000     
   3.0725611941881392E-016   3.0554663233796114E-002   0.0000000000000000     
   3.6429192995512949E-016   3.5063323061630729E-002   0.0000000000000000     
  -1.7296998112763216E-003   1.8562349931123805E-002   0.0000000000000000     
  -1.9531866476807185E-003   2.2317490356370689E-002   0.0000000000000000     
  -2.1722694409636750E-003   2.6324169521644018E-002   0.0000000000000000     
  -2.3869481911251906E-003   3.0582387426943799E-002   0.0000000000000000     
  -2.5972228981652667E-003   3.5092144072270029E-002   0.0000000000000000     
  -3.4827892007682545E-003   1.8632992235993538E-002   0.0000000000000000     
  -3.9302480437227181E-003   2.2392752572289676E-002   0.0000000000000000     
  -4.3697158248932767E-003   2.6403608495754127E-002   0.0000000000000000     
  -4.8011925442799303E-003   3.0665560006386875E-002   0.0000000000000000     
  -5.2246782018826789E-003   3.5178607104187937E-002   0.0000000000000000     
  -5.2592681684755999E-003   1.8750729410776427E-002   0.0000000000000000     
  -5.9311841881257718E-003   2.2518189598821337E-002   0.0000000000000000     
  -6.5923391517885427E-003   2.6536006785937639E-002   0.0000000000000000     
  -7.2427330594639090E-003   3.0804180972125342E-002   0.0000000000000000     
  -7.8823659111518750E-003   3.5322712157384445E-002   0.0000000000000000     
  -7.0591367143983579E-003   1.8915561455472477E-002   0.0000000000000000     
  -7.9559950808898803E-003   2.2693801435965662E-002   0.0000000000000000     
  -8.8401394216494726E-003   2.6721364392194566E-002   0.0000000000000000     
  -9.7115697366771322E-003   3.0998250324159191E-002   0.0000000000000000     
  -1.0570286025972857E-002   3.5524459231859540E-002   0.0000000000000000     
   3.6429192995512949E-016   3.5063323061630729E-002   0.0000000000000000     
   4.1774309705866486E-016   3.9799047143014091E-002   0.0000000000000000     
   4.5194967560058252E-016   4.4737213273849129E-002   0.0000000000000000     
   4.6882257190988819E-016   4.9877821454135843E-002   0.0000000000000000     
   4.6815849807924081E-016   5.5220871683874219E-002   0.0000000000000000     
  -2.5972228981652667E-003   3.5092144072270029E-002   0.0000000000000000     
  -2.8033317318578730E-003   3.9828858944101202E-002   0.0000000000000000     
  -3.0055128619769838E-003   4.4767951528915807E-002   0.0000000000000000     
  -3.2037662885225984E-003   4.9909421826713846E-002   0.0000000000000000     
  -3.3980920114947181E-003   5.5253269837495303E-002   0.0000000000000000     
  -5.2246782018826789E-003   3.5178607104187937E-002   0.0000000000000000     
  -5.6398559362953902E-003   3.9918294347362500E-002   0.0000000000000000     
  -6.0464088861119265E-003   4.4860166294115773E-002   0.0000000000000000     
  -6.4443370513322887E-003   5.0004222944447750E-002   0.0000000000000000     
  -6.8336404319564795E-003   5.5350464298358437E-002   0.0000000000000000     
  -7.8823659111518750E-003   3.5322712157384445E-002   0.0000000000000000     
  -8.5095726133121337E-003   4.0067353352797985E-002   0.0000000000000000     
  -9.1226880724043780E-003   4.5013857569449027E-002   0.0000000000000000     
  -9.7217122884286061E-003   5.0162224807337570E-002   0.0000000000000000     
  -1.0306645261384816E-002   5.5512455066463615E-002   0.0000000000000000     
  -1.0570286025972857E-002   3.5524459231859540E-002   0.0000000000000000     
  -1.1412481762908107E-002   4.0276035960407644E-002   0.0000000000000000     
  -1.2234350420854335E-002   4.5229025354915568E-002   0.0000000000000000     
  -1.3035891999811542E-002   5.0383427415383285E-002   0.0000000000000000     
  -1.3817106499779729E-002   5.5739242141810821E-002   0.0000000000000000     
   4.6815849807924081E-016   5.5220871683874219E-002   0.0000000000000000     
   4.6219538613057054E-016   6.0760846771803892E-002   0.0000000000000000     
   4.6290011754268612E-016   6.6492229526664476E-002   0.0000000000000000     
   4.7275280478514814E-016   7.2415019948455950E-002   0.0000000000000000     
   4.8919202022545960E-016   7.8529218037178328E-002   0.0000000000000000     
  -3.3980920114947181E-003   5.5253269837495303E-002   0.0000000000000000     
  -3.5872313894641955E-003   6.0794002491672432E-002   0.0000000000000000     
  -3.7699257810018798E-003   6.6526126719657394E-002   0.0000000000000000     
  -3.9461751861077799E-003   7.2449642521450225E-002   0.0000000000000000     
  -4.1159796047818891E-003   7.8564549897050917E-002   0.0000000000000000     
  -6.8336404319564795E-003   5.5350464298358437E-002   0.0000000000000000     
  -7.2122681290455728E-003   6.0893469651277836E-002   0.0000000000000000     
  -7.5781692436606516E-003   6.6627818298635968E-002   0.0000000000000000     
  -7.9313437758017132E-003   7.2553510240432800E-002   0.0000000000000000     
  -8.2717917254687585E-003   7.8670545476668366E-002   0.0000000000000000     
  -1.0306645261384816E-002   5.5512455066463615E-002   0.0000000000000000     
  -1.0875110218743676E-002   6.1059248250620146E-002   0.0000000000000000     
  -1.1424730387975847E-002   6.6797304263600157E-002   0.0000000000000000     
  -1.1955505769081332E-002   7.2726623105403704E-002   0.0000000000000000     
  -1.2467436362060127E-002   7.8847204776030716E-002   0.0000000000000000     
  -1.3817106499779729E-002   5.5739242141810821E-002   0.0000000000000000     
  -1.4575757658558503E-002   6.1291338289699328E-002   0.0000000000000000     
  -1.5309609213947469E-002   6.7034584614550030E-002   0.0000000000000000     
  -1.6018661165946631E-002   7.2968981116362894E-002   0.0000000000000000     
  -1.6702913514555988E-002   7.9094527795137926E-002   0.0000000000000000     
   4.8919202022545960E-016   7.8529218037178328E-002   0.0000000000000000     
   5.0502137194374797E-016   8.4812415686860723E-002   0.0000000000000000     
   5.0849081889570158E-016   9.1242204791532264E-002   0.0000000000000000     
   5.0203981596941283E-016   9.7818585351192908E-002   0.0000000000000000     
   4.8312048805954078E-016  0.10454155736584270        0.0000000000000000     
  -4.1159796047818891E-003   7.8564549897050917E-002   0.0000000000000000     
  -4.2795739642801107E-003   8.4848564344979976E-002   0.0000000000000000     
  -4.4371931918583468E-003   9.1279401363757964E-002   0.0000000000000000     
  -4.5888372875165983E-003   9.7857060953384825E-002   0.0000000000000000     
  -4.7345062512548653E-003  0.10458154311386057        0.0000000000000000     
  -8.2717917254687585E-003   7.8670545476668366E-002   0.0000000000000000     
  -8.5997958463122099E-003   8.4957010319337417E-002   0.0000000000000000     
  -8.9156388919824810E-003   9.1390991080434636E-002   0.0000000000000000     
  -9.2193208624795752E-003   9.7972487759960078E-002   0.0000000000000000     
  -9.5108417578034857E-003  0.10470150035791370        0.0000000000000000     
  -1.2467436362060127E-002   7.8847204776030716E-002   0.0000000000000000     
  -1.2960665646095795E-002   8.5137753609933003E-002   0.0000000000000000     
  -1.3435337100371893E-002   9.1576973941562320E-002   0.0000000000000000     
  -1.3891450724888421E-002   9.8164865770918680E-002   0.0000000000000000     
  -1.4329006519645381E-002  0.10490142909800206        0.0000000000000000     
  -1.6702913514555988E-002   7.9094527795137926E-002   0.0000000000000000     
  -1.7362183363630861E-002   8.5390794216766749E-002   0.0000000000000000     
  -1.7996287817026582E-002   9.1837349947140975E-002   0.0000000000000000     
  -1.8605226874743142E-002   9.8434194986260604E-002   0.0000000000000000     
  -1.9189000536780548E-002  0.10518132933412563        0.0000000000000000     
   4.8312048805954078E-016  0.10454155736584270        0.0000000000000000     
   4.5124494418846695E-016  0.11138686810806252        0.0000000000000000     
   4.0180532512312794E-016  0.11833026485043335        0.0000000000000000     
   3.3637372401362775E-016  0.12537174759295516        0.0000000000000000     
   2.5413698923060224E-016  0.13251131633562799        0.0000000000000000     
  -4.7345062512548653E-003  0.10458154311386057        0.0000000000000000     
  -4.8749765611154419E-003  0.11142884354379225        0.0000000000000000     
  -5.0110246951406232E-003  0.11837495794178679        0.0000000000000000     
  -5.1426506533304110E-003  0.12541988630784426        0.0000000000000000     
  -5.2698544356847990E-003  0.13256362864196464        0.0000000000000000     
  -9.5108417578034857E-003  0.10470150035791370        0.0000000000000000     
  -9.7918953842468705E-003  0.11155476985098076        0.0000000000000000     
  -1.0064175548102364E-002  0.11850903721584641        0.0000000000000000     
  -1.0327682249369976E-002  0.12556430245251066        0.0000000000000000     
  -1.0582415488049703E-002  0.13272056556097350        0.0000000000000000     
  -1.4329006519645381E-002  0.10490142909800206        0.0000000000000000     
  -1.4750756469393833E-002  0.11176464702962800        0.0000000000000000     
  -1.5159452558884824E-002  0.11873250267261212        0.0000000000000000     
  -1.5555094788118364E-002  0.12580499602695433        0.0000000000000000     
  -1.5937683157094450E-002  0.13298212709265467        0.0000000000000000     
  -1.9189000536780548E-002  0.10518132933412563        0.0000000000000000     
  -1.9751559816556328E-002  0.11205847507973407        0.0000000000000000     
  -2.0296855727487999E-002  0.11904535431208396        0.0000000000000000     
  -2.0824888269575577E-002  0.12614196703117528        0.0000000000000000     
  -2.1335657442819053E-002  0.13334831323700805        0.0000000000000000     
   2.5413698923060224E-016  0.13251131633562799        0.0000000000000000     
   1.5265566588595902E-016  0.13968833557321578        0.0000000000000000     
   2.9923979960599922E-017  0.14684216980048262        0.0000000000000000     
  -1.1243176528674681E-016  0.15397281901742846        0.0000000000000000     
  -2.7668839441830073E-016  0.16108028322405329        0.0000000000000000     
  -5.2698544356847990E-003  0.13256362864196464        0.0000000000000000     
  -5.3922139465858053E-003  0.13974572060397805        0.0000000000000000     
  -5.5093070904154379E-003  0.14690569785371466        0.0000000000000000     
  -5.6211338671736987E-003  0.15404356039117456        0.0000000000000000     
  -5.7276942768605833E-003  0.16115930821635766        0.0000000000000000     
  -1.0582415488049703E-002  0.13272056556097350        0.0000000000000000     
  -1.0827703280782809E-002  0.13991787569626363        0.0000000000000000     
  -1.1062873644210573E-002  0.14709628201340955        0.0000000000000000     
  -1.1287926578332984E-002  0.15425578451241134        0.0000000000000000     
  -1.1502862083150050E-002  0.16139638319326902        0.0000000000000000     
  -1.5937683157094450E-002  0.13298212709265467        0.0000000000000000     
  -1.6306468002590859E-002  0.14020480085007253        0.0000000000000000     
  -1.6660699661385368E-002  0.14741392227956723        0.0000000000000000     
  -1.7000378133477972E-002  0.15460949138113889        0.0000000000000000     
  -1.7325503418868675E-002  0.16179150815478735        0.0000000000000000     
  -2.1335657442819053E-002  0.13334831323700805        0.0000000000000000     
  -2.1828508112009953E-002  0.14060649606540471        0.0000000000000000     
  -2.2302785141939823E-002  0.14785861865218769        0.0000000000000000     
  -2.2758488532608659E-002  0.15510468099735705        0.0000000000000000     
  -2.3195618284016454E-002  0.16234468310091271        0.0000000000000000     
   0.0000000000000000        0.0000000000000000        0.0000000000000000     
  -8.3723815507410408E-004   1.1158615095895762E-003   0.0000000000000000     
  -1.6921130043973432E-003   2.6096642047702579E-003   0.0000000000000000     
  -2.5646245479697171E-003   4.4814080855420458E-003   0.0000000000000000     
  -3.4547727857912260E-003   6.7310931519049396E-003   0.0000000000000000     
   0.0000000000000000        0.0000000000000000        0.0000000000000000     
  -1.0517927685615130E-003   1.1381212258139864E-003   0.0000000000000000     
  -2.1286052691257534E-003   2.6583948125154791E-003   0.0000000000000000     
  -3.2304375016927209E-003   4.5608207601044769E-003   0.0000000000000000     
  -4.3572894662624161E-003   6.8453990685809832E-003   0.0000000000000000     
   0.0000000000000000        0.0000000000000000        0.0000000000000000     
  -1.2828208502020826E-003   1.1720604279735114E-003   0.0000000000000000     
  -2.5940810476335003E-003   2.7290546852529003E-003   0.0000000000000000     
  -3.9337805922942531E-003   4.6709827718381660E-003   0.0000000000000000     
  -5.3019194841843415E-003   6.9978446877293089E-003   0.0000000000000000     
   0.0000000000000000        0.0000000000000000        0.0000000000000000     
  -1.5303223999958129E-003   1.2176791160681509E-003   0.0000000000000000     
  -3.0885403399205846E-003   2.8216438229825211E-003   0.0000000000000000     
  -4.6746538197743152E-003   4.8118941207431097E-003   0.0000000000000000     
  -6.2886628395570033E-003   7.1884300093499184E-003   0.0000000000000000     
   0.0000000000000000        0.0000000000000000        0.0000000000000000     
  -1.7942974179427039E-003   1.2749772900979054E-003   0.0000000000000000     
  -3.6119831459870055E-003   2.9361622257043423E-003   0.0000000000000000     
  -5.4530571841329050E-003   4.9835548068193113E-003   0.0000000000000000     
  -7.3175195323804017E-003   7.4171550334428118E-003   0.0000000000000000     
  -3.4547727857912260E-003   6.7310931519049396E-003   0.0000000000000000     
  -4.3542704700387297E-003   9.3216141652467457E-003   0.0000000000000000     
  -5.2548303528890854E-003   1.2215865886955269E-002   0.0000000000000000     
  -6.1564524343422954E-003   1.5413848317030514E-002   0.0000000000000000     
  -7.0591367143983579E-003   1.8915561455472477E-002   0.0000000000000000     
  -4.3572894662624161E-003   6.8453990685809832E-003   0.0000000000000000     
  -5.4961600883023940E-003   9.4702935410334362E-003   0.0000000000000000     
  -6.6340482932802126E-003   1.2393667980550286E-002   0.0000000000000000     
  -7.7709540811958730E-003   1.5615522387131535E-002   0.0000000000000000     
  -8.9068774520493724E-003   1.9135856760777177E-002   0.0000000000000000     
  -5.3019194841843415E-003   6.9978446877293089E-003   0.0000000000000000     
  -6.6840042527352298E-003   9.6637249999909133E-003   0.0000000000000000     
  -8.0655414273783817E-003   1.2622708275687565E-002   0.0000000000000000     
  -9.4465310081138024E-003   1.5874794514819261E-002   0.0000000000000000     
  -1.0826972994941488E-002   1.9419983717386010E-002   0.0000000000000000     
  -6.2886628395570033E-003   7.1884300093499184E-003   0.0000000000000000     
  -7.9178029633372362E-003   9.9019085421191734E-003   0.0000000000000000     
  -9.5493097551835968E-003   1.2902986772367101E-002   0.0000000000000000     
  -1.1183183215096086E-002   1.6191664700093703E-002   0.0000000000000000     
  -1.2819423343074702E-002   1.9767942325298979E-002   0.0000000000000000     
  -7.3175195323804017E-003   7.4171550334428118E-003   0.0000000000000000     
  -9.1975562201084115E-003   1.0184844167418217E-002   0.0000000000000000     
  -1.1085353276695851E-002   1.3234503470588898E-002   0.0000000000000000     
  -1.2980910702142721E-002   1.6566132942954854E-002   0.0000000000000000     
  -1.4884228496449017E-002   2.0179732584516084E-002   0.0000000000000000     
  -7.0591367143983579E-003   1.8915561455472477E-002   0.0000000000000000     
  -7.9559950808898803E-003   2.2693801435965662E-002   0.0000000000000000     
  -8.8401394216494726E-003   2.6721364392194566E-002   0.0000000000000000     
  -9.7115697366771322E-003   3.0998250324159191E-002   0.0000000000000000     
  -1.0570286025972857E-002   3.5524459231859540E-002   0.0000000000000000     
  -8.9068774520493724E-003   1.9135856760777177E-002   0.0000000000000000     
  -1.0034409187705148E-002   2.2928878231143670E-002   0.0000000000000000     
  -1.1146140070027640E-002   2.6968793927887490E-002   0.0000000000000000     
  -1.2242070099016844E-002   3.1255603851008631E-002   0.0000000000000000     
  -1.3322199274672767E-002   3.5789308000507086E-002   0.0000000000000000     
  -1.0826972994941488E-002   1.9419983717386010E-002   0.0000000000000000     
  -1.2196154974261679E-002   2.3232710131776392E-002   0.0000000000000000     
  -1.3543364532474619E-002   2.7287408006379011E-002   0.0000000000000000     
  -1.4868601669580307E-002   3.1584077341193874E-002   0.0000000000000000     
  -1.6171866385578746E-002   3.6122718136220949E-002   0.0000000000000000     
  -1.2819423343074702E-002   1.9767942325298979E-002   0.0000000000000000     
  -1.4441232440559467E-002   2.3605297137863822E-002   0.0000000000000000     
  -1.6031812808990409E-002   2.7677206627669124E-002   0.0000000000000000     
  -1.7591164448367516E-002   3.1983670794714904E-002   0.0000000000000000     
  -1.9119287358690801E-002   3.6524689639001122E-002   0.0000000000000000     
  -1.4884228496449017E-002   2.0179732584516084E-002   0.0000000000000000     
  -1.6769641586598522E-002   2.4046639249405959E-002   0.0000000000000000     
  -1.8611484899575009E-002   2.8138189791757834E-002   0.0000000000000000     
  -2.0409758435378476E-002   3.2454384211571721E-002   0.0000000000000000     
  -2.2164462194008930E-002   3.6995222508847611E-002   0.0000000000000000     
  -1.0570286025972857E-002   3.5524459231859540E-002   0.0000000000000000     
  -1.1412481762908107E-002   4.0276035960407644E-002   0.0000000000000000     
  -1.2234350420854335E-002   4.5229025354915568E-002   0.0000000000000000     
  -1.3035891999811542E-002   5.0383427415383285E-002   0.0000000000000000     
  -1.3817106499779729E-002   5.5739242141810821E-002   0.0000000000000000     
  -1.3322199274672767E-002   3.5789308000507086E-002   0.0000000000000000     
  -1.4381065403164719E-002   4.0547201828194684E-002   0.0000000000000000     
  -1.5413206290662035E-002   4.5506580785883217E-002   0.0000000000000000     
  -1.6418621937164701E-002   5.0667444873572692E-002   0.0000000000000000     
  -1.7397312342672732E-002   5.6029794091263109E-002   0.0000000000000000     
  -1.6171866385578746E-002   3.6122718136220949E-002   0.0000000000000000     
  -1.7447805552163392E-002   4.0883710614162273E-002   0.0000000000000000     
  -1.8691066041027708E-002   4.5847434997719795E-002   0.0000000000000000     
  -1.9901647852171696E-002   5.1013891286893556E-002   0.0000000000000000     
  -2.1079550985595347E-002   5.6383079481683536E-002   0.0000000000000000     
  -1.9119287358690801E-002   3.6524689639001122E-002   0.0000000000000000     
  -2.0612702209904118E-002   4.1285562318310404E-002   0.0000000000000000     
  -2.2067929671951366E-002   4.6251587990425329E-002   0.0000000000000000     
  -2.3484969744832510E-002   5.1422766655345883E-002   0.0000000000000000     
  -2.4863822428547570E-002   5.6799098313072081E-002   0.0000000000000000     
  -2.2164462194008930E-002   3.6995222508847611E-002   0.0000000000000000     
  -2.3875755376386917E-002   4.1752756940639103E-002   0.0000000000000000     
  -2.5543797183432991E-002   4.6719039763999791E-002   0.0000000000000000     
  -2.7168587615147160E-002   5.1894070978929681E-002   0.0000000000000000     
  -2.8750126671529406E-002   5.7277850585428773E-002   0.0000000000000000     
  -1.3817106499779729E-002   5.5739242141810821E-002   0.0000000000000000     
  -1.4575757658558503E-002   6.1291338289699328E-002   0.0000000000000000     
  -1.5309609213947469E-002   6.7034584614550030E-002   0.0000000000000000     
  -1.6018661165946631E-002   7.2968981116362894E-002   0.0000000000000000     
  -1.6702913514555988E-002   7.9094527795137926E-002   0.0000000000000000     
  -1.7397312342672732E-002   5.6029794091263109E-002   0.0000000000000000     
  -1.8347209241137689E-002   6.1588284639009158E-002   0.0000000000000000     
  -1.9266244366511143E-002   6.7337572716865510E-002   0.0000000000000000     
  -2.0154417718793092E-002   7.3277658324832198E-002   0.0000000000000000     
  -2.1011729297983537E-002   7.9408541462909182E-002   0.0000000000000000     
  -2.1079550985595347E-002   5.6383079481683536E-002   0.0000000000000000     
  -2.2222463759128876E-002   6.1948632169043352E-002   0.0000000000000000     
  -2.3328074490602490E-002   6.7704181935926630E-002   0.0000000000000000     
  -2.4396383180016194E-002   7.3649728782333376E-002   0.0000000000000000     
  -2.5427389827369976E-002   7.9785272708263577E-002   0.0000000000000000     
  -2.4863822428547570E-002   5.6799098313072081E-002   0.0000000000000000     
  -2.6201521212532070E-002   6.2372380879801924E-002   0.0000000000000000     
  -2.7495099586221514E-002   6.8134412271733377E-002   0.0000000000000000     
  -2.8744557549615926E-002   7.4085192488866455E-002   0.0000000000000000     
  -2.9949895102715292E-002   8.0224721531201165E-002   0.0000000000000000     
  -2.8750126671529406E-002   5.7277850585428773E-002   0.0000000000000000     
  -3.0284381601347256E-002   6.2859530771284852E-002   0.0000000000000000     
  -3.1767319653368223E-002   6.8628263724285737E-002   0.0000000000000000     
  -3.3198940827592303E-002   7.4584049444431422E-002   0.0000000000000000     
  -3.4579245124019498E-002   8.0726887931721891E-002   0.0000000000000000     
  -1.6702913514555988E-002   7.9094527795137926E-002   0.0000000000000000     
  -1.7362183363630861E-002   8.5390794216766749E-002   0.0000000000000000     
  -1.7996287817026582E-002   9.1837349947140975E-002   0.0000000000000000     
  -1.8605226874743142E-002   9.8434194986260604E-002   0.0000000000000000     
  -1.9189000536780548E-002  0.10518132933412563        0.0000000000000000     
  -2.1011729297983537E-002   7.9408541462909182E-002   0.0000000000000000     
  -2.1837659644320138E-002   8.5710991795419994E-002   0.0000000000000000     
  -2.2631689298040561E-002   9.2165778986688138E-002   0.0000000000000000     
  -2.3393818259144786E-002   9.8772903036713613E-002   0.0000000000000000     
  -2.4124046527632840E-002  0.10553236394549645        0.0000000000000000     
  -2.5427389827369976E-002   7.9785272708263577E-002   0.0000000000000000     
  -2.6420405133566350E-002   8.6093206001473965E-002   0.0000000000000000     
  -2.7374739799507830E-002   9.2555920949721232E-002   0.0000000000000000     
  -2.8290393825194413E-002   9.9173417553005391E-002   0.0000000000000000     
  -2.9167367210626106E-002  0.10594569581132643        0.0000000000000000     
  -2.9949895102715292E-002   8.0224721531201165E-002   0.0000000000000000     
  -3.1110419831369487E-002   8.6537436834928691E-002   0.0000000000000000     
  -3.2225439321428399E-002   9.3007775836240286E-002   0.0000000000000000     
  -3.3294953572892014E-002   9.9635738535135951E-002   0.0000000000000000     
  -3.4318962585760358E-002  0.10642132493161566        0.0000000000000000     
  -3.4579245124019498E-002   8.0726887931721891E-002   0.0000000000000000     
  -3.5907703737729564E-002   8.7043684295784199E-002   0.0000000000000000     
  -3.7183787863802269E-002   9.3521343646245314E-002   0.0000000000000000     
  -3.8407497502237604E-002  0.10015986598310528        0.0000000000000000     
  -3.9578832653035571E-002  0.10695925130636405        0.0000000000000000     
  -1.9189000536780548E-002  0.10518132933412563        0.0000000000000000     
  -1.9751559816556328E-002  0.11205847507973407        0.0000000000000000     
  -2.0296855727487999E-002  0.11904535431208396        0.0000000000000000     
  -2.0824888269575577E-002  0.12614196703117528        0.0000000000000000     
  -2.1335657442819053E-002  0.13334831323700805        0.0000000000000000     
  -2.4124046527632840E-002  0.10553236394549645        0.0000000000000000     
  -2.4827408654403759E-002  0.11242601096617189        0.0000000000000000     
  -2.5508939190356614E-002  0.11943569335187527        0.0000000000000000     
  -2.6168638135491390E-002  0.12656141110260660        0.0000000000000000     
  -2.6806505489808109E-002  0.13380316421836586        0.0000000000000000     
  -2.9167367210626106E-002  0.10594569581132643        0.0000000000000000     
  -3.0011406211605546E-002  0.11285701165381441        0.0000000000000000     
  -3.0828257083935377E-002  0.11989162100959939        0.0000000000000000     
  -3.1617919827615616E-002  0.12704952387868135        0.0000000000000000     
  -3.2380394442646239E-002  0.13433072026106027        0.0000000000000000     
  -3.4318962585760358E-002  0.10642132493161566        0.0000000000000000     
  -3.5303552488161687E-002  0.11335147714266167        0.0000000000000000     
  -3.6254809408224314E-002  0.12041313728525628        0.0000000000000000     
  -3.7172733345948221E-002  0.12760630535939949        0.0000000000000000     
  -3.8057324301333434E-002  0.13493098136509130        0.0000000000000000     
  -3.9578832653035571E-002  0.10695925130636405        0.0000000000000000     
  -4.0703847484072173E-002  0.11390940743271363        0.0000000000000000     
  -4.1788596163223390E-002  0.12100024217884595        0.0000000000000000     
  -4.2833078690489232E-002  0.12823175554476104        0.0000000000000000     
  -4.3837295065869704E-002  0.13560394753045887        0.0000000000000000     
  -2.1335657442819053E-002  0.13334831323700805        0.0000000000000000     
  -2.1828508112009953E-002  0.14060649606540471        0.0000000000000000     
  -2.2302785141939823E-002  0.14785861865218769        0.0000000000000000     
  -2.2758488532608659E-002  0.15510468099735705        0.0000000000000000     
  -2.3195618284016454E-002  0.16234468310091271        0.0000000000000000     
  -2.6806505489808109E-002  0.13380316421836586        0.0000000000000000     
  -2.7421807117570328E-002  0.14110488792600492        0.0000000000000000     
  -2.8013808883041627E-002  0.14841051745237555        0.0000000000000000     
  -2.8582510786222017E-002  0.15572005279747778        0.0000000000000000     
  -2.9127912827111486E-002  0.16303349396131162        0.0000000000000000     
  -3.2380394442646239E-002  0.13433072026106027        0.0000000000000000     
  -3.3114348527802207E-002  0.14168190301561776        0.0000000000000000     
  -3.3818449681858473E-002  0.14904976500123532        0.0000000000000000     
  -3.4492697904815010E-002  0.15643430621791291        0.0000000000000000     
  -3.5137093196671861E-002  0.16383552666565057        0.0000000000000000     
  -3.8057324301333434E-002  0.13493098136509130        0.0000000000000000     
  -3.8906132342705596E-002  0.14233754133424326        0.0000000000000000     
  -3.9716707538390329E-002  0.14977636129876698        0.0000000000000000     
  -4.0489049888387661E-002  0.15724744125866244        0.0000000000000000     
  -4.1223159392697585E-002  0.16475078121392964        0.0000000000000000     
  -4.3837295065869704E-002  0.13560394753045887        0.0000000000000000     
  -4.4797158562280469E-002  0.14307180288188140        0.0000000000000000     
  -4.5708582452637217E-002  0.15059030634497059        0.0000000000000000     
  -4.6571566736939948E-002  0.15815945791972638        0.0000000000000000     
  -4.7386111415188642E-002  0.16577925760614881        0.0000000000000000     
   0.0000000000000000        0.0000000000000000        0.0000000000000000     
  -1.7942974179427039E-003   1.2749772900979054E-003   0.0000000000000000     
  -3.6119831459870055E-003   2.9361622257043423E-003   0.0000000000000000     
  -5.4530571841329050E-003   4.9835548068193113E-003   0.0000000000000000     
  -7.3175195323804017E-003   7.4171550334428118E-003   0.0000000000000000     
   0.0000000000000000        0.0000000000000000        0.0000000000000000     
  -2.0664121328251173E-003   1.3513090642561960E-003   0.0000000000000000     
  -4.1569053318185846E-003   3.0875918907258084E-003   0.0000000000000000     
  -6.2714795969804000E-003   5.2088484794088384E-003   0.0000000000000000     
  -8.4101349283105670E-003   7.7150788303052848E-003   0.0000000000000000     
   0.0000000000000000        0.0000000000000000        0.0000000000000000     
  -2.3383327734254142E-003   1.4540285527364452E-003   0.0000000000000000     
  -4.7158027634011416E-003   3.2909148153543646E-003   0.0000000000000000     
  -7.1324099699271804E-003   5.5106587878537587E-003   0.0000000000000000     
  -9.5881543930035323E-003   8.1132604702346279E-003   0.0000000000000000     
   0.0000000000000000        0.0000000000000000        0.0000000000000000     
  -2.6100593397435944E-003   1.5831357555386525E-003   0.0000000000000000     
  -5.2886754407346749E-003   3.5461309995900104E-003   0.0000000000000000     
  -8.0358483029732402E-003   5.8889857321540746E-003   0.0000000000000000     
  -1.0851577926459291E-002   8.6116999532308454E-003   0.0000000000000000     
   0.0000000000000000        0.0000000000000000        0.0000000000000000     
  -2.8815918317796584E-003   1.7386306726628184E-003   0.0000000000000000     
  -5.8755233638191863E-003   3.8532404434327462E-003   0.0000000000000000     
  -8.9817945961185846E-003   6.3438293123097844E-003   0.0000000000000000     
  -1.2200405528677851E-002   9.2103972792939304E-003   0.0000000000000000     
  -7.3175195323804017E-003   7.4171550334428118E-003   0.0000000000000000     
  -9.1975562201084115E-003   1.0184844167418217E-002   0.0000000000000000     
  -1.1085353276695851E-002   1.3234503470588898E-002   0.0000000000000000     
  -1.2980910702142721E-002   1.6566132942954854E-002   0.0000000000000000     
  -1.4884228496449017E-002   2.0179732584516084E-002   0.0000000000000000     
  -8.4101349283105670E-003   7.7150788303052848E-003   0.0000000000000000     
  -1.0564361069169945E-002   1.0549223764457881E-002   0.0000000000000000     
  -1.2725647762919397E-002   1.3654224102909361E-002   0.0000000000000000     
  -1.4893995009558922E-002   1.7030079845659719E-002   0.0000000000000000     
  -1.7069402809088523E-002   2.0676790992708968E-002   0.0000000000000000     
  -9.5881543930035323E-003   8.1132604702346279E-003   0.0000000000000000     
  -1.2059314556643021E-002   1.1031739221808000E-002   0.0000000000000000     
  -1.4522168984858480E-002   1.4199114401884894E-002   0.0000000000000000     
  -1.6976717677649911E-002   1.7615386010465320E-002   0.0000000000000000     
  -1.9422960635017306E-002   2.1280554047549270E-002   0.0000000000000000     
  -1.0851577926459291E-002   8.6116999532308454E-003   0.0000000000000000     
  -1.3682416682527640E-002   1.1632390539468572E-002   0.0000000000000000     
  -1.6474916942513105E-002   1.4869174367515503E-002   0.0000000000000000     
  -1.9229078706415680E-002   1.8322051437371645E-002   0.0000000000000000     
  -2.1944901974235358E-002   2.1991021749036988E-002   0.0000000000000000     
  -1.2200405528677851E-002   9.2103972792939304E-003   0.0000000000000000     
  -1.5433667446823805E-002   1.2351177717439595E-002   0.0000000000000000     
  -1.8583891635883264E-002   1.5664403999801183E-002   0.0000000000000000     
  -2.1651078095856230E-002   1.9150076126378694E-002   0.0000000000000000     
  -2.4635226826742695E-002   2.2808194097172125E-002   0.0000000000000000     
  -1.4884228496449017E-002   2.0179732584516084E-002   0.0000000000000000     
  -1.6769641586598522E-002   2.4046639249405959E-002   0.0000000000000000     
  -1.8611484899575009E-002   2.8138189791757834E-002   0.0000000000000000     
  -2.0409758435378476E-002   3.2454384211571721E-002   0.0000000000000000     
  -2.2164462194008930E-002   3.6995222508847611E-002   0.0000000000000000     
  -1.7069402809088523E-002   2.0676790992708968E-002   0.0000000000000000     
  -1.9220343630054496E-002   2.4567015399934916E-002   0.0000000000000000     
  -2.1315289941003158E-002   2.8673410923215379E-002   0.0000000000000000     
  -2.3354241741934501E-002   3.2995977562550363E-002   0.0000000000000000     
  -2.5337199032848524E-002   3.7534715317939872E-002   0.0000000000000000     
  -1.9422960635017306E-002   2.1280554047549270E-002   0.0000000000000000     
  -2.1832299788603064E-002   2.5176704522982808E-002   0.0000000000000000     
  -2.4176137070049598E-002   2.9285923446612010E-002   0.0000000000000000     
  -2.6454472479356898E-002   3.3608210818436866E-002   0.0000000000000000     
  -2.8667306016524969E-002   3.8143566638457367E-002   0.0000000000000000     
  -2.1944901974235358E-002   2.1991021749036988E-002   0.0000000000000000     
  -2.4605510062244224E-002   2.5875706618549647E-002   0.0000000000000000     
  -2.7194026286714329E-002   2.9975727361947719E-002   0.0000000000000000     
  -2.9710450647645676E-002   3.4291083979231203E-002   0.0000000000000000     
  -3.2154783145038265E-002   3.8821776470400103E-002   0.0000000000000000     
  -2.4635226826742695E-002   2.2808194097172125E-002   0.0000000000000000     
  -2.7539974450977969E-002   2.6664021686635422E-002   0.0000000000000000     
  -3.0368957590997350E-002   3.0742822669222514E-002   0.0000000000000000     
  -3.3122176246800833E-002   3.5044597044933401E-002   0.0000000000000000     
  -3.5799630418388434E-002   3.9569344813768087E-002   0.0000000000000000     
  -2.2164462194008930E-002   3.6995222508847611E-002   0.0000000000000000     
  -2.3875755376386917E-002   4.1752756940639103E-002   0.0000000000000000     
  -2.5543797183432991E-002   4.6719039763999791E-002   0.0000000000000000     
  -2.7168587615147160E-002   5.1894070978929681E-002   0.0000000000000000     
  -2.8750126671529406E-002   5.7277850585428773E-002   0.0000000000000000     
  -2.5337199032848524E-002   3.7534715317939872E-002   0.0000000000000000     
  -2.7268018956805404E-002   4.2287673151288389E-002   0.0000000000000000     
  -2.9150558656865298E-002   4.7252900024500423E-002   0.0000000000000000     
  -3.0984818133028221E-002   5.2430395937575987E-002   0.0000000000000000     
  -3.2770797385294169E-002   5.7820160890515060E-002   0.0000000000000000     
  -2.8667306016524969E-002   3.8143566638457367E-002   0.0000000000000000     
  -3.0820546856353197E-002   4.2892689620398307E-002   0.0000000000000000     
  -3.2920104173640975E-002   4.7856278477984467E-002   0.0000000000000000     
  -3.4965977968388302E-002   5.3034333211215846E-002   0.0000000000000000     
  -3.6958168240595175E-002   5.8426853820092439E-002   0.0000000000000000     
  -3.2154783145038265E-002   3.8821776470400103E-002   0.0000000000000000     
  -3.4533339075030312E-002   4.3567806347968856E-002   0.0000000000000000     
  -3.6852433733760029E-002   4.8529175124451908E-002   0.0000000000000000     
  -3.9112067121227397E-002   5.3705882799849253E-002   0.0000000000000000     
  -4.1312239237432435E-002   5.9097929374160904E-002   0.0000000000000000     
  -3.5799630418388434E-002   3.9569344813768087E-002   0.0000000000000000     
  -3.8406395612836756E-002   4.4313023334000043E-002   0.0000000000000000     
  -4.0947547337222452E-002   4.9271589963902761E-002   0.0000000000000000     
  -4.3423085591545507E-002   5.4445044703476220E-002   0.0000000000000000     
  -4.5833010375805942E-002   5.9833387552720441E-002   0.0000000000000000     
  -2.8750126671529406E-002   5.7277850585428773E-002   0.0000000000000000     
  -3.0284381601347256E-002   6.2859530771284852E-002   0.0000000000000000     
  -3.1767319653368223E-002   6.8628263724285737E-002   0.0000000000000000     
  -3.3198940827592303E-002   7.4584049444431422E-002   0.0000000000000000     
  -3.4579245124019498E-002   8.0726887931721891E-002   0.0000000000000000     
  -3.2770797385294169E-002   5.7820160890515060E-002   0.0000000000000000     
  -3.4503275246735125E-002   6.3408638973535852E-002   0.0000000000000000     
  -3.6177030550423074E-002   6.9182274276856567E-002   0.0000000000000000     
  -3.7792063296358015E-002   7.5141066800477177E-002   0.0000000000000000     
  -3.9348373484539956E-002   8.1285016544397723E-002   0.0000000000000000     
  -3.6958168240595175E-002   5.8426853820092439E-002   0.0000000000000000     
  -3.8890432469856330E-002   6.4018262616598598E-002   0.0000000000000000     
  -4.0756528135766537E-002   6.9792981912718668E-002   0.0000000000000000     
  -4.2556455238325762E-002   7.5751011708452651E-002   0.0000000000000000     
  -4.4290213777534025E-002   8.1892352003800545E-002   0.0000000000000000     
  -4.1312239237432435E-002   5.9097929374160904E-002   0.0000000000000000     
  -4.3445853270710905E-002   6.4688401700473075E-002   0.0000000000000000     
  -4.5505812409398619E-002   7.0460386631872055E-002   0.0000000000000000     
  -4.7492116653495557E-002   7.6413884168357801E-002   0.0000000000000000     
  -4.9404766003001747E-002   8.2548894309930357E-002   0.0000000000000000     
  -4.5833010375805942E-002   5.9833387552720441E-002   0.0000000000000000     
  -4.8169537649298842E-002   6.5419056225159311E-002   0.0000000000000000     
  -5.0424883371319326E-002   7.1184488434316698E-002   0.0000000000000000     
  -5.2599047541867408E-002   7.7129684180192656E-002   0.0000000000000000     
  -5.4692030160943074E-002   8.3254643462787159E-002   0.0000000000000000     
  -3.4579245124019498E-002   8.0726887931721891E-002   0.0000000000000000     
  -3.5907703737729564E-002   8.7043684295784199E-002   0.0000000000000000     
  -3.7183787863802269E-002   9.3521343646245314E-002   0.0000000000000000     
  -3.8407497502237604E-002  0.10015986598310528        0.0000000000000000     
  -3.9578832653035571E-002  0.10695925130636405        0.0000000000000000     
  -3.9348373484539956E-002   8.1285016544397723E-002   0.0000000000000000     
  -4.0845727718663218E-002   8.7603702095523511E-002   0.0000000000000000     
  -4.2283892602422130E-002   9.4086702040759876E-002   0.0000000000000000     
  -4.3662868135816713E-002  0.10073401638010682        0.0000000000000000     
  -4.4982654318846946E-002  0.10754564511356438        0.0000000000000000     
  -4.4290213777534025E-002   8.1892352003800545E-002   0.0000000000000000     
  -4.5957962640187089E-002   8.8209243945629720E-002   0.0000000000000000     
  -4.7559860713080722E-002   9.4693928680807560E-002   0.0000000000000000     
  -4.9095907996214883E-002  0.10134640620933405        0.0000000000000000     
  -5.0566104489589606E-002  0.10816667653120920        0.0000000000000000     
  -4.9404766003001747E-002   8.2548894309930357E-002   0.0000000000000000     
  -5.1244408502301199E-002   8.8860309846102825E-002   0.0000000000000000     
  -5.3011692195777990E-002   9.5343023566388352E-002   0.0000000000000000     
  -5.4706617083432135E-002  0.10199703547078696        0.0000000000000000     
  -5.6329183165263606E-002  0.10882234555929866        0.0000000000000000     
  -5.4692030160943074E-002   8.3254643462787159E-002   0.0000000000000000     
  -5.6705065305005527E-002   8.9556899796942813E-002   0.0000000000000000     
  -5.8639387050513983E-002   9.6033986697502280E-002   0.0000000000000000     
  -6.0494995397468436E-002  0.10268590416446556        0.0000000000000000     
  -6.2271890345868892E-002  0.10951265219783264        0.0000000000000000     
  -3.9578832653035571E-002  0.10695925130636405        0.0000000000000000     
  -4.0703847484072173E-002  0.11390940743271363        0.0000000000000000     
  -4.1788596163223390E-002  0.12100024217884595        0.0000000000000000     
  -4.2833078690489232E-002  0.12823175554476104        0.0000000000000000     
  -4.3837295065869704E-002  0.13560394753045887        0.0000000000000000     
  -4.4982654318846946E-002  0.10754564511356438        0.0000000000000000     
  -4.6249176319773246E-002  0.11451472824065358        0.0000000000000000     
  -4.7468359306856035E-002  0.12163440576089560        0.0000000000000000     
  -4.8640203280095329E-002  0.12890467767429042        0.0000000000000000     
  -4.9764708239491119E-002  0.13632554398083802        0.0000000000000000     
  -5.0566104489589606E-002  0.10816667653120920        0.0000000000000000     
  -5.1976424115701129E-002  0.11515136528316475        0.0000000000000000     
  -5.3332840797045651E-002  0.12229709810193233        0.0000000000000000     
  -5.4635354533623191E-002  0.12960387498751197        0.0000000000000000     
  -5.5883965325433743E-002  0.13707169593990368        0.0000000000000000     
  -5.6329183165263606E-002  0.10882234555929866        0.0000000000000000     
  -5.7885590871855831E-002  0.11581931856024716        0.0000000000000000     
  -5.9382040633792238E-002  0.12298831920195614        0.0000000000000000     
  -6.0818532451072820E-002  0.13032934748442573        0.0000000000000000     
  -6.2195066323697590E-002  0.13784240340765580        0.0000000000000000     
  -6.2271890345868892E-002  0.10951265219783264        0.0000000000000000     
  -6.3976676588237344E-002  0.11651858807190077        0.0000000000000000     
  -6.5615958817095782E-002  0.12370806906096710        0.0000000000000000     
  -6.7189737032444227E-002  0.13108109516503169        0.0000000000000000     
  -6.8698011234282638E-002  0.13863766638409450        0.0000000000000000     
  -4.3837295065869704E-002  0.13560394753045887        0.0000000000000000     
  -4.4797158562280469E-002  0.14307180288188140        0.0000000000000000     
  -4.5708582452637217E-002  0.15059030634497059        0.0000000000000000     
  -4.6571566736939948E-002  0.15815945791972638        0.0000000000000000     
  -4.7386111415188642E-002  0.16577925760614881        0.0000000000000000     
  -4.9764708239491119E-002  0.13632554398083802        0.0000000000000000     
  -5.0836028679166652E-002  0.14385763709598348        0.0000000000000000     
  -5.1848319093245193E-002  0.15146158943517171        0.0000000000000000     
  -5.2801579481726729E-002  0.15913740099840276        0.0000000000000000     
  -5.3695809844611274E-002  0.16688507178567669        0.0000000000000000     
  -5.5883965325433743E-002  0.13707169593990368        0.0000000000000000     
  -5.7071344186003917E-002  0.14466799341400063        0.0000000000000000     
  -5.8190162128860294E-002  0.15236019986469596        0.0000000000000000     
  -5.9240419154002903E-002  0.16014831529198972        0.0000000000000000     
  -6.0222115261431723E-002  0.16803233969588185        0.0000000000000000     
  -6.2195066323697590E-002  0.13784240340765580        0.0000000000000000     
  -6.3503105082792236E-002  0.14550287183593288        0.0000000000000000     
  -6.4734111559482541E-002  0.15328613763354335        0.0000000000000000     
  -6.5888085753768463E-002  0.16119220080048716        0.0000000000000000     
  -6.6965027665649990E-002  0.16922106133676437        0.0000000000000000     
  -6.8698011234282638E-002  0.13863766638409450        0.0000000000000000     
  -7.0131311369531657E-002  0.14636227236178029        0.0000000000000000     
  -7.1480167385111898E-002  0.15423940274171385        0.0000000000000000     
  -7.2744579281023361E-002  0.16226905752389517        0.0000000000000000     
  -7.3924547057266046E-002  0.17045123670832424        0.0000000000000000     
   0.0000000000000000        0.0000000000000000        0.0000000000000000     
  -2.8815918317796584E-003   1.7386306726628184E-003   0.0000000000000000     
  -5.8755233638191863E-003   3.8532404434327462E-003   0.0000000000000000     
  -8.9817945961185846E-003   6.3438293123097844E-003   0.0000000000000000     
  -1.2200405528677851E-002   9.2103972792939304E-003   0.0000000000000000     
   0.0000000000000000        0.0000000000000000        0.0000000000000000     
  -3.2862630143400194E-003   1.9931255947688697E-003   0.0000000000000000     
  -6.6833220306816467E-003   4.3194720457367594E-003   0.0000000000000000     
  -1.0191177049024881E-002   6.9790393529036692E-003   0.0000000000000000     
  -1.3809828069369723E-002   9.9718275162695973E-003   0.0000000000000000     
   0.0000000000000000        0.0000000000000000        0.0000000000000000     
  -3.9574056522310918E-003   2.4192328125167339E-003   0.0000000000000000     
  -7.9190469393490264E-003   5.0520547053562381E-003   0.0000000000000000     
  -1.1884923861353799E-002   7.8984656785185091E-003   0.0000000000000000     
  -1.5855036418245420E-002   1.0958465732003552E-002   0.0000000000000000     
   0.0000000000000000        0.0000000000000000        0.0000000000000000     
  -4.8950197454528735E-003   3.0169523259064115E-003   0.0000000000000000     
  -9.5826980898213229E-003   6.0509884222911814E-003   0.0000000000000000     
  -1.4063035033105346E-002   9.1021082891543058E-003   0.0000000000000000     
  -1.8336030575304942E-002   1.2170311926495789E-002   0.0000000000000000     
   0.0000000000000000        0.0000000000000000        0.0000000000000000     
  -6.0991052940053666E-003   3.7862841349379020E-003   0.0000000000000000     
  -1.1674275482098538E-002   7.3162731965415884E-003   0.0000000000000000     
  -1.6725510564279511E-002   1.0589967184811058E-002   0.0000000000000000     
  -2.1252810540548294E-002   1.3607366099746315E-002   0.0000000000000000     
  -1.2200405528677851E-002   9.2103972792939304E-003   0.0000000000000000     
  -1.5433667446823805E-002   1.2351177717439595E-002   0.0000000000000000     
  -1.8583891635883264E-002   1.5664403999801183E-002   0.0000000000000000     
  -2.1651078095856230E-002   1.9150076126378694E-002   0.0000000000000000     
  -2.4635226826742695E-002   2.2808194097172125E-002   0.0000000000000000     
  -1.3809828069369723E-002   9.9718275162695973E-003   0.0000000000000000     
  -1.7422401250741858E-002   1.3200077049613923E-002   0.0000000000000000     
  -2.0912022752166973E-002   1.6566028466716010E-002   0.0000000000000000     
  -2.4278692573645066E-002   2.0069681767575870E-002   0.0000000000000000     
  -2.7522410715176145E-002   2.3711036952193495E-002   0.0000000000000000     
  -1.5855036418245420E-002   1.0958465732003552E-002   0.0000000000000000     
  -1.9757952495492146E-002   1.4191064829884390E-002   0.0000000000000000     
  -2.3522239978562239E-002   1.7555272936234063E-002   0.0000000000000000     
  -2.7147898867455705E-002   2.1051090051052563E-002   0.0000000000000000     
  -3.0634929162172541E-002   2.4678516174339894E-002   0.0000000000000000     
  -1.8336030575304942E-002   1.2170311926495789E-002   0.0000000000000000     
  -2.2440321181074665E-002   1.5324141058251008E-002   0.0000000000000000     
  -2.6414543315069067E-002   1.8632137408355336E-002   0.0000000000000000     
  -3.0258696977288137E-002   2.2094300976808780E-002   0.0000000000000000     
  -3.3972782167731884E-002   2.5710631763611335E-002   0.0000000000000000     
  -2.1252810540548294E-002   1.3607366099746315E-002   0.0000000000000000     
  -2.5469507307489422E-002   1.6599305734713767E-002   0.0000000000000000     
  -2.9588932761687448E-002   1.9796621883079832E-002   0.0000000000000000     
  -3.3611086903142365E-002   2.3199314544844515E-002   0.0000000000000000     
  -3.7535969731854177E-002   2.6807383720007807E-002   0.0000000000000000     
  -2.4635226826742695E-002   2.2808194097172125E-002   0.0000000000000000     
  -2.7539974450977969E-002   2.6664021686635422E-002   0.0000000000000000     
  -3.0368957590997350E-002   3.0742822669222514E-002   0.0000000000000000     
  -3.3122176246800833E-002   3.5044597044933401E-002   0.0000000000000000     
  -3.5799630418388434E-002   3.9569344813768087E-002   0.0000000000000000     
  -2.7522410715176145E-002   2.3711036952193495E-002   0.0000000000000000     
  -3.0665695254904944E-002   2.7536077471139491E-002   0.0000000000000000     
  -3.3731064270976219E-002   3.1590786774984489E-002   0.0000000000000000     
  -3.6718517763389961E-002   3.5875164863728472E-002   0.0000000000000000     
  -3.9628055732146186E-002   4.0389211737371443E-002   0.0000000000000000     
  -3.0634929162172541E-002   2.4678516174339894E-002   0.0000000000000000     
  -3.4012674774125798E-002   2.8486301715961226E-002   0.0000000000000000     
  -3.7310479614728498E-002   3.2523197085781740E-002   0.0000000000000000     
  -4.0528343683980665E-002   3.6789202283801434E-002   0.0000000000000000     
  -4.3666266981882279E-002   4.1284317310020316E-002   0.0000000000000000     
  -3.3972782167731884E-002   2.5710631763611335E-002   0.0000000000000000     
  -3.7580913008640499E-002   2.9514694421100624E-002   0.0000000000000000     
  -4.1107203622254174E-002   3.3540053601614273E-002   0.0000000000000000     
  -4.4551654008572916E-002   3.7786709305152308E-002   0.0000000000000000     
  -4.7914264167596719E-002   4.2254661531714699E-002   0.0000000000000000     
  -3.7535969731854177E-002   2.6807383720007807E-002   0.0000000000000000     
  -4.1370409958449081E-002   3.0621255586557684E-002   0.0000000000000000     
  -4.5121236293553260E-002   3.4641356322482102E-002   0.0000000000000000     
  -4.8788448737166742E-002   3.8867685927781073E-002   0.0000000000000000     
  -5.2372047289289500E-002   4.3300244402454592E-002   0.0000000000000000     
  -3.5799630418388434E-002   3.9569344813768087E-002   0.0000000000000000     
  -3.8406395612836756E-002   4.4313023334000043E-002   0.0000000000000000     
  -4.0947547337222452E-002   4.9271589963902761E-002   0.0000000000000000     
  -4.3423085591545507E-002   5.4445044703476220E-002   0.0000000000000000     
  -4.5833010375805942E-002   5.9833387552720441E-002   0.0000000000000000     
  -3.9628055732146186E-002   4.0389211737371443E-002   0.0000000000000000     
  -4.2462204139233996E-002   4.5125453254618218E-002   0.0000000000000000     
  -4.5223488946642507E-002   5.0076415274173627E-002   0.0000000000000000     
  -4.7911910154371740E-002   5.5242097796037636E-002   0.0000000000000000     
  -5.0527467762421674E-002   6.0622500820210271E-002   0.0000000000000000     
  -4.3666266981882279E-002   4.1284317310020316E-002   0.0000000000000000     
  -4.6723252323683503E-002   4.6002208785949746E-002   0.0000000000000000     
  -4.9698302524634468E-002   5.0936543333101089E-002   0.0000000000000000     
  -5.2591417584735192E-002   5.6087320951474354E-002   0.0000000000000000     
  -5.5402597503985650E-002   6.1454541641069546E-002   0.0000000000000000     
  -4.7914264167596719E-002   4.2254661531714699E-002   0.0000000000000000     
  -5.1189540166185279E-002   4.6943289927994597E-002   0.0000000000000000     
  -5.4371988071198342E-002   5.1851974140685160E-002   0.0000000000000000     
  -5.7461607882635858E-002   5.6980714169786388E-002   0.0000000000000000     
  -6.0458399600497856E-002   6.2329510015298281E-002   0.0000000000000000     
  -5.2372047289289500E-002   4.3300244402454592E-002   0.0000000000000000     
  -5.5861067666739359E-002   4.7948696680752807E-002   0.0000000000000000     
  -5.9244545586334102E-002   5.2822707696925854E-002   0.0000000000000000     
  -6.2522481048073744E-002   5.7922277450973739E-002   0.0000000000000000     
  -6.5694874051958285E-002   6.3247405942896462E-002   0.0000000000000000     
  -4.5833010375805942E-002   5.9833387552720441E-002   0.0000000000000000     
  -4.8169537649298842E-002   6.5419056225159311E-002   0.0000000000000000     
  -5.0424883371319326E-002   7.1184488434316698E-002   0.0000000000000000     
  -5.2599047541867408E-002   7.7129684180192656E-002   0.0000000000000000     
  -5.4692030160943074E-002   8.3254643462787159E-002   0.0000000000000000     
  -5.0527467762421674E-002   6.0622500820210271E-002   0.0000000000000000     
  -5.3062749528420043E-002   6.6199219737074530E-002   0.0000000000000000     
  -5.5510343209994588E-002   7.1953849937013425E-002   0.0000000000000000     
  -5.7870248807145273E-002   7.7886391420026985E-002   0.0000000000000000     
  -6.0142466319872127E-002   8.3996844186115166E-002   0.0000000000000000     
  -5.5402597503985650E-002   6.1454541641069546E-002   0.0000000000000000     
  -5.8126752830874484E-002   6.7017885782635955E-002   0.0000000000000000     
  -6.0758794113890333E-002   7.2757033756922940E-002   0.0000000000000000     
  -6.3298721353033188E-002   7.8671985563930513E-002   0.0000000000000000     
  -6.5746534548303037E-002   8.4762741203658606E-002   0.0000000000000000     
  -6.0458399600497856E-002   6.2329510015298281E-002   0.0000000000000000     
  -6.3361547556662137E-002   6.7875054361843642E-002   0.0000000000000000     
  -6.6170236083006567E-002   7.3594039894045282E-002   0.0000000000000000     
  -6.8884465179531118E-002   7.9486466611903228E-002   0.0000000000000000     
  -7.1504234846235790E-002   8.5552334515417480E-002   0.0000000000000000     
  -6.5694874051958285E-002   6.3247405942896462E-002   0.0000000000000000     
  -6.8767133705783023E-002   6.8770725474697536E-002   0.0000000000000000     
  -7.1744669117343285E-002   7.4464868348380439E-002   0.0000000000000000     
  -7.4627480286639056E-002   8.0329834563945199E-002   0.0000000000000000     
  -7.7415567213670350E-002   8.6365624121391787E-002   0.0000000000000000     
  -5.4692030160943074E-002   8.3254643462787159E-002   0.0000000000000000     
  -5.6705065305005527E-002   8.9556899796942813E-002   0.0000000000000000     
  -5.8639387050513983E-002   9.6033986697502280E-002   0.0000000000000000     
  -6.0494995397468436E-002  0.10268590416446556        0.0000000000000000     
  -6.2271890345868892E-002  0.10951265219783264        0.0000000000000000     
  -6.0142466319872127E-002   8.3996844186115166E-002   0.0000000000000000     
  -6.2328917053444288E-002   9.0285352391734505E-002   0.0000000000000000     
  -6.4431522313130929E-002   9.6752060193341455E-002   0.0000000000000000     
  -6.6450282098932015E-002  0.10339696759093603        0.0000000000000000     
  -6.8385196410847601E-002  0.11022007458451827        0.0000000000000000     
  -6.5746534548303037E-002   8.4762741203658606E-002   0.0000000000000000     
  -6.8104947752761727E-002   9.1032006224062656E-002   0.0000000000000000     
  -7.0376675019471077E-002   9.7482486173097987E-002   0.0000000000000000     
  -7.2561716348431102E-002  0.10411418105076463        0.0000000000000000     
  -7.4660071739641815E-002  0.11092709085706258        0.0000000000000000     
  -7.1504234846235790E-002   8.5552334515417480E-002   0.0000000000000000     
  -7.4033157402957794E-002   9.1796861293927279E-002   0.0000000000000000     
  -7.6474845169534442E-002   9.8225264636771892E-002   0.0000000000000000     
  -7.8829298145965690E-002  0.10483754454395132        0.0000000000000000     
  -8.1096516332251539E-002  0.11163370101546558        0.0000000000000000     
  -7.7415567213670350E-002   8.6365624121391787E-002   0.0000000000000000     
  -8.0113546004032532E-002   9.2579917601328401E-002   0.0000000000000000     
  -8.2726032763321009E-002   9.8980395584363168E-002   0.0000000000000000     
  -8.5253027491535752E-002  0.10556705807049613        0.0000000000000000     
  -8.7694530188676775E-002  0.11233990505972727        0.0000000000000000     
  -6.2271890345868892E-002  0.10951265219783264        0.0000000000000000     
  -6.3976676588237344E-002  0.11651858807190077        0.0000000000000000     
  -6.5615958817095782E-002  0.12370806906096710        0.0000000000000000     
  -6.7189737032444227E-002  0.13108109516503169        0.0000000000000000     
  -6.8698011234282638E-002  0.13863766638409450        0.0000000000000000     
  -6.8385196410847601E-002  0.11022007458451827        0.0000000000000000     
  -7.0242243430323995E-002  0.11722901974799979        0.0000000000000000     
  -7.2027401338807598E-002  0.12443144165529223        0.0000000000000000     
  -7.3740670136298370E-002  0.13182734030639562        0.0000000000000000     
  -7.5382049822796338E-002  0.13941671570130995        0.0000000000000000     
  -7.4660071739641815E-002  0.11092709085706258        0.0000000000000000     
  -7.6674853563594131E-002  0.11793045951841839        0.0000000000000000     
  -7.8609174190778938E-002  0.12513353096125865        0.0000000000000000     
  -8.0463033621196278E-002  0.13253630518558338        0.0000000000000000     
  -8.2236431854846123E-002  0.14013878219139253        0.0000000000000000     
  -8.1096516332251539E-002  0.11163370101546558        0.0000000000000000     
  -8.3274506988047697E-002  0.11862290738315662        0.0000000000000000     
  -8.5361277373009817E-002  0.12581433697886640        0.0000000000000000     
  -8.7356827487137911E-002  0.13320798980259493        0.0000000000000000     
  -8.9261157330431995E-002  0.14080386585434224        0.0000000000000000     
  -8.7694530188676775E-002  0.11233990505972727        0.0000000000000000     
  -9.0041203703684736E-002  0.11930636334221441        0.0000000000000000     
  -9.2283710885500234E-002  0.12647385970811545        0.0000000000000000     
  -9.4422051734123325E-002  0.13384239415743029        0.0000000000000000     
  -9.6456226249553967E-002  0.14141196669015904        0.0000000000000000     
  -6.8698011234282638E-002  0.13863766638409450        0.0000000000000000     
  -7.0131311369531657E-002  0.14636227236178029        0.0000000000000000     
  -7.1480167385111898E-002  0.15423940274171385        0.0000000000000000     
  -7.2744579281023361E-002  0.16226905752389517        0.0000000000000000     
  -7.3924547057266046E-002  0.17045123670832424        0.0000000000000000     
  -7.5382049822796338E-002  0.13941671570130995        0.0000000000000000     
  -7.6936994560210831E-002  0.14719018521981966        0.0000000000000000     
  -7.8390958510451234E-002  0.15513836624170929        0.0000000000000000     
  -7.9743941673517504E-002  0.16326125876697881        0.0000000000000000     
  -8.0995944049409657E-002  0.17155886279562821        0.0000000000000000     
  -8.2236431854846123E-002  0.14013878219139253        0.0000000000000000     
  -8.3901186168818490E-002  0.14793060063832797        0.0000000000000000     
  -8.5429113840203338E-002  0.15590139918603158        0.0000000000000000     
  -8.6820214869000698E-002  0.16405117783450329        0.0000000000000000     
  -8.8074489255210511E-002  0.17237993658374315        0.0000000000000000     
  -8.9261157330431995E-002  0.14080386585434224        0.0000000000000000     
  -9.1023886195354620E-002  0.14858351861730515        0.0000000000000000     
  -9.2594633374368240E-002  0.15652850157468060        0.0000000000000000     
  -9.3973398867472913E-002  0.16463881472646860        0.0000000000000000     
  -9.5160182674668650E-002  0.17291445807266909        0.0000000000000000     
  -9.6456226249553967E-002  0.14141196669015904        0.0000000000000000     
  -9.8305094639819152E-002  0.14914893915675126        0.0000000000000000     
  -9.9887517112945926E-002  0.15701967340765646        0.0000000000000000     
 -0.10120349366893421       0.16502416944287468        0.0000000000000000     
 -0.10225302430778405       0.17316242726240594        0.0000000000000000     
 </DataArray>
 <DataArray  type="Float64" Name="stress" NumberOfComponents="3" format="ascii">
   13421164688.094383        4026349406.4283152        2890657234.4159989     
   11774445054.579641        1890468639.2174029        1713832853.2083104     
   10325094423.063639        412484545.33562994        809576131.75893688     
   9073112793.5463810       -407602875.21700287        177887070.06787664     
   8018500166.0278616       -569793622.44049788       -181234331.86486825     
   10546687534.407007        3164006260.3221021        2221595402.3389168     
   9676570753.1549435        1590601956.4222374        1443429703.5754943     
   8955164561.1921082        512899616.81980753        860280893.72249794     
   8382468958.5185032       -69100758.485188007        472148972.77992988     
   7958483945.1341314       -155399169.49274826        279033940.74778819     
   8345222684.3869400        2503566805.3160820        1707646724.2009385     
   8030135124.4035892        1426166875.4290752        1271371559.7206843     
   7815099740.9999580        682274200.80779910        952562513.30297017     
   7700116534.1760464        271888781.45225239        751219584.94779563     
   7685185503.9318552        195010617.36243773        667342774.65516174     
   6816770138.0341816        2045031041.4102545        1348811200.0020640     
   6835138168.3255844        1397163396.2379177        1197658421.6438818     
   6904899962.4871950        920608297.29960680        1086420990.5003526     
   7026055520.5190115        615365744.59532022        1015098906.5714763     
   7198604842.4210367        481435738.12506032        983692169.85725260     
   5961329895.3487339        1788398968.6046202        1145088829.7422931     
   6091579884.9209242        1503591518.8487635        1222290289.3450861     
   6224565225.6538124        1227901906.2952285        1261856325.3146451     
   6360285917.5473948        961330130.94401288        1263786937.6509700     
   6498741960.6016750        703876192.79511976        1228082126.3540616     
   8018500166.0278616       -569793622.44049788       -181234331.86486825     
   7942045061.0978642       -202107570.65140152       -79729443.813398659     
   7824108564.4346428        27307175.360278606       -11393055.957154488     
   7664690676.0381966        118450615.59454250        23774831.703865677     
   7463791395.9085245        71322750.051386833        25774219.169660401     
   7958483945.1341314       -155399169.49274826        279033940.74778819     
   7760218516.0246992        16154286.171227932        277023016.56460619     
   7538606887.5528860        109887077.29393101        259741711.54442081     
   7293649059.7186909        125799203.87535906        227190025.68723083     
   7025345032.5221081        63890665.915510178        179367958.99303737     
   7685185503.9318552        195010617.36243773        667342774.65516174     
   7416247234.5236177        185772722.06548023        582973762.66997981     
   7142097958.1238441        159164803.46339560        501232489.20601469     
   6862737674.7325315        115186861.55617905        422118954.26326716     
   6578166384.3496771        53838896.343830585        345633157.84173453     
   7198604842.4210367        481435738.12506032        983692169.85725260     
   6910131216.5946264        306747737.03136086        838122794.50272179     
   6634581776.1475210        175140353.86867666        713079277.02762520     
   6371956521.0797167        86613588.637003183        608561617.43196762     
   6122255451.3912191        41167441.336342335        524569815.71574414     
   6498741960.6016750        703876192.79511976        1228082126.3540616     
   6241870462.2377205        379079331.06886792        1042470112.0628296     
   6016058341.6239147        157813728.50977349        895282075.00925267     
   5821305598.7602520        40079385.117830753        786518015.19333601     
   5657612233.6467381        25876300.893046141        716177932.61507547     
   7463791395.9085245        71322750.051386833        25774219.169660401     
   7276883682.8090286       -16574054.739625454        12450456.946481576     
   7101809179.4491854       -65026827.065145016        390031.32992872118     
   6938567885.8290005       -74035566.925129414       -10407057.680002324     
   6787159801.9484644       -43600274.319615364       -19940810.083314445     
   7025345032.5221081        63890665.915510178        179367958.99303737     
   6850744924.8455162        5667761.6811890602        174161225.97409928     
   6683386263.4782448       -28416988.188710690        170310721.92998871     
   6523269048.4202957       -38363583.694215298        167816446.86071157     
   6370393279.6716738       -24172024.835289955        166678400.76627126     
   6578166384.3496771        53838896.343830585        345633157.84173453     
   6416139288.8622980        25369514.696100235        343186396.69164205     
   6256761876.2539129        5732409.3116827011        342188756.88459426     
   6100034146.5245228       -5072419.8094146252        342640238.42059445     
   5945956099.6741304       -7044972.6671984196        344540841.29963458     
   6122255451.3912191        41167441.336342335        524569815.71574414     
   5973066774.8593769        42531204.305099487        519525969.09911948     
   5821936017.7761984        37421365.436071634        516024136.19375253     
   5668863180.1416893        25837924.729264259        514064316.99964005     
   5513848261.9558411        7780882.1846749783        513646511.51678246     
   5657612233.6467381        25876300.893046141        716177932.61507547     
   5521527382.8367510        57152830.508182049        703179943.19653285     
   5378908688.0451021        66649880.184446096        691816859.85745752     
   5229756149.2717838        54367449.921822071        682088682.59785140     
   5074069766.5168056        20305539.720321178        673995411.41771126     
   6787159801.9484644       -43600274.319615364       -19940810.083314445     
   6593360768.8881769       -14125320.914027214       -9537734.6545120720     
   6395480358.3216419        1745040.8040747643        10926930.970065346     
   6193518570.2488594        4010810.8346841335        41453186.790409796     
   5987475404.6698284       -7328010.8221993446        82041032.806528658     
   6370393279.6716738       -24172024.835289955        166678400.76627126     
   6196512564.5647125       -9674609.6414630413        169660528.95306703     
   6019746891.2203598       -4793721.9056270123        181359204.95705789     
   5840096259.6386051       -9529361.6277909279        201774428.77825108     
   5657560669.8194513       -23881528.807943583        230906200.41663709     
   5945956099.6741304       -7044972.6671984196        344540841.29963458     
   5788150724.2960148       -8677989.1524615288        341497844.72474325     
   5628656809.9493456       -15939468.866231680        345826353.58847636     
   5467474356.6341219       -28829411.808524609        357526367.89082998     
   5304603364.3503466       -47347817.979319811        376597887.63181043     
   5513848261.9558411        7780882.1846749783        513646511.51678246     
   5368275248.0820694       -11135459.447036743        505974212.66052198     
   5222210114.5085897       -31692200.077773571        504328376.86431438     
   5075652861.2354059       -53889339.707525015        508709004.12815964     
   4928603488.2625132       -77726878.336303949        519116094.45205277     
   5074069766.5168056        20305539.720321178        673995411.41771126     
   4936886135.9228840       -17047020.525185347        663089632.76040566     
   4800406804.8980951       -52051915.540231943        656865274.78457797     
   4664631773.4424534       -84709145.324798584        655322337.49023259     
   4529561041.5559492       -115018709.87890601        658460820.87736034     
   5987475404.6698284       -7328010.8221993446        82041032.806528658     
   5803085683.5986977       -15725263.900187731        86953360.212516516     
   5620433736.8864899       -18329935.781761169        91293029.669051811     
   5439519564.5331869       -15142026.466986179        95060041.176141247     
   5260343166.5387955       -6161535.9558408260        98254394.733785152     
   5657560669.8194513       -23881528.807943583        230906200.41663709     
   5470928782.3011189       -41447469.688677073        230455016.80188459     
   5285873138.0372343       -53759266.387907505        230967598.74704862     
   5102393737.0277958       -60816918.905657291        232443946.25214931     
   4920490579.2728071       -62620427.241904974        234884059.31716588     
   5304603364.3503466       -47347817.979319811        376597887.63181043     
   5120119091.8401546       -72765512.226206541        370594740.04110801     
   4937049531.4799519       -93467499.306476116        367091781.51969922     
   4755394683.2697296       -109453779.22013807        366089012.06759167     
   4575154547.2094917       -120724351.96718431        367586431.68478221     
   4928603488.2625132       -77726878.336303949        519116094.45205277     
   4750656612.2158213       -109679391.51273799        507372529.93018574     
   4573962917.2146521       -137454634.53743625        499665577.98699284     
   4398522403.2589960       -161052607.41041565        495995238.62247640     
   4224335070.3488607       -180473310.13166308        496361511.83662802     
   4529561041.5559492       -115018709.87890601        658460820.87736034     
   4362541343.4281092       -152189107.54828620        640788386.46912742     
   4196613295.2413254       -185720672.08080792        628688988.14894307     
   4031776896.9955945       -215613403.47649598        622162625.91680074     
   3868032148.6909184       -241867301.73532534        621209299.77270782     
   5260343166.5387955       -6161535.9558408260        98254394.733785152     
   5100840151.8575420        9310747.3120837212        111439499.05598535     
   4939988227.2763748        20286664.246967554        122491509.36794163     
   4777787392.7953062        26766214.848844051        131410425.66966999     
   4614237648.4143276        28749399.117682934        138196247.96115571     
   4920490579.2728071       -62620427.241904974        234884059.31716588     
   4753832344.7402716       -59845218.752934217        245291767.41546753     
   4585601321.8050423       -62312638.272937298        255258648.43353835     
   4415797510.4671154       -70022685.801942348        264784702.37140298     
   4244420910.7264938       -82975361.339913368        273869929.22903740     
   4575154547.2094917       -120724351.96718431        367586431.68478221     
   4406176141.1971607       -129195703.74570632        374955551.97258908     
   4235401068.2793455       -143655945.20917177        383576112.11019772     
   4062829328.4560490       -164105076.35757852        393448112.09760332     
   3888460921.7272663       -190543097.19093513        404571551.93480742     
   4224335070.3488607       -180473310.13166308        496361511.83662802     
   4057871541.2282162       -198740707.66623425        500430852.72736478     
   3889387466.6992941       -223743256.56171250        507443900.39791501     
   3718882846.7621050       -255480956.81807804        517400654.84828103     
   3546357681.4166470       -293953808.43536377        530301116.07846093     
   3868032148.6909184       -241867301.73532534        621209299.77270782     
   3708918544.8334336       -268480230.51450849        621717669.67978561     
   3547560517.0648923       -302574572.33054090        626862013.29669154     
   3383958065.3852897       -344150327.18344903        636642330.62343502     
   3218111189.7946310       -393207495.07320857        651058621.66000986     
   4614237648.4143276        28749399.117682934        138196247.96115571     
   4411574181.7231913        19869042.579491138        160068157.26674616     
   4210833631.0106301        17398405.969877958        192307739.06790143     
   4012015996.2766891        21337489.289001465        234914993.36463431     
   3815121277.5213127        31686292.536672354        287889920.15694481     
   4244420910.7264938       -82975361.339913368        273869929.22903740     
   4063637689.9713426       -101776363.85244870        300659380.91455942     
   3882431868.1660123       -121986036.53224492        336201498.35703671     
   3700803445.3105145       -143604379.37926865        380496281.55645865     
   3518752421.4048300       -166631392.39356852        433543730.51284540     
   3888460921.7272663       -190543097.19093513        404571551.93480742     
   3724943641.9406133       -220649037.16801786        433542109.46669936     
   3558658244.0750008       -259982037.40828800        469650326.01693445     
   3389604728.1304555       -308542097.91167784        512896201.58548737     
   3217783094.1069508       -366329218.67825556        563279736.17236865     
   3546357681.4166470       -293953808.43536377        530301116.07846093     
   3395492037.6309810       -336748977.36727548        558716342.92317688     
   3239512758.7375965       -396589596.65824747        592654222.04759264     
   3078419844.7364941       -473475666.30828416        632114753.45170939     
   2912213295.6276770       -567407186.31736052        677097937.13553369     
   3218111189.7946310       -393207495.07320857        651058621.66000986     
   3075282877.0424542       -450076184.45019960        676182081.28397226     
   2924995412.1537890       -531808714.28215337        705213186.44901252     
   2767248795.1286502       -638405084.56902325        738151937.15513051     
   2602043025.9670143       -769865295.31087255        774998333.40232265     
   3815121277.5213127        31686292.536672354        287889920.15694481     
   3289622264.5256925       -14723214.427943230        327426982.39009649     
   2789775925.4809852        24376191.777149796        429082561.68198323     
   2315582260.3871737        148984511.15189660        592856658.03256667     
   1867041269.2442908        359101743.69640338        818749271.44189525     
   3518752421.4048300       -166631392.39356852        433543730.51284540     
   3131050009.7493792       -230289974.76063502        487653138.21662563     
   2757658449.8949838       -246245717.79082716        589621970.37007141     
   2398577741.8416719       -214498621.48412120        739450226.97318113     
   2053807885.5894110       -135048685.84052038        937137908.02596283     
   3217783094.1069508       -366329218.67825556        563279736.17236865     
   2927137019.1943531       -459458955.82694089        618729363.50530136     
   2639459973.9329791       -542691927.47155881        707779322.67882788     
   2354751958.3228054       -616028133.61214149        830429613.69295883     
   2073012972.3638690       -679467574.24865615        986680236.54768789     
   2912213295.6276770       -567407186.31736052        677097937.13553369     
   2677883292.8606129       -702230157.62686741        720655658.25611913     
   2435180497.5949192       -864962437.26514351        783554618.60824275     
   2184104909.8305984       -1055604025.2321874        865794818.19190943     
   1924656529.5676425       -1274154921.5279906        967376257.00711656     
   2602043025.9670143       -769865295.31087255        774998333.40232265     
   2383288830.7481694       -958603580.16039836        793432022.46908295     
   2144820020.8808424       -1213057247.1715274        816947858.15831804     
   1886636596.3650398       -1533226296.3442156        845545840.47002900     
   1608738557.2007658       -1919110727.6785202        879225969.40422332     
   5961329895.3487339        1788398968.6046202        1145088829.7422931     
   6091579884.9209242        1503591518.8487635        1222290289.3450861     
   6224565225.6538124        1227901906.2952285        1261856325.3146451     
   6360285917.5473948        961330130.94401288        1263786937.6509700     
   6498741960.6016750        703876192.79511976        1228082126.3540616     
   5434614770.8901854        1630384431.2670557        1028829054.4854442     
   5489190123.6993551        1373539001.9804626        1108752716.7640336     
   5545942443.7514029        1123950130.1701345        1161647769.6729341     
   5604871731.0463324        881617815.83607185        1187514213.2121444     
   5665977985.5841389        646542058.97827435        1186352047.3816655     
   4892337579.2181273        1467701273.7654381        932381315.29533565     
   4901543478.8744011        1247909420.0311465        1014375732.3456025     
   4912367961.8557396        1033512844.0470644        1079948354.2897239     
   4924811028.1621399        824511545.81319153        1129099181.1277003     
   4938872677.7936010        620905525.32952809        1161828212.8595319     
   4334498320.3325605        1300349496.0997682        855745612.17196763     
   4328639950.4460669        1126702773.0008159        939159336.08979166     
   4323841779.9668207        956590047.92601800        1016758079.1650155     
   4320103808.8948202        790011320.87537324        1088541841.3976383     
   4317426037.2300644        626966591.84888232        1154510622.7876611     
   3761096994.2334838        1128329098.2700450        798921945.11534011     
   3770479538.4143500        1009919060.8894708        883103527.99660230     
   3780363898.0846462        893181741.80699444        972076944.29880822     
   3790750073.2443705        778117141.02261567        1065842194.0219584     
   3801638063.8935256        664725258.53633547        1164399277.1660521     
   6498741960.6016750        703876192.79511976        1228082126.3540616     
   6241870462.2377205        379079331.06886792        1042470112.0628296     
   6016058341.6239147        157813728.50977349        895282075.00925267     
   5821305598.7602520        40079385.117830753        786518015.19333601     
   5657612233.6467381        25876300.893046141        716177932.61507547     
   5665977985.5841389        646542058.97827435        1186352047.3816655     
   5514733152.3841944        387758989.90890026        1064537178.1307060     
   5387683668.9368076        209627086.68139243        970315660.38589299     
   5284829535.2419825        112146349.29574728        903687494.14722884     
   5206170751.2997141        95316777.751969576        864652679.41470957     
   4938872677.7936010        620905525.32952809        1161828212.8595319     
   4862309864.8104935        418852855.43288016        1095802455.9849937     
   4803078373.5823565        274571258.05280733        1046539424.8850932     
   4761178204.1091928        188060733.18930888        1014039119.5598283     
   4736609356.3910027        159321280.84238529        998301540.00919974     
   4317426037.2300644        626966591.84888232        1154510622.7876611     
   4284600599.5166197        472360927.64080811        1136265945.6256928     
   4262242455.5605593        352646242.62401938        1123953368.5068510     
   4250351605.3618875        267822536.79851484        1117572891.4311352     
   4248928048.9205956        217889810.16429353        1117124514.3985455     
   3801638063.8935256        664725258.53633547        1164399277.1660521     
   3781605356.5025716        548283206.53268445        1185927647.0528016     
   3765175914.8714180        443852040.39502871        1202557491.2511692     
   3752349739.0000591        351431760.12336409        1214288809.7611506     
   3743126828.8885016        271022365.71769559        1221121602.5827494     
   5657612233.6467381        25876300.893046141        716177932.61507547     
   5521527382.8367510        57152830.508182049        703179943.19653285     
   5378908688.0451021        66649880.184446096        691816859.85745752     
   5229756149.2717838        54367449.921822071        682088682.59785140     
   5074069766.5168056        20305539.720321178        673995411.41771126     
   5206170751.2997141        95316777.751969576        864652679.41470957     
   5066826370.1623631        92223433.942205429        840749889.42872715     
   4924347237.2235775        78680917.460995674        820636371.59412801     
   4778733352.4833603        54689228.308338881        804312125.91091430     
   4629984715.9417048        20248366.484235287        791777152.37908363     
   4736609356.3910027        159321280.84238529        998301540.00919974     
   4600160776.5603323        123704663.09793282        967459556.99937916     
   4463976537.1084604        88969179.949469090        942561212.21285689     
   4328056638.0353832        55114831.396988869        923606505.64963627     
   4192401079.3411040        22141617.440497875        910595437.30971551     
   4248928048.9205956        217889810.16429353        1117124514.3985455     
   4121530602.0306587        151596517.97536993        1083308945.9084871     
   3997796587.6997461        97514667.649863005        1057591381.7136452     
   3877726005.9278622        55644259.187777281        1039971821.8140205     
   3761318856.7150006        25985292.589108706        1030450266.2096127     
   3743126828.8885016        271022365.71769559        1221121602.5827494     
   3630935846.5733423        175898998.57451200        1188298056.1560531     
   3525807388.9974370        104317380.56217778        1165726880.0964928     
   3427741456.1607881        56277511.680697441        1153408074.4040651     
   3336738048.0633950        31779391.930070519        1151341639.0787683     
   5074069766.5168056        20305539.720321178        673995411.41771126     
   4936886135.9228840       -17047020.525185347        663089632.76040566     
   4800406804.8980951       -52051915.540231943        656865274.78457797     
   4664631773.4424534       -84709145.324798584        655322337.49023259     
   4529561041.5559492       -115018709.87890601        658460820.87736034     
   4629984715.9417048        20248366.484235287        791777152.37908363     
   4506251050.1708117       -11645050.006402254        783341500.64067340     
   4382383754.2907381       -43983900.194304466        779310752.60276496     
   4258382828.3014841       -76768184.079472065        779684908.26535082     
   4134248272.2030530       -109997901.66189694        784463967.62844038     
   4192401079.3411040        22141617.440497875        910595437.30971551     
   4081327329.8761568       -4529669.8503932953        903652327.86549759     
   3969282020.6237116       -34439489.766281128        900837605.14079964     
   3856265151.5837669       -67587842.307160616        902151269.13562000     
   3742276722.7563267       -103974727.47303653        907593319.84996021     
   3761318856.7150006        25985292.589108706        1030450266.2096127     
   3662114975.0389171        4299119.9428410530        1024022114.4348764     
   3561101603.8970151       -23418684.256158829        1021445832.3986820     
   3458278743.2892976       -57168120.007877350        1022721420.1010286     
   3353646393.2157602       -96949187.312327623        1027848877.5419128     
   3336738048.0633950        31779391.930070519        1151341639.0787683     
   3248613985.6590929        14841319.373296380        1144450860.3488128     
   3157842504.1106529       -10921483.663933039        1141135434.3764181     
   3064423603.4180756       -45509017.181623936        1141395361.1615820     
   2968357283.5813599       -88921281.179770470        1145230640.7043071     
   4529561041.5559492       -115018709.87890601        658460820.87736034     
   4362541343.4281092       -152189107.54828620        640788386.46912742     
   4196613295.2413254       -185720672.08080792        628688988.14894307     
   4031776896.9955945       -215613403.47649598        622162625.91680074     
   3868032148.6909184       -241867301.73532534        621209299.77270782     
   4134248272.2030530       -109997901.66189694        784463967.62844038     
   3980661193.2108712       -150563506.25491762        769237690.43770707     
   3828196669.5086656       -187387259.88135982        759554670.39950764     
   3676854701.0964265       -220469162.54123640        755414907.51383603     
   3526635287.9741626       -249809214.23453784        756818401.78069925     
   3742276722.7563267       -103974727.47303653        907593319.84996021     
   3602037180.2269068       -147961063.79156327        894849256.11712813     
   3462951098.3363705       -188102531.31380177        887618670.60131514     
   3325018477.0847249       -224399130.03973985        885901563.30251467     
   3188239316.4719706       -256850859.96938586        889697934.22073698     
   3353646393.2157602       -96949187.312327623        1027848877.5419128     
   3226669304.4762011       -144381780.15823317        1017623083.5073869     
   3100876581.7244449       -187866486.37813115        1012880988.7543641     
   2976268224.9604988       -227403305.97199774        1013622593.2828430     
   2852844234.1843514       -262992238.93986320        1019847897.0928252     
   2968357283.5813599       -88921281.179770470        1145230640.7043071     
   2854557565.9587631       -139825655.35492611        1137559172.6084902     
   2741973119.6728859       -186679125.07435262        1135341624.8586569     
   2630603944.7237377       -229481690.33801973        1138577997.4548135     
   2520450041.1113052       -268233351.14596176        1147268290.3969598     
   3868032148.6909184       -241867301.73532534        621209299.77270782     
   3708918544.8334336       -268480230.51450849        621717669.67978561     
   3547560517.0648923       -302574572.33054090        626862013.29669154     
   3383958065.3852897       -344150327.18344903        636642330.62343502     
   3218111189.7946310       -393207495.07320857        651058621.66000986     
   3526635287.9741626       -249809214.23453784        756818401.78069925     
   3378598087.7878342       -280170190.92376900        755825203.06685126     
   3228333548.4367976       -317955631.49537730        759581275.29253471     
   3075841669.9210382       -363165535.94938529        768086618.45774639     
   2921122452.2405615       -415799904.28578746        781341232.56249166     
   3188239316.4719706       -256850859.96938586        889697934.22073698     
   3051602226.3273716       -290862772.65748107        887223099.09002757     
   2912754881.7643938       -332242200.07350028        889610832.12854981     
   2771697282.7830381       -380989142.21745312        896861133.33629894     
   2628429429.3833041       -437103599.08932781        908974002.71327555     
   2852844234.1843514       -262992238.93986320        1019847897.0928252     
   2727930960.4520369       -300557975.71566319        1015911357.7493217     
   2600824517.0476890       -345434278.06490874        1016950683.8047447     
   2471524903.9712939       -397621145.98764253        1022965875.2590883     
   2340032121.2228665       -457118579.48382139        1033956932.1123612     
   2520450041.1113052       -268233351.14596176        1147268290.3969598     
   2407584290.1618357       -309255800.09829903        1141889979.0447271     
   2292542454.2866707       -357531865.46962404        1141600830.3211138     
   2175324533.4858050       -413061547.25995433        1146400844.2261169     
   2055930527.7592454       -475844845.46926332        1156290020.7597461     
   3218111189.7946310       -393207495.07320857        651058621.66000986     
   3075282877.0424542       -450076184.45019960        676182081.28397226     
   2924995412.1537890       -531808714.28215337        705213186.44901252     
   2767248795.1286502       -638405084.56902325        738151937.15513051     
   2602043025.9670143       -769865295.31087255        774998333.40232265     
   2921122452.2405615       -415799904.28578746        781341232.56249166     
   2787893413.8807163       -476165853.02183831        799650893.58299029     
   2647543164.6663527       -560269171.27295315        822244026.13938010     
   2500071704.5974817       -668109859.03908718        849120630.23164070     
   2345479033.6740890       -799687916.32030392        880280705.85979533     
   2628429429.3833041       -437103599.08932781        908974002.71327555     
   2505873453.9723811       -500644670.61746407        920864129.95927978     
   2376534208.9889102       -586796640.72075224        937413554.73597300     
   2240411694.4328957       -695559509.39919293        958622277.04335725     
   2097505910.3043351       -826933276.65278196        984490296.88143110     
   2340032121.2228665       -457118579.48382139        1033956932.1123612     
   2229222997.3174510       -523512637.23706281        1039821790.4128302     
   2111968545.1214607       -611391122.62556469        1050721772.2387950     
   1988268764.6348925       -720754035.64931417        1066656877.5902584     
   1858123655.8577497       -851601376.30832386        1087627106.4672248     
   2055930527.7592454       -475844845.46926332        1156290020.7597461     
   1957942043.9159298       -544769752.88063884        1156523874.9436469     
   1853846173.0640056       -634052616.98736882        1162168678.6478539     
   1743642915.2034769       -743693437.78945959        1173224431.8723631     
   1627332270.3343434       -873692215.28688884        1189691134.6171720     
   2602043025.9670143       -769865295.31087255        774998333.40232265     
   2383288830.7481694       -958603580.16039836        793432022.46908295     
   2144820020.8808424       -1213057247.1715274        816947858.15831804     
   1886636596.3650398       -1533226296.3442156        845545840.47002900     
   1608738557.2007658       -1919110727.6785202        879225969.40422332     
   2345479033.6740890       -799687916.32030392        880280705.85979533     
   2142341856.4764071       -983805232.92455816        880160138.71666837     
   1921286830.2821827       -1227648712.8506141        885904138.44920146     
   1682313955.0914299       -1531218356.0984516        897512705.05739856     
   1425423230.9041333       -1894514162.6680794        914985838.54126787     
   2097505910.3043351       -826933276.65278196        984490296.88143110     
   1912221237.5654881       -1005758979.0804712        967911700.12234116     
   1710815481.4820533       -1238321625.9901445        957980090.49210393     
   1493288642.0540161       -1524621217.3818049        954695467.99072051     
   1259640719.2813797       -1864657753.2554679        958057832.61818314     
   1858123655.8577497       -851601376.30832386        1087627106.4672248     
   1692926974.0154271       -1024464818.6281221        1056686706.6861078     
   1513405974.4804461       -1245075986.5901132        1033175714.2870233     
   1319560657.2528121       -1513434880.1943007        1017094129.2699802     
   1111391022.3325036       -1829541499.4407003        1008441951.6349744     
   1627332270.3343434       -873692215.28688884        1189691134.6171720     
   1484459065.8262100       -1039922751.5675263        1146485158.4079552     
   1329058309.2773674       -1247911794.6505363        1111491009.8339624     
   1161130000.6877980       -1497659344.5359476        1084708688.8951907     
   980674140.05751526       -1789165401.2237597        1066138195.5916466     
   3761096994.2334838        1128329098.2700450        798921945.11534011     
   3770479538.4143500        1009919060.8894708        883103527.99660230     
   3780363898.0846462        893181741.80699444        972076944.29880822     
   3790750073.2443705        778117141.02261567        1065842194.0219584     
   3801638063.8935256        664725258.53633547        1164399277.1660521     
   3199383834.7913852        959815150.43741548        756580667.55330253     
   3225668868.1669488        868900472.81068063        852984832.70473528     
   3251550759.7113414        776641989.08004010        951253996.18025911     
   3277029509.4245615        683039699.24549389        1051388157.9798741     
   3302105117.3066106        588093603.30704188        1153387318.1035805     
   2676609075.8767529        802982722.76302588        723392132.91370404     
   2711434212.4560070        737054689.09282827        830963096.79460597     
   2744951249.8834887        666766324.91672158        937472223.90274656     
   2777160188.1591964        592117630.23470521        1042919514.2381256     
   2808061027.2831326        513108605.04677951        1147304967.8007436     
   2192772717.4895864        657831815.24687600        699356341.19654477     
   2227775571.2815232        614381709.73591340        817038320.26621437     
   2260565368.6010861        563554749.31703794        930731627.46627021     
   2291142109.4482751        505350933.99024934        1040436262.7967125     
   2319505793.8230910        439770263.75554824        1146152226.2575405     
   1747874759.6298862        524362427.88896585        684473292.40182471     
   1774692944.6434984        500881534.73993623        811210503.11956120     
   1798393115.8641357        467007262.28099000        931032206.87083101     
   1818975273.2917984        422739610.51212728        1043938403.6556344     
   1836439416.9264853        368078579.43334734        1149929093.4739711     
   3801638063.8935256        664725258.53633547        1164399277.1660521     
   3781605356.5025716        548283206.53268445        1185927647.0528016     
   3765175914.8714180        443852040.39502871        1202557491.2511692     
   3752349739.0000591        351431760.12336409        1214288809.7611506     
   3743126828.8885016        271022365.71769559        1221121602.5827494     
   3302105117.3066106        588093603.30704188        1153387318.1035805     
   3274877712.9477386        482188913.15412414        1181909463.0070624     
   3251173654.4581547        388028709.23216856        1207364052.4272823     
   3230992941.8378587        305612991.54117262        1229751086.3642414     
   3214335575.0868511        234941760.08113682        1249070564.8179400     
   2808061027.2831326        513108605.04677951        1147304967.8007436     
   2778870269.3995490        419310679.77755660        1182727647.8486948     
   2753122937.4947438        336990841.10426307        1216913742.6185076     
   2730819031.5687170        266149089.02689695        1249863252.1101816     
   2711958551.6214695        206785423.54546118        1281576176.3237176     
   2319505793.8230910        439770263.75554824        1146152226.2575405     
   2293583025.8580036        359648506.40298271        1188382201.5777001     
   2271023763.9811845        290738436.01131344        1231206561.8248444     
   2251828008.1926351        233040052.58054107        1274625306.9989727     
   2235995758.4923544        186553356.11066437        1318638437.1000848     
   1836439416.9264853        368078579.43334734        1149929093.4739711     
   1819015982.3231025        303202393.03040195        1198873124.1940782     
   1804876133.9174783        249271493.95331985        1250242510.0462923     
   1794019871.7096133        206285882.20210153        1304037251.0306129     
   1786447195.6995077        174245557.77674794        1360257347.1470399     
   3743126828.8885016        271022365.71769559        1221121602.5827494     
   3630935846.5733423        175898998.57451200        1188298056.1560531     
   3525807388.9974370        104317380.56217778        1165726880.0964928     
   3427741456.1607881        56277511.680697441        1153408074.4040651     
   3336738048.0633950        31779391.930070519        1151341639.0787683     
   3214335575.0868511        234941760.08113682        1249070564.8179400     
   3131299232.3096852        158017816.76845872        1231671762.4739182     
   3053746783.8534746        99373521.192298889        1222247368.5234108     
   2981678229.7182217        59008873.352661252        1220797382.9664187     
   2915093569.9039211        36923873.249539256        1227321805.8029404     
   2711958551.6214695        206785423.54546118        1281576176.3237176     
   2651568385.6005278        146108365.22875881        1277760382.5743532     
   2595083483.4822416        98448853.254241109        1279641035.2448852     
   2542503845.2666106        63806887.621911883        1287218134.3353109     
   2493829470.9536362        42182468.331767440        1300491679.8456318     
   2235995758.4923544        186553356.11066437        1318638437.1000848     
   2191743306.4458666        140170643.95540524        1326563916.4573631     
   2149817487.8837352        101543376.74799991        1337907880.2609146     
   2110218302.8059607        70671554.488450170        1352670328.5107439     
   2072945751.2125406        47555177.176751971        1370851261.2068450     
   1786447195.6995077        174245557.77674794        1360257347.1470399     
   1751823994.8457050        140204652.94840336        1378082364.1229420     
   1717948797.0579584        108657091.67357886        1397047903.5714998     
   1684821602.3362679        79602873.952275574        1417153965.4927132     
   1652442410.6806340        53041999.784492433        1438400549.8865821     
   3336738048.0633950        31779391.930070519        1151341639.0787683     
   3248613985.6590929        14841319.373296380        1144450860.3488128     
   3157842504.1106529       -10921483.663933039        1141135434.3764181     
   3064423603.4180756       -45509017.181623936        1141395361.1615820     
   2968357283.5813599       -88921281.179770470        1145230640.7043071     
   2915093569.9039211        36923873.249539256        1227321805.8029404     
   2835616789.7855420        16400563.517882824        1218073302.3510804     
   2754235891.0358920       -10469808.318014741        1212728564.1711910     
   2670950873.6549687       -43687242.258154869        1211287591.2632704     
   2585761737.6427736       -83251738.302533984        1213750383.6273186     
   2493829470.9536362        42182468.331767440        1300491679.8456318     
   2423938294.5909195        18355417.866144538        1289752635.6035471     
   2352886300.1097960       -9341026.3274983168        1283245769.1478400     
   2280673487.5102649       -40906864.249166012        1280971080.4785094     
   2207299856.7923274       -76342095.898855448        1282928569.5955586     
   2072945751.2125406        47555177.176751971        1370851261.2068450     
   2013578500.0752223        20705882.418084741        1359488860.1062121     
   1953793731.3323641       -7535137.6923844814        1352687049.3063645     
   1893591444.9839647       -37167883.154656410        1350445828.8073025     
   1832971641.0300236       -68192353.968732357        1352765198.6090269     
   1652442410.6806340        53041999.784492433        1438400549.8865821     
   1604537406.2384539        23451957.173703790        1427281975.8590765     
   1556958184.7035990       -5052142.4126662016        1421052404.6467636     
   1509704746.0760672       -32470298.974624395        1419711836.2496450     
   1462777090.3558598       -58802512.512170613        1423260270.6677220     
   2968357283.5813599       -88921281.179770470        1145230640.7043071     
   2854557565.9587631       -139825655.35492611        1137559172.6084902     
   2741973119.6728859       -186679125.07435262        1135341624.8586569     
   2630603944.7237377       -229481690.33801973        1138577997.4548135     
   2520450041.1113052       -268233351.14596176        1147268290.3969598     
   2585761737.6427736       -83251738.302533984        1213750383.6273186     
   2487568432.8807554       -128192128.28751838        1208638566.0712311     
   2390306954.4539680       -170026430.48840058        1208701457.0949450     
   2293977302.3624163       -208754644.90516174        1213939056.6984613     
   2198579476.6060939       -244376771.53782701        1224351364.8817770     
   2207299856.7923274       -76342095.898855448        1282928569.5955586     
   2123915216.9875004       -115557826.06468165        1280045716.7441285     
   2041178958.5164146       -152612285.11803770        1282058360.7063160     
   1959091081.3790751       -187505473.05890810        1288966501.4821188     
   1877651585.5754747       -220237389.88731146        1300770139.0715387     
   1832971641.0300236       -68192353.968732357        1352765198.6090269     
   1763597918.2789989       -101922748.68641722        1351780624.6271830     
   1694589131.8602266       -134436688.96326423        1355412335.6927719     
   1625945281.7737098       -165734174.79926062        1363660331.8057921     
   1557666368.0194438       -195815206.19441766        1376524612.9662404     
   1462777090.3558598       -58802512.512170613        1423260270.6677220     
   1406616536.7552502       -87286896.152732015        1423843289.7203968     
   1350537474.4854019       -115499642.02408689        1428763382.0543160     
   1294539903.5463207       -143440750.12621909        1438020547.6694796     
   1238623823.9379997       -171110220.45915121        1451614786.5658844     
   2520450041.1113052       -268233351.14596176        1147268290.3969598     
   2407584290.1618357       -309255800.09829903        1141889979.0447271     
   2292542454.2866707       -357531865.46962404        1141600830.3211138     
   2175324533.4858050       -413061547.25995433        1146400844.2261169     
   2055930527.7592454       -475844845.46926332        1156290020.7597461     
   2198579476.6060939       -244376771.53782701        1224351364.8817770     
   2099763407.9156649       -282530140.16268682        1216894412.6310382     
   1999022698.0909097       -327098979.23528707        1214493650.1830592     
   1896357347.1318259       -378083288.75565803        1217149077.5378370     
   1791767355.0384166       -435483068.72377884        1224860694.6953797     
   1877651585.5754747       -220237389.88731146        1300770139.0715387     
   1792790991.0701950       -255549940.60685933        1291527897.0122266     
   1706257199.2219656       -296439815.80291164        1287308871.9298131     
   1618050210.0307748       -342907015.47549665        1288113063.8243003     
   1528170023.4966326       -394951539.62458909        1293940472.6956892     
   1557666368.0194438       -195815206.19441766        1376524612.9662404     
   1486667039.6254315       -228315201.43081737        1365790432.1882885     
   1414245957.6798368       -265554375.17248994        1360046495.5613778     
   1340403122.1826563       -307532727.41945136        1359292803.0855086     
   1265138533.1338940       -354250258.17168170        1363529354.7606776     
   1238623823.9379997       -171110220.45915121        1451614786.5658844     
   1181391553.5813675       -200825922.63457233        1439682018.1592302     
   1122988973.4645271       -234442657.34402174        1432706521.0777535     
   1063416083.5874724       -271960424.58751959        1430688295.3214583     
   1002672883.9502044       -313379224.36505967        1433627340.8903451     
   2055930527.7592454       -475844845.46926332        1156290020.7597461     
   1957942043.9159298       -544769752.88063884        1156523874.9436469     
   1853846173.0640056       -634052616.98736882        1162168678.6478539     
   1743642915.2034769       -743693437.78945959        1173224431.8723631     
   1627332270.3343434       -873692215.28688884        1189691134.6171720     
   1791767355.0384166       -435483068.72377884        1224860694.6953797     
   1709146115.6511002       -497556113.04694235        1218229322.2793400     
   1621022776.6287398       -577969489.48692083        1216426758.4426408     
   1527397337.9713488       -676723198.04366720        1219453003.1852827     
   1428269799.6789138       -793817238.71722889        1227308056.5072646     
   1528170023.4966326       -394951539.62458909        1293940472.6956892     
   1459252768.7339892       -450671698.80895203        1281150042.2822049     
   1385438701.7098765       -522714565.53154534        1272606279.5070970     
   1306727822.4242918       -611080139.79238021        1268309184.3703704     
   1223120130.8772373       -715768421.59144831        1268258756.8720174     
   1265138533.1338940       -354250258.17168170        1363529354.7606776     
   1208262003.1646082       -404116510.16662860        1345286034.9522421     
   1147093948.3074129       -468287845.12126338        1330707241.8412244     
   1081634368.5623229       -546764263.03555012        1319792975.4276209     
   1011883263.9293224       -639545763.90953648        1312543235.7114267     
   1002672883.9502044       -313379224.36505967        1433627340.8903451     
   956173818.94294715       -357890547.11999571        1410637300.2894573     
   905988516.42135751       -414689328.25603878        1390729645.4450204     
   852116976.38543129       -483775567.77320343        1373904376.3570342     
   794559198.83516836       -565149265.67148972        1360161493.0255024     
   1627332270.3343434       -873692215.28688884        1189691134.6171720     
   1484459065.8262100       -1039922751.5675263        1146485158.4079552     
   1329058309.2773674       -1247911794.6505363        1111491009.8339624     
   1161130000.6877980       -1497659344.5359476        1084708688.8951907     
   980674140.05751526       -1789165401.2237597        1066138195.5916466     
   1428269799.6789138       -793817238.71722889        1227308056.5072646     
   1310677742.9567728       -941100548.72403824        1167718116.6260858     
   1182335095.4492290       -1124219161.3488522        1114990949.0357182     
   1043241857.1562871       -1343173076.5916650        1069126553.7361631     
   893398028.07793939       -1597962294.4524901        1030124930.7274112     
   1223120130.8772373       -715768421.59144831        1268258756.8720174     
   1126954778.0999067       -845260838.47679710        1194357974.7834139     
   1021815795.7924955       -1004665353.7957466        1125970909.6412058     
   907703183.95499647       -1193981967.5483251        1063097561.4453976     
   784616942.58741283       -1413210679.7345123        1005737930.1959828     
   1011883263.9293224       -639545763.90953648        1312543235.7114267     
   933290171.25561857       -752403620.82577968        1226404732.8799386     
   847500410.30715287       -889250371.99123061        1144430891.6504292     
   754513981.08391583       -1050086017.4059176        1066621712.0229067     
   654330883.58591282       -1234910557.0698199        992977193.99736643     
   794559198.83516836       -565149265.67148972        1360161493.0255024     
   729683922.42391300       -662528895.77097785        1263858390.9156606     
   659388938.99320984       -777974215.93529284        1170370895.0633905     
   583674248.54305613       -911485226.16444516        1079699005.4686875     
   502539851.07345521       -1063061926.4584215        991842722.13155973     
   1747874759.6298862        524362427.88896585        684473292.40182471     
   1774692944.6434984        500881534.73993623        811210503.11956120     
   1798393115.8641357        467007262.28099000        931032206.87083101     
   1818975273.2917984        422739610.51212728        1043938403.6556344     
   1836439416.9264853        368078579.43334734        1149929093.4739711     
   1319561018.9560497        395868305.68681490        675454949.73500776     
   1331832867.9855659        375905098.90581769        797904575.35315490     
   1341766206.6703539        348146857.64239192        915268444.94199479     
   1349361035.0104129        312593581.89653724        1027546558.5015274     
   1354617353.0057430        269245271.66825324        1134738916.0317528     
   885477312.12647498        265643193.63794249        669013276.40155780     
   888430684.99234998        250766031.17111424        788084737.60973668     
   889825050.96174264        230692179.04934508        903900193.72576702     
   889660410.03465307        205421637.27263510        1016459644.7496496     
   887936762.21108127        174954405.84098423        1125763090.6813838     
   445623639.14116263        133687091.74234879        665148272.40147507     
   444486395.66385090        125464331.53582579        781750989.88930595     
   442569648.73830324        114643226.50184976        896927453.22214794     
   439873398.36451972        101223776.64042065        1010677662.4000012     
   436397644.54250038        85205981.951539040        1123001617.4228654     
   1.1220420197362073E-004   3.3661260592086221E-005   663859937.73475909     
   6.8569234539434898E-005  -4.7603862244058052E-005   778903332.19186330     
   3.5293997577991861E-005  -9.4119709736562515E-005   894350223.43113768     
   1.2497157612785662E-005  -1.0564251511126175E-004   1010200611.4525821     
   3.6028872193364611E-007  -8.1805555919044746E-005   1126454496.2561970     
   1836439416.9264853        368078579.43334734        1149929093.4739711     
   1819015982.3231025        303202393.03040195        1198873124.1940782     
   1804876133.9174783        249271493.95331985        1250242510.0462923     
   1794019871.7096133        206285882.20210153        1304037251.0306129     
   1786447195.6995077        174245557.77674794        1360257347.1470399     
   1354617353.0057430        269245271.66825324        1134738916.0317528     
   1347167177.0583076        222273351.86758485        1191679093.2556047     
   1342179690.7591901        183510397.56130999        1249733898.9437075     
   1339654894.1083906        152956408.74942791        1308903333.0960612     
   1339592787.1059093        130611385.43193954        1369187395.7126653     
   887936762.21108127        174954405.84098423        1125763090.6813838     
   886714911.58286119        144763272.64157149        1189741701.7679670     
   887134854.05351889        120044783.10508266        1253524214.6509445     
   889196589.62305355        100798937.23151818        1317110629.3303170     
   892900118.29146516        87025735.020877331        1380500945.8060844     
   436397644.54250038        85205981.951539040        1123001617.4228654     
   437659185.89676404        70672155.352362245        1193060949.7311647     
   439741623.80046439        58874650.584640950        1261613457.1680033     
   442644958.25360096        49813467.648373619        1328659139.7333794     
   446369189.25617385        43488606.543561056        1394197997.4272938     
   3.6028872193364611E-007  -8.1805555919044746E-005   1126454496.2561970     
   1.6287337778841581E-005  -4.0858456727855928E-005   1201636837.1451986     
   2.7896641041147904E-005  -1.4087003084175394E-005   1274001626.4948823     
   3.4688512364742265E-005  -3.7422846415131531E-006   1343548864.3052487     
   3.6783762848844467E-005  -8.5325519543650401E-006   1410278550.5762973     
   1786447195.6995077        174245557.77674794        1360257347.1470399     
   1751823994.8457050        140204652.94840336        1378082364.1229420     
   1717948797.0579584        108657091.67357886        1397047903.5714998     
   1684821602.3362679        79602873.952275574        1417153965.4927132     
   1652442410.6806340        53041999.784492433        1438400549.8865821     
   1339592787.1059093        130611385.43193954        1369187395.7126653     
   1311039638.7273009        104304982.48920298        1388134278.6440008     
   1283047492.6482348        79868587.211608589        1408825025.1869197     
   1255616348.8687117        57302199.599156857        1431259635.3414218     
   1228746207.3887322        36605819.651848972        1455438109.1075082     
   892900118.29146516        87025735.020877331        1380500945.8060844     
   872140854.21355808        68970983.511400074        1400351527.1319201     
   851755591.66868091        52162903.778689116        1422549313.2082691     
   831744330.65683293        36601495.822742432        1447094304.0351286     
   812107071.17801476        22286759.643562168        1473986499.6125002     
   446369189.25617385        43488606.543561056        1394197997.4272938     
   435127641.30447608        34202656.014994994        1414734109.5867016     
   424073094.11929464        25540041.374816671        1438220767.6355460     
   413205547.70063102        17500762.623030603        1464657971.5738311     
   402525002.04848289        10084819.759631261        1494045721.4015553     
   3.6783762848844467E-005  -8.5325519543650401E-006   1410278550.5762973     
   5.6490984051754616E-005  -9.2817237412429393E-006   1431282026.0083418     
   7.9732466050775745E-005   1.7499737922491310E-006   1455839388.4687519     
   1.0546451532602073E-004   2.1517243115481550E-005   1483950637.9575300     
   1.3551431039586731E-004   5.4809636682730947E-005   1515615774.4746740     
   1652442410.6806340        53041999.784492433        1438400549.8865821     
   1604537406.2384539        23451957.173703790        1427281975.8590765     
   1556958184.7035990       -5052142.4126662016        1421052404.6467636     
   1509704746.0760672       -32470298.974624395        1419711836.2496450     
   1462777090.3558598       -58802512.512170613        1423260270.6677220     
   1228746207.3887322        36605819.651848972        1455438109.1075082     
   1195252406.8632247        15143773.535602868        1446838000.7822609     
   1162002943.5182133       -5503815.3123261929        1442558739.6174433     
   1128997817.3536925       -25336946.891950667        1442600325.6130557     
   1096237028.3696661       -44355621.203264177        1446962758.7690952     
   812107071.17801476        22286759.643562168        1473986499.6125002     
   791401172.69842505        8465719.4606329799        1467809836.9748752     
   770858165.67249668       -4812349.2100889683        1465385865.8429151     
   750478050.10023141       -17547446.368602931        1466714586.2166193     
   730260825.98162735       -29739572.014911085        1471795998.0959888     
   402525002.04848289        10084819.759631261        1494045721.4015553     
   392983703.74405122        3417794.9487872571        1490197484.4369175     
   383523851.16645205       -2977744.1059492528        1489533783.3231790     
   374145444.31568325       -9101797.4045829028        1492054618.0603406     
   364848483.19174623       -14954364.947110817        1497759988.6484001     
   1.3551431039586731E-004   5.4809636682730947E-005   1515615774.4746740     
   1.0730885045020486E-004   7.6324020363911440E-005   1514000943.1683867     
   7.8325624374653901E-005   9.4898905583601541E-005   1515002492.0582337     
   5.0091570085980835E-005   1.1614450244048233E-004   1518620421.1442151     
   2.0999685506989569E-005   1.3453066499630246E-004   1524854730.4263315     
   1462777090.3558598       -58802512.512170613        1423260270.6677220     
   1406616536.7552502       -87286896.152732015        1423843289.7203968     
   1350537474.4854019       -115499642.02408689        1428763382.0543160     
   1294539903.5463207       -143440750.12621909        1438020547.6694796     
   1238623823.9379997       -171110220.45915121        1451614786.5658844     
   1096237028.3696661       -44355621.203264177        1446962758.7690952     
   1053599509.5187652       -65874040.028811157        1447886646.5071650     
   1011023109.1659364       -87188730.527451396        1453268265.0449181     
   968507827.31118107       -108299692.69917810        1463107614.3823531     
   926053663.95449901       -129206926.54399788        1477404694.5194693     
   730260825.98162735       -29739572.014911085        1471795998.0959888     
   701491077.64740241       -44188605.295354486        1473036986.2146473     
   672762074.97855973       -58501819.691189200        1478856362.6514277     
   644073817.97509885       -72679215.202418119        1489254127.4063270     
   615426306.63702059       -86720791.829039484        1504230280.4793510     
   364848483.19174623       -14954364.947110817        1497759988.6484001     
   350291241.14116347       -22230591.952358633        1499294308.8428428     
   335754371.92327332       -29438909.515298307        1505527674.8738446     
   321237875.53807318       -36579317.635937020        1516460086.7414069     
   306741751.98556507       -43651816.314270079        1532091544.4455230     
   2.0999685506989569E-005   1.3453066499630246E-004   1524854730.4263315     
   4.6803220639761065E-005   1.7058241266407537E-004   1526658614.3917511     
   7.4208038981126532E-005   2.1335954980794300E-004   1533282201.7121696     
   1.0145272900163261E-004   2.5473556414429093E-004   1544725492.3875854     
   1.2933793230557626E-004   2.9859356745395952E-004   1560988486.4179969     
   1238623823.9379997       -171110220.45915121        1451614786.5658844     
   1181391553.5813675       -200825922.63457233        1439682018.1592302     
   1122988973.4645271       -234442657.34402174        1432706521.0777535     
   1063416083.5874724       -271960424.58751959        1430688295.3214583     
   1002672883.9502044       -313379224.36505967        1433627340.8903451     
   926053663.95449901       -129206926.54399788        1477404694.5194693     
   883796644.30746651       -151293548.23942280        1464879377.8016517     
   840661892.34027934       -176305944.33536261        1457155656.3475814     
   796649408.05293298       -204244114.83183450        1454233530.1572509     
   751759191.44543064       -235108059.72882658        1456112999.2306662     
   615426306.63702059       -86720791.829039484        1504230280.4793510     
   587699748.95262659       -101311769.66855004        1491453755.7971048     
   559388036.38812935       -117853263.77507126        1483323150.3171644     
   530491168.94352937       -136345274.14860207        1479838464.0395303     
   501009146.61882532       -156787800.78914642        1480999696.9642034     
   306741751.98556507       -43651816.314270079        1532091544.4455230     
   293100867.51684588       -50880586.921957061        1519405152.1455786     
   279167405.60807526       -59084615.663149267        1511209002.9865038     
   264941366.25925982       -68263902.537825987        1507503096.9682958     
   250422749.47039145       -78418447.546009794        1508287434.0909576     
   1.2933793230557626E-004   2.9859356745395952E-004   1560988486.4179969     
   1.2027924443981606E-004   3.3917465905461256E-004   1548733566.8470800     
   1.1549827028844263E-004   3.9436174106508351E-004   1540813214.3555980     
   1.1950147830992757E-004   4.7882943031841573E-004   1537227428.9435461     
   1.2691313201827683E-004   5.7431166049943367E-004   1537976210.6109264     
   1002672883.9502044       -313379224.36505967        1433627340.8903451     
   956173818.94294715       -357890547.11999571        1410637300.2894573     
   905988516.42135751       -414689328.25603878        1390729645.4450204     
   852116976.38543129       -483775567.77320343        1373904376.3570342     
   794559198.83516836       -565149265.67148972        1360161493.0255024     
   751759191.44543064       -235108059.72882658        1456112999.2306662     
   716660540.42755961       -268558857.47373384        1429443375.6185348     
   678797211.27394259       -311225249.00446355        1405908486.6240938     
   638169203.98457217       -363107234.32103813        1385508332.2473338     
   594776518.55944967       -424204813.42345053        1368242912.4882588     
   501009146.61882532       -156787800.78914642        1480999696.9642034     
   477460477.76529491       -179133203.07153168        1451725642.9491830     
   452068690.15459949       -207622334.54446679        1425638672.4130769     
   424833783.78673601       -242255195.20796263        1402738785.3558917     
   395755758.66170758       -283031785.06200826        1383025981.7776213     
   250422749.47039145       -78418447.546009794        1508287434.0909576     
   238573630.95614865       -89613583.913397431        1477484102.2813911     
   225802953.06332585       -103880584.87605421        1449920202.8119771     
   212110715.79192510       -121219450.43397123        1425595735.6827145     
   197496919.14193851       -141630180.58717245        1404510700.8935995     
   1.2691313201827683E-004   5.7431166049943367E-004   1537976210.6109264     
   1.2636412063247315E-004   6.8072836744770759E-004   1506718753.6151648     
   1.2659287537655805E-004   7.8904373877188580E-004   1478753077.8207898     
   1.3084771361653629E-004   9.1147327780609941E-004   1454079183.2277949     
   1.3835086922251948E-004   1.0440366520032723E-003   1432697069.8361866     
   794559198.83516836       -565149265.67148972        1360161493.0255024     
   729683922.42391300       -662528895.77097785        1263858390.9156606     
   659388938.99320984       -777974215.93529284        1170370895.0633905     
   583674248.54305613       -911485226.16444516        1079699005.4686875     
   502539851.07345521       -1063061926.4584215        991842722.13155973     
   594776518.55944967       -424204813.42345053        1368242912.4882588     
   544805689.89744997       -497633847.40408659        1266827208.2529361     
   490770080.97085750       -584612148.93335938        1168533796.9243498     
   432669691.77967983       -685139718.01125264        1073362678.5025034     
   370504522.32392174       -799216554.63774729        981313852.98737979     
   395755758.66170758       -283031785.06200826        1383025981.7776213     
   361565625.31799626       -332247348.65310407        1278078423.2974927     
   324665638.46456379       -390495757.27660596        1176559844.3732667     
   285055798.10140932       -457777010.93251866        1078470245.0049329     
   242736104.22852769       -534091109.62084472        983809625.19251406     
   197496919.14193851       -141630180.58717245        1404510700.8935995     
   179963728.68556434       -166369399.51799935        1297612036.0493398     
   161075611.47432727       -195625040.96503988        1194449037.4101384     
   140832567.50823548       -229397104.92826068        1095021704.9760077     
   119234596.78728195       -267685591.40768760        999330038.74694169     
   1.3835086922251948E-004   1.0440366520032723E-003   1432697069.8361866     
   1.4384098308055599E-004   1.1955637944850793E-003   1325428046.5084641     
   1.5344868233211983E-004   1.3608162216119776E-003   1222201376.0349753     
   1.6225573997938667E-004   1.5247876221720009E-003   1123017058.4157131     
   1.7678166622877499E-004   1.7050463605108655E-003   1027875093.6506866     
   1.1220420197362073E-004   3.3661260592086221E-005   663859937.73475909     
   6.8569234539434898E-005  -4.7603862244058052E-005   778903332.19186330     
   3.5293997577991861E-005  -9.4119709736562515E-005   894350223.43113768     
   1.2497157612785662E-005  -1.0564251511126175E-004   1010200611.4525821     
   3.6028872193364611E-007  -8.1805555919044746E-005   1126454496.2561970     
  -445623639.14094639       -133687091.74228393        665148272.40142119     
  -444486395.66370565       -125464331.53587337        781750989.88926721     
  -442569648.73821551       -114643226.50196508        896927453.22212493     
  -439873398.36447614       -101223776.64055900        1010677662.3999951     
  -436397644.54248744       -85205981.951655194        1123001617.4228771     
  -885477312.12628317       -265643193.63788494        669013276.40147209     
  -888430684.99220991       -250766031.17111811        788084737.60967171     
  -889825050.96164846       -230692179.04939064        903900193.72572541     
  -889660410.03459883       -205421637.27270284        1016459644.7496328     
  -887936762.21106088       -174954405.84105387        1125763090.6813939     
  -1319561018.9558985       -395868305.68676955        675454949.73491180     
  -1331832867.9854443       -375905098.90578187        797904575.35307705     
  -1341766206.6702635       -348146857.64237088        915268444.94193840     
  -1349361035.0103555       -312593581.89653647        1027546558.5014949     
  -1354617353.0057201       -269245271.66827834        1134738916.0317476     
  -1747874759.6297915       -524362427.88893747        684473292.40174031     
  -1774692944.6434090       -500881534.73986477        811210503.11948347     
  -1798393115.8640602       -467007262.28090549        931032206.87076426     
  -1818975273.2917457       -422739610.51206064        1043938403.6555827     
  -1836439416.9264650       -368078579.43332875        1149929093.4739385     
   3.6028872193364611E-007  -8.1805555919044746E-005   1126454496.2561970     
   1.6287337778841581E-005  -4.0858456727855928E-005   1201636837.1451986     
   2.7896641041147904E-005  -1.4087003084175394E-005   1274001626.4948823     
   3.4688512364742265E-005  -3.7422846415131531E-006   1343548864.3052487     
   3.6783762848844467E-005  -8.5325519543650401E-006   1410278550.5762973     
  -436397644.54248744       -85205981.951655194        1123001617.4228771     
  -437659185.89672816       -70672155.352428317        1193060949.7311668     
  -439741623.80041075       -58874650.584674835        1261613457.1679959     
  -442644958.25353450       -49813467.648392454        1328659139.7333636     
  -446369189.25610077       -43488606.543584108        1394197997.4272711     
  -887936762.21106088       -174954405.84105387        1125763090.6813939     
  -886714911.58282435       -144763272.64162153        1189741701.7679620     
  -887134854.05346668       -120044783.10511869        1253524214.6509261     
  -889196589.62298739       -100798937.23154530        1317110629.3302860     
  -892900118.29138744       -87025735.020902097        1380500945.8060415     
  -1354617353.0057201       -269245271.66827834        1134738916.0317476     
  -1347167177.0582724       -222273351.86762020        1191679093.2555838     
  -1342179690.7591403       -183510397.56134850        1249733898.9436729     
  -1339654894.1083243       -152956408.74946332        1308903333.0960143     
  -1339592787.1058245       -130611385.43196601        1369187395.7126091     
  -1836439416.9264650       -368078579.43332875        1149929093.4739385     
  -1819015982.3230727       -303202393.03042412        1198873124.1940324     
  -1804876133.9174325       -249271493.95336455        1250242510.0462360     
  -1794019871.7095454       -206285882.20214695        1304037251.0305498     
  -1786447195.6994123       -174245557.77677596        1360257347.1469729     
   3.6783762848844467E-005  -8.5325519543650401E-006   1410278550.5762973     
   5.6490984051754616E-005  -9.2817237412429393E-006   1431282026.0083418     
   7.9732466050775745E-005   1.7499737922491310E-006   1455839388.4687519     
   1.0546451532602073E-004   2.1517243115481550E-005   1483950637.9575300     
   1.3551431039586731E-004   5.4809636682730947E-005   1515615774.4746740     
  -446369189.25610077       -43488606.543584108        1394197997.4272711     
  -435127641.30436361       -34202656.015013635        1414734109.5866842     
  -424073094.11913782       -25540041.374815270        1438220767.6355360     
  -413205547.70042545       -17500762.622994274        1464657971.5738239     
  -402525002.04822516       -10084819.759547055        1494045721.4015522     
  -892900118.29138744       -87025735.020902097        1380500945.8060415     
  -872140854.21344447       -68970983.511413068        1400351527.1318898     
  -851755591.66852939       -52162903.778684407        1422549313.2082460     
  -831744330.65664208       -36601495.822715759        1447094304.0351107     
  -812107071.17778242       -22286759.643505007        1473986499.6124856     
  -1339592787.1058245       -130611385.43196601        1369187395.7126091     
  -1311039638.7271874       -104304982.48921359        1388134278.6439564     
  -1283047492.6480939       -79868587.211605072        1408825025.1868832     
  -1255616348.8685439       -57302199.599142849        1431259635.3413904     
  -1228746207.3885374       -36605819.651824534        1455438109.1074762     
  -1786447195.6994123       -174245557.77677596        1360257347.1469729     
  -1751823994.8455932       -140204652.94841188        1378082364.1228850     
  -1717948797.0578322       -108657091.67357635        1397047903.5714478     
  -1684821602.3361318       -79602873.952275932        1417153965.4926615     
  -1652442410.6804891       -53041999.784500539        1438400549.8865247     
   1.3551431039586731E-004   5.4809636682730947E-005   1515615774.4746740     
   1.0730885045020486E-004   7.6324020363911440E-005   1514000943.1683867     
   7.8325624374653901E-005   9.4898905583601541E-005   1515002492.0582337     
   5.0091570085980835E-005   1.1614450244048233E-004   1518620421.1442151     
   2.0999685506989569E-005   1.3453066499630246E-004   1524854730.4263315     
  -402525002.04822516       -10084819.759547055        1494045721.4015522     
  -392983703.74385381       -3417794.9486825466        1490197484.4369116     
  -383523851.16631061        2977744.1060874909        1489533783.3231721     
  -374145444.31559795        9101797.4047554582        1492054618.0603361     
  -364848483.19171286        14954364.947332352        1497759988.6484008     
  -812107071.17778242       -22286759.643505007        1473986499.6124856     
  -791401172.69824743       -8465719.4605665803        1467809836.9748588     
  -770858165.67237008        4812349.2101790011        1465385865.8429010     
  -750478050.10015130        17547446.368729055        1466714586.2166128     
  -730260825.98159015        29739572.015087962        1471795998.0959930     
  -1228746207.3885374       -36605819.651824534        1455438109.1074762     
  -1195252406.8630762       -15143773.535585165        1446838000.7822294     
  -1162002943.5181017        5503815.3123655319        1442558739.6174195     
  -1128997817.3536141        25336946.892026007        1442600325.6130433     
  -1096237028.3696132        44355621.203397810        1446962758.7691054     
  -1652442410.6804891       -53041999.784500539        1438400549.8865247     
  -1604537406.2383378       -23451957.173728943        1427281975.8590243     
  -1556958184.7035010        5052142.4126585126        1421052404.6467261     
  -1509704746.0759828        32470298.974653721        1419711836.2496321     
  -1462777090.3557789        58802512.512268126        1423260270.6677401     
   2.0999685506989569E-005   1.3453066499630246E-004   1524854730.4263315     
   4.6803220639761065E-005   1.7058241266407537E-004   1526658614.3917511     
   7.4208038981126532E-005   2.1335954980794300E-004   1533282201.7121696     
   1.0145272900163261E-004   2.5473556414429093E-004   1544725492.3875854     
   1.2933793230557626E-004   2.9859356745395952E-004   1560988486.4179969     
  -364848483.19171286        14954364.947332352        1497759988.6484008     
  -350291241.14108044        22230591.952656224        1499294308.8428485     
  -335754371.92313528        29438909.515689045        1505527674.8738534     
  -321237875.53788334        36579317.636412263        1516460086.7414150     
  -306741751.98532128        43651816.314833671        1532091544.4455326     
  -730260825.98159015        29739572.015087962        1471795998.0959930     
  -701491077.64732182        44188605.295612633        1473036986.2146614     
  -672762074.97843480        58501819.691534549        1478856362.6514459     
  -644073817.97492874        72679215.202853411        1489254127.4063485     
  -615426306.63680518        86720791.829562008        1504230280.4793673     
  -1096237028.3696132        44355621.203397810        1446962758.7691054     
  -1053599509.5186802        65874040.029033959        1447886646.5071888     
  -1011023109.1658235        87188730.527751565        1453268265.0449467     
  -968507827.31103444        108299692.69957715        1463107614.3823836     
  -926053663.95432222        129206926.54447883        1477404694.5194960     
  -1462777090.3557789        58802512.512268126        1423260270.6677401     
  -1406616536.7551563        87286896.152915835        1423843289.7204316     
  -1350537474.4852998        115499642.02434814        1428763382.0543590     
  -1294539903.5462036        143440750.12657750        1438020547.6695209     
  -1238623823.9378748        171110220.45958167        1451614786.5659215     
   1.2933793230557626E-004   2.9859356745395952E-004   1560988486.4179969     
   1.2027924443981606E-004   3.3917465905461256E-004   1548733566.8470800     
   1.1549827028844263E-004   3.9436174106508351E-004   1540813214.3555980     
   1.1950147830992757E-004   4.7882943031841573E-004   1537227428.9435461     
   1.2691313201827683E-004   5.7431166049943367E-004   1537976210.6109264     
  -306741751.98532128        43651816.314833671        1532091544.4455326     
  -293100867.51661634        50880586.922613770        1519405152.1455956     
  -279167405.60785127        59084615.663925275        1511209002.9865277     
  -264941366.25902936        68263902.538760528        1507503096.9683304     
  -250422749.47014832        78418447.547126904        1508287434.0910029     
  -615426306.63680518        86720791.829562008        1504230280.4793673     
  -587699748.95242214        101311769.66916424        1491453755.7971365     
  -559388036.38792789        117853263.77580324        1483323150.3172143     
  -530491168.94331592        136345274.14950094        1479838464.0395992     
  -501009146.61859345        156787800.79023352        1480999696.9642923     
  -926053663.95432222        129206926.54447883        1477404694.5194960     
  -883796644.30729592        151293548.23999441        1464879377.8017035     
  -840661892.34010375        176305944.33605975        1457155656.3476598     
  -796649408.05274010        204244114.83269840        1454233530.1573575     
  -751759191.44521260        235108059.72988373        1456112999.2308059     
  -1238623823.9378748        171110220.45958167        1451614786.5659215     
  -1181391553.5812378        200825922.63510412        1439682018.1592970     
  -1122988973.4643829        234442657.34468526        1432706521.0778561     
  -1063416083.5873011        271960424.58835560        1430688295.3216004     
  -1002672883.9500018        313379224.36608630        1433627340.8905270     
   1.2691313201827683E-004   5.7431166049943367E-004   1537976210.6109264     
   1.2636412063247315E-004   6.8072836744770759E-004   1506718753.6151648     
   1.2659287537655805E-004   7.8904373877188580E-004   1478753077.8207898     
   1.3084771361653629E-004   9.1147327780609941E-004   1454079183.2277949     
   1.3835086922251948E-004   1.0440366520032723E-003   1432697069.8361866     
  -250422749.47014832        78418447.547126904        1508287434.0910029     
  -238573630.95591116        89613583.914719343        1477484102.2814436     
  -225802953.06308919        103880584.87759738        1449920202.8120315     
  -212110715.79167843        121219450.43577009        1425595735.6827707     
  -197496919.14168370        141630180.58922231        1404510700.8936553     
  -501009146.61859345        156787800.79023352        1480999696.9642923     
  -477460477.76507592        179133203.07282478        1451725642.9492805     
  -452068690.15439093        207622334.54597405        1425638672.4131835     
  -424833783.78653312        242255195.20969865        1402738785.3559988     
  -395755758.66150415        283031785.06399274        1383025981.7777286     
  -751759191.44521260        235108059.72988373        1456112999.2308059     
  -716660540.42737067        268558857.47498202        1429443375.6186850     
  -678797211.27377248        311225249.00593805        1405908486.6242471     
  -638169203.98442507        363107234.32272422        1385508332.2474878     
  -594776518.55932033        424204813.42536521        1368242912.4884102     
  -1002672883.9500018        313379224.36608630        1433627340.8905270     
  -956173818.94279003        357890547.12121534        1410637300.2896535     
  -905988516.42124271        414689328.25746137        1390729645.4452240     
  -852116976.38535833        483775567.77483302        1373904376.3572395     
  -794559198.83513224        565149265.67334247        1360161493.0256984     
   1.3835086922251948E-004   1.0440366520032723E-003   1432697069.8361866     
   1.4384098308055599E-004   1.1955637944850793E-003   1325428046.5084641     
   1.5344868233211983E-004   1.3608162216119776E-003   1222201376.0349753     
   1.6225573997938667E-004   1.5247876221720009E-003   1123017058.4157131     
   1.7678166622877499E-004   1.7050463605108655E-003   1027875093.6506866     
  -197496919.14168370        141630180.58922231        1404510700.8936553     
  -179963728.68531585        166369399.52032623        1297612036.0493903     
  -161075611.47408181        195625040.96764690        1194449037.4101834     
  -140832567.50797606        229397104.93121302        1095021704.9760356     
  -119234596.78700919        267685591.41097689        999330038.74694836     
  -395755758.66150415        283031785.06399274        1383025981.7777286     
  -361565625.31783098        332247348.65534699        1278078423.2975934     
  -324665638.46443045        390495757.27912271        1176559844.3733490     
  -285055798.10129803        457777010.93534124        1078470245.0049887     
  -242736104.22843558        534091109.62398988        983809625.19251919     
  -594776518.55932033        424204813.42536521        1368242912.4884102     
  -544805689.89740312        497633847.40625060        1266827208.2530804     
  -490770080.97089803        584612148.93575764        1168533796.9244618     
  -432669691.77979791        685139718.01392198        1073362678.5025622     
  -370504522.32410598        799216554.64071965        981313852.98737884     
  -794559198.83513224        565149265.67334247        1360161493.0256984     
  -729683922.42403567        662528895.77302933        1263858390.9158440     
  -659388938.99348879        777974215.93755317        1170370895.0635371     
  -583674248.54347956        911485226.16694903        1079699005.4687705     
  -502539851.07401878        1063061926.4611833        991842722.13154948     
  -1747874759.6297915       -524362427.88893747        684473292.40174031     
  -1774692944.6434090       -500881534.73986477        811210503.11948347     
  -1798393115.8640602       -467007262.28090549        931032206.87076426     
  -1818975273.2917457       -422739610.51206064        1043938403.6555827     
  -1836439416.9264650       -368078579.43332875        1149929093.4739385     
  -2192772717.4895458       -657831815.24686372        699356341.19648015     
  -2227775571.2814832       -614381709.73586702        817038320.26615405     
  -2260565368.6010537       -563554749.31697977        930731627.46621561     
  -2291142109.4482565       -505350933.99020147        1040436262.7966646     
  -2319505793.8230920       -439770263.75553328        1146152226.2575014     
  -2676609075.8767438       -802982722.76302314        723392132.91365397     
  -2711434212.4560008       -737054689.09280229        830963096.79456007     
  -2744951249.8834896       -666766324.91668642        937472223.90270388     
  -2777160188.1592102       -592117630.23467541        1042919514.2380854     
  -2808061027.2831616       -513108605.04676932        1147304967.8007047     
  -3199383834.7913857       -959815150.43741560        756580667.55326140     
  -3225668868.1669626       -868900472.81067061        852984832.70470142     
  -3251550759.7113695       -776641989.08002615        951253996.18022919     
  -3277029509.4246073       -683039699.24548221        1051388157.9798447     
  -3302105117.3066740       -588093603.30703878        1153387318.1035478     
  -3761096994.2334700       -1128329098.2700410        798921945.11530292     
  -3770479538.4143667       -1009919060.8894721        883103527.99657834     
  -3780363898.0846925       -893181741.80699897        972076944.29879141     
  -3790750073.2444472       -778117141.02262211        1065842194.0219424     
  -3801638063.8936296       -664725258.53634119        1164399277.1660309     
  -1836439416.9264650       -368078579.43332875        1149929093.4739385     
  -1819015982.3230727       -303202393.03042412        1198873124.1940324     
  -1804876133.9174325       -249271493.95336455        1250242510.0462360     
  -1794019871.7095454       -206285882.20214695        1304037251.0305498     
  -1786447195.6994123       -174245557.77677596        1360257347.1469729     
  -2319505793.8230920       -439770263.75553328        1146152226.2575014     
  -2293583025.8579831       -359648506.40299237        1188382201.5776513     
  -2271023763.9811401       -290738436.01133835        1231206561.8247871     
  -2251828008.1925640       -233040052.58056945        1274625306.9989097     
  -2235995758.4922519       -186553356.11068600        1318638437.1000183     
  -2808061027.2831616       -513108605.04676932        1147304967.8007047     
  -2778870269.3995481       -419310679.77755773        1182727647.8486457     
  -2753122937.4947109       -336990841.10427225        1216913742.6184497     
  -2730819031.5686522       -266149089.02691257        1249863252.1101162     
  -2711958551.6213727       -206785423.54548037        1281576176.3236463     
  -3302105117.3066740       -588093603.30703878        1153387318.1035478     
  -3274877712.9477644       -482188913.15411806        1181909463.0070152     
  -3251173654.4581451       -388028709.23216474        1207364052.4272225     
  -3230992941.8378139       -305612991.54117644        1229751086.3641698     
  -3214335575.0867748       -234941760.08115923        1249070564.8178558     
  -3801638063.8936296       -664725258.53634119        1164399277.1660309     
  -3781605356.5026340       -548283206.53267419        1185927647.0527613     
  -3765175914.8714399       -443852040.39501500        1202557491.2511075     
  -3752349739.0000482       -351431760.12336433        1214288809.7610703     
  -3743126828.8884602       -271022365.71772408        1221121602.5826488     
  -1786447195.6994123       -174245557.77677596        1360257347.1469729     
  -1751823994.8455932       -140204652.94841188        1378082364.1228850     
  -1717948797.0578322       -108657091.67357635        1397047903.5714478     
  -1684821602.3361318       -79602873.952275932        1417153965.4926615     
  -1652442410.6804891       -53041999.784500539        1438400549.8865247     
  -2235995758.4922519       -186553356.11068600        1318638437.1000183     
  -2191743306.4457664       -140170643.95542693        1326563916.4573002     
  -2149817487.8836350       -101543376.74802160        1337907880.2608535     
  -2110218302.8058596       -70671554.488468051        1352670328.5106783     
  -2072945751.2124424       -47555177.176773667        1370851261.2067747     
  -2711958551.6213727       -206785423.54548037        1281576176.3236463     
  -2651568385.6004438       -146108365.22879112        1277760382.5742838     
  -2595083483.4821692       -98448853.254281878        1279641035.2448142     
  -2542503845.2665477       -63806887.621951342        1287218134.3352373     
  -2493829470.9535813       -42182468.331801414        1300491679.8455520     
  -3214335575.0867748       -234941760.08115923        1249070564.8178558     
  -3131299232.3096304       -158017816.76850975        1231671762.4738364     
  -3053746783.8534355       -99373521.192361355        1222247368.5233302     
  -2981678229.7181940       -59008873.352719665        1220797382.9663370     
  -2915093569.9039016       -36923873.249580741        1227321805.8028576     
  -3743126828.8884602       -271022365.71772408        1221121602.5826488     
  -3630935846.5733242       -175898998.57457900        1188298056.1559577     
  -3525807388.9974375       -104317380.56226504        1165726880.0964005     
  -3427741456.1607985       -56277511.680777311        1153408074.4039791     
  -3336738048.0634103       -31779391.930122375        1151341639.0786910     
  -1652442410.6804891       -53041999.784500539        1438400549.8865247     
  -1604537406.2383378       -23451957.173728943        1427281975.8590243     
  -1556958184.7035010        5052142.4126585126        1421052404.6467261     
  -1509704746.0759828        32470298.974653721        1419711836.2496321     
  -1462777090.3557789        58802512.512268126        1423260270.6677401     
  -2072945751.2124424       -47555177.176773667        1370851261.2067747     
  -2013578500.0751288       -20705882.418102860        1359488860.1061549     
  -1953793731.3322694        7535137.6923879385        1352687049.3063269     
  -1893591444.9838617        37167883.154701829        1350445828.8072898     
  -1832971641.0299103        68192353.968836308        1352765198.6090448     
  -2493829470.9535813       -42182468.331801414        1300491679.8455520     
  -2423938294.5908523       -18355417.866159678        1289752635.6034865     
  -2352886300.1097150        9341026.3275140524        1283245769.1478007     
  -2280673487.5101681        40906864.249218464        1280971080.4784949     
  -2207299856.7922106        76342095.898955345        1282928569.5955696     
  -2915093569.9039016       -36923873.249580741        1227321805.8028576     
  -2835616789.7855077       -16400563.517895222        1218073302.3510196     
  -2754235891.0358400        10469808.318034053        1212728564.1711495     
  -2670950873.6548996        43687242.258205891        1211287591.2632484     
  -2585761737.6426878        83251738.302618146        1213750383.6273160     
  -3336738048.0634103       -31779391.930122375        1151341639.0786910     
  -3248613985.6590934       -14841319.373310328        1144450860.3487532     
  -3157842504.1106405        10921483.663956881        1141135434.3763723     
  -3064423603.4180532        45509017.181673408        1141395361.1615493     
  -2968357283.5813317        88921281.179837346        1145230640.7042832     
  -1462777090.3557789        58802512.512268126        1423260270.6677401     
  -1406616536.7551563        87286896.152915835        1423843289.7204316     
  -1350537474.4852998        115499642.02434814        1428763382.0543590     
  -1294539903.5462036        143440750.12657750        1438020547.6695209     
  -1238623823.9378748        171110220.45958167        1451614786.5659215     
  -1832971641.0299103        68192353.968836308        1352765198.6090448     
  -1763597918.2788963        101922748.68658793        1351780624.6272116     
  -1694589131.8601360        134436688.96349835        1355412335.6928034     
  -1625945281.7736235        165734174.79958189        1363660331.8058207     
  -1557666368.0193670        195815206.19481546        1376524612.9662645     
  -2207299856.7922106        76342095.898955345        1282928569.5955696     
  -2123915216.9874103        115557826.06482911        1280045716.7441432     
  -2041178958.5163486        152612285.11823785        1282058360.7063320     
  -1959091081.3790236        187505473.05918920        1288966501.4821353     
  -1877651585.5754404        220237389.88767314        1300770139.0715537     
  -2585761737.6426878        83251738.302618146        1213750383.6273160     
  -2487568432.8806973        128192128.28764009        1208638566.0712285     
  -2390306954.4539375        170026430.48856246        1208701457.0949452     
  -2293977302.3623986        208754644.90540719        1213939056.6984630     
  -2198579476.6060920        244376771.53815663        1224351364.8817892     
  -2968357283.5813317        88921281.179837346        1145230640.7042832     
  -2854557565.9587588        139825655.35501313        1137559172.6084652     
  -2741973119.6729012        186679125.07447338        1135341624.8586404     
  -2630603944.7237549        229481690.33822906        1138577997.4548090     
  -2520450041.1113238        268233351.14626598        1147268290.3969700     
  -1238623823.9378748        171110220.45958167        1451614786.5659215     
  -1181391553.5812378        200825922.63510412        1439682018.1592970     
  -1122988973.4643829        234442657.34468526        1432706521.0778561     
  -1063416083.5873011        271960424.58835560        1430688295.3216004     
  -1002672883.9500018        313379224.36608630        1433627340.8905270     
  -1557666368.0193670        195815206.19481546        1376524612.9662645     
  -1486667039.6253424        228315201.43131787        1365790432.1883583     
  -1414245957.6797280        265554375.17312044        1360046495.5614927     
  -1340403122.1825194        307532727.42023510        1359292803.0856698     
  -1265138533.1337221        354250258.17264676        1363529354.7608900     
  -1877651585.5754404        220237389.88767314        1300770139.0715537     
  -1792790991.0701432        255549940.60733104        1291527897.0122945     
  -1706257199.2218893        296439815.80351400        1287308871.9299371     
  -1618050210.0306733        342907015.47624063        1288113063.8244805     
  -1528170023.4964974        394951539.62549078        1293940472.6959226     
  -2198579476.6060920        244376771.53815663        1224351364.8817892     
  -2099763407.9156485        282530140.16311884        1216894412.6311095     
  -1999022698.0908718        327098979.23585296        1214493650.1831877     
  -1896357347.1317685        378083288.75635052        1217149077.5380263     
  -1791767355.0383315        435483068.72461867        1224860694.6956222     
  -2520450041.1113238        268233351.14626598        1147268290.3969700     
  -2407584290.1618457        309255800.09871733        1141889979.0448008     
  -2292542454.2866693        357531865.47015905        1141600830.3212478     
  -2175324533.4857945        413061547.26059580        1146400844.2263091     
  -2055930527.7592225        475844845.47002614        1156290020.7599933     
  -1002672883.9500018        313379224.36608630        1433627340.8905270     
  -956173818.94279003        357890547.12121534        1410637300.2896535     
  -905988516.42124271        414689328.25746137        1390729645.4452240     
  -852116976.38535833        483775567.77483302        1373904376.3572395     
  -794559198.83513224        565149265.67334247        1360161493.0256984     
  -1265138533.1337221        354250258.17264676        1363529354.7608900     
  -1208262003.1644938        404116510.16776782        1345286034.9524765     
  -1147093948.3073521        468287845.12258971        1330707241.8414798     
  -1081634368.5622993        546764263.03711820        1319792975.4279025     
  -1011883263.9293404        639545763.91133881        1312543235.7117393     
  -1528170023.4964974        394951539.62549078        1293940472.6959226     
  -1459252768.7338998        450671698.81001312        1281150042.2824707     
  -1385438701.7098198        522714565.53280771        1272606279.5074089     
  -1306727822.4242554        611080139.79388261        1268309184.3707378     
  -1223120130.8772097        715768421.59323168        1268258756.8724549     
  -1791767355.0383315        435483068.72461867        1224860694.6956222     
  -1709146115.6510167        497556113.04794002        1218229322.2796354     
  -1621022776.6286433        577969489.48812199        1216426758.4430087     
  -1527397337.9712169        676723198.04514658        1219453003.1857445     
  -1428269799.6787329        793817238.71903086        1227308056.5078392     
  -2055930527.7592225        475844845.47002614        1156290020.7599933     
  -1957942043.9158375        544769752.88156247        1156523874.9439685     
  -1853846173.0638251        634052616.98852634        1162168678.6482785     
  -1743642915.2031827        743693437.79092109        1173224431.8729253     
  -1627332270.3339148        873692215.28873599        1189691134.6179049     
  -794559198.83513224        565149265.67334247        1360161493.0256984     
  -729683922.42403567        662528895.77302933        1263858390.9158440     
  -659388938.99348879        777974215.93755317        1170370895.0635371     
  -583674248.54347956        911485226.16694903        1079699005.4687705     
  -502539851.07401878        1063061926.4611833        991842722.13154948     
  -1011883263.9293404        639545763.91133881        1312543235.7117393     
  -933290171.25585222        752403620.82776713        1226404732.8802793     
  -847500410.30760145        889250371.99340272        1144430891.6507914     
  -754513981.08458400        1050086017.4082597        1066621712.0232735     
  -654330883.58680797        1234910557.0723157        992977193.99772644     
  -1223120130.8772097        715768421.59323168        1268258756.8724549     
  -1126954778.1001043        845260838.47878098        1194357974.7839100     
  -1021815795.7929319        1004665353.7978964        1125970909.6417646     
  -907703183.95568633        1193981967.5505757        1063097561.4460206     
  -784616942.58837819        1413210679.7368140        1005737930.1966642     
  -1428269799.6787329        793817238.71903086        1227308056.5078392     
  -1310677742.9567976        941100548.72605920        1167718116.6267443     
  -1182335095.4494834        1124219161.3510191        1114990949.0364661     
  -1043241857.1567942        1343173076.5938911        1069126553.7370192     
  -893398028.07873297        1597962294.4546800        1030124930.7283857     
  -1627332270.3339148        873692215.28873599        1189691134.6179049     
  -1484459065.8259311        1039922751.5696017        1146485158.4087725     
  -1329058309.2772589        1247911794.6527672        1111491009.8348887     
  -1161130000.6879044        1497659344.5382023        1084708688.8962548     
  -980674140.05787098        1789165401.2259045        1066138195.5928712     
  -3761096994.2334700       -1128329098.2700410        798921945.11530292     
  -3770479538.4143667       -1009919060.8894721        883103527.99657834     
  -3780363898.0846925       -893181741.80699897        972076944.29879141     
  -3790750073.2444472       -778117141.02262211        1065842194.0219424     
  -3801638063.8936296       -664725258.53634119        1164399277.1660309     
  -4334498320.3325377       -1300349496.0997612        855745612.17192936     
  -4328639950.4460897       -1126702773.0008287        939159336.08975935     
  -4323841779.9668846       -956590047.92604446        1016758079.1649872     
  -4320103808.8949270       -790011320.87540841        1088541841.3976126     
  -4317426037.2302113       -626966591.84892094        1154510622.7876356     
  -4892337579.2181263       -1467701273.7654378        932381315.29529178     
  -4901543478.8744488       -1247909420.0311763        1014375732.3455584     
  -4912367961.8558302       -1033512844.0471151        1079948354.2896826     
  -4924811028.1622696       -824511545.81325376        1129099181.1276641     
  -4938872677.7937737       -620905525.32959461        1161828212.8595030     
  -5434614770.8902359       -1630384431.2670708        1028829054.4853907     
  -5489190123.6994419       -1373539001.9805140        1108752716.7639751     
  -5545942443.7515230       -1123950130.1702101        1161647769.6728771     
  -5604871731.0464821       -881617815.83616006        1187514213.2120965     
  -5665977985.5843134       -646542058.97836208        1186352047.3816333     
  -5961329895.3488684       -1788398968.6046605        1145088829.7422254     
  -6091579884.9210711       -1503591518.8488431        1222290289.3450098     
  -6224565225.6539679       -1227901906.2953310        1261856325.3145714     
  -6360285917.5475569       -961330130.94412506        1263786937.6509106     
  -6498741960.6018353       -703876192.79522419        1228082126.3540263     
  -3801638063.8936296       -664725258.53634119        1164399277.1660309     
  -3781605356.5026340       -548283206.53267419        1185927647.0527613     
  -3765175914.8714399       -443852040.39501500        1202557491.2511075     
  -3752349739.0000482       -351431760.12336433        1214288809.7610703     
  -3743126828.8884602       -271022365.71772408        1221121602.5826488     
  -4317426037.2302113       -626966591.84892094        1154510622.7876356     
  -4284600599.5167251       -472360927.64082837        1136265945.6256487     
  -4262242455.5606275       -352646242.62403214        1123953368.5067859     
  -4250351605.3619175       -267822536.79852843        1117572891.4310474     
  -4248928048.9205971       -217889810.16432166        1117124514.3984334     
  -4938872677.7937737       -620905525.32959461        1161828212.8595030     
  -4862309864.8106318       -418852855.43292785        1095802455.9849489     
  -4803078373.5824642       -274571258.05284214        1046539424.8850269     
  -4761178204.1092682       -188060733.18933797        1014039119.5597367     
  -4736609356.3910522       -159321280.84241605        998301540.00907946     
  -5665977985.5843134       -646542058.97836208        1186352047.3816333     
  -5514733152.3843508       -387758989.90897202        1064537178.1306617     
  -5387683668.9369469       -209627086.68144703        970315660.38583016     
  -5284829535.2421036       -112146349.29579139        903687494.14713764     
  -5206170751.2998219       -95316777.752003431        864652679.41458726     
  -6498741960.6018353       -703876192.79522419        1228082126.3540263     
  -6241870462.2378836       -379079331.06895852        1042470112.0627863     
  -6016058341.6240797       -157813728.50984740        895282075.00919557     
  -5821305598.7604227       -40079385.117891073        786518015.19325244     
  -5657612233.6469097       -25876300.893088579        716177932.61495745     
  -3743126828.8884602       -271022365.71772408        1221121602.5826488     
  -3630935846.5733242       -175898998.57457900        1188298056.1559577     
  -3525807388.9974375       -104317380.56226504        1165726880.0964005     
  -3427741456.1607985       -56277511.680777311        1153408074.4039791     
  -3336738048.0634103       -31779391.930122375        1151341639.0786910     
  -4248928048.9205971       -217889810.16432166        1117124514.3984334     
  -4121530602.0306764       -151596517.97542262        1083308945.9083819     
  -3997796587.6997790       -97514667.649927616        1057591381.7135473     
  -3877726005.9279013       -55644259.187835455        1039971821.8139313     
  -3761318856.7150450       -25985292.589147806        1030450266.2095315     
  -4736609356.3910522       -159321280.84241605        998301540.00907946     
  -4600160776.5603962       -123704663.09797716        967459556.99926710     
  -4463976537.1085339       -88969179.949515581        942561212.21275473     
  -4328056638.0354652       -55114831.397031546        923606505.64954257     
  -4192401079.3411922       -22141617.440528870        910595437.30963087     
  -5206170751.2998219       -95316777.752003431        864652679.41458726     
  -5066826370.1624784       -92223433.942236423        840749889.42861199     
  -4924347237.2237072       -78680917.461029768        820636371.59402084     
  -4778733352.4834976       -54689228.308368206        804312125.91081202     
  -4629984715.9418535       -20248366.484264374        791777152.37898612     
  -5657612233.6469097       -25876300.893088579        716177932.61495745     
  -5521527382.8369322       -57152830.508214474        703179943.19641840     
  -5378908688.0452900       -66649880.184464216        691816859.85734737     
  -5229756149.2719889       -54367449.921843767        682088682.59774029     
  -5074069766.5170259       -20305539.720352411        673995411.41760111     
  -3336738048.0634103       -31779391.930122375        1151341639.0786910     
  -3248613985.6590934       -14841319.373310328        1144450860.3487532     
  -3157842504.1106405        10921483.663956881        1141135434.3763723     
  -3064423603.4180532        45509017.181673408        1141395361.1615493     
  -2968357283.5813317        88921281.179837346        1145230640.7042832     
  -3761318856.7150450       -25985292.589147806        1030450266.2095315     
  -3662114975.0389605       -4299119.9428520203        1024022114.4348106     
  -3561101603.8970594        23418684.256167889        1021445832.3986270     
  -3458278743.2893405        57168120.007911444        1022721420.1009808     
  -3353646393.2158060        96949187.312377691        1027848877.5418724     
  -4192401079.3411922       -22141617.440528870        910595437.30963087     
  -4081327329.8762512        4529669.8503761292        903652327.86542058     
  -3969282020.6238141        34439489.766279936        900837605.14072883     
  -3856265151.5838785        67587842.307178259        902151269.13555408     
  -3742276722.7564416        103974727.47307205        907593319.84989703     
  -4629984715.9418535       -20248366.484264374        791777152.37898612     
  -4506251050.1709719        11645050.006379604        783341500.64058387     
  -4382383754.2909107        43983900.194291592        779310752.60267878     
  -4258382828.3016677        76768184.079471588        779684908.26527333     
  -4134248272.2032471        109997901.66191268        784463967.62836492     
  -5074069766.5170259       -20305539.720352411        673995411.41760111     
  -4936886135.9231186        17047020.525151730        663089632.76029992     
  -4800406804.8983469        52051915.540194988        656865274.78447735     
  -4664631773.4427118        84709145.324782848        655322337.49013293     
  -4529561041.5562162        115018709.87890911        658460820.87726808     
  -2968357283.5813317        88921281.179837346        1145230640.7042832     
  -2854557565.9587588        139825655.35501313        1137559172.6084652     
  -2741973119.6729012        186679125.07447338        1135341624.8586404     
  -2630603944.7237549        229481690.33822906        1138577997.4548090     
  -2520450041.1113238        268233351.14626598        1147268290.3969700     
  -3353646393.2158060        96949187.312377691        1027848877.5418724     
  -3226669304.4762549        144381780.15831447        1017623083.5073543     
  -3100876581.7245007        187866486.37825894        1012880988.7543453     
  -2976268224.9605441        227403305.97221136        1013622593.2828394     
  -2852844234.1843829        262992238.94017756        1019847897.0928438     
  -3742276722.7564416        103974727.47307205        907593319.84989703     
  -3602037180.2270188        147961063.79163265        894849256.11708450     
  -3462951098.3364758        188102531.31392336        887618670.60129082     
  -3325018477.0848122        224399130.03995299        885901563.30251837     
  -3188239316.4720254        256850859.96971250        889697934.22076547     
  -4134248272.2032471        109997901.66191268        784463967.62836492     
  -3980661193.2110510        150563506.25497484        769237690.43765891     
  -3828196669.5088220        187387259.88148737        759554670.39948452     
  -3676854701.0965548        220469162.54145265        755414907.51384401     
  -3526635287.9742575        249809214.23486662        756818401.78074074     
  -4529561041.5562162        115018709.87890911        658460820.87726808     
  -4362541343.4283590        152189107.54832935        640788386.46907175     
  -4196613295.2415466        185720672.08092427        628688988.14891994     
  -4031776896.9957795        215613403.47670698        622162625.91681743     
  -3868032148.6910615        241867301.73565888        621209299.77276289     
  -2520450041.1113238        268233351.14626598        1147268290.3969700     
  -2407584290.1618457        309255800.09871733        1141889979.0448008     
  -2292542454.2866693        357531865.47015905        1141600830.3212478     
  -2175324533.4857945        413061547.26059580        1146400844.2263091     
  -2055930527.7592225        475844845.47002614        1156290020.7599933     
  -2852844234.1843829        262992238.94017756        1019847897.0928438     
  -2727930960.4520721        300557975.71608043        1015911357.7493992     
  -2600824517.0477233        345434278.06542933        1016950683.8048753     
  -2471524903.9713349        397621145.98824120        1022965875.2592710     
  -2340032121.2229218        457118579.48448515        1033956932.1125896     
  -3188239316.4720254        256850859.96971250        889697934.22076547     
  -3051602226.3274384        290862772.65790212        887223099.09010458     
  -2912754881.7644787        332242200.07399905        889610832.12866974     
  -2771697282.7831469        380989142.21799529        896861133.33646011     
  -2628429429.3834476        437103599.08988929        908974002.71347249     
  -3526635287.9742575        249809214.23486662        756818401.78074074     
  -3378598087.7879486        280170190.92418909        755825203.06692147     
  -3228333548.4369340        317955631.49586058        759581275.29263270     
  -3075841669.9212160        363165535.94987416        768086618.45787013     
  -2921122452.2407913        415799904.28625309        781341232.56263924     
  -3868032148.6910615        241867301.73565888        621209299.77276289     
  -3708918544.8336020        268480230.51491928        621717669.67984521     
  -3547560517.0650978        302574572.33099723        626862013.29676068     
  -3383958065.3855495        344150327.18388200        636642330.62350869     
  -3218111189.7949648        393207495.07356143        651058621.66009057     
  -2055930527.7592225        475844845.47002614        1156290020.7599933     
  -1957942043.9158375        544769752.88156247        1156523874.9439685     
  -1853846173.0638251        634052616.98852634        1162168678.6482785     
  -1743642915.2031827        743693437.79092109        1173224431.8729253     
  -1627332270.3339148        873692215.28873599        1189691134.6179049     
  -2340032121.2229218        457118579.48448515        1033956932.1125896     
  -2229222997.3173804        523512637.23785722        1039821790.4131504     
  -2111968545.1212425        611391122.62653899        1050721772.2392263     
  -1988268764.6345110        720754035.65053785        1066656877.5908231     
  -1858123655.8571925        851601376.30984247        1087627106.4679348     
  -2628429429.3834476        437103599.08988929        908974002.71347249     
  -2505873453.9723644        500644670.61810958        920864129.95957625     
  -2376534208.9887233        586796640.72152889        937413554.73638189     
  -2240411694.4325175        695559509.40014744        958622277.04388511     
  -2097505910.3037577        826933276.65396130        984490296.88209593     
  -2921122452.2407913        415799904.28625309        781341232.56263924     
  -2787893413.8807940        476165853.02232301        799650893.58324456     
  -2647543164.6662621        560269171.27349341        822244026.13973701     
  -2500071704.5972071        668109859.03975081        849120630.23211312     
  -2345479033.6736274        799687916.32108939        880280705.86037505     
  -3218111189.7949648        393207495.07356143        651058621.66009057     
  -3075282877.0426579        450076184.45052648        676182081.28415930     
  -2924995412.1538582        531808714.28245819        705213186.44930005     
  -2767248795.1285677        638405084.56935740        738151937.15550625     
  -2602043025.9667854        769865295.31123090        774998333.40278256     
  -1627332270.3339148        873692215.28873599        1189691134.6179049     
  -1484459065.8259311        1039922751.5696017        1146485158.4087725     
  -1329058309.2772589        1247911794.6527672        1111491009.8348887     
  -1161130000.6879044        1497659344.5382023        1084708688.8962548     
  -980674140.05787098        1789165401.2259045        1066138195.5928712     
  -1858123655.8571925        851601376.30984247        1087627106.4679348     
  -1692926974.0149269        1024464818.6299475        1056686706.6868591     
  -1513405974.4799626        1245075986.5923774        1033175714.2878441     
  -1319560657.2523179        1513434880.1971011        1017094129.2708976     
  -1111391022.3319690        1829541499.4441447        1008441951.6360093     
  -2097505910.3037577        826933276.65396130        984490296.88209593     
  -1912221237.5648899        1005758979.0819912        967911700.12308669     
  -1710815481.4813185        1238321625.9923759        957980090.49295580     
  -1493288642.0530434        1524621217.3851080        954695467.99170339     
  -1259640719.2800627        1864657753.2601798        958057832.61933088     
  -2345479033.6736274        799687916.32108939        880280705.86037505     
  -2142341856.4758389        983805232.92572522        880160138.71744823     
  -1921286830.2813177        1227648712.8527794        885904138.45021749     
  -1682313955.0900943        1531218356.1022096        897512705.05867815     
  -1425423230.9021401        1894514162.6740294        914985838.54282367     
  -2602043025.9667854        769865295.31123090        774998333.40278256     
  -2383288830.7477365        958603580.16120446        793432022.46995270     
  -2144820020.8799541        1213057247.1736135        816947858.15962660     
  -1886636596.3634472        1533226296.3484325        845545840.47181571     
  -1608738557.1982229        1919110727.6856644        879225969.40649831     
  -5961329895.3488684       -1788398968.6046605        1145088829.7422254     
  -6091579884.9210711       -1503591518.8488431        1222290289.3450098     
  -6224565225.6539679       -1227901906.2953310        1261856325.3145714     
  -6360285917.5475569       -961330130.94412506        1263786937.6509106     
  -6498741960.6018353       -703876192.79522419        1228082126.3540263     
  -6816770138.0343895       -2045031041.4103169        1348811200.0019889     
  -6835138168.3257723       -1397163396.2379723        1197658421.6438129     
  -6904899962.4873638       -920608297.29965782        1086420990.5002930     
  -7026055520.5191650       -615365744.59537292        1015098906.5714294     
  -7198604842.4211731       -481435738.12511683        983692169.85722208     
  -8345222684.3871708       -2503566805.3161511        1707646724.2008736     
  -8030135124.4037943       -1426166875.4290981        1271371559.7206340     
  -7815099741.0001411       -682274200.80779791        952562513.30292952     
  -7700116534.1762133       -271888781.45225286        751219584.94776011     
  -7685185503.9320164       -195010617.36246061        667342774.65512526     
  -10546687534.407215       -3164006260.3221645        2221595402.3388801     
  -9676570753.1551342       -1590601956.4222198        1443429703.5754726     
  -8955164561.1922989       -512899616.81975317        860280893.72247970     
  -8382468958.5187054        69100758.485234737        472148972.77990055     
  -7958483945.1343546        155399169.49274540        279033940.74773616     
  -13421164688.094519       -4026349406.4283552        2890657234.4160070     
  -11774445054.579796       -1890468639.2173374        1713832853.2083297     
  -10325094423.063837       -412484545.33552170        809576131.75894439     
  -9073112793.5466404        407602875.21708822        177887070.06785181     
  -8018500166.0281992        569793622.44050169       -181234331.86494753     
  -6498741960.6018353       -703876192.79522419        1228082126.3540263     
  -6241870462.2378836       -379079331.06895852        1042470112.0627863     
  -6016058341.6240797       -157813728.50984740        895282075.00919557     
  -5821305598.7604227       -40079385.117891073        786518015.19325244     
  -5657612233.6469097       -25876300.893088579        716177932.61495745     
  -7198604842.4211731       -481435738.12511683        983692169.85722208     
  -6910131216.5947905       -306747737.03143239        838122794.50267327     
  -6634581776.1477070       -175140353.86874723        713079277.02755845     
  -6371956521.0799189       -86613588.637059450        608561617.43187761     
  -6122255451.3914356       -41167441.336374283        524569815.71563190     
  -7685185503.9320164       -195010617.36246061        667342774.65512526     
  -7416247234.5238085       -185772722.06553936        582973762.66992068     
  -7142097958.1240568       -159164803.46346521        501232489.20593727     
  -6862737674.7327566       -115186861.55623269        422118954.26317346     
  -6578166384.3499117       -53838896.343845844        345633157.84163141     
  -7958483945.1343546        155399169.49274540        279033940.74773616     
  -7760218516.0249376       -16154286.171281338        277023016.56453079     
  -7538606887.5531301       -109887077.29399920        259741711.54433182     
  -7293649059.7189255       -125799203.87540388        227190025.68713984     
  -7025345032.5223312       -63890665.915501118        179367958.99295363     
  -8018500166.0281992        569793622.44050169       -181234331.86494753     
  -7942045061.0981846        202107570.65134239       -79729443.813499212     
  -7824108564.4349279       -27307175.360352993       -11393055.957258852     
  -7664690676.0384312       -118450615.59457588        23774831.703775574     
  -7463791395.9086971       -71322750.051340103        25774219.169600833     
  -5657612233.6469097       -25876300.893088579        716177932.61495745     
  -5521527382.8369322       -57152830.508214474        703179943.19641840     
  -5378908688.0452900       -66649880.184464216        691816859.85734737     
  -5229756149.2719889       -54367449.921843767        682088682.59774029     
  -5074069766.5170259       -20305539.720352411        673995411.41760111     
  -6122255451.3914356       -41167441.336374283        524569815.71563190     
  -5973066774.8596048       -42531204.305105448        519525969.09901971     
  -5821936017.7764397       -37421365.436071396        516024136.19366145     
  -5668863180.1419468       -25837924.729268551        514064316.99955702     
  -5513848261.9561234       -7780882.1846988201        513646511.51670855     
  -6578166384.3499117       -53838896.343845844        345633157.84163141     
  -6416139288.8625393       -25369514.696073532        343186396.69155616     
  -6256761876.2541695       -5732409.3116462231        342188756.88452506     
  -6100034146.5248022        5072419.8094434738        342640238.42053545     
  -5945956099.6744375        7044972.6671922207        344540841.29959130     
  -7025345032.5223312       -63890665.915501118        179367958.99295363     
  -6850744924.8457394       -5667761.6811265945        174161225.97402868     
  -6683386263.4784813        28416988.188802242        170310721.92993715     
  -6523269048.4205589        38363583.694280148        167816446.86067688     
  -6370393279.6719685        24172024.835317850        166678400.76624817     
  -7463791395.9086971       -71322750.051340103        25774219.169600833     
  -7276883682.8092022        16574054.739748478        12450456.946442183     
  -7101809179.4493771        65026827.065271378        390031.32989909744     
  -6938567885.8292131        74035566.925249577       -10407057.680023663     
  -6787159801.9487190        43600274.319674969       -19940810.083318289     
  -5074069766.5170259       -20305539.720352411        673995411.41760111     
  -4936886135.9231186        17047020.525151730        663089632.76029992     
  -4800406804.8983469        52051915.540194988        656865274.78447735     
  -4664631773.4427118        84709145.324782848        655322337.49013293     
  -4529561041.5562162        115018709.87890911        658460820.87726808     
  -5513848261.9561234       -7780882.1846988201        513646511.51670855     
  -5368275248.0823765        11135459.446993828        505974212.66046554     
  -5222210114.5089235        31692200.077716351        504328376.86426568     
  -5075652861.2357597        53889339.707472801        508709004.12811065     
  -4928603488.2628851        77726878.336267710        519116094.45200074     
  -5945956099.6744375        7044972.6671922207        344540841.29959130     
  -5788150724.2963848        8677989.1524090767        341497844.72472721     
  -5628656809.9497719        15939468.866154671        345826353.58847588     
  -5467474356.6346045        28829411.808425188        357526367.89083201     
  -5304603364.3508749        47347817.979221821        376597887.63179970     
  -6370393279.6719685        24172024.835317850        166678400.76624817     
  -6196512564.5651360        9674609.6413969994        169660528.95308712     
  -6019746891.2208939        4793721.9055016041        181359204.95710635     
  -5840096259.6392412        9529361.6276392937        201774428.77829379     
  -5657560669.8201904        23881528.807785988        230906200.41666386     
  -6787159801.9487190        43600274.319674969       -19940810.083318289     
  -6593360768.8886280        14125320.913976192       -9537734.6544531435     
  -6395480358.3222790       -1745040.8042137623        10926930.970153095     
  -6193518570.2496786       -4010810.8348834515        41453186.790501714     
  -5987475404.6708221        7328010.8219549656        82041032.806596547     
  -4529561041.5562162        115018709.87890911        658460820.87726808     
  -4362541343.4283590        152189107.54832935        640788386.46907175     
  -4196613295.2415466        185720672.08092427        628688988.14891994     
  -4031776896.9957795        215613403.47670698        622162625.91681743     
  -3868032148.6910615        241867301.73565888        621209299.77276289     
  -4928603488.2628851        77726878.336267710        519116094.45200074     
  -4750656612.2161665        109679391.51274586        507372529.93015963     
  -4573962917.2149658        137454634.53749943        499665577.98699695     
  -4398522403.2592783        161052607.41054225        495995238.62250829     
  -4224335070.3491087        180473310.13186669        496361511.83669770     
  -5304603364.3508749        47347817.979221821        376597887.63179970     
  -5120119091.8406458        72765512.226155281        370594740.04110563     
  -4937049531.4804029        93467499.306466579        367091781.51971257     
  -4755394683.2701416        109453779.22017264        366089012.06762934     
  -4575154547.2098637        120724351.96726584        367586431.68484759     
  -5657560669.8201904        23881528.807785988        230906200.41666386     
  -5470928782.3017941        41447469.688554764        230455016.80189744     
  -5285873138.0378542        53759266.387822390        230967598.74706829     
  -5102393737.0283623        60816918.905581951        232443946.25217828     
  -4920490579.2733240        62620427.241841793        234884059.31721774     
  -5987475404.6708221        7328010.8219549656        82041032.806596547     
  -5803085683.5996075        15725263.899973154        86953360.212552384     
  -5620433736.8873138        18329935.781590462        91293029.669066861     
  -5439519564.5339365        15142026.466813564        95060041.176153019     
  -5260343166.5394859        6161535.9556269646        98254394.733797967     
  -3868032148.6910615        241867301.73565888        621209299.77276289     
  -3708918544.8336020        268480230.51491928        621717669.67984521     
  -3547560517.0650978        302574572.33099723        626862013.29676068     
  -3383958065.3855495        344150327.18388200        636642330.62350869     
  -3218111189.7949648        393207495.07356143        651058621.66009057     
  -4224335070.3491087        180473310.13186669        496361511.83669770     
  -4057871541.2284994        198740707.66649890        500430852.72741634     
  -3889387466.6996274        223743256.56199336        507443900.39794952     
  -3718882846.7624955        255480956.81835794        517400654.84829813     
  -3546357681.4171023        293953808.43560362        530301116.07845742     
  -4575154547.2098637        120724351.96726584        367586431.68484759     
  -4406176141.1975870        129195703.74580503        374955551.97262883     
  -4235401068.2798352        143655945.20927262        383576112.11020684     
  -4062829328.4565954        164105076.35769463        393448112.09757215     
  -3888460921.7278733        190543097.19105721        404571551.93473917     
  -4920490579.2733240        62620427.241841793        234884059.31721774     
  -4753832344.7408714        59845218.752848387        245291767.41548410     
  -4585601321.8057079        62312638.272867203        255258648.43352431     
  -4415797510.4678488        70022685.801885128        264784702.37133893     
  -4244420910.7272844        82975361.339925289        273869929.22893387     
  -5260343166.5394859        6161535.9556269646        98254394.733797967     
  -5100840151.8583250       -9310747.3123321533        111439499.05597383     
  -4939988227.2772608       -20286664.247256756        122491509.36790320     
  -4777787392.7962589       -26766214.849072456        131410425.66958608     
  -4614237648.4153385       -28749399.117813349        138196247.96103528     
  -3218111189.7949648        393207495.07356143        651058621.66009057     
  -3075282877.0426579        450076184.45052648        676182081.28415930     
  -2924995412.1538582        531808714.28245819        705213186.44930005     
  -2767248795.1285677        638405084.56935740        738151937.15550625     
  -2602043025.9667854        769865295.31123090        774998333.40278256     
  -3546357681.4171023        293953808.43560362        530301116.07845742     
  -3395492037.6313267        336748977.36754560        558716342.92326987     
  -3239512758.7378244        396589596.65856314        592654222.04776514     
  -3078419844.7366023        473475666.30865419        632114753.45193672     
  -2912213295.6276565        567407186.31782651        677097937.13579631     
  -3888460921.7278733        190543097.19105721        404571551.93473917     
  -3724943641.9411697        220649037.16820240        433542109.46672916     
  -3558658244.0755005        259982037.40856123        469650326.01701760     
  -3389604728.1308870        308542097.91206884        512896201.58559364     
  -3217783094.1073084        366329218.67879438        563279736.17246985     
  -4244420910.7272844        82975361.339925289        273869929.22893387     
  -4063637689.9721880        101776363.85251832        300659380.91453499     
  -3882431868.1668959        121986036.53242421        336201498.35705864     
  -3700803445.3114123        143604379.37963486        380496281.55647570     
  -3518752421.4057403        166631392.39414167        433543730.51280922     
  -4614237648.4153385       -28749399.117813349        138196247.96103528     
  -4411574181.7243824       -19869042.579518557        160068157.26669621     
  -4210833631.0119848       -17398405.969776630        192307739.06788093     
  -4012015996.2781959       -21337489.288713694        234914993.36458531     
  -3815121277.5229611       -31686292.536174297        287889920.15680391     
  -2602043025.9667854        769865295.31123090        774998333.40278256     
  -2383288830.7477365        958603580.16120446        793432022.46995270     
  -2144820020.8799541        1213057247.1736135        816947858.15962660     
  -1886636596.3634472        1533226296.3484325        845545840.47181571     
  -1608738557.1982229        1919110727.6856644        879225969.40649831     
  -2912213295.6276565        567407186.31782651        677097937.13579631     
  -2677883292.8603926        702230157.62768149        720655658.25693738     
  -2435180497.5943780        864962437.26670814        783554618.60960603     
  -2184104909.8295951        1055604025.2349366        865794818.19381356     
  -1924656529.5660732        1274154921.5323448        967376257.00954282     
  -3217783094.1073084        366329218.67879438        563279736.17246985     
  -2927137019.1946263        459458955.82767320        618729363.50594831     
  -2639459973.9331560        542691927.47251248        707779322.67998886     
  -2354751958.3229060        616028133.61329818        830429613.69458258     
  -2073012972.3638496        679467574.25006747        986680236.54973114     
  -3518752421.4057403        166631392.39414167        433543730.51280922     
  -3131050009.7504296        230289974.76120341        487653138.21699899     
  -2757658449.8962941        246245717.79099417        589621970.37077224     
  -2398577741.8433437        214498621.48351526        739450226.97412539     
  -2053807885.5915596        135048685.83880675        937137908.02705646     
  -3815121277.5229611       -31686292.536174297        287889920.15680391     
  -3289622264.5277963        14723214.428258181        327426982.39007729     
  -2789775925.4837804       -24376191.777806759        429082561.68195444     
  -2315582260.3909154       -148984511.15439248        592856658.03244662     
  -1867041269.2492011       -359101743.70144689        818749271.44153142     
 </DataArray>
 <DataArray  type="Float64" Name="VM" NumberOfComponents="1" format="ascii">
   12937099767.442331     
   11347417241.183857     
   10221791281.669619     
   9288739104.9167633     
   8323967659.1180344     
   10133125212.604897     
   9328715435.7206936     
   8836582343.3770561     
   8456865239.3101959     
   8051828191.3239861     
   7985357719.5456696     
   7740404787.9750614     
   7676676829.3377934     
   7678875923.0945301     
   7677073123.1189365     
   6493679657.9782658     
   6589729248.1314163     
   6760871736.4939260     
   6965042330.1264009     
   7175582015.8789511     
   5657585530.9250755     
   5889895224.2677631     
   6114461872.5340490     
   6328864854.8524866     
   6532942380.2214422     
   8323967659.1180344     
   8046188228.5066156     
   7810515707.0740805     
   7606268606.0006294     
   7428520965.7958393     
   8051828191.3239861     
   7766988917.3266392     
   7497777721.9135399     
   7242268479.1636553     
   7000515657.0712776     
   7677073123.1189365     
   7394394724.0771208     
   7117009771.3143682     
   6845034143.4851580     
   6578707869.1979551     
   7175582015.8789511     
   6916045831.7917747     
   6664218832.9822731     
   6416266478.7219896     
   6169050936.1533546     
   6532942380.2214422     
   6324453789.1258736     
   6137836469.5064554     
   5959171305.3879042     
   5779410020.6039658     
   7428520965.7958393     
   7285216767.0255423     
   7134544882.7014809     
   6975903618.8189955     
   6809152230.4940586     
   7000515657.0712776     
   6854553680.3751736     
   6704132934.7343798     
   6548988769.2865915     
   6389039458.0784559     
   6578707869.1979551     
   6431021952.6137428     
   6281919702.8165808     
   6131361288.5888224     
   5979335903.1806221     
   6169050936.1533546     
   6019552771.9793463     
   5871738863.8977957     
   5725643375.1508121     
   5581324109.0865383     
   5779410020.6039658     
   5626575002.9956274     
   5478542594.8899488     
   5335233041.5542660     
   5196765727.7456665     
   6809152230.4940586     
   6600455438.4765100     
   6394636023.8968773     
   6191930428.8178091     
   5992827704.7670660     
   6389039458.0784559     
   6208314142.0464993     
   6030332170.8122873     
   5855305822.9355898     
   5683628003.1681919     
   5979335903.1806221     
   5822615903.3305120     
   5668380452.2408943     
   5516811248.9397812     
   5368211803.7944803     
   5581324109.0865383     
   5444842611.1858873     
   5310463966.4110842     
   5178323489.5689020     
   5048633808.7037802     
   5196765727.7456665     
   5077042259.2774372     
   4958921377.8445921     
   4842462626.5914268     
   4727774186.4446745     
   5992827704.7670660     
   5812915658.2114296     
   5631841334.6381512     
   5449594201.1680021     
   5266177149.1368322     
   5683628003.1681919     
   5506256834.9955492     
   5327996588.5198851     
   5148837050.8167200     
   4968780901.2773104     
   5368211803.7944803     
   5196681999.7774467     
   5024830052.0067921     
   4852660933.7035580     
   4680203566.3149757     
   5048633808.7037802     
   4886112728.4385881     
   4724165536.3946915     
   4562824191.9157352     
   4402167805.3884497     
   4727774186.4446745     
   4577192266.0049820     
   4428453758.4747458     
   4281620981.0057144     
   4136837678.2461348     
   5266177149.1368322     
   5099845154.2114344     
   4934439366.4758339     
   4769894298.3128567     
   4606153889.4252472     
   4968780901.2773104     
   4802863906.2727499     
   4638192988.2938871     
   4474785989.0104990     
   4312677863.1328096     
   4680203566.3149757     
   4519083285.6206760     
   4359941706.5970144     
   4202933237.1764541     
   4048257504.2756143     
   4402167805.3884497     
   4250126667.6182976     
   4101233724.7415133     
   3955827878.9825411     
   3814339367.9253454     
   4136837678.2461348     
   3997940506.6407733     
   3863807261.1699333     
   3734988926.7290964     
   3612183438.0860105     
   4606153889.4252472     
   4410396039.9665632     
   4215341929.0862689     
   4022023925.4390140     
   3831958918.4713430     
   4312677863.1328096     
   4148286412.6877112     
   3987587569.2273493     
   3831755759.6227908     
   3682336179.4302931     
   4048257504.2756143     
   3912757677.5694666     
   3783984760.1193891     
   3663282917.5289278     
   3552315482.5360684     
   3814339367.9253454     
   3704414444.7203264     
   3604192053.8854098     
   3515268413.4800768     
   3439583229.9513979     
   3612183438.0860105     
   3523593556.3274946     
   3447598241.4066992     
   3386215807.3873258     
   3341917167.5603361     
   3831958918.4713430     
   3345428300.9332356     
   2875373946.8741736     
   2468515494.9904180     
   2226070640.5027361     
   3682336179.4302931     
   3360204430.2964487     
   3063876771.0293298     
   2820290122.6534276     
   2673651325.5007806     
   3552315482.5360684     
   3357470931.4333658     
   3193200872.4334741     
   3073073531.5847211     
   3014667101.2474518     
   3439583229.9513979     
   3332072968.0852122     
   3259827795.0151701     
   3230938880.7594256     
   3253849194.1275105     
   3341917167.5603361     
   3282105848.8743067     
   3267378411.8071089     
   3308725535.4208498     
   3417233979.3308892     
   5657585530.9250755     
   5889895224.2677631     
   6114461872.5340490     
   6328864854.8524866     
   6532942380.2214422     
   5148606360.8866711     
   5307183682.5841894     
   5462202428.9933262     
   5610797834.6094456     
   5751549672.4975634     
   4638602017.0595779     
   4748957621.9454803     
   4860182892.8562975     
   4969669433.7841635     
   5075524411.6139278     
   4127871540.2175126     
   4216106390.9120717     
   4309979027.4543982     
   4407862737.4017830     
   4508331968.7566929     
   3618017523.0623236     
   3710551014.0801077     
   3814075716.5525069     
   3928570164.9969110     
   4053978764.5338731     
   6532942380.2214422     
   6324453789.1258736     
   6137836469.5064554     
   5959171305.3879042     
   5779410020.6039658     
   5751549672.4975634     
   5641273759.5637321     
   5546729833.2340927     
   5458871581.4198198     
   5372144499.8646784     
   5075524411.6139278     
   5038179396.6363106     
   5011177333.7688780     
   4989350666.6434479     
   4969509703.2226458     
   4508331968.7566929     
   4519994483.0882015     
   4536278194.6268940     
   4554754135.4250011     
   4573725937.3848715     
   4053978764.5338731     
   4092314258.2556977     
   4128051217.0661922     
   4160340119.8646531     
   4188483543.7661867     
   5779410020.6039658     
   5626575002.9956274     
   5478542594.8899488     
   5335233041.5542660     
   5196765727.7456665     
   5372144499.8646784     
   5228244029.2911692     
   5088051336.6270437     
   4951635296.9653559     
   4819144324.0416517     
   4969509703.2226458     
   4838972479.5770350     
   4712017680.7096157     
   4588651079.1991062     
   4468942008.1016102     
   4573725937.3848715     
   4461598495.6735802     
   4354025890.3082132     
   4250730083.1972718     
   4151618848.0751085     
   4188483543.7661867     
   4100257846.9070702     
   4018849878.5035257     
   3943440686.3890109     
   3873700289.7201185     
   5196765727.7456665     
   5077042259.2774372     
   4958921377.8445921     
   4842462626.5914268     
   4727774186.4446745     
   4819144324.0416517     
   4711664395.2061977     
   4606728994.6746836     
   4504481285.5459805     
   4405112722.6210308     
   4468942008.1016102     
   4373271423.7546377     
   4281075922.9121599     
   4192566804.9437189     
   4108007414.6382718     
   4151618848.0751085     
   4067090430.9923363     
   3986909096.9935417     
   3911334895.3840923     
   3840689588.2376766     
   3873700289.7201185     
   3799316081.8966208     
   3730033126.3493552     
   3666138582.9908175     
   3607999688.3476186     
   4727774186.4446745     
   4577192266.0049820     
   4428453758.4747458     
   4281620981.0057144     
   4136837678.2461348     
   4405112722.6210308     
   4271165541.6505804     
   4139846482.8742590     
   4011290972.8447118     
   3885726362.9730000     
   4108007414.6382718     
   3991464787.6009884     
   3878453745.0340767     
   3769177474.6921649     
   3663936620.0930176     
   3840689588.2376766     
   3742296537.8646894     
   3648433070.7897053     
   3559352515.4348292     
   3475403607.4059505     
   3607999688.3476186     
   3528358415.3588390     
   3454292495.3042407     
   3386073532.7080822     
   3324057744.9525938     
   4136837678.2461348     
   3997940506.6407733     
   3863807261.1699333     
   3734988926.7290964     
   3612183438.0860105     
   3885726362.9730000     
   3762156038.5993042     
   3644254554.3578849     
   3532648020.0888877     
   3428108916.3770008     
   3663936620.0930176     
   3556117161.6692028     
   3454922324.5777278     
   3361030318.4583497     
   3275255409.5744376     
   3475403607.4059505     
   3383499887.6218143     
   3299180660.1384025     
   3223142261.3925505     
   3156197188.9686522     
   3324057744.9525938     
   3247829866.6671109     
   3180093440.0190086     
   3121522748.9690461     
   3072881779.7850504     
   3612183438.0860105     
   3523593556.3274946     
   3447598241.4066992     
   3386215807.3873258     
   3341917167.5603361     
   3428108916.3770008     
   3353342795.9458885     
   3291652910.5288563     
   3245006841.2986989     
   3215759049.6572185     
   3275255409.5744376     
   3213809465.5799327     
   3165915341.9282308     
   3133441759.6040711     
   3118575084.3878889     
   3156197188.9686522     
   3107123288.6519170     
   3072051071.8621526     
   3052707401.6232553     
   3051069854.2371526     
   3072881779.7850504     
   3034729173.1470900     
   3010998586.0020156     
   3003243753.2877650     
   3013209406.7224693     
   3341917167.5603361     
   3282105848.8743067     
   3267378411.8071089     
   3308725535.4208498     
   3417233979.3308892     
   3215759049.6572185     
   3160568636.3078017     
   3148270664.6914191     
   3188634045.0925288     
   3291367049.2195621     
   3118575084.3878889     
   3066257334.7272243     
   3054840000.9180989     
   3092799812.8128471     
   3188426970.1366711     
   3051069854.2371526     
   2999939068.9816599     
   2987854324.1834211     
   3021958966.1944637     
   3109117818.5479274     
   3013209406.7224693     
   2961767286.4379292     
   2947620086.0080032     
   2976568898.2145824     
   3054075113.5945773     
   3618017523.0623236     
   3710551014.0801077     
   3814075716.5525069     
   3928570164.9969110     
   4053978764.5338731     
   3131090526.9861650     
   3246519959.6651316     
   3371218884.6634402     
   3504764694.2512040     
   3646739956.6934037     
   2688798075.0674267     
   2822790960.6339393     
   2964060753.6093092     
   3111568708.6857424     
   3264440681.7010436     
   2294736827.2773938     
   2444258408.4370475     
   2598572969.6657791     
   2755794581.9826636     
   2914523994.5822639     
   1954229603.3377590     
   2117945673.2693000     
   2283180642.7346745     
   2447008192.9698510     
   2607498479.5652065     
   4053978764.5338731     
   4092314258.2556977     
   4128051217.0661922     
   4160340119.8646531     
   4188483543.7661867     
   3646739956.6934037     
   3683605624.0928617     
   3719184259.9262319     
   3752618349.2920537     
   3783186618.4581017     
   3264440681.7010436     
   3305943965.8908000     
   3347851354.6003509     
   3389377136.0155163     
   3429868566.9469137     
   2914523994.5822639     
   2966773197.6308489     
   3021491795.6365228     
   3078031830.0632763     
   3135884031.1894917     
   2607498479.5652065     
   2676025250.2601581     
   2749387016.7658973     
   2827104463.8618488     
   2908844231.0953512     
   4188483543.7661867     
   4100257846.9070702     
   4018849878.5035257     
   3943440686.3890109     
   3873700289.7201185     
   3783186618.4581017     
   3726425825.8776588     
   3676064313.2915430     
   3631663584.4261622     
   3593111992.8584785     
   3429868566.9469137     
   3400406008.3500805     
   3376553125.1780062     
   3358118437.6158214     
   3345086656.0062780     
   3135884031.1894917     
   3129773783.1140065     
   3127893708.1770000     
   3130181208.6909437     
   3136636067.6570249     
   2908844231.0953512     
   2922372971.6313677     
   2937978156.4150496     
   2955642044.1813879     
   2975351903.5751085     
   3873700289.7201185     
   3799316081.8966208     
   3730033126.3493552     
   3666138582.9908175     
   3607999688.3476186     
   3593111992.8584785     
   3527831281.8820453     
   3467981112.0114808     
   3413828716.9593740     
   3365699593.9253254     
   3345086656.0062780     
   3289636296.0378003     
   3240107819.3479371     
   3196732840.8848977     
   3159782874.6291966     
   3136636067.6570249     
   3091579543.2316499     
   3053092790.5593157     
   3021351122.8014536     
   2996556512.5028133     
   2975351903.5751085     
   2940894805.2617526     
   2913791361.4044538     
   2894136900.5405774     
   2882047694.5896192     
   3607999688.3476186     
   3528358415.3588390     
   3454292495.3042407     
   3386073532.7080822     
   3324057744.9525938     
   3365699593.9253254     
   3302383710.5756950     
   3245268759.2807112     
   3194641276.0797486     
   3150851038.9967203     
   3159782874.6291966     
   3112130395.1154742     
   3071193897.5297618     
   3037242234.8859019     
   3010584317.5609541     
   2996556512.5028133     
   2963502856.8939872     
   2937507157.5134978     
   2918792400.4944487     
   2907600883.9552341     
   2882047694.5896192     
   2861984873.5325608     
   2849100320.7746372     
   2843555498.3264151     
   2845516709.8582492     
   3324057744.9525938     
   3247829866.6671109     
   3180093440.0190086     
   3121522748.9690461     
   3072881779.7850504     
   3150851038.9967203     
   3086190553.6999440     
   3030172974.0590796     
   2983363004.1566062     
   2946389530.9627013     
   3010584317.5609541     
   2956634212.6440997     
   2911440392.5527010     
   2875450967.6637816     
   2849155889.6616211     
   2907600883.9552341     
   2863195053.8684735     
   2827604881.6772923     
   2801161457.3168783     
   2784220054.0371656     
   2845516709.8582492     
   2809150057.0544815     
   2781598108.9705710     
   2763083481.2016535     
   2753840656.0260210     
   3072881779.7850504     
   3034729173.1470900     
   3010998586.0020156     
   3003243753.2877650     
   3013209406.7224693     
   2946389530.9627013     
   2910564665.6949244     
   2887515793.1598430     
   2878492488.6093731     
   2884916084.4618573     
   2849155889.6616211     
   2813219479.5218625     
   2788447620.1234140     
   2775841587.8826256     
   2776555217.6297617     
   2784220054.0371656     
   2746064346.2379036     
   2717468210.6332655     
   2699230182.6545291     
   2692281823.2509222     
   2753840656.0260210     
   2711872483.3326664     
   2677848584.2739825     
   2652398013.4206133     
   2636262585.9395957     
   3013209406.7224693     
   2961767286.4379292     
   2947620086.0080032     
   2976568898.2145824     
   3054075113.5945773     
   2884916084.4618573     
   2815621198.1511769     
   2778597347.4774671     
   2778995614.3939352     
   2821831322.4908805     
   2776555217.6297617     
   2686361221.6887517     
   2623637625.4576902     
   2593034615.6529660     
   2599258272.5425291     
   2692281823.2509222     
   2579061527.5752659     
   2488338687.1519480     
   2424318915.2320786     
   2391485778.4504037     
   2636262585.9395957     
   2499366708.7133451     
   2379564948.1303964     
   2280513369.3092437     
   2206384803.2341781     
   1954229603.3377590     
   2117945673.2693000     
   2283180642.7346745     
   2447008192.9698510     
   2607498479.5652065     
   1656592521.0309701     
   1823292571.0846334     
   1991873509.5947731     
   2159686120.8765392     
   2325006256.9451694     
   1400768234.7677348     
   1578808762.4976449     
   1758078070.9248896     
   1936623046.5453484     
   2113224999.4199786     
   1218254985.9399374     
   1411008893.1285899     
   1603655174.8785195     
   1795443461.8619938     
   1985929800.3456974     
   1149839141.2661142     
   1349100145.5410063     
   1549060026.7433081     
   1749718784.8730185     
   1951076419.9301388     
   2607498479.5652065     
   2676025250.2601581     
   2749387016.7658973     
   2827104463.8618488     
   2908844231.0953512     
   2325006256.9451694     
   2413529089.4933209     
   2504859859.1850867     
   2598623847.9028869     
   2694554596.4347029     
   2113224999.4199786     
   2219304381.5136528     
   2325702465.5437527     
   2432188758.9587059     
   2538599494.7649336     
   1985929800.3456974     
   2106132257.9280648     
   2223950276.3455758     
   2339310066.9021916     
   2452160049.0307345     
   1951076419.9301388     
   2081296054.1818526     
   2206635546.0145245     
   2327094895.4281540     
   2442674102.4227414     
   2908844231.0953512     
   2922372971.6313677     
   2937978156.4150496     
   2955642044.1813879     
   2975351903.5751085     
   2694554596.4347029     
   2715457019.3184214     
   2739430328.3401213     
   2766481304.8808837     
   2796619072.1058755     
   2538599494.7649336     
   2566746472.1513505     
   2598984062.4802356     
   2635325594.4465117     
   2675784737.7418637     
   2452160049.0307345     
   2485968858.8861599     
   2524895318.2011576     
   2568945816.9105954     
   2618126532.7871747     
   2442674102.4227414     
   2479053189.0065675     
   2521587788.4878821     
   2570277900.8666902     
   2625123526.1429887     
   2975351903.5751085     
   2940894805.2617526     
   2913791361.4044538     
   2894136900.5405774     
   2882047694.5896192     
   2796619072.1058755     
   2773225129.6540346     
   2756737879.0994053     
   2747211402.2374234     
   2744709637.4069247     
   2675784737.7418637     
   2661406556.0913796     
   2653304037.6877508     
   2651499429.0312448     
   2656018324.5913520     
   2618126532.7871747     
   2610588125.8596582     
   2608519526.9048686     
   2611925343.8943753     
   2620810767.0861139     
   2625123526.1429887     
   2622326556.2748461     
   2624061289.8383255     
   2630327726.8334260     
   2641125867.2601504     
   2882047694.5896192     
   2861984873.5325608     
   2849100320.7746372     
   2843555498.3264151     
   2845516709.8582492     
   2744709637.4069247     
   2733668486.7177229     
   2730180465.4602304     
   2734351295.8043947     
   2746287723.5077477     
   2656018324.5913520     
   2652273395.6879764     
   2656395584.6420798     
   2668437314.0354371     
   2688450576.3344965     
   2620810767.0861139     
   2621952632.6901250     
   2631220748.9427013     
   2648629091.7159753     
   2674191339.4102345     
   2641125867.2601504     
   2644250285.9392157     
   2655722675.7065496     
   2675543036.5621486     
   2703711368.5060110     
   2845516709.8582492     
   2809150057.0544815     
   2781598108.9705710     
   2763083481.2016535     
   2753840656.0260210     
   2746287723.5077477     
   2715752888.4257946     
   2693681071.0464931     
   2680198196.3419170     
   2675435950.6707997     
   2688450576.3344965     
   2662423499.0392451     
   2644517494.2968678     
   2634787755.5745120     
   2633291668.0401773     
   2674191339.4102345     
   2651261236.8325438     
   2636129337.3335128     
   2628808966.3679609     
   2629313925.9361105     
   2703711368.5060110     
   2682485225.1665130     
   2668766772.2374110     
   2662556009.7186980     
   2663852937.6103768     
   2753840656.0260210     
   2711872483.3326664     
   2677848584.2739825     
   2652398013.4206133     
   2636262585.9395957     
   2675435950.6707997     
   2628329663.1827579     
   2588169557.6291728     
   2555333768.2969394     
   2530273087.1525593     
   2633291668.0401773     
   2582268046.5399690     
   2537453361.9523549     
   2499023372.1394372     
   2467189427.1635776     
   2629313925.9361105     
   2575889211.0083776     
   2528248499.6384835     
   2486436538.5239472     
   2450507415.2552748     
   2663852937.6103768     
   2609713433.9783182     
   2561275462.6344619     
   2518539023.5787954     
   2481504116.8113313     
   2636262585.9395957     
   2499366708.7133451     
   2379564948.1303964     
   2280513369.3092437     
   2206384803.2341781     
   2530273087.1525593     
   2372787382.8238215     
   2228441269.6745019     
   2099852615.0197811     
   1990242368.2239678     
   2467189427.1635776     
   2293839704.6808724     
   2130153625.8635154     
   1977524411.7472708     
   1837787109.7569566     
   2450507415.2552748     
   2267464920.6801786     
   2091853350.8034339     
   1924053281.5366940     
   1764588175.0429652     
   2481504116.8113313     
   2295708718.3294244     
   2116914880.3731720     
   1945122602.9425609     
   1780331886.0376070     
   1149839141.2661142     
   1349100145.5410063     
   1549060026.7433081     
   1749718784.8730185     
   1951076419.9301388     
   1218254985.9397867     
   1411008893.1284831     
   1603655174.8784523     
   1795443461.8619649     
   1985929800.3457067     
   1400768234.7675161     
   1578808762.4974794     
   1758078070.9247785     
   1936623046.5452917     
   2113224999.4199779     
   1656592521.0307574     
   1823292571.0844605     
   1991873509.5946460     
   2159686120.8764615     
   2325006256.9451456     
   1954229603.3376033     
   2117945673.2691593     
   2283180642.7345567     
   2447008192.9697633     
   2607498479.5651541     
   1951076419.9301388     
   2081296054.1818526     
   2206635546.0145245     
   2327094895.4281540     
   2442674102.4227414     
   1985929800.3457067     
   2106132257.9280570     
   2223950276.3455505     
   2339310066.9021521     
   2452160049.0306816     
   2113224999.4199779     
   2219304381.5136247     
   2325702465.5436997     
   2432188758.9586291     
   2538599494.7648335     
   2325006256.9451456     
   2413529089.4932652     
   2504859859.1850023     
   2598623847.9027767     
   2694554596.4345717     
   2607498479.5651541     
   2676025250.2600727     
   2749387016.7657819     
   2827104463.8617096     
   2908844231.0951948     
   2442674102.4227414     
   2479053189.0065675     
   2521587788.4878821     
   2570277900.8666902     
   2625123526.1429887     
   2452160049.0306816     
   2485968858.8861098     
   2524895318.2011151     
   2568945816.9105535     
   2618126532.7871366     
   2538599494.7648335     
   2566746472.1512623     
   2598984062.4801502     
   2635325594.4464269     
   2675784737.7417784     
   2694554596.4345717     
   2715457019.3182983     
   2739430328.3400016     
   2766481304.8807631     
   2796619072.1057463     
   2908844231.0951948     
   2922372971.6312203     
   2937978156.4149046     
   2955642044.1812377     
   2975351903.5749435     
   2625123526.1429887     
   2622326556.2748461     
   2624061289.8383255     
   2630327726.8334260     
   2641125867.2601504     
   2618126532.7871366     
   2610588125.8596263     
   2608519526.9048462     
   2611925343.8943682     
   2620810767.0861273     
   2675784737.7417784     
   2661406556.0913095     
   2653304037.6877036     
   2651499429.0312300     
   2656018324.5913749     
   2796619072.1057463     
   2773225129.6539254     
   2756737879.0993290     
   2747211402.2373872     
   2744709637.4069486     
   2975351903.5749435     
   2940894805.2616067     
   2913791361.4043446     
   2894136900.5405216     
   2882047694.5896306     
   2641125867.2601504     
   2644250285.9392157     
   2655722675.7065496     
   2675543036.5621486     
   2703711368.5060110     
   2620810767.0861273     
   2621952632.6901455     
   2631220748.9427276     
   2648629091.7160006     
   2674191339.4102626     
   2656018324.5913749     
   2652273395.6880164     
   2656395584.6421285     
   2668437314.0354939     
   2688450576.3345475     
   2744709637.4069486     
   2733668486.7177758     
   2730180465.4602971     
   2734351295.8044753     
   2746287723.5078306     
   2882047694.5896306     
   2861984873.5326161     
   2849100320.7747240     
   2843555498.3265214     
   2845516709.8583674     
   2703711368.5060110     
   2682485225.1665130     
   2668766772.2374110     
   2662556009.7186980     
   2663852937.6103768     
   2674191339.4102626     
   2651261236.8325944     
   2636129337.3335862     
   2628808966.3680654     
   2629313925.9362483     
   2688450576.3345475     
   2662423499.0393405     
   2644517494.2970142     
   2634787755.5747170     
   2633291668.0404444     
   2746287723.5078306     
   2715752888.4259434     
   2693681071.0467143     
   2680198196.3422198     
   2675435950.6711984     
   2845516709.8583674     
   2809150057.0546746     
   2781598108.9708548     
   2763083481.2020431     
   2753840656.0265231     
   2663852937.6103768     
   2609713433.9783182     
   2561275462.6344619     
   2518539023.5787954     
   2481504116.8113313     
   2629313925.9362483     
   2575889211.0085487     
   2528248499.6386833     
   2486436538.5241814     
   2450507415.2555437     
   2633291668.0404444     
   2582268046.5402946     
   2537453361.9527464     
   2499023372.1398888     
   2467189427.1641006     
   2675435950.6711984     
   2628329663.1832390     
   2588169557.6297388     
   2555333768.2975931     
   2530273087.1533098     
   2753840656.0265231     
   2711872483.3332829     
   2677848584.2747130     
   2652398013.4214611     
   2636262585.9405603     
   2481504116.8113313     
   2295708718.3294244     
   2116914880.3731720     
   1945122602.9425609     
   1780331886.0376070     
   2450507415.2555437     
   2267464920.6804996     
   2091853350.8038249     
   1924053281.5371673     
   1764588175.0435474     
   2467189427.1641006     
   2293839704.6815042     
   2130153625.8642726     
   1977524411.7481899     
   1837787109.7580612     
   2530273087.1533098     
   2372787382.8247390     
   2228441269.6755857     
   2099852615.0210607     
   1990242368.2255080     
   2636262585.9405603     
   2499366708.7145185     
   2379564948.1317878     
   2280513369.3108759     
   2206384803.2360735     
   1954229603.3376033     
   2117945673.2691593     
   2283180642.7345567     
   2447008192.9697633     
   2607498479.5651541     
   2294736827.2773042     
   2444258408.4369650     
   2598572969.6657085     
   2755794581.9826064     
   2914523994.5822225     
   2688798075.0673790     
   2822790960.6338992     
   2964060753.6092777     
   3111568708.6857204     
   3264440681.7010283     
   3131090526.9861355     
   3246519959.6651196     
   3371218884.6634417     
   3504764694.2512188     
   3646739956.6934257     
   3618017523.0622878     
   3710551014.0801044     
   3814075716.5525331     
   3928570164.9969625     
   4053978764.5339422     
   2607498479.5651541     
   2676025250.2600727     
   2749387016.7657819     
   2827104463.8617096     
   2908844231.0951948     
   2914523994.5822225     
   2966773197.6307731     
   3021491795.6364145     
   3078031830.0631404     
   3135884031.1893311     
   3264440681.7010283     
   3305943965.8907456     
   3347851354.6002593     
   3389377136.0153894     
   3429868566.9467540     
   3646739956.6934257     
   3683605624.0928392     
   3719184259.9261675     
   3752618349.2919455     
   3783186618.4579477     
   4053978764.5339422     
   4092314258.2557197     
   4128051217.0661616     
   4160340119.8645730     
   4188483543.7660522     
   2908844231.0951948     
   2922372971.6312203     
   2937978156.4149046     
   2955642044.1812377     
   2975351903.5749435     
   3135884031.1893311     
   3129773783.1138520     
   3127893708.1768479     
   3130181208.6907864     
   3136636067.6568613     
   3429868566.9467540     
   3400406008.3499279     
   3376553125.1778555     
   3358118437.6156754     
   3345086656.0061321     
   3783186618.4579477     
   3726425825.8775134     
   3676064313.2914066     
   3631663584.4260340     
   3593111992.8583617     
   4188483543.7660522     
   4100257846.9069452     
   4018849878.5034099     
   3943440686.3889108     
   3873700289.7200408     
   2975351903.5749435     
   2940894805.2616067     
   2913791361.4043446     
   2894136900.5405216     
   2882047694.5896306     
   3136636067.6568613     
   3091579543.2315078     
   3053092790.5592060     
   3021351122.8013864     
   2996556512.5028009     
   3345086656.0061321     
   3289636296.0376740     
   3240107819.3478379     
   3196732840.8848300     
   3159782874.6291637     
   3593111992.8583617     
   3527831281.8819494     
   3467981112.0114040     
   3413828716.9593167     
   3365699593.9252901     
   3873700289.7200408     
   3799316081.8965611     
   3730033126.3493133     
   3666138582.9907899     
   3607999688.3476014     
   2882047694.5896306     
   2861984873.5326161     
   2849100320.7747240     
   2843555498.3265214     
   2845516709.8583674     
   2996556512.5028009     
   2963502856.8940201     
   2937507157.5135651     
   2918792400.4945459     
   2907600883.9553580     
   3159782874.6291637     
   3112130395.1154852     
   3071193897.5298123     
   3037242234.8859963     
   3010584317.5610900     
   3365699593.9252901     
   3302383710.5756979     
   3245268759.2807565     
   3194641276.0798416     
   3150851038.9968734     
   3607999688.3476014     
   3528358415.3588500     
   3454292495.3042917     
   3386073532.7081871     
   3324057744.9527593     
   2845516709.8583674     
   2809150057.0546746     
   2781598108.9708548     
   2763083481.2020431     
   2753840656.0265231     
   2907600883.9553580     
   2863195053.8686938     
   2827604881.6776152     
   2801161457.3173137     
   2784220054.0377307     
   3010584317.5610900     
   2956634212.6443391     
   2911440392.5530548     
   2875450967.6642590     
   2849155889.6622238     
   3150851038.9968734     
   3086190553.7002029     
   3030172974.0594544     
   2983363004.1571054     
   2946389530.9633245     
   3324057744.9527593     
   3247829866.6673913     
   3180093440.0194054     
   3121522748.9695582     
   3072881779.7856855     
   2753840656.0265231     
   2711872483.3332829     
   2677848584.2747130     
   2652398013.4214611     
   2636262585.9405603     
   2784220054.0377307     
   2746064346.2386074     
   2717468210.6341186     
   2699230182.6555619     
   2692281823.2521553     
   2849155889.6622238     
   2813219479.5226178     
   2788447620.1243582     
   2775841587.8837929     
   2776555217.6311979     
   2946389530.9633245     
   2910564665.6957026     
   2887515793.1608214     
   2878492488.6106148     
   2884916084.4634180     
   3072881779.7856855     
   3034729173.1478534     
   3010998586.0029774     
   3003243753.2890024     
   3013209406.7240782     
   2636262585.9405603     
   2499366708.7145185     
   2379564948.1317878     
   2280513369.3108759     
   2206384803.2360735     
   2692281823.2521553     
   2579061527.5768104     
   2488338687.1538267     
   2424318915.2342944     
   2391485778.4529581     
   2776555217.6311979     
   2686361221.6905675     
   2623637625.4599051     
   2593034615.6555629     
   2599258272.5454726     
   2884916084.4634180     
   2815621198.1531572     
   2778597347.4798651     
   2778995614.3967299     
   2821831322.4940104     
   3013209406.7240782     
   2961767286.4399381     
   2947620086.0104265     
   2976568898.2173882     
   3054075113.5976791     
   3618017523.0622878     
   3710551014.0801044     
   3814075716.5525331     
   3928570164.9969625     
   4053978764.5339422     
   4127871540.2174702     
   4216106390.9120674     
   4309979027.4544277     
   4407862737.4018478     
   4508331968.7567911     
   4638602017.0595512     
   4748957621.9454870     
   4860182892.8563366     
   4969669433.7842360     
   5075524411.6140404     
   5148606360.8866806     
   5307183682.5842180     
   5462202428.9933767     
   5610797834.6095228     
   5751549672.4976721     
   5657585530.9251471     
   5889895224.2678280     
   6114461872.5341139     
   6328864854.8525620     
   6532942380.2215319     
   4053978764.5339422     
   4092314258.2557197     
   4128051217.0661616     
   4160340119.8645730     
   4188483543.7660522     
   4508331968.7567911     
   4519994483.0882549     
   4536278194.6269016     
   4554754135.4249582     
   4573725937.3847790     
   5075524411.6140404     
   5038179396.6363897     
   5011177333.7689219     
   4989350666.6434507     
   4969509703.2226057     
   5751549672.4976721     
   5641273759.5638247     
   5546729833.2341681     
   5458871581.4198694     
   5372144499.8647070     
   6532942380.2215319     
   6324453789.1259689     
   6137836469.5065556     
   5959171305.3880081     
   5779410020.6040688     
   4188483543.7660522     
   4100257846.9069452     
   4018849878.5034099     
   3943440686.3889108     
   3873700289.7200408     
   4573725937.3847790     
   4461598495.6734972     
   4354025890.3081446     
   4250730083.1972165     
   4151618848.0750713     
   4969509703.2226057     
   4838972479.5770082     
   4712017680.7096024     
   4588651079.1991062     
   4468942008.1016264     
   5372144499.8647070     
   5228244029.2912092     
   5088051336.6271000     
   4951635296.9654226     
   4819144324.0417318     
   5779410020.6040688     
   5626575002.9957457     
   5478542594.8900824     
   5335233041.5544128     
   5196765727.7458229     
   3873700289.7200408     
   3799316081.8965611     
   3730033126.3493133     
   3666138582.9907899     
   3607999688.3476014     
   4151618848.0750713     
   4067090430.9923210     
   3986909096.9935431     
   3911334895.3841085     
   3840689588.2377081     
   4468942008.1016264     
   4373271423.7546701     
   4281075922.9122105     
   4192566804.9437881     
   4108007414.6383533     
   4819144324.0417318     
   4711664395.2062950     
   4606728994.6747980     
   4504481285.5461140     
   4405112722.6211834     
   5196765727.7458229     
   5077042259.2776079     
   4958921377.8447790     
   4842462626.5916300     
   4727774186.4448967     
   3607999688.3476014     
   3528358415.3588500     
   3454292495.3042917     
   3386073532.7081871     
   3324057744.9527593     
   3840689588.2377081     
   3742296537.8647480     
   3648433070.7897987     
   3559352515.4349685     
   3475403607.4061470     
   4108007414.6383533     
   3991464787.6010962     
   3878453745.0342169     
   3769177474.6923542     
   3663936620.0932531     
   4405112722.6211834     
   4271165541.6507540     
   4139846482.8744593     
   4011290972.8449483     
   3885726362.9732833     
   4727774186.4448967     
   4577192266.0052233     
   4428453758.4750099     
   4281620981.0060105     
   4136837678.2464728     
   3324057744.9527593     
   3247829866.6673913     
   3180093440.0194054     
   3121522748.9695582     
   3072881779.7856855     
   3475403607.4061470     
   3383499887.6221194     
   3299180660.1388116     
   3223142261.3930616     
   3156197188.9692640     
   3663936620.0932531     
   3556117161.6695356     
   3454922324.5781546     
   3361030318.4588594     
   3275255409.5750270     
   3885726362.9732833     
   3762156038.5996737     
   3644254554.3583288     
   3532648020.0893955     
   3428108916.3775659     
   4136837678.2464728     
   3997940506.6411810     
   3863807261.1704087     
   3734988926.7296171     
   3612183438.0865650     
   3072881779.7856855     
   3034729173.1478534     
   3010998586.0029774     
   3003243753.2890024     
   3013209406.7240782     
   3156197188.9692640     
   3107123288.6526008     
   3072051071.8629522     
   3052707401.6242414     
   3051069854.2383809     
   3275255409.5750270     
   3213809465.5805259     
   3165915341.9288721     
   3133441759.6047964     
   3118575084.3887630     
   3428108916.3775659     
   3353342795.9464111     
   3291652910.5293522     
   3245006841.2992220     
   3215759049.6577821     
   3612183438.0865650     
   3523593556.3279767     
   3447598241.4071159     
   3386215807.3876953     
   3341917167.5606732     
   3013209406.7240782     
   2961767286.4399381     
   2947620086.0104265     
   2976568898.2173882     
   3054075113.5976791     
   3051069854.2383809     
   2999939068.9832244     
   2987854324.1854439     
   3021958966.1970639     
   3109117818.5512285     
   3118575084.3887630     
   3066257334.7284317     
   3054840000.9198699     
   3092799812.8154736     
   3188426970.1404867     
   3215759049.6577821     
   3160568636.3087387     
   3148270664.6930857     
   3188634045.0953798     
   3291367049.2241359     
   3341917167.5606732     
   3282105848.8750877     
   3267378411.8088017     
   3308725535.4240994     
   3417233979.3364277     
   5657585530.9251471     
   5889895224.2678280     
   6114461872.5341139     
   6328864854.8525620     
   6532942380.2215319     
   6493679657.9783907     
   6589729248.1315374     
   6760871736.4940386     
   6965042330.1265068     
   7175582015.8790455     
   7985357719.5458183     
   7740404787.9752226     
   7676676829.3379564     
   7678875923.0946836     
   7677073123.1190758     
   10133125212.605042     
   9328715435.7208710     
   8836582343.3772621     
   8456865239.3104162     
   8051828191.3242025     
   12937099767.442448     
   11347417241.184036     
   10221791281.669868     
   9288739104.9170666     
   8323967659.1183786     
   6532942380.2215319     
   6324453789.1259689     
   6137836469.5065556     
   5959171305.3880081     
   5779410020.6040688     
   7175582015.8790455     
   6916045831.7918854     
   6664218832.9824018     
   6416266478.7221365     
   6169050936.1535244     
   7677073123.1190758     
   7394394724.0772686     
   7117009771.3145294     
   6845034143.4853382     
   6578707869.1981659     
   8051828191.3242025     
   7766988917.3268423     
   7497777721.9137421     
   7242268479.1638594     
   7000515657.0714989     
   8323967659.1183786     
   8046188228.5069084     
   7810515707.0743303     
   7606268606.0008469     
   7428520965.7960348     
   5779410020.6040688     
   5626575002.9957457     
   5478542594.8900824     
   5335233041.5544128     
   5196765727.7458229     
   6169050936.1535244     
   6019552771.9795427     
   5871738863.8980103     
   5725643375.1510420     
   5581324109.0867853     
   6578707869.1981659     
   6431021952.6139822     
   6281919702.8168421     
   6131361288.5891056     
   5979335903.1809168     
   7000515657.0714989     
   6854553680.3754225     
   6704132934.7346582     
   6548988769.2868862     
   6389039458.0787630     
   7428520965.7960348     
   7285216767.0257769     
   7134544882.7017365     
   6975903618.8192692     
   6809152230.4943438     
   5196765727.7458229     
   5077042259.2776079     
   4958921377.8447790     
   4842462626.5916300     
   4727774186.4448967     
   5581324109.0867853     
   5444842611.1861534     
   5310463966.4113712     
   5178323489.5692110     
   5048633808.7041121     
   5979335903.1809168     
   5822615903.3308506     
   5668380452.2412786     
   5516811248.9402113     
   5368211803.7949533     
   6389039458.0787630     
   6208314142.0468903     
   6030332170.8127623     
   5855305822.9361544     
   5683628003.1688538     
   6809152230.4943438     
   6600455438.4769354     
   6394636023.8974466     
   6191930428.8185291     
   5992827704.7679396     
   4727774186.4448967     
   4577192266.0052233     
   4428453758.4750099     
   4281620981.0060105     
   4136837678.2464728     
   5048633808.7041121     
   4886112728.4389229     
   4724165536.3950329     
   4562824191.9160872     
   4402167805.3888216     
   5368211803.7949533     
   5196681999.7779083     
   5024830052.0072374     
   4852660933.7039928     
   4680203566.3154020     
   5683628003.1688538     
   5506256834.9961624     
   5327996588.5204620     
   5148837050.8172512     
   4968780901.2778006     
   5992827704.7679396     
   5812915658.2122335     
   5631841334.6388893     
   5449594201.1686649     
   5266177149.1374159     
   4136837678.2464728     
   3997940506.6411810     
   3863807261.1704087     
   3734988926.7296171     
   3612183438.0865650     
   4402167805.3888216     
   4250126667.6187315     
   4101233724.7420001     
   3955827878.9830770     
   3814339367.9259148     
   4680203566.3154020     
   4519083285.6211586     
   4359941706.5975542     
   4202933237.1770453     
   4048257504.2762551     
   4968780901.2778006     
   4802863906.2733068     
   4638192988.2945118     
   4474785989.0111876     
   4312677863.1335812     
   5266177149.1374159     
   5099845154.2120924     
   4934439366.4765730     
   4769894298.3136883     
   4606153889.4261818     
   3612183438.0865650     
   3523593556.3279767     
   3447598241.4071159     
   3386215807.3876953     
   3341917167.5606732     
   3814339367.9259148     
   3704414444.7208495     
   3604192053.8858886     
   3515268413.4805136     
   3439583229.9518085     
   4048257504.2762551     
   3912757677.5701203     
   3783984760.1200542     
   3663282917.5296040     
   3552315482.5367589     
   4312677863.1335812     
   4148286412.6885805     
   3987587569.2283211     
   3831755759.6238704     
   3682336179.4314704     
   4606153889.4261818     
   4410396039.9677334     
   4215341929.0876665     
   4022023925.4406462     
   3831958918.4731894     
   3341917167.5606732     
   3282105848.8750877     
   3267378411.8088017     
   3308725535.4240994     
   3417233979.3364277     
   3439583229.9518085     
   3332072968.0860419     
   3259827795.0166769     
   3230938880.7619419     
   3253849194.1314321     
   3552315482.5367589     
   3357470931.4344006     
   3193200872.4349632     
   3073073531.5867991     
   3014667101.2502460     
   3682336179.4314704     
   3360204430.2979298     
   3063876771.0310550     
   2820290122.6553521     
   2673651325.5028906     
   3831958918.4731894     
   3345428300.9354601     
   2875373946.8765478     
   2468515494.9927077     
   2226070640.5047555     
 </DataArray>
 <DataArray  type="Float64" Name="strain" NumberOfComponents="3" format="ascii">
  0.20355433110276483        0.0000000000000000       0.12526181349135995     
  0.18678840771357366       -2.7364414619274819E-002   7.4266090305693450E-002
  0.17002248432438249       -4.4750729693057698E-002   3.5081632376220598E-002
  0.15325656093519135       -5.2158945221348618E-002   7.7084397029413207E-003
  0.13649063754600019       -4.9589061204147605E-002  -7.8534877141442916E-003
  0.15995809427183960        0.0000000000000000        9.6269134101353071E-002
  0.15332316943713786       -2.1872821158737423E-002   6.2548620488271423E-002
  0.14668824460243610       -3.6227495858963746E-002   3.7278838727974911E-002
  0.14005331976773433       -4.3064024100678985E-002   2.0459788820463627E-002
  0.13341839493303259       -4.2382405883883124E-002   1.2091470765737487E-002
  0.12656921071320193        0.0000000000000000        7.3998024715374006E-002
  0.12670475102958112       -1.6381227698200024E-002   5.5092767587896323E-002
  0.12684029134596031       -2.7704262024869808E-002   4.1277708909795374E-002
  0.12697583166233950       -3.3969102980009352E-002   3.2552848681071146E-002
  0.12711137197871875       -3.5175750563618657E-002   2.8918186901723673E-002
  0.10338768042685176        0.0000000000000000        5.8448485333422770E-002
  0.10693315249090349       -1.0889634237662628E-002   5.1898531604568213E-002
  0.11047862455495522       -1.9181028190775863E-002   4.7078242921681945E-002
  0.11402409661900692       -2.4874181859339720E-002   4.3987619284763975E-002
  0.11756956868305865       -2.7969095243354183E-002   4.2626660693814281E-002
   9.0413503412789128E-002   0.0000000000000000        4.9620515955499364E-002
   9.4008373821104926E-002  -5.3980407771252294E-003   5.2965912538287065E-002
   9.7603244229420738E-002  -1.0657794356681925E-002   5.4680440763634618E-002
  0.10119811463773651       -1.5779260738670090E-002   5.4764100631542037E-002
  0.10479298504605232       -2.0762439923089713E-002   5.3216892142009337E-002
  0.13649063754600019       -4.9589061204147605E-002  -7.8534877141442916E-003
  0.13337795553822143       -4.3078684816346018E-002  -3.4549425652472751E-003
  0.13026527353044265       -3.8665423232835235E-002  -4.9369909147669450E-004
  0.12715259152266389       -3.6349276453615277E-002   1.0302427071675127E-003
  0.12403990951488514       -3.6130244478686180E-002   1.1168828306852840E-003
  0.13341839493303259       -4.2382405883883124E-002   1.2091470765737487E-002
  0.12925620383622219       -3.8531854477269700E-002   1.2004330717799602E-002
  0.12509401273941179       -3.5861583149532250E-002   1.1255474166924902E-002
  0.12093182164260138       -3.4371591900670802E-002   9.8449011131133361E-003
  0.11676963054579093       -3.4061880730685376E-002   7.7726115563649528E-003
  0.12711137197871875       -3.5175750563618657E-002   2.8918186901723673E-002
  0.12267525696506623       -3.3985024138193418E-002   2.5262196382365792E-002
  0.11823914195141377       -3.3057743066229300E-002   2.1720074532260637E-002
  0.11380302693776130       -3.2393907347726340E-002   1.8291821351408243E-002
  0.10936691192410880       -3.1993516982684544E-002   1.4977436839808497E-002
  0.11756956868305865       -2.7969095243354183E-002   4.2626660693814281E-002
  0.11363511492475363       -2.9438193799117114E-002   3.6318654428451280E-002
  0.10970066116644862       -3.0253902982926323E-002   3.0900102004530427E-002
  0.10576620740814360       -3.0416222794781868E-002   2.6371003422051932E-002
  0.10183175364983861       -2.9925153234683727E-002   2.2731358681015581E-002
  0.10479298504605232       -2.0762439923089713E-002   5.3216892142009337E-002
  0.10213577771528433       -2.4891363460040800E-002   4.5173704856055950E-002
   9.9478570384516379E-002  -2.7450062899623349E-002   3.8795556583734285E-002
   9.6821363053748388E-002  -2.8438538241837417E-002   3.4082447325044563E-002
   9.4164155722980411E-002  -2.7856789486682923E-002   3.1034377079986603E-002
  0.12403990951488514       -3.6130244478686180E-002   1.1168828306852840E-003
  0.12136426498718195       -3.6660652659705570E-002   5.3951980101420161E-004
  0.11868862045947881       -3.6592826348331678E-002   1.6901357630244584E-005
  0.11601297593177565       -3.5926765544563824E-002  -4.5097249946676743E-004
  0.11333733140407248       -3.4662470248402577E-002  -8.6410177027695934E-004
  0.11676963054579093       -3.4061880730685376E-002   7.7726115563649528E-003
  0.11415074327235265       -3.4159261929541093E-002   7.5469864588776359E-003
  0.11153185599891430       -3.3890547787203074E-002   7.3801312836328445E-003
  0.10891296872547601       -3.3255738303671734E-002   7.2720460306308354E-003
  0.10629408145203767       -3.2254833478946532E-002   7.2227306998717544E-003
  0.10936691192410880       -3.1993516982684544E-002   1.4977436839808497E-002
  0.10680880724089113       -3.1657871199376485E-002   1.4871410523304488E-002
  0.10425070255767346       -3.1188269226074851E-002   1.4828179464999085E-002
  0.10169259787445580       -3.0584711062779525E-002   1.4847743664892426E-002
   9.9134493191238168E-002  -2.9847196709490625E-002   1.4930103122984165E-002
  0.10183175364983861       -2.9925153234683727E-002   2.2731358681015581E-002
   9.9338456892797439E-002  -2.9156480469211887E-002   2.2512791994295178E-002
   9.6845160135756281E-002  -2.8485990664946465E-002   2.2361045901729278E-002
   9.4351863378715164E-002  -2.7913683821887376E-002   2.2276120403317737E-002
   9.1858566621673979E-002  -2.7439559940034622E-002   2.2258015499060573E-002
   9.4164155722980411E-002  -2.7856789486682923E-002   3.1034377079986603E-002
   9.1739692228071601E-002  -2.6655089739047386E-002   3.0471130871849758E-002
   8.9315228733162805E-002  -2.5783712103818076E-002   2.9978730593823159E-002
   8.6890765238253953E-002  -2.5242656580995219E-002   2.9557176245906893E-002
   8.4466301743345157E-002  -2.5031923170578674E-002   2.9206467828100824E-002
  0.11333733140407248       -3.4662470248402577E-002  -8.6410177027695934E-004
  0.10995997275270641       -3.3202225859674667E-002  -4.1330183502885642E-004
  0.10658261410134032       -3.1948317778206961E-002   4.7350034203616498E-004
  0.10320525544997423       -3.0900746003999561E-002   1.7963047609177579E-003
   9.9827896798608151E-002  -3.0059510537052470E-002   3.5551114216162416E-003
  0.10629408145203767       -3.2254833478946532E-002   7.2227306998717544E-003
  0.10332358245761919       -3.1143806316847947E-002   7.3519562546329048E-003
  0.10035308346320079       -3.0178629821195582E-002   7.8588988814725091E-003
   9.7382584468782368E-002  -2.9359303991989539E-002   8.7435585803908797E-003
   9.4412085474363916E-002  -2.8685828829229654E-002   1.0005935351387607E-002
   9.9134493191238168E-002  -2.9847196709490625E-002   1.4930103122984165E-002
   9.6512568684029229E-002  -2.9085386774021102E-002   1.4798239938072208E-002
   9.3890644176820248E-002  -2.8408941864183919E-002   1.4985808655500643E-002
   9.1268719669611309E-002  -2.7817861979979347E-002   1.5492809275269300E-002
   8.8646795162402370E-002  -2.7312147121407060E-002   1.6319241797378453E-002
   9.1858566621673979E-002  -2.7439559940034622E-002   2.2258015499060573E-002
   8.9526931431936338E-002  -2.7026967231194292E-002   2.1925549215289285E-002
   8.7195296242198697E-002  -2.6639253907172509E-002   2.1854229664120289E-002
   8.4863661052461070E-002  -2.6276419967969117E-002   2.2044056845553585E-002
   8.2532025862723402E-002  -2.5938465413584300E-002   2.2495030759588953E-002
   8.4466301743345157E-002  -2.5031923170578674E-002   2.9206467828100824E-002
   8.2366670701340655E-002  -2.4968547688367509E-002   2.8733884086284245E-002
   8.0267039659336084E-002  -2.4869565950161009E-002   2.8464161907331711E-002
   7.8167408617331541E-002  -2.4734977955958908E-002   2.8397301291243411E-002
   7.6067777575327011E-002  -2.4564783705761511E-002   2.8533302238018948E-002
   9.9827896798608151E-002  -3.0059510537052470E-002   3.5551114216162416E-003
   9.6796721046145895E-002  -2.9277516149663285E-002   3.7679789425423826E-003
   9.3765545293683639E-002  -2.8407667614128468E-002   3.9560312856589119E-003
   9.0734369541221382E-002  -2.7449964930449038E-002   4.1192684509661209E-003
   8.7703193788759126E-002  -2.6404408098624654E-002   4.2576904384640235E-003
   9.4412085474363916E-002  -2.8685828829229654E-002   1.0005935351387607E-002
   9.1389383720128697E-002  -2.8045435072983543E-002   9.9863840614149990E-003
   8.8366681965893451E-002  -2.7325353463317964E-002   1.0008595945705440E-002
   8.5343980211658219E-002  -2.6525584000233270E-002   1.0072571004259803E-002
   8.2321278457422986E-002  -2.5646126683729120E-002   1.0178309237077188E-002
   8.8646795162402370E-002  -2.7312147121407060E-002   1.6319241797378453E-002
   8.5699145758466946E-002  -2.6813353996304218E-002   1.6059105401781348E-002
   8.2751496354531578E-002  -2.6243039312507696E-002   1.5907310532520300E-002
   7.9803846950596183E-002  -2.5601203070017616E-002   1.5863857189595640E-002
   7.6856197546660787E-002  -2.4887845268833864E-002   1.5928745373007230E-002
   8.2532025862723402E-002  -2.5938465413584300E-002   2.2495030759588953E-002
   7.9726007161160711E-002  -2.5581272919624740E-002   2.1986142963641382E-002
   7.6919988459598049E-002  -2.5160725161697199E-002   2.1652175046103023E-002
   7.4113969758035345E-002  -2.4676822139801907E-002   2.1493127006973978E-002
   7.1307951056472668E-002  -2.4129563853938690E-002   2.1508998846253881E-002
   7.6067777575327011E-002  -2.4564783705761511E-002   2.8533302238018948E-002
   7.3469967928209923E-002  -2.4349191842945317E-002   2.7767496746995524E-002
   7.0872158281092806E-002  -2.4078411010886765E-002   2.7243189486454197E-002
   6.8274348633975718E-002  -2.3752441209586236E-002   2.6960380456394699E-002
   6.5676538986858601E-002  -2.3371282439043350E-002   2.6919069656817340E-002
   8.7703193788759126E-002  -2.6404408098624654E-002   4.2576904384640235E-003
   8.4967448794398603E-002  -2.5349021637419644E-002   4.8290449590926987E-003
   8.2231703800038081E-002  -2.4361830065599083E-002   5.3079654059441372E-003
   7.9495958805677558E-002  -2.3442833383162463E-002   5.6944517790190330E-003
   7.6760213811317035E-002  -2.2592031590110251E-002   5.9885040783167476E-003
   8.2321278457422986E-002  -2.5646126683729120E-002   1.0178309237077188E-002
   7.9529765172769190E-002  -2.4766582036250262E-002   1.0629309921336927E-002
   7.6738251888115394E-002  -2.3966550580240831E-002   1.1061208098786662E-002
   7.3946738603461640E-002  -2.3246032315701284E-002   1.1474003769427463E-002
   7.1155225318807802E-002  -2.2605027242631026E-002   1.1867696933258287E-002
   7.6856197546660787E-002  -2.4887845268833864E-002   1.5928745373007230E-002
   7.4082247538681215E-002  -2.4184142435080908E-002   1.6248073918812195E-002
   7.1308297530701614E-002  -2.3571271094882926E-002   1.6621631524775235E-002
   6.8534347522722042E-002  -2.3049231248239887E-002   1.7049418190896143E-002
   6.5760397514742441E-002  -2.2618022895151912E-002   1.7531433917174988E-002
   7.1307951056472668E-002  -2.4129563853938690E-002   2.1508998846253881E-002
   6.8624895892134774E-002  -2.3601702833911650E-002   2.1685336951519141E-002
   6.5941840727796797E-002  -2.3175991609525014E-002   2.1989235683909650E-002
   6.3258785563458805E-002  -2.2852430180778489E-002   2.2420695043425511E-002
   6.0575730399120939E-002  -2.2631018547672632E-002   2.2979715030066641E-002
   6.5676538986858601E-002  -2.3371282439043350E-002   2.6919069656817340E-002
   6.3157710233129771E-002  -2.3019263232742310E-002   2.6941099019457376E-002
   6.0638881479400913E-002  -2.2780712124166810E-002   2.7164020576189968E-002
   5.8120052725672069E-002  -2.2655629113317265E-002   2.7587834327015517E-002
   5.5601223971943226E-002  -2.2644014200193296E-002   2.8212540271933761E-002
   7.6760213811317035E-002  -2.2592031590110251E-002   5.9885040783167476E-003
   7.3426891149155737E-002  -2.1726720198957772E-002   6.9362868148923340E-003
   7.0093568486994440E-002  -2.0764194722221851E-002   8.3333353596090620E-003
   6.6760245824833142E-002  -1.9704455159900089E-002   1.0179649712467487E-002
   6.3426923162671844E-002  -1.8547501511995357E-002   1.2475229873467608E-002
   7.1155225318807802E-002  -2.2605027242631026E-002   1.1867696933258287E-002
   6.8236176652117952E-002  -2.2014461180730860E-002   1.3028573172964242E-002
   6.5317127985428103E-002  -2.1445259949700812E-002   1.4568731595471590E-002
   6.2398079318738253E-002  -2.0897423549540384E-002   1.6488172200779874E-002
   5.9479030652048348E-002  -2.0370951980250296E-002   1.8786894988889968E-002
   6.5760397514742441E-002  -2.2618022895151912E-002   1.7531433917174988E-002
   6.3185639218183640E-002  -2.2302202162503365E-002   1.8786824743556974E-002
   6.0610880921624782E-002  -2.2126325177179801E-002   2.0351514127400494E-002
   5.8036122625065981E-002  -2.2090391939180241E-002   2.2225502068704453E-002
   5.5461364328507123E-002  -2.2194402448505679E-002   2.4408788567469308E-002
   6.0575730399120939E-002  -2.2631018547672632E-002   2.2979715030066641E-002
   5.8275278847352729E-002  -2.2589943144276162E-002   2.4211041526671001E-002
   5.5974827295584513E-002  -2.2807390404658776E-002   2.5681682955395684E-002
   5.3674375743816324E-002  -2.3283360328820540E-002   2.7391639316240741E-002
   5.1373924192048087E-002  -2.4017852916761062E-002   2.9340910609206461E-002
   5.5601223971943226E-002  -2.2644014200193296E-002   2.8212540271933761E-002
   5.3505095539625236E-002  -2.2877684126048931E-002   2.9301223522305464E-002
   5.1408967107307246E-002  -2.3488455632138167E-002   3.0559238079457207E-002
   4.9312838674989284E-002  -2.4476328718460304E-002   3.1986583943388991E-002
   4.7216710242671267E-002  -2.5841303385016279E-002   3.3583261114100649E-002
   6.3426923162671844E-002  -1.8547501511995357E-002   1.2475229873467608E-002
   5.4900653814234590E-002  -1.6693498229760850E-002   1.4188502570237516E-002
   4.6374384465797336E-002  -1.3542609764452429E-002   1.8593577672885941E-002
   3.7848115117360082E-002  -9.0948361160709257E-003   2.5690455181411220E-002
   2.9321845768922827E-002  -3.3501772846147304E-003   3.5479135095815462E-002
   5.9479030652048348E-002  -2.0370951980250296E-002   1.8786894988889968E-002
   5.3335616702959499E-002  -1.9493416294757482E-002   2.1131635989387110E-002
   4.7192202753870538E-002  -1.7892387545988708E-002   2.5550285382703097E-002
   4.1048788804781799E-002  -1.5567865733943712E-002   3.2042843168837848E-002
   3.4905374855692783E-002  -1.2519850858622394E-002   4.0609309347791722E-002
   5.5461364328507123E-002  -2.2194402448505679E-002   2.4408788567469308E-002
   5.1082911765707256E-002  -2.2293334359754113E-002   2.6811605751896395E-002
   4.6704459202907445E-002  -2.2242165327524210E-002   3.0670437316082544E-002
   4.2326006640107466E-002  -2.2040895351816386E-002   3.5985283260028214E-002
   3.7947554077307766E-002  -2.1689524432630281E-002   4.2756143583733142E-002
   5.1373924192048087E-002  -2.4017852916761062E-002   2.9340910609206461E-002
   4.8142539002477884E-002  -2.5093252424750856E-002   3.1228411857765162E-002
   4.4911153812907709E-002  -2.6591943109060323E-002   3.3954033473023851E-002
   4.1679768623337575E-002  -2.8513924969689450E-002   3.7517775454982742E-002
   3.8448383433767330E-002  -3.0859198006638056E-002   4.1919637803641718E-002
   4.7216710242671267E-002  -2.5841303385016279E-002   3.3583261114100649E-002
   4.4514498413271486E-002  -2.7893170489747487E-002   3.4382054306993592E-002
   4.1812286583871677E-002  -3.0941720890596339E-002   3.5401073853527115E-002
   3.9110074754471744E-002  -3.4986954587562125E-002   3.6640319753701259E-002
   3.6407862925072032E-002  -4.0028871580645831E-002   3.8099792007516342E-002
   9.0413503412789128E-002   0.0000000000000000        4.9620515955499364E-002
   9.4008373821104926E-002  -5.3980407771252294E-003   5.2965912538287065E-002
   9.7603244229420738E-002  -1.0657794356681925E-002   5.4680440763634618E-002
  0.10119811463773651       -1.5779260738670090E-002   5.4764100631542037E-002
  0.10479298504605232       -2.0762439923089713E-002   5.3216892142009337E-002
   8.2424990691834482E-002   0.0000000000000000        4.4582592361035914E-002
   8.4618807051753606E-002  -4.5536339188223971E-003   4.8045951059774786E-002
   8.6812623411672715E-002  -8.9972100492547741E-003   5.0338070019160477E-002
   8.9006439771591839E-002  -1.3330728391297128E-002   5.1458949239192926E-002
   9.1200256131510948E-002  -1.7554188944949457E-002   5.1408588719872167E-002
   7.4200453284808260E-002   0.0000000000000000        4.0403190329464544E-002
   7.5452844214417628E-002  -3.7092270605195671E-003   4.3956281734976108E-002
   7.6705235144027009E-002  -7.3366257418276248E-003   4.6797762019221367E-002
   7.7957626073636363E-002  -1.0882196043924172E-002   4.8927631182200344E-002
   7.9210017003245717E-002  -1.4345937966809207E-002   5.0345889223913046E-002
   6.5739891191710503E-002   0.0000000000000000        3.7082309860785263E-002
   6.6510485309097034E-002  -2.8648202022167370E-003   4.0696904563890975E-002
   6.7281079426483592E-002  -5.6760414344004728E-003   4.4059516763817336E-002
   6.8051673543870136E-002  -8.4336636965512152E-003   4.7170146460564333E-002
   6.8822267661256667E-002  -1.1137686988668950E-002   5.0028793654131980E-002
   5.7043304412541171E-002   0.0000000000000000        3.4619950954998070E-002
   5.7791730335791811E-002  -2.0204133439139047E-003   3.8267819546519435E-002
   5.8540156259042464E-002  -4.0154571269733243E-003   4.2123334252948355E-002
   5.9288582182293097E-002  -5.9851313491782552E-003   4.6186495074284864E-002
   6.0037008105543750E-002  -7.9294360105287044E-003   5.0457302010528920E-002
  0.10479298504605232       -2.0762439923089713E-002   5.3216892142009337E-002
  0.10213577771528433       -2.4891363460040800E-002   4.5173704856055950E-002
   9.9478570384516379E-002  -2.7450062899623349E-002   3.8795556583734285E-002
   9.6821363053748388E-002  -2.8438538241837417E-002   3.4082447325044563E-002
   9.4164155722980411E-002  -2.7856789486682923E-002   3.1034377079986603E-002
   9.1200256131510948E-002  -1.7554188944949457E-002   5.1408588719872167E-002
   8.9973424256858739E-002  -2.1111015930105968E-002   4.6129944385663924E-002
   8.8746592382206502E-002  -2.3444633566660832E-002   4.2047011950055363E-002
   8.7519760507554306E-002  -2.4555041854614126E-002   3.9159791413046582E-002
   8.6292928632902055E-002  -2.4442240793965744E-002   3.7468282774637415E-002
   7.9210017003245717E-002  -1.4345937966809207E-002   5.0345889223913046E-002
   7.8944233469677147E-002  -1.7330668400171126E-002   4.7484773092683064E-002
   7.8678449936108577E-002  -1.9439204233698330E-002   4.5350041745020706E-002
   7.8412666402540007E-002  -2.0671545467390817E-002   4.3941695180925895E-002
   7.8146882868971437E-002  -2.1027692101248587E-002   4.3259733400398653E-002
   6.8822267661256667E-002  -1.1137686988668950E-002   5.0028793654131980E-002
   6.9048205353739622E-002  -1.3550320870236297E-002   4.9238190977113357E-002
   6.9274143046222564E-002  -1.5433774900735810E-002   4.8704645968630209E-002
   6.9500080738705547E-002  -1.6788049080167525E-002   4.8428158628682522E-002
   6.9726018431188461E-002  -1.7613143408531418E-002   4.8408728957270310E-002
   6.0037008105543750E-002  -7.9294360105287044E-003   5.0457302010528920E-002
   6.0285339909046110E-002  -9.7699733403014532E-003   5.1390198038954733E-002
   6.0533671712548490E-002  -1.1428345567773279E-002   5.2110824620884004E-002
   6.0782003516050835E-002  -1.2904552692944226E-002   5.2619181756316524E-002
   6.1030335319553222E-002  -1.4198594715814250E-002   5.2915269445252475E-002
   9.4164155722980411E-002  -2.7856789486682923E-002   3.1034377079986603E-002
   9.1739692228071601E-002  -2.6655089739047386E-002   3.0471130871849758E-002
   8.9315228733162805E-002  -2.5783712103818076E-002   2.9978730593823159E-002
   8.6890765238253953E-002  -2.5242656580995219E-002   2.9557176245906893E-002
   8.4466301743345157E-002  -2.5031923170578674E-002   2.9206467828100824E-002
   8.6292928632902055E-002  -2.4442240793965744E-002   3.7468282774637415E-002
   8.3985988999661698E-002  -2.3797074618441726E-002   3.6432495208578178E-002
   8.1679049366421314E-002  -2.3310387561767957E-002   3.5560909435745545E-002
   7.9372109733180971E-002  -2.2982179623944485E-002   3.4853525456139622E-002
   7.7065170099940572E-002  -2.2812450804971268E-002   3.4310343269760291E-002
   7.8146882868971437E-002  -2.1027692101248587E-002   4.3259733400398653E-002
   7.6050822960515865E-002  -2.0939059497836109E-002   4.1923247469973099E-002
   7.3954763052060321E-002  -2.0837063019717814E-002   4.0844319195890467E-002
   7.1858703143604777E-002  -2.0721702666893767E-002   4.0022948578150905E-002
   6.9762643235149246E-002  -2.0592978439363890E-002   3.9459135616754341E-002
   6.9726018431188461E-002  -1.7613143408531418E-002   4.8408728957270310E-002
   6.7934194110634130E-002  -1.8081044377230463E-002   4.6943387656034438E-002
   6.6142369790079786E-002  -1.8363738477667681E-002   4.5828959874257960E-002
   6.4350545469525483E-002  -1.8461225709843026E-002   4.5065445611940889E-002
   6.2558721148971139E-002  -1.8373506073756526E-002   4.4652844869083219E-002
   6.1030335319553222E-002  -1.4198594715814250E-002   5.2915269445252475E-002
   5.9636102450016479E-002  -1.5223029256624845E-002   5.1492915766762300E-002
   5.8241869580479728E-002  -1.5890413935617555E-002   5.0514831470848023E-002
   5.6847636710942978E-002  -1.6200748752792316E-002   4.9981016557509493E-002
   5.5453403841406235E-002  -1.6154033708149135E-002   4.9891471026746625E-002
   8.4466301743345157E-002  -2.5031923170578674E-002   2.9206467828100824E-002
   8.2366670701340655E-002  -2.4968547688367509E-002   2.8733884086284245E-002
   8.0267039659336084E-002  -2.4869565950161009E-002   2.8464161907331711E-002
   7.8167408617331541E-002  -2.4734977955958908E-002   2.8397301291243411E-002
   7.6067777575327011E-002  -2.4564783705761511E-002   2.8533302238018948E-002
   7.7065170099940572E-002  -2.2812450804971268E-002   3.4310343269760291E-002
   7.5162409419545537E-002  -2.2725339417627430E-002   3.3944798361095846E-002
   7.3259648739150487E-002  -2.2644983774692096E-002   3.3770132612786483E-002
   7.1356888058755424E-002  -2.2571383876165287E-002   3.3786346024831868E-002
   6.9454127378360375E-002  -2.2504539722046885E-002   3.3993438597232417E-002
   6.9762643235149246E-002  -2.0592978439363890E-002   3.9459135616754341E-002
   6.8044770513854574E-002  -2.0482131146887336E-002   3.9158267540838232E-002
   6.6326897792559930E-002  -2.0420401599223242E-002   3.9036296222767983E-002
   6.4609025071265258E-002  -2.0407789796371516E-002   3.9093221662543531E-002
   6.2891152349970628E-002  -2.0444295738332244E-002   3.9329043860164940E-002
   6.2558721148971139E-002  -1.8373506073756526E-002   4.4652844869083219E-002
   6.1013753984267748E-002  -1.8238922876147236E-002   4.4374291625511313E-002
   5.9468786819564377E-002  -1.8195819423754388E-002   4.4262652737276219E-002
   5.7923819654861014E-002  -1.8244195716577778E-002   4.4317928204377903E-002
   5.6378852490157644E-002  -1.8384051754617596E-002   4.4540118026816219E-002
   5.5453403841406235E-002  -1.6154033708149135E-002   4.9891471026746625E-002
   5.4069359830785063E-002  -1.5995714605407191E-002   4.9592870615115220E-002
   5.2685315820163878E-002  -1.5971237248285482E-002   4.9449202156311448E-002
   5.1301271809542713E-002  -1.6080601636784111E-002   4.9460465650335218E-002
   4.9917227798921521E-002  -1.6323807770902976E-002   4.9626661097186636E-002
   7.6067777575327011E-002  -2.4564783705761511E-002   2.8533302238018948E-002
   7.3469967928209923E-002  -2.4349191842945317E-002   2.7767496746995524E-002
   7.0872158281092806E-002  -2.4078411010886765E-002   2.7243189486454197E-002
   6.8274348633975718E-002  -2.3752441209586236E-002   2.6960380456394699E-002
   6.5676538986858601E-002  -2.3371282439043350E-002   2.6919069656817340E-002
   6.9454127378360375E-002  -2.2504539722046885E-002   3.3993438597232417E-002
   6.7097170751455770E-002  -2.2412697736969647E-002   3.3333633252300640E-002
   6.4740214124551221E-002  -2.2264104345565992E-002   3.2914035717311996E-002
   6.2383257497646623E-002  -2.2058759547836072E-002   3.2734645992266227E-002
   6.0026300870742066E-002  -2.1796663343779776E-002   3.2795464077163633E-002
   6.2891152349970628E-002  -2.0444295738332244E-002   3.9329043860164940E-002
   6.0773758322739596E-002  -2.0476203630993922E-002   3.8776801098408885E-002
   5.8656364295508523E-002  -2.0449797680245217E-002   3.8463475726056989E-002
   5.6538970268277450E-002  -2.0365077886085957E-002   3.8389067743108969E-002
   5.4421576241046446E-002  -2.0222044248516285E-002   3.8553577149565268E-002
   5.6378852490157644E-002  -1.8384051754617596E-002   4.4540118026816219E-002
   5.4499730642061185E-002  -1.8539709525018225E-002   4.4097000285320098E-002
   5.2620608793964740E-002  -1.8635491014924413E-002   4.3891509512689116E-002
   5.0741486945868303E-002  -1.8671396224335789E-002   4.3923645708923195E-002
   4.8862365097771837E-002  -1.8647425153252808E-002   4.4193408874022427E-002
   4.9917227798921521E-002  -1.6323807770902976E-002   4.9626661097186636E-002
   4.8275087709420683E-002  -1.6603215419042583E-002   4.9294230813034579E-002
   4.6632947619919859E-002  -1.6821184349603641E-002   4.9198137077208465E-002
   4.4990807530419057E-002  -1.6977714562585684E-002   4.9338379889708586E-002
   4.3348667440918226E-002  -1.7072806057989220E-002   4.9714959250534929E-002
   6.5676538986858601E-002  -2.3371282439043350E-002   2.6919069656817340E-002
   6.3157710233129771E-002  -2.3019263232742310E-002   2.6941099019457376E-002
   6.0638881479400913E-002  -2.2780712124166810E-002   2.7164020576189968E-002
   5.8120052725672069E-002  -2.2655629113317265E-002   2.7587834327015517E-002
   5.5601223971943226E-002  -2.2644014200193296E-002   2.8212540271933761E-002
   6.0026300870742066E-002  -2.1796663343779776E-002   3.2795464077163633E-002
   5.7710819084416082E-002  -2.1562493621001988E-002   3.2752425466230223E-002
   5.5395337298090180E-002  -2.1440928267106946E-002   3.2915188596009837E-002
   5.3079855511764230E-002  -2.1431967282094948E-002   3.3283753466502343E-002
   5.0764373725438294E-002  -2.1535610665965932E-002   3.3858120077707970E-002
   5.4421576241046446E-002  -2.0222044248516285E-002   3.8553577149565268E-002
   5.2314350968743595E-002  -2.0105724009261541E-002   3.8446334293901194E-002
   5.0207125696440737E-002  -2.0101144410046977E-002   3.8549802725570494E-002
   4.8099900424137906E-002  -2.0208305450872745E-002   3.8863982444572953E-002
   4.5992675151835041E-002  -2.0427207131738651E-002   3.9388873450908607E-002
   4.8862365097771837E-002  -1.8647425153252808E-002   4.4193408874022427E-002
   4.6968305886112269E-002  -1.8648954397521240E-002   4.4022825502470608E-002
   4.5074246674452693E-002  -1.8761360552986921E-002   4.4067862964872272E-002
   4.3180187462793111E-002  -1.8984643619650510E-002   4.4328521261227161E-002
   4.1286128251133550E-002  -1.9318803597511355E-002   4.4804800391535650E-002
   4.3348667440918226E-002  -1.7072806057989220E-002   4.9714959250534929E-002
   4.1672683836522090E-002  -1.7192184785780829E-002   4.9481899091938175E-002
   3.9996700232125967E-002  -1.7421576695927088E-002   4.9469369313914935E-002
   3.8320716627729852E-002  -1.7760981788428262E-002   4.9677369916465069E-002
   3.6644733023333736E-002  -1.8210400063283949E-002   5.0105900899588995E-002
   5.5601223971943226E-002  -2.2644014200193296E-002   2.8212540271933761E-002
   5.3505095539625236E-002  -2.2877684126048931E-002   2.9301223522305464E-002
   5.1408967107307246E-002  -2.3488455632138167E-002   3.0559238079457207E-002
   4.9312838674989284E-002  -2.4476328718460304E-002   3.1986583943388991E-002
   4.7216710242671267E-002  -2.5841303385016279E-002   3.3583261114100649E-002
   5.0764373725438294E-002  -2.1535610665965932E-002   3.3858120077707970E-002
   4.8845719496454471E-002  -2.1875564619767557E-002   3.4651538721929581E-002
   4.6927065267470647E-002  -2.2575535344547648E-002   3.5630574466039802E-002
   4.5008411038486795E-002  -2.3635522840305526E-002   3.6795227310037766E-002
   4.3089756809502999E-002  -2.5055527107042175E-002   3.8145497253924465E-002
   4.5992675151835041E-002  -2.0427207131738651E-002   3.9388873450908607E-002
   4.4267780919293676E-002  -2.0873445113486308E-002   3.9904112298235456E-002
   4.2542886686752268E-002  -2.1662615056957088E-002   4.0621254038558832E-002
   4.0817992454210895E-002  -2.2794716962151029E-002   4.1540298671878813E-002
   3.9093098221669495E-002  -2.4269750829068043E-002   4.2661246198195349E-002
   4.1286128251133550E-002  -1.9318803597511355E-002   4.4804800391535650E-002
   3.9771279808142830E-002  -1.9871325607204969E-002   4.5058944251222643E-002
   3.8256431365152166E-002  -2.0749694769366715E-002   4.5531276797014450E-002
   3.6741582922161446E-002  -2.1953911083996365E-002   4.6221798028911194E-002
   3.5226734479170782E-002  -2.3483974551094147E-002   4.7130507946913078E-002
   3.6644733023333736E-002  -1.8210400063283949E-002   5.0105900899588995E-002
   3.5356216163002024E-002  -1.8869206100923630E-002   5.0116034580891367E-002
   3.4067699302670271E-002  -1.9836774481776176E-002   5.0360642741407002E-002
   3.2779182442338579E-002  -2.1113105205841712E-002   5.0839725381135736E-002
   3.1490665582006833E-002  -2.2698198273119863E-002   5.1553282500077457E-002
   4.7216710242671267E-002  -2.5841303385016279E-002   3.3583261114100649E-002
   4.4514498413271486E-002  -2.7893170489747487E-002   3.4382054306993592E-002
   4.1812286583871677E-002  -3.0941720890596339E-002   3.5401073853527115E-002
   3.9110074754471744E-002  -3.4986954587562125E-002   3.6640319753701259E-002
   3.6407862925072032E-002  -4.0028871580645831E-002   3.8099792007516342E-002
   4.3089756809502999E-002  -2.5055527107042175E-002   3.8145497253924465E-002
   4.0624723772562904E-002  -2.7108463164458002E-002   3.8140272677722298E-002
   3.8159690735622781E-002  -3.0067246032254483E-002   3.8389179332798729E-002
   3.5694657698682755E-002  -3.3931875710431339E-002   3.8892217219153938E-002
   3.3229624661742618E-002  -3.8702352198988654E-002   3.9649386336788273E-002
   3.9093098221669495E-002  -2.4269750829068043E-002   4.2661246198195349E-002
   3.6899148854827160E-002  -2.6323755839168628E-002   4.1942840338634782E-002
   3.4705199487984943E-002  -2.9192771173912675E-002   4.1512470587991172E-002
   3.2511250121142629E-002  -3.2876796833300165E-002   4.1370136946264555E-002
   3.0317300754300336E-002  -3.7375832817331367E-002   4.1515839413454603E-002
   3.5226734479170782E-002  -2.3483974551094147E-002   4.7130507946913078E-002
   3.3337773660064393E-002  -2.5539048513879170E-002   4.5789757289731337E-002
   3.1448812840958004E-002  -2.8318296315570788E-002   4.4770947619104343E-002
   2.9559852021851709E-002  -3.1821717956169074E-002   4.4074078935032478E-002
   2.7670891202745226E-002  -3.6049313435674191E-002   4.3699151237515554E-002
   3.1490665582006833E-002  -2.2698198273119863E-002   5.1553282500077457E-002
   2.9940598188274464E-002  -2.4754341188589823E-002   4.9681023531011392E-002
   2.8390530794542138E-002  -2.7443821457229109E-002   4.8164610426138371E-002
   2.6840463400809707E-002  -3.0766639079038118E-002   4.7004043185458269E-002
   2.5290396007077387E-002  -3.4722794054016903E-002   4.6199321808971350E-002
   5.7043304412541171E-002   0.0000000000000000        3.4619950954998070E-002
   5.7791730335791811E-002  -2.0204133439139047E-003   3.8267819546519435E-002
   5.8540156259042464E-002  -4.0154571269733243E-003   4.2123334252948355E-002
   5.9288582182293097E-002  -5.9851313491782552E-003   4.6186495074284864E-002
   6.0037008105543750E-002  -7.9294360105287044E-003   5.0457302010528920E-002
   4.8523988161002674E-002   0.0000000000000000        3.2785162260643111E-002
   4.9416645438729083E-002  -1.6466697939900672E-003   3.6962676083871861E-002
   5.0309302716455485E-002  -3.3137206472227034E-003   4.1221006501144561E-002
   5.1201959994181895E-002  -5.0011525596979113E-003   4.5560153512461211E-002
   5.2094617271908304E-002  -6.7089655314156891E-003   4.9980117117821826E-002
   4.0595237650797422E-002   0.0000000000000000        3.1346992426260510E-002
   4.1505296762135976E-002  -1.2729262440662305E-003   3.6008400861099590E-002
   4.2415355873474538E-002  -2.6119841674720843E-003   4.0623796369119017E-002
   4.3325414984813085E-002  -4.0171737702175631E-003   4.5193178950318776E-002
   4.4235474096151646E-002  -5.4884950523026704E-003   4.9716548604698887E-002
   3.3257052881925396E-002   0.0000000000000000        3.0305441451850275E-002
   3.4057684306012484E-002  -8.9918269414239254E-004   3.5404993878202624E-002
   3.4858315730099579E-002  -1.9102476877214652E-003   4.0331703856871709E-002
   3.5658947154186674E-002  -3.0331949807372196E-003   4.5085571387857543E-002
   3.6459578578273776E-002  -4.2680245731896516E-003   4.9666596471160084E-002
   2.6509433854386606E-002   0.0000000000000000        2.9660509337412405E-002
   2.7073808070358626E-002  -5.2543914421855544E-004   3.5152455135180984E-002
   2.7638182286330647E-002  -1.2085112079708461E-003   4.0344728964402679E-002
   2.8202556502302668E-002  -2.0492161912568693E-003   4.5237330825077492E-002
   2.8766930718274686E-002  -3.0475540940766372E-003   4.9830260717205421E-002
   6.0037008105543750E-002  -7.9294360105287044E-003   5.0457302010528920E-002
   6.0285339909046110E-002  -9.7699733403014532E-003   5.1390198038954733E-002
   6.0533671712548490E-002  -1.1428345567773279E-002   5.2110824620884004E-002
   6.0782003516050835E-002  -1.2904552692944226E-002   5.2619181756316524E-002
   6.1030335319553222E-002  -1.4198594715814250E-002   5.2915269445252475E-002
   5.2094617271908304E-002  -6.7089655314156891E-003   4.9980117117821826E-002
   5.2170350650025024E-002  -8.3379066788366249E-003   5.1216076730306044E-002
   5.2246084028141737E-002  -9.7887231184212962E-003   5.2319108938515567E-002
   5.2321817406258450E-002  -1.1061414850169751E-002   5.3289213742450457E-002
   5.2397550784375170E-002  -1.2155981874081977E-002   5.4126391142110736E-002
   4.4235474096151646E-002  -5.4884950523026704E-003   4.9716548604698887E-002
   4.4217951091104699E-002  -6.9058400173718009E-003   5.1251531406776775E-002
   4.4200428086057751E-002  -8.1491006690693341E-003   5.2732928846802002E-002
   4.4182905081010797E-002  -9.2182770073953018E-003   5.4160740924774541E-002
   4.4165382075963849E-002  -1.0113369032349662E-002   5.5534967640694426E-002
   3.6459578578273776E-002  -4.2680245731896516E-003   4.9666596471160084E-002
   3.6428141232285140E-002  -5.4737733559069718E-003   5.1496562068367002E-002
   3.6396703886296511E-002  -6.5094782197173667E-003   5.3352284345743260E-002
   3.6365266540307882E-002  -7.3751391646208258E-003   5.5233763303288816E-002
   3.6333829194319253E-002  -8.0707561906173675E-003   5.7140998941003676E-002
   2.8766930718274686E-002  -3.0475540940766372E-003   4.9830260717205421E-002
   2.8800921073566368E-002  -4.0417066944421470E-003   5.1951168715076719E-002
   2.8834911428858037E-002  -4.8698557703653923E-003   5.4177175435339335E-002
   2.8868901784149716E-002  -5.5320013218463750E-003   5.6508280877993228E-002
   2.8902892139441388E-002  -6.0281433488850733E-003   5.8944485043038397E-002
   6.1030335319553222E-002  -1.4198594715814250E-002   5.2915269445252475E-002
   5.9636102450016479E-002  -1.5223029256624845E-002   5.1492915766762300E-002
   5.8241869580479728E-002  -1.5890413935617555E-002   5.0514831470848023E-002
   5.6847636710942978E-002  -1.6200748752792316E-002   4.9981016557509493E-002
   5.5453403841406235E-002  -1.6154033708149135E-002   4.9891471026746625E-002
   5.2397550784375170E-002  -1.2155981874081977E-002   5.4126391142110736E-002
   5.1398231454652457E-002  -1.3022865882074113E-002   5.3372443040536455E-002
   5.0398912124929751E-002  -1.3612508566062392E-002   5.2964052636014468E-002
   4.9399592795207052E-002  -1.3924909926046754E-002   5.2901219928544810E-002
   4.8400273465484318E-002  -1.3960069962027283E-002   5.3183944918127418E-002
   4.4165382075963849E-002  -1.0113369032349662E-002   5.5534967640694426E-002
   4.3462264600531667E-002  -1.0822702507523325E-002   5.5369616578221974E-002
   4.2759147125099484E-002  -1.1334603196507188E-002   5.5451111527278357E-002
   4.2056029649667287E-002  -1.1649071099301189E-002   5.5779452487863472E-002
   4.1352912174235097E-002  -1.1766106215905389E-002   5.6354639459977381E-002
   3.6333829194319253E-002  -8.0707561906173675E-003   5.7140998941003676E-002
   3.5828201887654086E-002  -8.6225391329725794E-003   5.7484436379819072E-002
   3.5322574580988919E-002  -9.0566978269520110E-003   5.7976008144639629E-002
   3.4816947274323759E-002  -9.3732322725556330E-003   5.8615714235465563E-002
   3.4311319967658585E-002  -9.5721424697835025E-003   5.9403554652296617E-002
   2.8902892139441388E-002  -6.0281433488850733E-003   5.8944485043038397E-002
   2.8496043316019733E-002  -6.4223757584218021E-003   5.9716902445327485E-002
   2.8089194492598078E-002  -6.7787924573968102E-003   6.0538742488098325E-002
   2.7682345669176423E-002  -7.0973934458100811E-003   6.1410005171350909E-002
   2.7275496845754775E-002  -7.3781787236616297E-003   6.2330690495085231E-002
   5.5453403841406235E-002  -1.6154033708149135E-002   4.9891471026746625E-002
   5.4069359830785063E-002  -1.5995714605407191E-002   4.9592870615115220E-002
   5.2685315820163878E-002  -1.5971237248285482E-002   4.9449202156311448E-002
   5.1301271809542713E-002  -1.6080601636784111E-002   4.9460465650335218E-002
   4.9917227798921521E-002  -1.6323807770902976E-002   4.9626661097186636E-002
   4.8400273465484318E-002  -1.3960069962027283E-002   5.3183944918127418E-002
   4.7178277012169617E-002  -1.3904741223629662E-002   5.2783176435213484E-002
   4.5956280558854937E-002  -1.3945676260479704E-002   5.2551571114084941E-002
   4.4734284105540249E-002  -1.4082875072577423E-002   5.2489128954741719E-002
   4.3512287652225562E-002  -1.4316337659922768E-002   5.2595849957183805E-002
   4.1352912174235097E-002  -1.1766106215905389E-002   5.6354639459977381E-002
   4.0307194487184603E-002  -1.1813767841852188E-002   5.5889280876153712E-002
   3.9261476800134087E-002  -1.1920115272673951E-002   5.5607316663073073E-002
   3.8215759113083579E-002  -1.2085148508370759E-002   5.5508746820735408E-002
   3.7170041426033064E-002  -1.2308867548942559E-002   5.5593571349140877E-002
   3.4311319967658585E-002  -9.5721424697835025E-003   5.9403554652296617E-002
   3.3456112255829951E-002  -9.7227944600747004E-003   5.8911183937935860E-002
   3.2600904544001323E-002  -9.8945542848682278E-003   5.8616438803275800E-002
   3.1745696832172696E-002  -1.0087421944164097E-002   5.8519319248316444E-002
   3.0890489120344054E-002  -1.0301397437962323E-002   5.8619825273057834E-002
   2.7275496845754775E-002  -7.3781787236616297E-003   6.2330690495085231E-002
   2.6625030318105709E-002  -7.6318210782972060E-003   6.1848885620559985E-002
   2.5974563790456647E-002  -7.8689932970624314E-003   6.1578937534693089E-002
   2.5324097262807578E-002  -8.0896953799574102E-003   6.1520846237484619E-002
   2.4673630735158519E-002  -8.2939273269821423E-003   6.1674611728934625E-002
   4.9917227798921521E-002  -1.6323807770902976E-002   4.9626661097186636E-002
   4.8275087709420683E-002  -1.6603215419042583E-002   4.9294230813034579E-002
   4.6632947619919859E-002  -1.6821184349603641E-002   4.9198137077208465E-002
   4.4990807530419057E-002  -1.6977714562585684E-002   4.9338379889708586E-002
   4.3348667440918226E-002  -1.7072806057989220E-002   4.9714959250534929E-002
   4.3512287652225562E-002  -1.4316337659922768E-002   5.2595849957183805E-002
   4.2100434522783517E-002  -1.4574377635862418E-002   5.2374337863086678E-002
   4.0688581393341472E-002  -1.4785308613743185E-002   5.2377063140780944E-002
   3.9276728263899413E-002  -1.4949130593564777E-002   5.2604025790266656E-002
   3.7864875134457368E-002  -1.5065843575327587E-002   5.3055225811543677E-002
   3.7170041426033064E-002  -1.2308867548942559E-002   5.5593571349140877E-002
   3.5976376080115086E-002  -1.2545539852682197E-002   5.5468647725578905E-002
   3.4782710734197100E-002  -1.2749432877882702E-002   5.5555862297273689E-002
   3.3589045388279122E-002  -1.2920546624543842E-002   5.5855215064225146E-002
   3.2395380042361137E-002  -1.3058881092665897E-002   5.6366706026433344E-002
   3.0890489120344054E-002  -1.0301397437962323E-002   5.8619825273057834E-002
   2.9902912381415403E-002  -1.0516702069501949E-002   5.8577160400511259E-002
   2.8915335642486769E-002  -1.0713557142022205E-002   5.8734534546686784E-002
   2.7927758903558132E-002  -1.0891962655522893E-002   5.9091947711584325E-002
   2.6940182164629484E-002  -1.1051918610004180E-002   5.9649399895203750E-002
   2.4673630735158519E-002  -8.2939273269821423E-003   6.1674611728934625E-002
   2.3880043426684497E-002  -8.4878642863217835E-003   6.1699875887883865E-002
   2.3086456118210467E-002  -8.6776814061617913E-003   6.1913079889020367E-002
   2.2292868809736441E-002  -8.8633786865019229E-003   6.2314223732344118E-002
   2.1499281501262416E-002  -9.0449561273425183E-003   6.2903307417854992E-002
   4.3348667440918226E-002  -1.7072806057989220E-002   4.9714959250534929E-002
   4.1672683836522090E-002  -1.7192184785780829E-002   4.9481899091938175E-002
   3.9996700232125967E-002  -1.7421576695927088E-002   4.9469369313914935E-002
   3.8320716627729852E-002  -1.7760981788428262E-002   4.9677369916465069E-002
   3.6644733023333736E-002  -1.8210400063283949E-002   5.0105900899588995E-002
   3.7864875134457368E-002  -1.5065843575327587E-002   5.3055225811543677E-002
   3.6408707499407847E-002  -1.5207652708956437E-002   5.2732091214011650E-002
   3.4952539864358263E-002  -1.5446763144376000E-002   5.2628058174599229E-002
   3.3496372229308721E-002  -1.5783174881586762E-002   5.2743126693306275E-002
   3.2040204594259172E-002  -1.6216887920588396E-002   5.3077296770133120E-002
   3.2395380042361137E-002  -1.3058881092665897E-002   5.6366706026433344E-002
   3.1157599554204211E-002  -1.3223120632131963E-002   5.5966208870529818E-002
   2.9919819066047317E-002  -1.3471949592825022E-002   5.5783384450291906E-002
   2.8682038577890395E-002  -1.3805367974745485E-002   5.5818232765719678E-002
   2.7444258089733491E-002  -1.4223375777892983E-002   5.6070753816813201E-002
   2.6940182164629484E-002  -1.1051918610004180E-002   5.9649399895203750E-002
   2.5919360000911280E-002  -1.1238588555307447E-002   5.9184252061492498E-002
   2.4898537837193063E-002  -1.1497136041274017E-002   5.8935348140993042E-002
   2.3877715673474860E-002  -1.1827561067904137E-002   5.8902688133705375E-002
   2.2856893509756643E-002  -1.2229863635197499E-002   5.9086272039629364E-002
   2.1499281501262416E-002  -9.0449561273425183E-003   6.2903307417854992E-002
   2.0693988839528984E-002  -9.2540564784830415E-003   6.2386220786899982E-002
   1.9888696177795560E-002  -9.5223224897229980E-003   6.2083949246702658E-002
   1.9083403516062140E-002  -9.8497541610626897E-003   6.1996492797263200E-002
   1.8278110854328705E-002  -1.0236351492502016E-002   6.2123851438581623E-002
   3.6644733023333736E-002  -1.8210400063283949E-002   5.0105900899588995E-002
   3.5356216163002024E-002  -1.8869206100923630E-002   5.0116034580891367E-002
   3.4067699302670271E-002  -1.9836774481776176E-002   5.0360642741407002E-002
   3.2779182442338579E-002  -2.1113105205841712E-002   5.0839725381135736E-002
   3.1490665582006833E-002  -2.2698198273119863E-002   5.1553282500077457E-002
   3.2040204594259172E-002  -1.6216887920588396E-002   5.3077296770133120E-002
   3.0973549159419717E-002  -1.6838332462371208E-002   5.2789937298771406E-002
   2.9906893724580268E-002  -1.7737938707925713E-002   5.2711826199181105E-002
   2.8840238289740815E-002  -1.8915706657251199E-002   5.2842963471362248E-002
   2.7773582854901377E-002  -2.0371636310348384E-002   5.3183349115314804E-002
   2.7444258089733491E-002  -1.4223375777892983E-002   5.6070753816813201E-002
   2.6574237972944580E-002  -1.4807458823819147E-002   5.5516501832228879E-002
   2.5704217856155672E-002  -1.5639102934075139E-002   5.5146272111974204E-002
   2.4834197739366765E-002  -1.6718308108661130E-002   5.4960064656049384E-002
   2.3964177622577860E-002  -1.8045074347576989E-002   5.4957879464454087E-002
   2.2856893509756643E-002  -1.2229863635197499E-002   5.9086272039629364E-002
   2.2158282603576614E-002  -1.2776585185266850E-002   5.8295728181263828E-002
   2.1459671697396529E-002  -1.3540267160224786E-002   5.7663980479786388E-002
   2.0761060791216465E-002  -1.4520909560070783E-002   5.7191028935196911E-002
   2.0062449885036387E-002  -1.5718512384805552E-002   5.6876873547495155E-002
   1.8278110854328705E-002  -1.0236351492502016E-002   6.2123851438581623E-002
   1.7725683051315763E-002  -1.0745711546714665E-002   6.1127616345876490E-002
   1.7173255248302821E-002  -1.1441431386374101E-002   6.0264951302617553E-002
   1.6620827445289872E-002  -1.2323511011480548E-002   5.9535856308804813E-002
   1.6068399642276923E-002  -1.3391950422034005E-002   5.8940331364438436E-002
   3.1490665582006833E-002  -2.2698198273119863E-002   5.1553282500077457E-002
   2.9940598188274464E-002  -2.4754341188589823E-002   4.9681023531011392E-002
   2.8390530794542138E-002  -2.7443821457229109E-002   4.8164610426138371E-002
   2.6840463400809707E-002  -3.0766639079038118E-002   4.7004043185458269E-002
   2.5290396007077387E-002  -3.4722794054016903E-002   4.6199321808971350E-002
   2.7773582854901377E-002  -2.0371636310348384E-002   5.3183349115314804E-002
   2.6550131792899737E-002  -2.2238397860184500E-002   5.0601118387130384E-002
   2.5326680730898075E-002  -2.4648661499727012E-002   4.8316274458214459E-002
   2.4103229668896445E-002  -2.7602427228975854E-002   4.6328817328567071E-002
   2.2879778606894774E-002  -3.1099695047931197E-002   4.4638746998187817E-002
   2.3964177622577860E-002  -1.8045074347576989E-002   5.4957879464454087E-002
   2.3008883827382427E-002  -1.9722454531779482E-002   5.1755512240614601E-002
   2.2053590032186991E-002  -2.1853501542224922E-002   4.8792072751118916E-002
   2.1098296236991568E-002  -2.4438215378913733E-002   4.6067560995967233E-002
   2.0143002441796107E-002  -2.7476596041845602E-002   4.3581976975159253E-002
   2.0062449885036387E-002  -1.5718512384805552E-002   5.6876873547495155E-002
   1.9316854291722543E-002  -1.7206511203374422E-002   5.3144205091464003E-002
   1.8571258698408699E-002  -1.9058341584722940E-002   4.9592005304851930E-002
   1.7825663105094851E-002  -2.1274003528851539E-002   4.6220274187659290E-002
   1.7080067511780980E-002  -2.3853497035759896E-002   4.3029011739885881E-002
   1.6068399642276923E-002  -1.3391950422034005E-002   5.8940331364438436E-002
   1.5474043185920106E-002  -1.4690567874969196E-002   5.4767196939678631E-002
   1.4879686729563295E-002  -1.6263181627220930E-002   5.0716072119413591E-002
   1.4285330273206494E-002  -1.8109791678789365E-002   4.6786956903643123E-002
   1.3690973816849694E-002  -2.0230398029674301E-002   4.2979851292367588E-002
   2.6509433854386606E-002   0.0000000000000000        2.9660509337412405E-002
   2.7073808070358626E-002  -5.2543914421855544E-004   3.5152455135180984E-002
   2.7638182286330647E-002  -1.2085112079708461E-003   4.0344728964402679E-002
   2.8202556502302668E-002  -2.0492161912568693E-003   4.5237330825077492E-002
   2.8766930718274686E-002  -3.0475540940766372E-003   4.9830260717205421E-002
   2.0013342120833420E-002   0.0000000000000000        2.9269714488517003E-002
   2.0317688971897008E-002  -3.9407935816419999E-004   3.4575864931970048E-002
   2.0622035822960603E-002  -9.0638340597857039E-004   3.9661632614153106E-002
   2.0926382674024194E-002  -1.5369121434431095E-003   4.4527017535066188E-002
   2.1230729525087783E-002  -2.2856655705578268E-003   4.9172019694709287E-002
   1.3429739233918204E-002   0.0000000000000000        2.8990575310734172E-002
   1.3553347927350261E-002  -2.6271957210984584E-004   3.4150338629755257E-002
   1.3676956620782318E-002  -6.0425560398629560E-004   3.9169008394783239E-002
   1.3800565314214376E-002  -1.0246080956293471E-003   4.4046584605818152E-002
   1.3924174007646433E-002  -1.5237770470390021E-003   4.8783067262859969E-002
   6.7586251936409669E-003   0.0000000000000000        2.8823091804063918E-002
   6.7807849367183867E-003  -1.3135978605549148E-004   3.3875876228536592E-002
   6.8029446797958056E-003  -3.0212780199402036E-004   3.8866856306293079E-002
   6.8251044228732254E-003  -5.1230404781558775E-004   4.3796032037333385E-002
   6.8472641659506443E-003  -7.6188852352018451E-004   4.8663403421657501E-002
   1.7017637299332478E-015   0.0000000000000000        2.8767263968506228E-002
   1.3808398868775384E-015  -1.1362438767648086E-015   3.3752477728314079E-002
   1.0588318416493436E-015  -1.7451318168326679E-015   3.8755176348682634E-002
   7.3649853576940316E-016  -1.8231943732516243E-015   4.3775359829611893E-002
   4.1503259162745110E-016  -1.3652273755937472E-015   4.8813028171101870E-002
   2.8766930718274686E-002  -3.0475540940766372E-003   4.9830260717205421E-002
   2.8800921073566368E-002  -4.0417066944421470E-003   5.1951168715076719E-002
   2.8834911428858037E-002  -4.8698557703653923E-003   5.4177175435339335E-002
   2.8868901784149716E-002  -5.5320013218463750E-003   5.6508280877993228E-002
   2.8902892139441388E-002  -6.0281433488850733E-003   5.8944485043038397E-002
   2.1230729525087783E-002  -2.2856655705578268E-003   4.9172019694709287E-002
   2.1341419524967202E-002  -3.0312800208317902E-003   5.1639427374409540E-002
   2.1452109524846618E-002  -3.6523918277741171E-003   5.4155135620893996E-002
   2.1562799524726037E-002  -4.1490009913848214E-003   5.6719144434162649E-002
   2.1673489524605460E-002  -4.5211075116638882E-003   5.9331453814215493E-002
   1.3924174007646433E-002  -1.5237770470390021E-003   4.8783067262859969E-002
   1.4054765496506496E-002  -2.0208533472214482E-003   5.1555473743278568E-002
   1.4185356985366568E-002  -2.4349278851828835E-003   5.4319382634874257E-002
   1.4315948474226636E-002  -2.7660006609232985E-003   5.7074793937647070E-002
   1.4446539963086698E-002  -3.0140716744427032E-003   5.9821707651596986E-002
   6.8472641659506443E-003  -7.6188852352018451E-004   4.8663403421657501E-002
   6.9409589881842563E-003  -1.0104266736111161E-003   5.1699307821683804E-002
   7.0346538104178683E-003  -1.2174639425916395E-003   5.4669916477280145E-002
   7.1283486326514812E-003  -1.3830003304617776E-003   5.7575229388446440E-002
   7.2220434548850914E-003  -1.5070358372215181E-003   6.0415246555182732E-002
   4.1503259162745110E-016  -1.3652273755937472E-015   4.8813028171101870E-002
   4.7574791328663935E-016  -7.6241096769180672E-016   5.2070929609625269E-002
   5.3537903277334209E-016  -3.7426658994199613E-016   5.5206737148111570E-002
   5.9685329595327019E-016  -2.3581397251559721E-016   5.8220450786560782E-002
   6.5572547391923308E-016  -3.2612801348363973E-016   6.1112070524972882E-002
   2.8902892139441388E-002  -6.0281433488850733E-003   5.8944485043038397E-002
   2.8496043316019733E-002  -6.4223757584218021E-003   5.9716902445327485E-002
   2.8089194492598078E-002  -6.7787924573968102E-003   6.0538742488098325E-002
   2.7682345669176423E-002  -7.0973934458100811E-003   6.1410005171350909E-002
   2.7275496845754775E-002  -7.3781787236616297E-003   6.2330690495085231E-002
   2.1673489524605460E-002  -4.5211075116638882E-003   5.9331453814215493E-002
   2.1329135733009000E-002  -4.8167818188164548E-003   6.0152485407906700E-002
   2.0984781941412539E-002  -5.0840943430476987E-003   6.1049084424766517E-002
   2.0640428149816075E-002  -5.3230450843576096E-003   6.2021250864794951E-002
   2.0296074358219625E-002  -5.5336340427461772E-003   6.3068984727992022E-002
   1.4446539963086698E-002  -3.0140716744427032E-003   5.9821707651596986E-002
   1.4190825986002301E-002  -3.2111878792111231E-003   6.0681899509049869E-002
   1.3935112008917902E-002  -3.3893962286985855E-003   6.1643803572358331E-002
   1.3679398031833503E-002  -3.5486967229051238E-003   6.2707419841522241E-002
   1.3423684054749101E-002  -3.6890893618307039E-003   6.3872748316541675E-002
   7.2220434548850914E-003  -1.5070358372215181E-003   6.0415246555182732E-002
   7.0811140749996266E-003  -1.6055939396057975E-003   6.1305144748757069E-002
   6.9401846951141610E-003  -1.6946981143495287E-003   6.2322899930873664E-002
   6.7992553152286979E-003  -1.7743483614526452E-003   6.3468512101532676E-002
   6.6583259353432261E-003  -1.8445446809152270E-003   6.4741981260734063E-002
   6.5572547391923308E-016  -3.2612801348363973E-016   6.1112070524972882E-002
   9.8792501956879164E-016  -4.3715031594615539E-016   6.2022221127028140E-002
   1.3201245652183502E-015  -3.6949610038305991E-016   6.3086373500312584E-002
   1.6501557065229377E-015  -1.6870185803874449E-016   6.4304527644826304E-002
   1.9845236565174673E-015   2.3592239273284576E-016   6.5676683560569202E-002
   2.7275496845754775E-002  -7.3781787236616297E-003   6.2330690495085231E-002
   2.6625030318105709E-002  -7.6318210782972060E-003   6.1848885620559985E-002
   2.5974563790456647E-002  -7.8689932970624314E-003   6.1578937534693089E-002
   2.5324097262807578E-002  -8.0896953799574102E-003   6.1520846237484619E-002
   2.4673630735158519E-002  -8.2939273269821423E-003   6.1674611728934625E-002
   2.0296074358219625E-002  -5.5336340427461772E-003   6.3068984727992022E-002
   1.9845154580042400E-002  -5.7238658087227431E-003   6.2696313367231304E-002
   1.9394234801865185E-002  -5.9017449727965035E-003   6.2510878716755883E-002
   1.8943315023687964E-002  -6.0672715349676404E-003   6.2512680776565743E-002
   1.8492395245510752E-002  -6.2204454952360655E-003   6.2701719546660789E-002
   1.3423684054749101E-002  -3.6890893618307039E-003   6.3872748316541675E-002
   1.3147690947670586E-002  -3.8159105391482422E-003   6.3605092935577923E-002
   1.2871697840592056E-002  -3.9344966485306328E-003   6.3500054186526322E-002
   1.2595704733513537E-002  -4.0448476899778724E-003   6.3557632069386832E-002
   1.2319711626435012E-002  -4.1469636634899887E-003   6.3777826584159508E-002
   6.6583259353432261E-003  -1.8445446809152270E-003   6.4741981260734063E-002
   6.5326394209902511E-003  -1.9079552695738019E-003   6.4575224325599756E-002
   6.4069529066372796E-003  -1.9672483242647474E-003   6.4546463944004429E-002
   6.2812663922843020E-003  -2.0224238449881313E-003   6.4655700115948095E-002
   6.1555798779313253E-003  -2.0734818317439119E-003   6.4902932841430672E-002
   1.9845236565174673E-015   2.3592239273284576E-016   6.5676683560569202E-002
   1.4068607390171906E-015   7.3552275381416621E-016   6.5606707537296763E-002
   8.3093254499289060E-016   1.1900203045200897E-015   6.5650107989190132E-002
   2.5413698923060224E-016   1.6852838569114681E-015   6.5806884916249322E-002
  -3.2265856653168612E-016   2.1371793224034263E-015   6.6077038318474363E-002
   2.4673630735158519E-002  -8.2939273269821423E-003   6.1674611728934625E-002
   2.3880043426684497E-002  -8.4878642863217835E-003   6.1699875887883865E-002
   2.3086456118210467E-002  -8.6776814061617913E-003   6.1913079889020367E-002
   2.2292868809736441E-002  -8.8633786865019229E-003   6.2314223732344118E-002
   2.1499281501262416E-002  -9.0449561273425183E-003   6.2903307417854992E-002
   1.8492395245510752E-002  -6.2204454952360655E-003   6.2701719546660789E-002
   1.7889362025456809E-002  -6.3658982147406784E-003   6.2741754681977152E-002
   1.7286328805402863E-002  -6.5082610546205386E-003   6.2974958151946453E-002
   1.6683295585348909E-002  -6.6475340148755401E-003   6.3401329956568636E-002
   1.6080262365294973E-002  -6.7837170955057924E-003   6.4020870095843674E-002
   1.2319711626435012E-002  -4.1469636634899887E-003   6.3777826584159508E-002
   1.1912460987266813E-002  -4.2439321431595872E-003   6.3831602735968052E-002
   1.1505210348098609E-002  -4.3388407030792858E-003   6.4083775714895208E-002
   1.1097959708930405E-002  -4.4316893432491296E-003   6.4534345520940839E-002
   1.0690709069762206E-002  -4.5224780636690942E-003   6.5183312154105208E-002
   6.1555798779313253E-003  -2.0734818317439119E-003   6.4902932841430672E-002
   5.9493403121145183E-003  -2.1219660715784613E-003   6.4969420049856522E-002
   5.7431007462977138E-003  -2.1694203515380053E-003   6.5239532577866605E-002
   5.5368611804809051E-003  -2.2158446716226497E-003   6.5713270425460962E-002
   5.3306216146641024E-003  -2.2612390318323267E-003   6.6390633592639331E-002
  -3.2265856653168612E-016   2.1371793224034263E-015   6.6077038318474363E-002
  -7.2858385991025898E-017   2.6090241078691179E-015   6.6155206623642548E-002
   1.7000290064572710E-016   3.1849523018934178E-015   6.6442228740860684E-002
   4.1720099597242211E-016   3.7383290907300193E-015   6.6938104670128701E-002
   6.6266436782314031E-016   4.3298697960381105E-015   6.7642834411446529E-002
   2.1499281501262416E-002  -9.0449561273425183E-003   6.2903307417854992E-002
   2.0693988839528984E-002  -9.2540564784830415E-003   6.2386220786899982E-002
   1.9888696177795560E-002  -9.5223224897229980E-003   6.2083949246702658E-002
   1.9083403516062140E-002  -9.8497541610626897E-003   6.1996492797263200E-002
   1.8278110854328705E-002  -1.0236351492502016E-002   6.2123851438581623E-002
   1.6080262365294973E-002  -6.7837170955057924E-003   6.4020870095843674E-002
   1.5486411812988224E-002  -6.9405423588610460E-003   6.3478106371404913E-002
   1.4892561260681468E-002  -7.1417418672907740E-003   6.3143411775061858E-002
   1.4298710708374723E-002  -7.3873156207952401E-003   6.3016786306814204E-002
   1.3704860156067977E-002  -7.6772636193742638E-003   6.3098229966662200E-002
   1.0690709069762206E-002  -4.5224780636690942E-003   6.5183312154105208E-002
   1.0301554664219861E-002  -4.6270282392389672E-003   6.4629662751207878E-002
   9.9124002586775135E-003  -4.7611612448585014E-003   6.4277336513743788E-002
   9.5232458531351663E-003  -4.9248770805276811E-003   6.4126333441712979E-002
   9.1340914475928209E-003  -5.1181757462465671E-003   6.4176653535115480E-002
   5.3306216146641024E-003  -2.2612390318323267E-003   6.6390633592639331E-002
   5.1394173932238834E-003  -2.3135141196168468E-003   6.5840889926308405E-002
   4.9482131717836671E-003  -2.3805806224261976E-003   6.5485723462748502E-002
   4.7570089503434602E-003  -2.4624385402600658E-003   6.5325134201959484E-002
   4.5658047289032395E-003  -2.5590878731187872E-003   6.5359122143941503E-002
   6.6266436782314031E-016   4.3298697960381105E-015   6.7642834411446529E-002
   3.0878077872387166E-016   5.0515147620444623E-015   6.7111787896706798E-002
  -4.6837533851373792E-017   5.9952043329758453E-015   6.6768572622075917E-002
  -4.0245584642661925E-016   7.3829831137572910E-015   6.6613188587553662E-002
  -7.5633943552588789E-016   8.9372953482325102E-015   6.6645635793140146E-002
   1.8278110854328705E-002  -1.0236351492502016E-002   6.2123851438581623E-002
   1.7725683051315763E-002  -1.0745711546714665E-002   6.1127616345876490E-002
   1.7173255248302821E-002  -1.1441431386374101E-002   6.0264951302617553E-002
   1.6620827445289872E-002  -1.2323511011480548E-002   5.9535856308804813E-002
   1.6068399642276923E-002  -1.3391950422034005E-002   5.8940331364438436E-002
   1.3704860156067977E-002  -7.6772636193742638E-003   6.3098229966662200E-002
   1.3287136627827996E-002  -8.0592836600333617E-003   6.1942546276803179E-002
   1.2869413099588028E-002  -8.5810735397774396E-003   6.0922701087044062E-002
   1.2451689571348061E-002  -9.2426332586068305E-003   6.0038694397384462E-002
   1.2033966043108080E-002  -1.0043962816521423E-002   5.9290526207824545E-002
   9.1340914475928209E-003  -5.1181757462465671E-003   6.4176653535115480E-002
   8.8533406447792416E-003  -5.3728557733520033E-003   6.2908111194464600E-002
   8.5725898419656589E-003  -5.7207156931807779E-003   6.1777675804566667E-002
   8.2918390391520814E-003  -6.1617555057330575E-003   6.0785347365421974E-002
   8.0110882363385004E-003  -6.6959752110086757E-003   5.9931125877030256E-002
   4.5658047289032395E-003  -2.5590878731187872E-003   6.5359122143941503E-002
   4.4242951021694647E-003  -2.6864278866707003E-003   6.4024311098860281E-002
   4.2827854754357020E-003  -2.8603578465841994E-003   6.2829875455185674E-002
   4.1412758487019410E-003  -3.0808777528591458E-003   6.1775815212917626E-002
   3.9997662219681705E-003  -3.3479876054959001E-003   6.0862130372055977E-002
  -7.5633943552588789E-016   8.9372953482325102E-015   6.6645635793140146E-002
  -1.2975731600306517E-015   1.0713652187632761E-014   6.5291145989990473E-002
  -1.8353374375834619E-015   1.2517764602648640E-014   6.4079300038900888E-002
  -2.3765711620882257E-015   1.4536982728685643E-014   6.3010097939871113E-002
  -2.9143354396410359E-015   1.6708856520608606E-014   6.2083539692901424E-002
   1.6068399642276923E-002  -1.3391950422034005E-002   5.8940331364438436E-002
   1.5474043185920106E-002  -1.4690567874969196E-002   5.4767196939678631E-002
   1.4879686729563295E-002  -1.6263181627220930E-002   5.0716072119413591E-002
   1.4285330273206494E-002  -1.8109791678789365E-002   4.6786956903643123E-002
   1.3690973816849694E-002  -2.0230398029674301E-002   4.2979851292367588E-002
   1.2033966043108080E-002  -1.0043962816521423E-002   5.9290526207824545E-002
   1.1568264068644599E-002  -1.1017925906222026E-002   5.4895845690960565E-002
   1.1102562094181090E-002  -1.2197386220410278E-002   5.0636464533388492E-002
   1.0636860119717595E-002  -1.3582343759085944E-002   4.6512382735108479E-002
   1.0171158145254100E-002  -1.5172798522248732E-002   4.2523600296119790E-002
   8.0110882363385004E-003  -6.6959752110086757E-003   5.9931125877030256E-002
   7.6873304985654589E-003  -7.3452839374750500E-003   5.5383398342891355E-002
   7.3635727607924261E-003  -8.1315908135995846E-003   5.0984259922841557E-002
   7.0398150230194167E-003  -9.0548958393823591E-003   4.6733710616880426E-002
   6.7160572852463518E-003  -1.0115199014823384E-002   4.2631750425008941E-002
   3.9997662219681705E-003  -3.3479876054959001E-003   6.0862130372055977E-002
   3.8312424756827357E-003  -3.6726419687278106E-003   5.6229854895471387E-002
   3.6627187293973205E-003  -4.0657954067889676E-003   5.1759458287772661E-002
   3.4941949831118948E-003  -4.5274479196788561E-003   4.7450940548960333E-002
   3.3256712368264704E-003  -5.0575995073978697E-003   4.3304301679034138E-002
  -2.9143354396410359E-015   1.6708856520608606E-014   6.2083539692901424E-002
  -3.5804692544161298E-015   1.9206858326015208E-014   5.7435215348700108E-002
  -4.2466030691912238E-015   2.1913026948539027E-014   5.2962059628182262E-002
  -4.9196757778702249E-015   2.4601848336303078E-014   4.8664072531347566E-002
  -5.5788706987414116E-015   2.7533531010703882E-014   4.4541254058196422E-002
   1.7017637299332478E-015   0.0000000000000000        2.8767263968506228E-002
   1.3808398868775384E-015  -1.1362438767648086E-015   3.3752477728314079E-002
   1.0588318416493436E-015  -1.7451318168326679E-015   3.8755176348682634E-002
   7.3649853576940316E-016  -1.8231943732516243E-015   4.3775359829611893E-002
   4.1503259162745110E-016  -1.3652273755937472E-015   4.8813028171101870E-002
  -6.7586251936376874E-003   0.0000000000000000        2.8823091804061583E-002
  -6.7807849367157273E-003   1.3135978605397208E-004   3.3875876228534912E-002
  -6.8029446797937673E-003   3.0212780199165984E-004   3.8866856306292080E-002
  -6.8251044228718081E-003   5.1230404781306416E-004   4.3796032037333121E-002
  -6.8472641659498481E-003   7.6188852351818416E-004   4.8663403421658008E-002
  -1.3429739233915295E-002   0.0000000000000000        2.8990575310730456E-002
  -1.3553347927347909E-002   2.6271957210908126E-004   3.4150338629752440E-002
  -1.3676956620780521E-002   6.0425560398506481E-004   3.9169008394781435E-002
  -1.3800565314213134E-002   1.0246080956279472E-003   4.4046584605817424E-002
  -1.3924174007645746E-002   1.5237770470377396E-003   4.8783067262860406E-002
  -2.0013342120831126E-002   0.0000000000000000        2.9269714488512844E-002
  -2.0317688971895165E-002   3.9407935816419088E-004   3.4575864931966675E-002
  -2.0622035822959205E-002   9.0638340597846978E-004   3.9661632614150663E-002
  -2.0926382674023240E-002   1.5369121434428358E-003   4.4527017535064779E-002
  -2.1230729525087279E-002   2.2856655705572955E-003   4.9172019694709065E-002
  -2.6509433854385173E-002   0.0000000000000000        2.9660509337408745E-002
  -2.7073808070357492E-002   5.2543914421929877E-004   3.5152455135177618E-002
  -2.7638182286329808E-002   1.2085112079718748E-003   4.0344728964399786E-002
  -2.8202556502302127E-002   2.0492161912577175E-003   4.5237330825075250E-002
  -2.8766930718274443E-002   3.0475540940768471E-003   4.9830260717203999E-002
   4.1503259162745110E-016  -1.3652273755937472E-015   4.8813028171101870E-002
   4.7574791328663935E-016  -7.6241096769180672E-016   5.2070929609625269E-002
   5.3537903277334209E-016  -3.7426658994199613E-016   5.5206737148111570E-002
   5.9685329595327019E-016  -2.3581397251559721E-016   5.8220450786560782E-002
   6.5572547391923308E-016  -3.2612801348363973E-016   6.1112070524972882E-002
  -6.8472641659498481E-003   7.6188852351818416E-004   4.8663403421658008E-002
  -6.9409589881833282E-003   1.0104266736098355E-003   5.1699307821683894E-002
  -7.0346538104168049E-003   1.2174639425908064E-003   5.4669916477279826E-002
  -7.1283486326502790E-003   1.3830003304611312E-003   5.7575229388445760E-002
  -7.2220434548837592E-003   1.5070358372207687E-003   6.0415246555181747E-002
  -1.3924174007645746E-002   1.5237770470377396E-003   4.8783067262860406E-002
  -1.4054765496505632E-002   2.0208533472204295E-003   5.1555473743278353E-002
  -1.4185356985365518E-002   2.4349278851820214E-003   5.4319382634873466E-002
  -1.4315948474225397E-002   2.7660006609225157E-003   5.7074793937645731E-002
  -1.4446539963085279E-002   3.0140716744419017E-003   5.9821707651595134E-002
  -2.1230729525087279E-002   2.2856655705572955E-003   4.9172019694709065E-002
  -2.1341419524966439E-002   3.0312800208310252E-003   5.1639427374408631E-002
  -2.1452109524845595E-002   3.6523918277732263E-003   5.4155135620892497E-002
  -2.1562799524724754E-002   4.1490009913838985E-003   5.6719144434160623E-002
  -2.1673489524603913E-002   4.5211075116630226E-003   5.9331453814213064E-002
  -2.8766930718274443E-002   3.0475540940768471E-003   4.9830260717203999E-002
  -2.8800921073565754E-002   4.0417066944416274E-003   5.1951168715074741E-002
  -2.8834911428857055E-002   4.8698557703644218E-003   5.4177175435336900E-002
  -2.8868901784148356E-002   5.5320013218452787E-003   5.6508280877990487E-002
  -2.8902892139439661E-002   6.0281433488841296E-003   5.8944485043035497E-002
   6.5572547391923308E-016  -3.2612801348363973E-016   6.1112070524972882E-002
   9.8792501956879164E-016  -4.3715031594615539E-016   6.2022221127028140E-002
   1.3201245652183502E-015  -3.6949610038305991E-016   6.3086373500312584E-002
   1.6501557065229377E-015  -1.6870185803874449E-016   6.4304527644826304E-002
   1.9845236565174673E-015   2.3592239273284576E-016   6.5676683560569202E-002
  -7.2220434548837592E-003   1.5070358372207687E-003   6.0415246555181747E-002
  -7.0811140749976586E-003   1.6055939396049240E-003   6.1305144748756313E-002
  -6.9401846951115537E-003   1.6946981143487680E-003   6.2322899930873227E-002
  -6.7992553152254531E-003   1.7743483614522226E-003   6.3468512101532371E-002
  -6.6583259353393508E-003   1.8445446809153415E-003   6.4741981260733925E-002
  -1.4446539963085279E-002   3.0140716744419017E-003   5.9821707651595134E-002
  -1.4190825986000341E-002   3.2111878792103372E-003   6.0681899509048558E-002
  -1.3935112008915401E-002   3.3893962286979063E-003   6.1643803572357332E-002
  -1.3679398031830456E-002   3.5486967229046143E-003   6.2707419841521464E-002
  -1.3423684054745515E-002   3.6890893618304957E-003   6.3872748316541050E-002
  -2.1673489524603913E-002   4.5211075116630226E-003   5.9331453814213064E-002
  -2.1329135733007057E-002   4.8167818188157106E-003   6.0152485407904778E-002
  -2.0984781941410208E-002   5.0840943430470516E-003   6.1049084424764942E-002
  -2.0640428149813352E-002   5.3230450843570051E-003   6.2021250864793584E-002
  -2.0296074358216502E-002   5.5336340427456117E-003   6.3068984727990635E-002
  -2.8902892139439661E-002   6.0281433488841296E-003   5.8944485043035497E-002
  -2.8496043316017829E-002   6.4223757584211012E-003   5.9716902445325015E-002
  -2.8089194492595986E-002   6.7787924573962204E-003   6.0538742488096077E-002
  -2.7682345669174147E-002   7.0973934458093925E-003   6.1410005171348661E-002
  -2.7275496845752315E-002   7.3781787236607693E-003   6.2330690495082733E-002
   1.9845236565174673E-015   2.3592239273284576E-016   6.5676683560569202E-002
   1.4068607390171906E-015   7.3552275381416621E-016   6.5606707537296763E-002
   8.3093254499289060E-016   1.1900203045200897E-015   6.5650107989190132E-002
   2.5413698923060224E-016   1.6852838569114681E-015   6.5806884916249322E-002
  -3.2265856653168612E-016   2.1371793224034263E-015   6.6077038318474363E-002
  -6.6583259353393508E-003   1.8445446809153415E-003   6.4741981260733925E-002
  -6.5326394209874843E-003   1.9079552695745600E-003   6.4575224325599506E-002
  -6.4069529066356134E-003   1.9672483242663442E-003   6.4546463944004123E-002
  -6.2812663922837426E-003   2.0224238449905807E-003   6.4655700115947901E-002
  -6.1555798779318761E-003   2.0734818317474368E-003   6.4902932841430699E-002
  -1.3423684054745515E-002   3.6890893618304957E-003   6.3872748316541050E-002
  -1.3147690947667958E-002   3.8159105391484607E-003   6.3605092935577215E-002
  -1.2871697840590396E-002   3.9344966485315002E-003   6.3500054186525712E-002
  -1.2595704733512835E-002   4.0448476899795742E-003   6.3557632069386555E-002
  -1.2319711626435276E-002   4.1469636634927504E-003   6.3777826584159703E-002
  -2.0296074358216502E-002   5.5336340427456117E-003   6.3068984727990635E-002
  -1.9845154580040013E-002   5.7238658087222956E-003   6.2696313367229944E-002
  -1.9394234801863520E-002   5.9017449727965998E-003   6.2510878716754842E-002
  -1.8943315023687034E-002   6.0672715349685043E-003   6.2512680776565216E-002
  -1.8492395245510541E-002   6.2204454952380292E-003   6.2701719546661233E-002
  -2.7275496845752315E-002   7.3781787236607693E-003   6.2330690495082733E-002
  -2.6625030318103652E-002   7.6318210782962068E-003   6.1848885620557723E-002
  -2.5974563790454978E-002   7.8689932970618139E-003   6.1578937534691465E-002
  -2.5324097262806315E-002   8.0896953799574761E-003   6.1520846237484064E-002
  -2.4673630735157655E-002   8.2939273269833635E-003   6.1674611728935402E-002
  -3.2265856653168612E-016   2.1371793224034263E-015   6.6077038318474363E-002
  -7.2858385991025898E-017   2.6090241078691179E-015   6.6155206623642548E-002
   1.7000290064572710E-016   3.1849523018934178E-015   6.6442228740860684E-002
   4.1720099597242211E-016   3.7383290907300193E-015   6.6938104670128701E-002
   6.6266436782314031E-016   4.3298697960381105E-015   6.7642834411446529E-002
  -6.1555798779318761E-003   2.0734818317474368E-003   6.4902932841430699E-002
  -5.9493403121146224E-003   2.1219660715830063E-003   6.4969420049856771E-002
  -5.7431007462973660E-003   2.1694203515438271E-003   6.5239532577866979E-002
  -5.5368611804801175E-003   2.2158446716296215E-003   6.5713270425461323E-002
  -5.3306216146628560E-003   2.2612390318405007E-003   6.6390633592639747E-002
  -1.2319711626435276E-002   4.1469636634927504E-003   6.3777826584159703E-002
  -1.1912460987266761E-002   4.2439321431634869E-003   6.3831602735968662E-002
  -1.1505210348098253E-002   4.3388407030844171E-003   6.4083775714895985E-002
  -1.1097959708929746E-002   4.4316893432555333E-003   6.4534345520941769E-002
  -1.0690709069761231E-002   4.5224780636767270E-003   6.5183312154105916E-002
  -1.8492395245510541E-002   6.2204454952380292E-003   6.2701719546661233E-002
  -1.7889362025456507E-002   6.3658982147439674E-003   6.2741754681978179E-002
  -1.7286328805402484E-002   6.5082610546249777E-003   6.2974958151947688E-002
  -1.6683295585348461E-002   6.6475340148814590E-003   6.3401329956569955E-002
  -1.6080262365294432E-002   6.7837170955129256E-003   6.4020870095844826E-002
  -2.4673630735157655E-002   8.2939273269833635E-003   6.1674611728935402E-002
  -2.3880043426683852E-002   8.4878642863243786E-003   6.1699875887885364E-002
  -2.3086456118210072E-002   8.6776814061656354E-003   6.1913079889022227E-002
  -2.2292868809736282E-002   8.8633786865073109E-003   6.2314223732345908E-002
  -2.1499281501262488E-002   9.0449561273490686E-003   6.2903307417856602E-002
   6.6266436782314031E-016   4.3298697960381105E-015   6.7642834411446529E-002
   3.0878077872387166E-016   5.0515147620444623E-015   6.7111787896706798E-002
  -4.6837533851373792E-017   5.9952043329758453E-015   6.6768572622075917E-002
  -4.0245584642661925E-016   7.3829831137572910E-015   6.6613188587553662E-002
  -7.5633943552588789E-016   8.9372953482325102E-015   6.6645635793140146E-002
  -5.3306216146628560E-003   2.2612390318405007E-003   6.6390633592639747E-002
  -5.1394173932233413E-003   2.3135141196266445E-003   6.5840889926309140E-002
  -4.9482131717838145E-003   2.3805806224380111E-003   6.5485723462749529E-002
  -4.7570089503442920E-003   2.4624385402744892E-003   6.5325134201960983E-002
  -4.5658047289047730E-003   2.5590878731361899E-003   6.5359122143943460E-002
  -1.0690709069761231E-002   4.5224780636767270E-003   6.5183312154105916E-002
  -1.0301554664219524E-002   4.6270282392481821E-003   6.4629662751209252E-002
  -9.9124002586778153E-003   4.7611612448696938E-003   6.4277336513745953E-002
  -9.5232458531361031E-003   4.9248770805415953E-003   6.4126333441715963E-002
  -9.1340914475943925E-003   5.1181757462635258E-003   6.4176653535119338E-002
  -1.6080262365294432E-002   6.7837170955129256E-003   6.4020870095844826E-002
  -1.5486411812988238E-002   6.9405423588697196E-003   6.3478106371407148E-002
  -1.4892561260682028E-002   7.1417418673015154E-003   6.3143411775065258E-002
  -1.4298710708375826E-002   7.3873156208086738E-003   6.3016786306818826E-002
  -1.3704860156069629E-002   7.6772636193907923E-003   6.3098229966668251E-002
  -2.1499281501262488E-002   9.0449561273490686E-003   6.2903307417856602E-002
  -2.0693988839529484E-002   9.2540564784912571E-003   6.2386220786902868E-002
  -1.9888696177796476E-002   9.5223224897333369E-003   6.2083949246707099E-002
  -1.9083403516063465E-002   9.8497541610757661E-003   6.1996492797269348E-002
  -1.8278110854330461E-002   1.0236351492518114E-002   6.2123851438589506E-002
  -7.5633943552588789E-016   8.9372953482325102E-015   6.6645635793140146E-002
  -1.2975731600306517E-015   1.0713652187632761E-014   6.5291145989990473E-002
  -1.8353374375834619E-015   1.2517764602648640E-014   6.4079300038900888E-002
  -2.3765711620882257E-015   1.4536982728685643E-014   6.3010097939871113E-002
  -2.9143354396410359E-015   1.6708856520608606E-014   6.2083539692901424E-002
  -4.5658047289047730E-003   2.5590878731361899E-003   6.5359122143943460E-002
  -4.4242951021721162E-003   2.6864278866915448E-003   6.4024311098862557E-002
  -4.2827854754394733E-003   2.8603578466087354E-003   6.2829875455188033E-002
  -4.1412758487068243E-003   3.0808777528878936E-003   6.1775815212920068E-002
  -3.9997662219741735E-003   3.3479876055287905E-003   6.0862130372058398E-002
  -9.1340914475943925E-003   5.1181757462635258E-003   6.4176653535119338E-002
  -8.8533406447820553E-003   5.3728557733724591E-003   6.2908111194468819E-002
  -8.5725898419697199E-003   5.7207156932048558E-003   6.1777675804571289E-002
  -8.2918390391573775E-003   6.1617555057609762E-003   6.0785347365426616E-002
  -8.0110882363450334E-003   6.6959752110407333E-003   5.9931125877034905E-002
  -1.3704860156069629E-002   7.6772636193907923E-003   6.3098229966668251E-002
  -1.3287136627831089E-002   8.0592836600532208E-003   6.1942546276809680E-002
  -1.2869413099592567E-002   8.5810735398011637E-003   6.0922701087050710E-002
  -1.2451689571354039E-002   9.2426332586341958E-003   6.0038694397391137E-002
  -1.2033966043115499E-002   1.0043962816552690E-002   5.9290526207831110E-002
  -1.8278110854330461E-002   1.0236351492518114E-002   6.2123851438589506E-002
  -1.7725683051319243E-002   1.0745711546734205E-002   6.1127616345884983E-002
  -1.7173255248308018E-002   1.1441431386397236E-002   6.0264951302626379E-002
  -1.6620827445296804E-002   1.2323511011507342E-002   5.9535856308813709E-002
  -1.6068399642285583E-002   1.3391950422064702E-002   5.8940331364446930E-002
  -2.9143354396410359E-015   1.6708856520608606E-014   6.2083539692901424E-002
  -3.5804692544161298E-015   1.9206858326015208E-014   5.7435215348700108E-002
  -4.2466030691912238E-015   2.1913026948539027E-014   5.2962059628182262E-002
  -4.9196757778702249E-015   2.4601848336303078E-014   4.8664072531347566E-002
  -5.5788706987414116E-015   2.7533531010703882E-014   4.4541254058196422E-002
  -3.9997662219741735E-003   3.3479876055287905E-003   6.0862130372058398E-002
  -3.8312424756902289E-003   3.6726419687653500E-003   5.6229854895473580E-002
  -3.6627187294062651E-003   4.0657954068311908E-003   5.1759458287774618E-002
  -3.4941949831223326E-003   4.5274479197267639E-003   4.7450940548961540E-002
  -3.3256712368383706E-003   5.0575995074513269E-003   4.3304301679034429E-002
  -8.0110882363450334E-003   6.6959752110407333E-003   5.9931125877034905E-002
  -7.6873304985739174E-003   7.3452839375116041E-003   5.5383398342895712E-002
  -7.3635727608027876E-003   8.1315908136408641E-003   5.0984259922845117E-002
  -7.0398150230316734E-003   9.0548958394288444E-003   4.6733710616882848E-002
  -6.7160572852605419E-003   1.0115199014875342E-002   4.2631750425009163E-002
  -1.2033966043115499E-002   1.0043962816552690E-002   5.9290526207831110E-002
  -1.1568264068654638E-002   1.1017925906257858E-002   5.4895845690966817E-002
  -1.1102562094193757E-002   1.2197386220450451E-002   5.0636464533393342E-002
  -1.0636860119732909E-002   1.3582343759131022E-002   4.6512382735111026E-002
  -1.0171158145272032E-002   1.5172798522299191E-002   4.2523600296119748E-002
  -1.6068399642285583E-002   1.3391950422064702E-002   5.8940331364446930E-002
  -1.5474043185932408E-002   1.4690567875004001E-002   5.4767196939686569E-002
  -1.4879686729579244E-002   1.6263181627259995E-002   5.0716072119419947E-002
  -1.4285330273226071E-002   1.8109791678833215E-002   4.6786956903646718E-002
  -1.3690973816872898E-002   2.0230398029723151E-002   4.2979851292367144E-002
  -2.6509433854385173E-002   0.0000000000000000        2.9660509337408745E-002
  -2.7073808070357492E-002   5.2543914421929877E-004   3.5152455135177618E-002
  -2.7638182286329808E-002   1.2085112079718748E-003   4.0344728964399786E-002
  -2.8202556502302127E-002   2.0492161912577175E-003   4.5237330825075250E-002
  -2.8766930718274443E-002   3.0475540940768471E-003   4.9830260717203999E-002
  -3.3257052881924778E-002   0.0000000000000000        3.0305441451847472E-002
  -3.4057684306012054E-002   8.9918269414296630E-004   3.5404993878200008E-002
  -3.4858315730099329E-002   1.9102476877222736E-003   4.0331703856869343E-002
  -3.5658947154186597E-002   3.0331949807379244E-003   4.5085571387855468E-002
  -3.6459578578273866E-002   4.2680245731899057E-003   4.9666596471158390E-002
  -4.0595237650797283E-002   0.0000000000000000        3.1346992426258338E-002
  -4.1505296762136004E-002   1.2729262440666334E-003   3.6008400861097606E-002
  -4.2415355873474732E-002   2.6119841674726758E-003   4.0623796369117171E-002
  -4.3325414984813460E-002   4.0171737702181277E-003   4.5193178950317034E-002
  -4.4235474096152180E-002   5.4884950523029861E-003   4.9716548604697201E-002
  -4.8523988161002680E-002   0.0000000000000000        3.2785162260641328E-002
  -4.9416645438729354E-002   1.6466697939903012E-003   3.6962676083870397E-002
  -5.0309302716456027E-002   3.3137206472230772E-003   4.1221006501143263E-002
  -5.1201959994182707E-002   5.0011525596983311E-003   4.5560153512459935E-002
  -5.2094617271909373E-002   6.7089655314160586E-003   4.9980117117820404E-002
  -5.7043304412540963E-002   0.0000000000000000        3.4619950954996460E-002
  -5.7791730335792088E-002   2.0204133439139672E-003   3.8267819546518395E-002
  -5.8540156259043213E-002   4.0154571269734787E-003   4.2123334252947627E-002
  -5.9288582182294339E-002   5.9851313491785345E-003   4.6186495074284170E-002
  -6.0037008105545457E-002   7.9294360105291277E-003   5.0457302010528005E-002
  -2.8766930718274443E-002   3.0475540940768471E-003   4.9830260717203999E-002
  -2.8800921073565754E-002   4.0417066944416274E-003   5.1951168715074741E-002
  -2.8834911428857055E-002   4.8698557703644218E-003   5.4177175435336900E-002
  -2.8868901784148356E-002   5.5320013218452787E-003   5.6508280877990487E-002
  -2.8902892139439661E-002   6.0281433488841296E-003   5.8944485043035497E-002
  -3.6459578578273866E-002   4.2680245731899057E-003   4.9666596471158390E-002
  -3.6428141232284758E-002   5.4737733559067090E-003   5.1496562068364886E-002
  -3.6396703886295650E-002   6.5094782197167300E-003   5.3352284345740776E-002
  -3.6365266540306550E-002   7.3751391646199958E-003   5.5233763303286089E-002
  -3.6333829194317435E-002   8.0707561906164932E-003   5.7140998941000790E-002
  -4.4235474096152180E-002   5.4884950523029861E-003   4.9716548604697201E-002
  -4.4217951091104678E-002   6.9058400173717775E-003   5.1251531406774645E-002
  -4.4200428086057154E-002   8.1491006690690166E-003   5.2732928846799483E-002
  -4.4182905081009645E-002   9.2182770073947189E-003   5.4160740924771709E-002
  -4.4165382075962142E-002   1.0113369032348857E-002   5.5534967640691338E-002
  -5.2094617271909373E-002   6.7089655314160586E-003   4.9980117117820404E-002
  -5.2170350650025489E-002   8.3379066788368556E-003   5.1216076730303997E-002
  -5.2246084028141591E-002   9.7887231184213119E-003   5.2319108938512979E-002
  -5.2321817406257680E-002   1.1061414850169461E-002   5.3289213742447356E-002
  -5.2397550784373789E-002   1.2155981874081220E-002   5.4126391142107086E-002
  -6.0037008105545457E-002   7.9294360105291277E-003   5.0457302010528005E-002
  -6.0285339909047199E-002   9.7699733403019337E-003   5.1390198038952992E-002
  -6.0533671712548927E-002   1.1428345567773618E-002   5.2110824620881326E-002
  -6.0782003516050648E-002   1.2904552692944169E-002   5.2619181756313041E-002
  -6.1030335319552390E-002   1.4198594715813570E-002   5.2915269445248117E-002
  -2.8902892139439661E-002   6.0281433488841296E-003   5.8944485043035497E-002
  -2.8496043316017829E-002   6.4223757584211012E-003   5.9716902445325015E-002
  -2.8089194492595986E-002   6.7787924573962204E-003   6.0538742488096077E-002
  -2.7682345669174147E-002   7.0973934458093925E-003   6.1410005171348661E-002
  -2.7275496845752315E-002   7.3781787236607693E-003   6.2330690495082733E-002
  -3.6333829194317435E-002   8.0707561906164932E-003   5.7140998941000790E-002
  -3.5828201887652303E-002   8.6225391329717155E-003   5.7484436379816345E-002
  -3.5322574580987143E-002   9.0566978269511489E-003   5.7976008144636985E-002
  -3.4816947274321990E-002   9.3732322725548316E-003   5.8615714235462725E-002
  -3.4311319967656836E-002   9.5721424697826490E-003   5.9403554652293571E-002
  -4.4165382075962142E-002   1.0113369032348857E-002   5.5534967640691338E-002
  -4.3462264600530112E-002   1.0822702507522370E-002   5.5369616578218969E-002
  -4.2759147125098075E-002   1.1334603196506149E-002   5.5451111527275276E-002
  -4.2056029649666038E-002   1.1649071099300216E-002   5.5779452487860280E-002
  -4.1352912174234015E-002   1.1766106215904550E-002   5.6354639459973918E-002
  -5.2397550784373789E-002   1.2155981874081220E-002   5.4126391142107086E-002
  -5.1398231454651291E-002   1.3022865882072989E-002   5.3372443040532916E-002
  -5.0398912124928787E-002   1.3612508566061155E-002   5.2964052636010978E-002
  -4.9399592795206296E-002   1.3924909926045640E-002   5.2901219928541264E-002
  -4.8400273465483791E-002   1.3960069962026495E-002   5.3183944918123831E-002
  -6.1030335319552390E-002   1.4198594715813570E-002   5.2915269445248117E-002
  -5.9636102450015840E-002   1.5223029256623638E-002   5.1492915766758171E-002
  -5.8241869580479298E-002   1.5890413935616104E-002   5.0514831470844027E-002
  -5.6847636710942756E-002   1.6200748752791039E-002   4.9981016557505760E-002
  -5.5453403841406228E-002   1.6154033708148344E-002   4.9891471026743281E-002
  -2.7275496845752315E-002   7.3781787236607693E-003   6.2330690495082733E-002
  -2.6625030318103652E-002   7.6318210782962068E-003   6.1848885620557723E-002
  -2.5974563790454978E-002   7.8689932970618139E-003   6.1578937534691465E-002
  -2.5324097262806315E-002   8.0896953799574761E-003   6.1520846237484064E-002
  -2.4673630735157655E-002   8.2939273269833635E-003   6.1674611728935402E-002
  -3.4311319967656836E-002   9.5721424697826490E-003   5.9403554652293571E-002
  -3.3456112255828299E-002   9.7227944600739302E-003   5.8911183937933376E-002
  -3.2600904543999762E-002   9.8945542848678132E-003   5.8616438803274162E-002
  -3.1745696832171204E-002   1.0087421944164340E-002   5.8519319248315889E-002
  -3.0890489120342687E-002   1.0301397437963489E-002   5.8619825273058604E-002
  -4.1352912174234015E-002   1.1766106215904550E-002   5.6354639459973918E-002
  -4.0307194487183409E-002   1.1813767841851602E-002   5.5889280876151082E-002
  -3.9261476800132825E-002   1.1920115272673811E-002   5.5607316663071366E-002
  -3.8215759113082226E-002   1.2085148508371148E-002   5.5508746820734783E-002
  -3.7170041426031621E-002   1.2308867548943642E-002   5.5593571349141349E-002
  -4.8400273465483791E-002   1.3960069962026495E-002   5.3183944918123831E-002
  -4.7178277012168986E-002   1.3904741223629285E-002   5.2783176435210855E-002
  -4.5956280558854173E-002   1.3945676260479767E-002   5.2551571114083144E-002
  -4.4734284105539354E-002   1.4082875072577928E-002   5.2489128954740762E-002
  -4.3512287652224549E-002   1.4316337659923739E-002   5.2595849957183693E-002
  -5.5453403841406228E-002   1.6154033708148344E-002   4.9891471026743281E-002
  -5.4069359830785008E-002   1.5995714605406962E-002   4.9592870615112639E-002
  -5.2685315820163794E-002   1.5971237248285818E-002   4.9449202156309470E-002
  -5.1301271809542588E-002   1.6080601636784823E-002   4.9460465650333810E-002
  -4.9917227798921382E-002   1.6323807770903948E-002   4.9626661097185609E-002
  -2.4673630735157655E-002   8.2939273269833635E-003   6.1674611728935402E-002
  -2.3880043426683852E-002   8.4878642863243786E-003   6.1699875887885364E-002
  -2.3086456118210072E-002   8.6776814061656354E-003   6.1913079889022227E-002
  -2.2292868809736282E-002   8.8633786865073109E-003   6.2314223732345908E-002
  -2.1499281501262488E-002   9.0449561273490686E-003   6.2903307417856602E-002
  -3.0890489120342687E-002   1.0301397437963489E-002   5.8619825273058604E-002
  -2.9902912381414546E-002   1.0516702069504280E-002   5.8577160400512501E-002
  -2.8915335642486426E-002   1.0713557142025654E-002   5.8734534546688151E-002
  -2.7927758903558305E-002   1.0891962655527818E-002   5.9091947711585560E-002
  -2.6940182164630191E-002   1.1051918610010425E-002   5.9649399895204791E-002
  -3.7170041426031621E-002   1.2308867548943642E-002   5.5593571349141349E-002
  -3.5976376080114315E-002   1.2545539852684202E-002   5.5468647725579537E-002
  -3.4782710734196996E-002   1.2749432877885707E-002   5.5555862297274390E-002
  -3.3589045388279670E-002   1.2920546624548271E-002   5.5855215064225860E-002
  -3.2395380042362372E-002   1.3058881092671754E-002   5.6366706026433996E-002
  -4.3512287652224549E-002   1.4316337659923739E-002   5.2595849957183693E-002
  -4.2100434522783156E-002   1.4574377635864156E-002   5.2374337863086567E-002
  -4.0688581393341770E-002   1.4785308613745728E-002   5.2377063140780958E-002
  -3.9276728263900343E-002   1.4949130593568779E-002   5.2604025790266733E-002
  -3.7864875134458978E-002   1.5065843575333068E-002   5.3055225811544204E-002
  -4.9917227798921382E-002   1.6323807770903948E-002   4.9626661097185609E-002
  -4.8275087709421044E-002   1.6603215419044012E-002   4.9294230813033496E-002
  -4.6632947619920720E-002   1.6821184349605729E-002   4.9198137077207757E-002
  -4.4990807530420396E-002   1.6977714562589258E-002   4.9338379889708385E-002
  -4.3348667440920058E-002   1.7072806057994383E-002   4.9714959250535373E-002
  -2.1499281501262488E-002   9.0449561273490686E-003   6.2903307417856602E-002
  -2.0693988839529484E-002   9.2540564784912571E-003   6.2386220786902868E-002
  -1.9888696177796476E-002   9.5223224897333369E-003   6.2083949246707099E-002
  -1.9083403516063465E-002   9.8497541610757661E-003   6.1996492797269348E-002
  -1.8278110854330461E-002   1.0236351492518114E-002   6.2123851438589506E-002
  -2.6940182164630191E-002   1.1051918610010425E-002   5.9649399895204791E-002
  -2.5919360000912297E-002   1.1238588555315343E-002   5.9184252061495524E-002
  -2.4898537837194402E-002   1.1497136041283981E-002   5.8935348140998017E-002
  -2.3877715673476501E-002   1.1827561067916516E-002   5.8902688133712355E-002
  -2.2856893509758603E-002   1.2229863635212723E-002   5.9086272039638565E-002
  -3.2395380042362372E-002   1.3058881092671754E-002   5.6366706026433996E-002
  -3.1157599554205710E-002   1.3223120632139568E-002   5.5966208870532760E-002
  -2.9919819066049059E-002   1.3471949592834681E-002   5.5783384450297277E-002
  -2.8682038577892425E-002   1.3805367974757378E-002   5.5818232765727491E-002
  -2.7444258089735742E-002   1.4223375777907332E-002   5.6070753816823318E-002
  -3.7864875134458978E-002   1.5065843575333068E-002   5.3055225811544204E-002
  -3.6408707499409734E-002   1.5207652708963557E-002   5.2732091214014745E-002
  -3.4952539864360463E-002   1.5446763144385242E-002   5.2628058174604801E-002
  -3.3496372229311226E-002   1.5783174881598017E-002   5.2743126693314477E-002
  -3.2040204594261955E-002   1.6216887920601969E-002   5.3077296770143625E-002
  -4.3348667440920058E-002   1.7072806057994383E-002   4.9714959250535373E-002
  -4.1672683836524352E-002   1.7192184785787851E-002   4.9481899091941367E-002
  -3.9996700232128618E-002   1.7421576695935997E-002   4.9469369313920736E-002
  -3.8320716627732884E-002   1.7760981788438900E-002   4.9677369916473396E-002
  -3.6644733023337178E-002   1.8210400063296550E-002   5.0105900899599709E-002
  -1.8278110854330461E-002   1.0236351492518114E-002   6.2123851438589506E-002
  -1.7725683051319243E-002   1.0745711546734205E-002   6.1127616345884983E-002
  -1.7173255248308018E-002   1.1441431386397236E-002   6.0264951302626379E-002
  -1.6620827445296804E-002   1.2323511011507342E-002   5.9535856308813709E-002
  -1.6068399642285583E-002   1.3391950422064702E-002   5.8940331364446930E-002
  -2.2856893509758603E-002   1.2229863635212723E-002   5.9086272039638565E-002
  -2.2158282603580402E-002   1.2776585185285266E-002   5.8295728181273987E-002
  -2.1459671697402150E-002   1.3540267160246588E-002   5.7663980479797455E-002
  -2.0761060791223914E-002   1.4520909560096801E-002   5.7191028935209109E-002
  -2.0062449885045699E-002   1.5718512384835681E-002   5.6876873547508700E-002
  -2.7444258089735742E-002   1.4223375777907332E-002   5.6070753816823318E-002
  -2.6574237972948396E-002   1.4807458823836384E-002   5.5516501832240397E-002
  -2.5704217856161032E-002   1.5639102934095893E-002   5.5146272111987714E-002
  -2.4834197739373669E-002   1.6718308108685985E-002   5.4960064656065302E-002
  -2.3964177622586319E-002   1.8045074347606577E-002   5.4957879464473045E-002
  -3.2040204594261955E-002   1.6216887920601969E-002   5.3077296770143625E-002
  -3.0973549159423311E-002   1.6838332462387418E-002   5.2789937298784201E-002
  -2.9906893724584663E-002   1.7737938707945249E-002   5.2711826199197044E-002
  -2.8840238289746013E-002   1.8915706657275193E-002   5.2842963471382259E-002
  -2.7773582854907372E-002   2.0371636310377514E-002   5.3183349115339701E-002
  -3.6644733023337178E-002   1.8210400063296550E-002   5.0105900899599709E-002
  -3.5356216163005105E-002   1.8869206100938563E-002   5.0116034580905300E-002
  -3.4067699302673046E-002   1.9836774481794564E-002   5.0360642741425404E-002
  -3.2779182442340987E-002   2.1113105205864600E-002   5.0839725381160092E-002
  -3.1490665582008928E-002   2.2698198273148507E-002   5.1553282500109210E-002
  -1.6068399642285583E-002   1.3391950422064702E-002   5.8940331364446930E-002
  -1.5474043185932408E-002   1.4690567875004001E-002   5.4767196939686569E-002
  -1.4879686729579244E-002   1.6263181627259995E-002   5.0716072119419947E-002
  -1.4285330273226071E-002   1.8109791678833215E-002   4.6786956903646718E-002
  -1.3690973816872898E-002   2.0230398029723151E-002   4.2979851292367144E-002
  -2.0062449885045699E-002   1.5718512384835681E-002   5.6876873547508700E-002
  -1.9316854291736373E-002   1.7206511203408714E-002   5.3144205091478769E-002
  -1.8571258698427039E-002   1.9058341584761385E-002   4.9592005304867626E-002
  -1.7825663105117698E-002   2.1274003528893914E-002   4.6220274187675187E-002
  -1.7080067511808378E-002   2.3853497035805971E-002   4.3029011739901479E-002
  -2.3964177622586319E-002   1.8045074347606577E-002   5.4957879464473045E-002
  -2.3008883827395646E-002   1.9722454531813538E-002   5.1755512240636098E-002
  -2.2053590032205014E-002   2.1853501542262933E-002   4.8792072751143133E-002
  -2.1098296237014320E-002   2.4438215378954693E-002   4.6067560995994225E-002
  -2.0143002441823706E-002   2.7476596041888790E-002   4.3581976975188785E-002
  -2.7773582854907372E-002   2.0371636310377514E-002   5.3183349115339701E-002
  -2.6550131792910256E-002   2.2238397860218306E-002   5.0601118387158917E-002
  -2.5326680730913150E-002   2.4648661499764402E-002   4.8316274458246870E-002
  -2.4103229668916027E-002   2.7602427229015489E-002   4.6328817328604166E-002
  -2.2879778606918949E-002   3.1099695047971665E-002   4.4638746998230047E-002
  -3.1490665582008928E-002   2.2698198273148507E-002   5.1553282500109210E-002
  -2.9940598188280196E-002   2.4754341188623019E-002   4.9681023531046808E-002
  -2.8390530794551484E-002   2.7443821457265746E-002   4.8164610426178506E-002
  -2.6840463400822748E-002   3.0766639079076227E-002   4.7004043185504371E-002
  -2.5290396007094040E-002   3.4722794054054429E-002   4.6199321809024418E-002
  -5.7043304412540963E-002   0.0000000000000000        3.4619950954996460E-002
  -5.7791730335792088E-002   2.0204133439139672E-003   3.8267819546518395E-002
  -5.8540156259043213E-002   4.0154571269734787E-003   4.2123334252947627E-002
  -5.9288582182294339E-002   5.9851313491785345E-003   4.6186495074284170E-002
  -6.0037008105545457E-002   7.9294360105291277E-003   5.0457302010528005E-002
  -6.5739891191710156E-002   0.0000000000000000        3.7082309860783605E-002
  -6.6510485309097353E-002   2.8648202022166346E-003   4.0696904563889573E-002
  -6.7281079426484536E-002   5.6760414344003531E-003   4.4059516763816114E-002
  -6.8051673543871732E-002   8.4336636965511580E-003   4.7170146460563216E-002
  -6.8822267661258915E-002   1.1137686988669040E-002   5.0028793654130876E-002
  -7.4200453284808246E-002   0.0000000000000000        4.0403190329462643E-002
  -7.5452844214418266E-002   3.7092270605193047E-003   4.3956281734974199E-002
  -7.6705235144028258E-002   7.3366257418272319E-003   4.6797762019219577E-002
  -7.7957626073638223E-002   1.0882196043923783E-002   4.8927631182198776E-002
  -7.9210017003248243E-002   1.4345937966808954E-002   5.0345889223911797E-002
  -8.2424990691835245E-002   0.0000000000000000        4.4582592361033596E-002
  -8.4618807051754799E-002   4.5536339188219747E-003   4.8045951059772260E-002
  -8.6812623411674325E-002   8.9972100492541097E-003   5.0338070019158007E-002
  -8.9006439771593893E-002   1.3330728391296408E-002   5.1458949239190852E-002
  -9.1200256131513419E-002   1.7554188944948868E-002   5.1408588719870772E-002
  -9.0413503412791169E-002   0.0000000000000000        4.9620515955496436E-002
  -9.4008373821106980E-002   5.3980407771246422E-003   5.2965912538283755E-002
  -9.7603244229422806E-002   1.0657794356680987E-002   5.4680440763631426E-002
 -0.10119811463773865        1.5779260738669032E-002   5.4764100631539456E-002
 -0.10479298504605447        2.0762439923088773E-002   5.3216892142007810E-002
  -6.0037008105545457E-002   7.9294360105291277E-003   5.0457302010528005E-002
  -6.0285339909047199E-002   9.7699733403019337E-003   5.1390198038952992E-002
  -6.0533671712548927E-002   1.1428345567773618E-002   5.2110824620881326E-002
  -6.0782003516050648E-002   1.2904552692944169E-002   5.2619181756313041E-002
  -6.1030335319552390E-002   1.4198594715813570E-002   5.2915269445248117E-002
  -6.8822267661258915E-002   1.1137686988669040E-002   5.0028793654130876E-002
  -6.9048205353741274E-002   1.3550320870236486E-002   4.9238190977111448E-002
  -6.9274143046223632E-002   1.5433774900735938E-002   4.8704645968627391E-002
  -6.9500080738705991E-002   1.6788049080167448E-002   4.8428158628678719E-002
  -6.9726018431188336E-002   1.7613143408530957E-002   4.8408728957265446E-002
  -7.9210017003248243E-002   1.4345937966808954E-002   5.0345889223911797E-002
  -7.8944233469679215E-002   1.7330668400171025E-002   4.7484773092681114E-002
  -7.8678449936110187E-002   1.9439204233698281E-002   4.5350041745017833E-002
  -7.8412666402541117E-002   2.0671545467390712E-002   4.3941695180921926E-002
  -7.8146882868972117E-002   2.1027692101248323E-002   4.3259733400393442E-002
  -9.1200256131513419E-002   1.7554188944948868E-002   5.1408588719870772E-002
  -8.9973424256860987E-002   2.1111015930105555E-002   4.6129944385662008E-002
  -8.8746592382208542E-002   2.3444633566660614E-002   4.2047011950052643E-002
  -8.7519760507556110E-002   2.4555041854613994E-002   3.9159791413042634E-002
  -8.6292928632903679E-002   2.4442240793965717E-002   3.7468282774632114E-002
 -0.10479298504605447        2.0762439923088773E-002   5.3216892142007810E-002
 -0.10213577771528660        2.4891363460040110E-002   4.5173704856054077E-002
  -9.9478570384518752E-002   2.7450062899622939E-002   3.8795556583731808E-002
  -9.6821363053750914E-002   2.8438538241837258E-002   3.4082447325040940E-002
  -9.4164155722983048E-002   2.7856789486683069E-002   3.1034377079981489E-002
  -6.1030335319552390E-002   1.4198594715813570E-002   5.2915269445248117E-002
  -5.9636102450015840E-002   1.5223029256623638E-002   5.1492915766758171E-002
  -5.8241869580479298E-002   1.5890413935616104E-002   5.0514831470844027E-002
  -5.6847636710942756E-002   1.6200748752791039E-002   4.9981016557505760E-002
  -5.5453403841406228E-002   1.6154033708148344E-002   4.9891471026743281E-002
  -6.9726018431188336E-002   1.7613143408530957E-002   4.8408728957265446E-002
  -6.7934194110634158E-002   1.8081044377229669E-002   4.6943387656029886E-002
  -6.6142369790080022E-002   1.8363738477666772E-002   4.5828959874253720E-002
  -6.4350545469525844E-002   1.8461225709842252E-002   4.5065445611937024E-002
  -6.2558721148971680E-002   1.8373506073756096E-002   4.4652844869079701E-002
  -7.8146882868972117E-002   2.1027692101248323E-002   4.3259733400393442E-002
  -7.6050822960516726E-002   2.0939059497835699E-002   4.1923247469968242E-002
  -7.3954763052061320E-002   2.0837063019717411E-002   4.0844319195886040E-002
  -7.1858703143605929E-002   2.0721702666893466E-002   4.0022948578146846E-002
  -6.9762643235150565E-002   2.0592978439363814E-002   3.9459135616750671E-002
  -8.6292928632903679E-002   2.4442240793965717E-002   3.7468282774632114E-002
  -8.3985988999663461E-002   2.3797074618441785E-002   3.6432495208573189E-002
  -8.1679049366423298E-002   2.3310387561768037E-002   3.5560909435740903E-002
  -7.9372109733183108E-002   2.2982179623944679E-002   3.4853525456135188E-002
  -7.7065170099942917E-002   2.2812450804971535E-002   3.4310343269756065E-002
  -9.4164155722983048E-002   2.7856789486683069E-002   3.1034377079981489E-002
  -9.1739692228074460E-002   2.6655089739047750E-002   3.0471130871844797E-002
  -8.9315228733165858E-002   2.5783712103818718E-002   2.9978730593818389E-002
  -8.6890765238257270E-002   2.5242656580995886E-002   2.9557176245902081E-002
  -8.4466301743348668E-002   2.5031923170579257E-002   2.9206467828096050E-002
  -5.5453403841406228E-002   1.6154033708148344E-002   4.9891471026743281E-002
  -5.4069359830785008E-002   1.5995714605406962E-002   4.9592870615112639E-002
  -5.2685315820163794E-002   1.5971237248285818E-002   4.9449202156309470E-002
  -5.1301271809542588E-002   1.6080601636784823E-002   4.9460465650333810E-002
  -4.9917227798921382E-002   1.6323807770903948E-002   4.9626661097185609E-002
  -6.2558721148971680E-002   1.8373506073756096E-002   4.4652844869079701E-002
  -6.1013753984268421E-002   1.8238922876147270E-002   4.4374291625508461E-002
  -5.9468786819565161E-002   1.8195819423754762E-002   4.4262652737273839E-002
  -5.7923819654861895E-002   1.8244195716578558E-002   4.4317928204375835E-002
  -5.6378852490158650E-002   1.8384051754618658E-002   4.4540118026814471E-002
  -6.9762643235150565E-002   2.0592978439363814E-002   3.9459135616750671E-002
  -6.8044770513856073E-002   2.0482131146887527E-002   3.9158267540834894E-002
  -6.6326897792561637E-002   2.0420401599223738E-002   3.9036296222764916E-002
  -6.4609025071267201E-002   2.0407789796372366E-002   3.9093221662540679E-002
  -6.2891152349972723E-002   2.0444295738333410E-002   3.9329043860162206E-002
  -7.7065170099942917E-002   2.2812450804971535E-002   3.4310343269756065E-002
  -7.5162409419548104E-002   2.2725339417627853E-002   3.3944798361091967E-002
  -7.3259648739153319E-002   2.2644983774692751E-002   3.3770132612782749E-002
  -7.1356888058758478E-002   2.2571383876166196E-002   3.3786346024828509E-002
  -6.9454127378363678E-002   2.2504539722048113E-002   3.3993438597229149E-002
  -8.4466301743348668E-002   2.5031923170579257E-002   2.9206467828096050E-002
  -8.2366670701344402E-002   2.4968547688368120E-002   2.8733884086279665E-002
  -8.0267039659340095E-002   2.4869565950161654E-002   2.8464161907327354E-002
  -7.8167408617335787E-002   2.4734977955959941E-002   2.8397301291239095E-002
  -7.6067777575331480E-002   2.4564783705762899E-002   2.8533302238014951E-002
  -4.9917227798921382E-002   1.6323807770903948E-002   4.9626661097185609E-002
  -4.8275087709421044E-002   1.6603215419044012E-002   4.9294230813033496E-002
  -4.6632947619920720E-002   1.6821184349605729E-002   4.9198137077207757E-002
  -4.4990807530420396E-002   1.6977714562589258E-002   4.9338379889708385E-002
  -4.3348667440920058E-002   1.7072806057994383E-002   4.9714959250535373E-002
  -5.6378852490158650E-002   1.8384051754618658E-002   4.4540118026814471E-002
  -5.4499730642062490E-002   1.8539709525019848E-002   4.4097000285318683E-002
  -5.2620608793966309E-002   1.8635491014926821E-002   4.3891509512688297E-002
  -5.0741486945870121E-002   1.8671396224339575E-002   4.3923645708923043E-002
  -4.8862365097773940E-002   1.8647425153258207E-002   4.4193408874023232E-002
  -6.2891152349972723E-002   2.0444295738333410E-002   3.9329043860162206E-002
  -6.0773758322741810E-002   2.0476203630995636E-002   3.8776801098406997E-002
  -5.8656364295510882E-002   2.0449797680247770E-002   3.8463475726055935E-002
  -5.6538970268279969E-002   2.0365077886089947E-002   3.8389067743109129E-002
  -5.4421576241048986E-002   2.0222044248522003E-002   3.8553577149566504E-002
  -6.9454127378363678E-002   2.2504539722048113E-002   3.3993438597229149E-002
  -6.7097170751459059E-002   2.2412697736971503E-002   3.3333633252298552E-002
  -6.4740214124554468E-002   2.2264104345568900E-002   3.2914035717310997E-002
  -6.2383257497649849E-002   2.2058759547840319E-002   3.2734645992266574E-002
  -6.0026300870745293E-002   2.1796663343785730E-002   3.2795464077165430E-002
  -7.6067777575331480E-002   2.4564783705762899E-002   2.8533302238014951E-002
  -7.3469967928214308E-002   2.4349191842947288E-002   2.7767496746993109E-002
  -7.0872158281097067E-002   2.4078411010889804E-002   2.7243189486453198E-002
  -6.8274348633979853E-002   2.3752441209590677E-002   2.6960380456395421E-002
  -6.5676538986862654E-002   2.3371282439049623E-002   2.6919069656819727E-002
  -4.3348667440920058E-002   1.7072806057994383E-002   4.9714959250535373E-002
  -4.1672683836524352E-002   1.7192184785787851E-002   4.9481899091941367E-002
  -3.9996700232128618E-002   1.7421576695935997E-002   4.9469369313920736E-002
  -3.8320716627732884E-002   1.7760981788438900E-002   4.9677369916473396E-002
  -3.6644733023337178E-002   1.8210400063296550E-002   5.0105900899599709E-002
  -4.8862365097773940E-002   1.8647425153258207E-002   4.4193408874023232E-002
  -4.6968305886114933E-002   1.8648954397528367E-002   4.4022825502473967E-002
  -4.5074246674455865E-002   1.8761360552995772E-002   4.4067862964877927E-002
  -4.3180187462796789E-002   1.8984643619660693E-002   4.4328521261235078E-002
  -4.1286128251137789E-002   1.9318803597522693E-002   4.4804800391545552E-002
  -5.4421576241048986E-002   2.0222044248522003E-002   3.8553577149566504E-002
  -5.2314350968746821E-002   2.0105724009268897E-002   3.8446334293904531E-002
  -5.0207125696444643E-002   2.0101144410055713E-002   3.8549802725575691E-002
  -4.8099900424142424E-002   2.0208305450882324E-002   3.8863982444579941E-002
  -4.5992675151840239E-002   2.0427207131748726E-002   3.9388873450917142E-002
  -6.0026300870745293E-002   2.1796663343785730E-002   3.2795464077165430E-002
  -5.7710819084420086E-002   2.1562493621009558E-002   3.2752425466233262E-002
  -5.5395337298094871E-002   2.1440928267115682E-002   3.2915188596014083E-002
  -5.3079855511769636E-002   2.1431967282103982E-002   3.3283753466507707E-002
  -5.0764373725444456E-002   2.1535610665974841E-002   3.3858120077714368E-002
  -6.5676538986862654E-002   2.3371282439049623E-002   2.6919069656819727E-002
  -6.3157710233134629E-002   2.3019263232749998E-002   2.6941099019459958E-002
  -6.0638881479406617E-002   2.2780712124175442E-002   2.7164020576192965E-002
  -5.8120052725678571E-002   2.2655629113325779E-002   2.7587834327018709E-002
  -5.5601223971950553E-002   2.2644014200200846E-002   2.8212540271937259E-002
  -3.6644733023337178E-002   1.8210400063296550E-002   5.0105900899599709E-002
  -3.5356216163005105E-002   1.8869206100938563E-002   5.0116034580905300E-002
  -3.4067699302673046E-002   1.9836774481794564E-002   5.0360642741425404E-002
  -3.2779182442340987E-002   2.1113105205864600E-002   5.0839725381160092E-002
  -3.1490665582008928E-002   2.2698198273148507E-002   5.1553282500109210E-002
  -4.1286128251137789E-002   1.9318803597522693E-002   4.4804800391545552E-002
  -3.9771279808145626E-002   1.9871325607217855E-002   4.5058944251236521E-002
  -3.8256431365153401E-002   2.0749694769381863E-002   4.5531276797033143E-002
  -3.6741582922161210E-002   2.1953911084014854E-002   4.6221798028935668E-002
  -3.5226734479169089E-002   2.3483974551116671E-002   4.7130507946943845E-002
  -4.5992675151840239E-002   2.0427207131748726E-002   3.9388873450917142E-002
  -4.4267780919296618E-002   2.0873445113496980E-002   3.9904112298248307E-002
  -4.2542886686753031E-002   2.1662615056969099E-002   4.0621254038576547E-002
  -4.0817992454209369E-002   2.2794716962165049E-002   4.1540298671901690E-002
  -3.9093098221665762E-002   2.4269750829084807E-002   4.2661246198224159E-002
  -5.0764373725444456E-002   2.1535610665974841E-002   3.3858120077714368E-002
  -4.8845719496458183E-002   2.1875564619776022E-002   3.4651538721940600E-002
  -4.6927065267471840E-002   2.2575535344556200E-002   3.5630574466055269E-002
  -4.5008411038485546E-002   2.3635522840315219E-002   3.6795227310058236E-002
  -4.3089756809499231E-002   2.5055527107052958E-002   3.8145497253949584E-002
  -5.5601223971950553E-002   2.2644014200200846E-002   2.8212540271937259E-002
  -5.3505095539630260E-002   2.2877684126055398E-002   2.9301223522313569E-002
  -5.1408967107309925E-002   2.3488455632143593E-002   3.0559238079469669E-002
  -4.9312838674989583E-002   2.4476328718465463E-002   3.1986583943405270E-002
  -4.7216710242669241E-002   2.5841303385021108E-002   3.3583261114120577E-002
  -3.1490665582008928E-002   2.2698198273148507E-002   5.1553282500109210E-002
  -2.9940598188280196E-002   2.4754341188623019E-002   4.9681023531046808E-002
  -2.8390530794551484E-002   2.7443821457265746E-002   4.8164610426178506E-002
  -2.6840463400822748E-002   3.0766639079076227E-002   4.7004043185504371E-002
  -2.5290396007094040E-002   3.4722794054054429E-002   4.6199321809024418E-002
  -3.5226734479169089E-002   2.3483974551116671E-002   4.7130507946943845E-002
  -3.3337773660065184E-002   2.5539048513907092E-002   4.5789757289763894E-002
  -3.1448812840961266E-002   2.8318296315606103E-002   4.4770947619139911E-002
  -2.9559852021857472E-002   3.1821717956213275E-002   4.4074078935072231E-002
  -2.7670891202753539E-002   3.6049313435728925E-002   4.3699151237560407E-002
  -3.9093098221665762E-002   2.4269750829084807E-002   4.2661246198224159E-002
  -3.6899148854824787E-002   2.6323755839190971E-002   4.1942840338667089E-002
  -3.4705199487983854E-002   2.9192771173946190E-002   4.1512470588028087E-002
  -3.2511250121142928E-002   3.2876796833350347E-002   4.1370136946307146E-002
  -3.0317300754301946E-002   3.7375832817403309E-002   4.1515839413504341E-002
  -4.3089756809499231E-002   2.5055527107052958E-002   3.8145497253949584E-002
  -4.0624723772559275E-002   2.7108463164474614E-002   3.8140272677756090E-002
  -3.8159690735619194E-002   3.0067246032286245E-002   3.8389179332842756E-002
  -3.5694657698679286E-002   3.3931875710487294E-002   3.8892217219209387E-002
  -3.3229624661739149E-002   3.8702352199077861E-002   3.9649386336855691E-002
  -4.7216710242669241E-002   2.5841303385021108E-002   3.3583261114120577E-002
  -4.4514498413268294E-002   2.7893170489758756E-002   3.4382054307031285E-002
  -4.1812286583867306E-002   3.0941720890626662E-002   3.5401073853583820E-002
  -3.9110074754466283E-002   3.4986954587624443E-002   3.6640319753778683E-002
  -3.6407862925065371E-002   4.0028871580752190E-002   3.8099792007614930E-002
  -9.0413503412791169E-002   0.0000000000000000        4.9620515955496436E-002
  -9.4008373821106980E-002   5.3980407771246422E-003   5.2965912538283755E-002
  -9.7603244229422806E-002   1.0657794356680987E-002   5.4680440763631426E-002
 -0.10119811463773865        1.5779260738669032E-002   5.4764100631539456E-002
 -0.10479298504605447        2.0762439923088773E-002   5.3216892142007810E-002
 -0.10338768042685491        0.0000000000000000        5.8448485333419523E-002
 -0.10693315249090635        1.0889634237662656E-002   5.1898531604565222E-002
 -0.11047862455495779        1.9181028190775863E-002   4.7078242921679364E-002
 -0.11402409661900922        2.4874181859339609E-002   4.3987619284761942E-002
 -0.11756956868306064        2.7969095243353920E-002   4.2626660693812955E-002
 -0.12656921071320543        0.0000000000000000        7.3998024715371188E-002
 -0.12670475102958442        1.6381227698200669E-002   5.5092767587894144E-002
 -0.12684029134596336        2.7704262024870738E-002   4.1277708909793612E-002
 -0.12697583166234230        3.3969102980010185E-002   3.2552848681069606E-002
 -0.12711137197872130        3.5175750563619067E-002   2.8918186901722095E-002
 -0.15995809427184277        0.0000000000000000        9.6269134101351461E-002
 -0.15332316943714117        2.1872821158738683E-002   6.2548620488270479E-002
 -0.14668824460243954        3.6227495858965605E-002   3.7278838727974120E-002
 -0.14005331976773794        4.3064024100680776E-002   2.0459788820462357E-002
 -0.13341839493303631        4.2382405883884200E-002   1.2091470765735234E-002
 -0.20355433110276686        0.0000000000000000       0.12526181349136031     
 -0.18678840771357660        2.7364414619276696E-002   7.4266090305694282E-002
 -0.17002248432438635        4.4750729693060494E-002   3.5081632376220924E-002
 -0.15325656093519610        5.2158945221351338E-002   7.7084397029402452E-003
 -0.13649063754600582        4.9589061204149354E-002  -7.8534877141477263E-003
 -0.10479298504605447        2.0762439923088773E-002   5.3216892142007810E-002
 -0.10213577771528660        2.4891363460040110E-002   4.5173704856054077E-002
  -9.9478570384518752E-002   2.7450062899622939E-002   3.8795556583731808E-002
  -9.6821363053750914E-002   2.8438538241837258E-002   3.4082447325040940E-002
  -9.4164155722983048E-002   2.7856789486683069E-002   3.1034377079981489E-002
 -0.11756956868306064        2.7969095243353920E-002   4.2626660693812955E-002
 -0.11363511492475600        2.9438193799116746E-002   3.6318654428449178E-002
 -0.10970066116645137        3.0253902982926077E-002   3.0900102004527533E-002
 -0.10576620740814668        3.0416222794781934E-002   2.6371003422048032E-002
 -0.10183175364984207        2.9925153234684275E-002   2.2731358681010717E-002
 -0.12711137197872130        3.5175750563619067E-002   2.8918186901722095E-002
 -0.12267525696506912        3.3985024138193390E-002   2.5262196382363232E-002
 -0.11823914195141695        3.3057743066229196E-002   2.1720074532257282E-002
 -0.11380302693776478        3.2393907347726569E-002   1.8291821351404183E-002
 -0.10936691192411263        3.1993516982685460E-002   1.4977436839804027E-002
 -0.13341839493303631        4.2382405883884200E-002   1.2091470765735234E-002
 -0.12925620383622588        3.8531854477269992E-002   1.2004330717796335E-002
 -0.12509401273941551        3.5861583149532333E-002   1.1255474166921046E-002
 -0.12093182164260509        3.4371591900671239E-002   9.8449011131093930E-003
 -0.11676963054579469        3.4061880730686639E-002   7.7726115563613238E-003
 -0.13649063754600582        4.9589061204149354E-002  -7.8534877141477263E-003
 -0.13337795553822646        4.3078684816346628E-002  -3.4549425652516327E-003
 -0.13026527353044703        3.8665423232835429E-002  -4.9369909148121692E-004
 -0.12715259152266764        3.6349276453615888E-002   1.0302427071636083E-003
 -0.12403990951488825        3.6130244478687817E-002   1.1168828306827028E-003
  -9.4164155722983048E-002   2.7856789486683069E-002   3.1034377079981489E-002
  -9.1739692228074460E-002   2.6655089739047750E-002   3.0471130871844797E-002
  -8.9315228733165858E-002   2.5783712103818718E-002   2.9978730593818389E-002
  -8.6890765238257270E-002   2.5242656580995886E-002   2.9557176245902081E-002
  -8.4466301743348668E-002   2.5031923170579257E-002   2.9206467828096050E-002
 -0.10183175364984207        2.9925153234684275E-002   2.2731358681010717E-002
  -9.9338456892801213E-002   2.9156480469212931E-002   2.2512791994290855E-002
  -9.6845160135760305E-002   2.8485990664947676E-002   2.2361045901725329E-002
  -9.4351863378719439E-002   2.7913683821888594E-002   2.2276120403314139E-002
  -9.1858566621678558E-002   2.7439559940035635E-002   2.2258015499057371E-002
 -0.10936691192411263        3.1993516982685460E-002   1.4977436839804027E-002
 -0.10680880724089528        3.1657871199378136E-002   1.4871410523300767E-002
 -0.10425070255767793        3.1188269226076745E-002   1.4828179464996087E-002
 -0.10169259787446060        3.0584711062781402E-002   1.4847743664889869E-002
  -9.9134493191243248E-002   2.9847196709492055E-002   1.4930103122982291E-002
 -0.11676963054579469        3.4061880730686639E-002   7.7726115563613238E-003
 -0.11415074327235669        3.4159261929543251E-002   7.5469864588745758E-003
 -0.11153185599891870        3.3890547787205773E-002   7.3801312836306102E-003
 -0.10891296872548072        3.3255738303674127E-002   7.2720460306293314E-003
 -0.10629408145204272        3.2254833478948468E-002   7.2227306998707535E-003
 -0.12403990951488825        3.6130244478687817E-002   1.1168828306827028E-003
 -0.12136426498718544        3.6660652659708484E-002   5.3951980101249464E-004
 -0.11868862045948264        3.6592826348334738E-002   1.6901357628960889E-005
 -0.11601297593177981        3.5926765544566898E-002  -4.5097249946769204E-004
 -0.11333733140407704        3.4662470248404853E-002  -8.6410177027712587E-004
  -8.4466301743348668E-002   2.5031923170579257E-002   2.9206467828096050E-002
  -8.2366670701344402E-002   2.4968547688368120E-002   2.8733884086279665E-002
  -8.0267039659340095E-002   2.4869565950161654E-002   2.8464161907327354E-002
  -7.8167408617335787E-002   2.4734977955959941E-002   2.8397301291239095E-002
  -7.6067777575331480E-002   2.4564783705762899E-002   2.8533302238014951E-002
  -9.1858566621678558E-002   2.7439559940035635E-002   2.2258015499057371E-002
  -8.9526931431941237E-002   2.7026967231195111E-002   2.1925549215286839E-002
  -8.7195296242203985E-002   2.6639253907173227E-002   2.1854229664118180E-002
  -8.4863661052466691E-002   2.6276419967970012E-002   2.2044056845551462E-002
  -8.2532025862729411E-002   2.5938465413585549E-002   2.2495030759586698E-002
  -9.9134493191243248E-002   2.9847196709492055E-002   1.4930103122982291E-002
  -9.6512568684035127E-002   2.9085386774022073E-002   1.4798239938071514E-002
  -9.3890644176826979E-002   2.8408941864184772E-002   1.4985808655500622E-002
  -9.1268719669618872E-002   2.7817861979980110E-002   1.5492809275269387E-002
  -8.8646795162410696E-002   2.7312147121408073E-002   1.6319241797377988E-002
 -0.10629408145204272        3.2254833478948468E-002   7.2227306998707535E-003
 -0.10332358245762592        3.1143806316848967E-002   7.3519562546337756E-003
 -0.10035308346320908        3.0178629821196165E-002   7.8588988814746082E-003
  -9.7382584468792222E-002   2.9359303991990195E-002   8.7435585803927306E-003
  -9.4412085474375435E-002   2.8685828829230715E-002   1.0005935351388768E-002
 -0.11333733140407704        3.4662470248404853E-002  -8.6410177027712587E-004
 -0.10995997275271369        3.3202225859676082E-002  -4.1330183502630291E-004
 -0.10658261410135025        3.1948317778207835E-002   4.7350034203996749E-004
 -0.10320525544998689        3.0900746004000335E-002   1.7963047609217409E-003
  -9.9827896798623472E-002   3.0059510537053358E-002   3.5551114216191837E-003
  -7.6067777575331480E-002   2.4564783705762899E-002   2.8533302238014951E-002
  -7.3469967928214308E-002   2.4349191842947288E-002   2.7767496746993109E-002
  -7.0872158281097067E-002   2.4078411010889804E-002   2.7243189486453198E-002
  -6.8274348633979853E-002   2.3752441209590677E-002   2.6960380456395421E-002
  -6.5676538986862654E-002   2.3371282439049623E-002   2.6919069656819727E-002
  -8.2532025862729411E-002   2.5938465413585549E-002   2.2495030759586698E-002
  -7.9726007161166512E-002   2.5581272919626599E-002   2.1986142963640251E-002
  -7.6919988459603600E-002   2.5160725161699822E-002   2.1652175046103200E-002
  -7.4113969758040688E-002   2.4676822139805432E-002   2.1493127006975359E-002
  -7.1307951056477817E-002   2.4129563853943325E-002   2.1508998846256899E-002
  -8.8646795162410696E-002   2.7312147121408073E-002   1.6319241797377988E-002
  -8.5699145758474871E-002   2.6813353996305814E-002   1.6059105401781244E-002
  -8.2751496354539045E-002   2.6243039312509788E-002   1.5907310532520879E-002
  -7.9803846950603219E-002   2.5601203070020249E-002   1.5863857189597270E-002
  -7.6856197546667393E-002   2.4887845268837083E-002   1.5928745373010061E-002
  -9.4412085474375435E-002   2.8685828829230715E-002   1.0005935351388768E-002
  -9.1389383720139342E-002   2.8045435072984883E-002   9.9863840614155559E-003
  -8.8366681965903346E-002   2.7325353463319643E-002   1.0008595945706293E-002
  -8.5343980211667281E-002   2.6525584000234841E-002   1.0072571004261059E-002
  -8.2321278457431271E-002   2.5646126683730647E-002   1.0178309237079436E-002
  -9.9827896798623472E-002   3.0059510537053358E-002   3.5551114216191837E-003
  -9.6796721046159995E-002   2.9277516149664257E-002   3.7679789425439369E-003
  -9.3765545293696517E-002   2.8407667614129745E-002   3.9560312856595642E-003
  -9.0734369541233012E-002   2.7449964930449912E-002   4.1192684509666309E-003
  -8.7703193788769562E-002   2.6404408098624543E-002   4.2576904384645786E-003
  -6.5676538986862654E-002   2.3371282439049623E-002   2.6919069656819727E-002
  -6.3157710233134629E-002   2.3019263232749998E-002   2.6941099019459958E-002
  -6.0638881479406617E-002   2.2780712124175442E-002   2.7164020576192965E-002
  -5.8120052725678571E-002   2.2655629113325779E-002   2.7587834327018709E-002
  -5.5601223971950553E-002   2.2644014200200846E-002   2.8212540271937259E-002
  -7.1307951056477817E-002   2.4129563853943325E-002   2.1508998846256899E-002
  -6.8624895892140825E-002   2.3601702833917479E-002   2.1685336951521375E-002
  -6.5941840727803763E-002   2.3175991609531363E-002   2.1989235683911146E-002
  -6.3258785563466716E-002   2.2852430180785113E-002   2.2420695043426253E-002
  -6.0575730399129724E-002   2.2631018547678905E-002   2.2979715030066489E-002
  -7.6856197546667393E-002   2.4887845268837083E-002   1.5928745373010061E-002
  -7.4082247538688806E-002   2.4184142435084682E-002   1.6248073918813916E-002
  -7.1308297530710288E-002   2.3571271094887054E-002   1.6621631524775630E-002
  -6.8534347522731728E-002   2.3049231248244553E-002   1.7049418190894793E-002
  -6.5760397514753183E-002   2.2618022895156992E-002   1.7531433917172032E-002
  -8.2321278457431271E-002   2.5646126683730647E-002   1.0178309237079436E-002
  -7.9529765172778766E-002   2.4766582036251830E-002   1.0629309921337645E-002
  -7.6738251888126149E-002   2.3966550580242999E-002   1.1061208098786053E-002
  -7.3946738603473575E-002   2.3246032315703997E-002   1.1474003769424687E-002
  -7.1155225318821028E-002   2.2605027242635176E-002   1.1867696933253801E-002
  -8.7703193788769562E-002   2.6404408098624543E-002   4.2576904384645786E-003
  -8.4967448794410427E-002   2.5349021637419422E-002   4.8290449590921991E-003
  -8.2231703800051403E-002   2.4361830065598694E-002   5.3079654059424719E-003
  -7.9495958805692296E-002   2.3442833383163421E-002   5.6944517790153970E-003
  -7.6760213811333244E-002   2.2592031590113137E-002   5.9885040783115295E-003
  -5.5601223971950553E-002   2.2644014200200846E-002   2.8212540271937259E-002
  -5.3505095539630260E-002   2.2877684126055398E-002   2.9301223522313569E-002
  -5.1408967107309925E-002   2.3488455632143593E-002   3.0559238079469669E-002
  -4.9312838674989583E-002   2.4476328718465463E-002   3.1986583943405270E-002
  -4.7216710242669241E-002   2.5841303385021108E-002   3.3583261114120577E-002
  -6.0575730399129724E-002   2.2631018547678905E-002   2.2979715030066489E-002
  -5.8275278847359835E-002   2.2589943144282393E-002   2.4211041526675026E-002
  -5.5974827295589891E-002   2.2807390404665173E-002   2.5681682955403157E-002
  -5.3674375743819974E-002   2.3283360328827246E-002   2.7391639316250591E-002
  -5.1373924192050072E-002   2.4017852916768723E-002   2.9340910609217841E-002
  -6.5760397514753183E-002   2.2618022895156992E-002   1.7531433917172032E-002
  -6.3185639218193840E-002   2.2302202162509221E-002   1.8786824743558264E-002
  -6.0610880921634483E-002   2.2126325177186858E-002   2.0351514127404095E-002
  -5.8036122625075126E-002   2.2090391939188915E-002   2.2225502068709057E-002
  -5.5461364328515776E-002   2.2194402448516448E-002   2.4408788567473694E-002
  -7.1155225318821028E-002   2.2605027242635176E-002   1.1867696933253801E-002
  -6.8236176652132385E-002   2.2014461180736244E-002   1.3028573172963184E-002
  -6.5317127985443715E-002   2.1445259949708213E-002   1.4568731595472542E-002
  -6.2398079318755045E-002   2.0897423549550976E-002   1.6488172200780613E-002
  -5.9479030652066382E-002   2.0370951980264396E-002   1.8786894988888400E-002
  -7.6760213811333244E-002   2.2592031590113137E-002   5.9885040783115295E-003
  -7.3426891149175444E-002   2.1726720198963267E-002   6.9362868148901691E-003
  -7.0093568487017532E-002   2.0764194722230317E-002   8.3333353596081738E-003
  -6.6760245824859704E-002   1.9704455159912419E-002   1.0179649712465363E-002
  -6.3426923162701820E-002   1.8547501512011899E-002   1.2475229873461502E-002
  -4.7216710242669241E-002   2.5841303385021108E-002   3.3583261114120577E-002
  -4.4514498413268294E-002   2.7893170489758756E-002   3.4382054307031285E-002
  -4.1812286583867306E-002   3.0941720890626662E-002   3.5401073853583820E-002
  -3.9110074754466283E-002   3.4986954587624443E-002   3.6640319753778683E-002
  -3.6407862925065371E-002   4.0028871580752190E-002   3.8099792007614930E-002
  -5.1373924192050072E-002   2.4017852916768723E-002   2.9340910609217841E-002
  -4.8142539002478280E-002   2.5093252424763318E-002   3.1228411857800620E-002
  -4.4911153812906508E-002   2.6591943109083693E-002   3.3954033473082929E-002
  -4.1679768623334598E-002   2.8513924969730250E-002   3.7517775455065253E-002
  -3.8448383433762945E-002   3.0859198006702782E-002   4.1919637803746856E-002
  -5.5461364328515776E-002   2.2194402448516448E-002   2.4408788567473694E-002
  -5.1082911765715472E-002   2.2293334359767686E-002   2.6811605751924428E-002
  -4.6704459202915161E-002   2.2242165327540989E-002   3.0670437316132851E-002
  -4.2326006640114926E-002   2.2040895351836166E-002   3.5985283260098581E-002
  -3.7947554077314496E-002   2.1689524432653706E-002   4.2756143583821682E-002
  -5.9479030652066382E-002   2.0370951980264396E-002   1.8786894988888400E-002
  -5.3335616702979843E-002   1.9493416294772206E-002   2.1131635989403291E-002
  -4.7192202753893207E-002   1.7892387545998041E-002   2.5550285382733465E-002
  -4.1048788804806634E-002   1.5567865733941972E-002   3.2042843168878767E-002
  -3.4905374855720026E-002   1.2519850858604575E-002   4.0609309347839115E-002
  -6.3426923162701820E-002   1.8547501512011899E-002   1.2475229873461502E-002
  -5.4900653814271227E-002   1.6693498229776615E-002   1.4188502570236683E-002
  -4.6374384465840635E-002   1.3542609764455454E-002   1.8593577672884692E-002
  -3.7848115117409958E-002   9.0948361160480343E-003   2.5690455181406023E-002
  -2.9321845768979449E-002   3.3501772845552225E-003   3.5479135095799696E-002
 </DataArray>
 </PointData>
 </Piece>
 <Piece  NumberOfPoints="          1600 "  NumberOfCells="         1024 ">
 <Points>
 <DataArray  type="Float64" NumberOfComponents="3"  format="ascii" >
  0.50000000000000000        0.0000000000000000        0.0000000000000000     
  0.53125000000000000        0.0000000000000000        0.0000000000000000     
  0.56250000000000000        0.0000000000000000        0.0000000000000000     
  0.59375000000000000        0.0000000000000000        0.0000000000000000     
  0.62500000000000000        0.0000000000000000        0.0000000000000000     
  0.50000000000000000        3.1250000000000000E-002   0.0000000000000000     
  0.53125000000000000        3.1250000000000000E-002   0.0000000000000000     
  0.56250000000000000        3.1250000000000000E-002   0.0000000000000000     
  0.59375000000000000        3.1250000000000000E-002   0.0000000000000000     
  0.62500000000000000        3.1250000000000000E-002   0.0000000000000000     
  0.50000000000000000        6.2500000000000000E-002   0.0000000000000000     
  0.53125000000000000        6.2500000000000000E-002   0.0000000000000000     
  0.56250000000000000        6.2500000000000000E-002   0.0000000000000000     
  0.59375000000000000        6.2500000000000000E-002   0.0000000000000000     
  0.62500000000000000        6.2500000000000000E-002   0.0000000000000000     
  0.50000000000000000        9.3750000000000000E-002   0.0000000000000000     
  0.53125000000000000        9.3750000000000000E-002   0.0000000000000000     
  0.56250000000000000        9.3750000000000000E-002   0.0000000000000000     
  0.59375000000000000        9.3750000000000000E-002   0.0000000000000000     
  0.62500000000000000        9.3750000000000000E-002   0.0000000000000000     
  0.50000000000000000       0.12500000000000000        0.0000000000000000     
  0.53125000000000000       0.12500000000000000        0.0000000000000000     
  0.56250000000000000       0.12500000000000000        0.0000000000000000     
  0.59375000000000000       0.12500000000000000        0.0000000000000000     
  0.62500000000000000       0.12500000000000000        0.0000000000000000     
  0.62500000000000000        0.0000000000000000        0.0000000000000000     
  0.65625000000000000        0.0000000000000000        0.0000000000000000     
  0.68750000000000000        0.0000000000000000        0.0000000000000000     
  0.71875000000000000        0.0000000000000000        0.0000000000000000     
  0.75000000000000000        0.0000000000000000        0.0000000000000000     
  0.62500000000000000        3.1250000000000000E-002   0.0000000000000000     
  0.65625000000000000        3.1250000000000000E-002   0.0000000000000000     
  0.68750000000000000        3.1250000000000000E-002   0.0000000000000000     
  0.71875000000000000        3.1250000000000000E-002   0.0000000000000000     
  0.75000000000000000        3.1250000000000000E-002   0.0000000000000000     
  0.62500000000000000        6.2500000000000000E-002   0.0000000000000000     
  0.65625000000000000        6.2500000000000000E-002   0.0000000000000000     
  0.68750000000000000        6.2500000000000000E-002   0.0000000000000000     
  0.71875000000000000        6.2500000000000000E-002   0.0000000000000000     
  0.75000000000000000        6.2500000000000000E-002   0.0000000000000000     
  0.62500000000000000        9.3750000000000000E-002   0.0000000000000000     
  0.65625000000000000        9.3750000000000000E-002   0.0000000000000000     
  0.68750000000000000        9.3750000000000000E-002   0.0000000000000000     
  0.71875000000000000        9.3750000000000000E-002   0.0000000000000000     
  0.75000000000000000        9.3750000000000000E-002   0.0000000000000000     
  0.62500000000000000       0.12500000000000000        0.0000000000000000     
  0.65625000000000000       0.12500000000000000        0.0000000000000000     
  0.68750000000000000       0.12500000000000000        0.0000000000000000     
  0.71875000000000000       0.12500000000000000        0.0000000000000000     
  0.75000000000000000       0.12500000000000000        0.0000000000000000     
  0.75000000000000000        0.0000000000000000        0.0000000000000000     
  0.78125000000000000        0.0000000000000000        0.0000000000000000     
  0.81250000000000000        0.0000000000000000        0.0000000000000000     
  0.84375000000000000        0.0000000000000000        0.0000000000000000     
  0.87500000000000000        0.0000000000000000        0.0000000000000000     
  0.75000000000000000        3.1250000000000000E-002   0.0000000000000000     
  0.78125000000000000        3.1250000000000000E-002   0.0000000000000000     
  0.81250000000000000        3.1250000000000000E-002   0.0000000000000000     
  0.84375000000000000        3.1250000000000000E-002   0.0000000000000000     
  0.87500000000000000        3.1250000000000000E-002   0.0000000000000000     
  0.75000000000000000        6.2500000000000000E-002   0.0000000000000000     
  0.78125000000000000        6.2500000000000000E-002   0.0000000000000000     
  0.81250000000000000        6.2500000000000000E-002   0.0000000000000000     
  0.84375000000000000        6.2500000000000000E-002   0.0000000000000000     
  0.87500000000000000        6.2500000000000000E-002   0.0000000000000000     
  0.75000000000000000        9.3750000000000000E-002   0.0000000000000000     
  0.78125000000000000        9.3750000000000000E-002   0.0000000000000000     
  0.81250000000000000        9.3750000000000000E-002   0.0000000000000000     
  0.84375000000000000        9.3750000000000000E-002   0.0000000000000000     
  0.87500000000000000        9.3750000000000000E-002   0.0000000000000000     
  0.75000000000000000       0.12500000000000000        0.0000000000000000     
  0.78125000000000000       0.12500000000000000        0.0000000000000000     
  0.81250000000000000       0.12500000000000000        0.0000000000000000     
  0.84375000000000000       0.12500000000000000        0.0000000000000000     
  0.87500000000000000       0.12500000000000000        0.0000000000000000     
  0.87500000000000000        0.0000000000000000        0.0000000000000000     
  0.90625000000000000        0.0000000000000000        0.0000000000000000     
  0.93750000000000000        0.0000000000000000        0.0000000000000000     
  0.96875000000000000        0.0000000000000000        0.0000000000000000     
   1.0000000000000000        0.0000000000000000        0.0000000000000000     
  0.87500000000000000        3.1250000000000000E-002   0.0000000000000000     
  0.90625000000000000        3.1250000000000000E-002   0.0000000000000000     
  0.93750000000000000        3.1250000000000000E-002   0.0000000000000000     
  0.96875000000000000        3.1250000000000000E-002   0.0000000000000000     
   1.0000000000000000        3.1250000000000000E-002   0.0000000000000000     
  0.87500000000000000        6.2500000000000000E-002   0.0000000000000000     
  0.90625000000000000        6.2500000000000000E-002   0.0000000000000000     
  0.93750000000000000        6.2500000000000000E-002   0.0000000000000000     
  0.96875000000000000        6.2500000000000000E-002   0.0000000000000000     
   1.0000000000000000        6.2500000000000000E-002   0.0000000000000000     
  0.87500000000000000        9.3750000000000000E-002   0.0000000000000000     
  0.90625000000000000        9.3750000000000000E-002   0.0000000000000000     
  0.93750000000000000        9.3750000000000000E-002   0.0000000000000000     
  0.96875000000000000        9.3750000000000000E-002   0.0000000000000000     
   1.0000000000000000        9.3750000000000000E-002   0.0000000000000000     
  0.87500000000000000       0.12500000000000000        0.0000000000000000     
  0.90625000000000000       0.12500000000000000        0.0000000000000000     
  0.93750000000000000       0.12500000000000000        0.0000000000000000     
  0.96875000000000000       0.12500000000000000        0.0000000000000000     
   1.0000000000000000       0.12500000000000000        0.0000000000000000     
   1.0000000000000000        0.0000000000000000        0.0000000000000000     
   1.0312500000000000        0.0000000000000000        0.0000000000000000     
   1.0625000000000000        0.0000000000000000        0.0000000000000000     
   1.0937500000000000        0.0000000000000000        0.0000000000000000     
   1.1250000000000000        0.0000000000000000        0.0000000000000000     
   1.0000000000000000        3.1250000000000000E-002   0.0000000000000000     
   1.0312500000000000        3.1250000000000000E-002   0.0000000000000000     
   1.0625000000000000        3.1250000000000000E-002   0.0000000000000000     
   1.0937500000000000        3.1250000000000000E-002   0.0000000000000000     
   1.1250000000000000        3.1250000000000000E-002   0.0000000000000000     
   1.0000000000000000        6.2500000000000000E-002   0.0000000000000000     
   1.0312500000000000        6.2500000000000000E-002   0.0000000000000000     
   1.0625000000000000        6.2500000000000000E-002   0.0000000000000000     
   1.0937500000000000        6.2500000000000000E-002   0.0000000000000000     
   1.1250000000000000        6.2500000000000000E-002   0.0000000000000000     
   1.0000000000000000        9.3750000000000000E-002   0.0000000000000000     
   1.0312500000000000        9.3750000000000000E-002   0.0000000000000000     
   1.0625000000000000        9.3750000000000000E-002   0.0000000000000000     
   1.0937500000000000        9.3750000000000000E-002   0.0000000000000000     
   1.1250000000000000        9.3750000000000000E-002   0.0000000000000000     
   1.0000000000000000       0.12500000000000000        0.0000000000000000     
   1.0312500000000000       0.12500000000000000        0.0000000000000000     
   1.0625000000000000       0.12500000000000000        0.0000000000000000     
   1.0937500000000000       0.12500000000000000        0.0000000000000000     
   1.1250000000000000       0.12500000000000000        0.0000000000000000     
   1.1250000000000000        0.0000000000000000        0.0000000000000000     
   1.1562500000000000        0.0000000000000000        0.0000000000000000     
   1.1875000000000000        0.0000000000000000        0.0000000000000000     
   1.2187500000000000        0.0000000000000000        0.0000000000000000     
   1.2500000000000000        0.0000000000000000        0.0000000000000000     
   1.1250000000000000        3.1250000000000000E-002   0.0000000000000000     
   1.1562500000000000        3.1250000000000000E-002   0.0000000000000000     
   1.1875000000000000        3.1250000000000000E-002   0.0000000000000000     
   1.2187500000000000        3.1250000000000000E-002   0.0000000000000000     
   1.2500000000000000        3.1250000000000000E-002   0.0000000000000000     
   1.1250000000000000        6.2500000000000000E-002   0.0000000000000000     
   1.1562500000000000        6.2500000000000000E-002   0.0000000000000000     
   1.1875000000000000        6.2500000000000000E-002   0.0000000000000000     
   1.2187500000000000        6.2500000000000000E-002   0.0000000000000000     
   1.2500000000000000        6.2500000000000000E-002   0.0000000000000000     
   1.1250000000000000        9.3750000000000000E-002   0.0000000000000000     
   1.1562500000000000        9.3750000000000000E-002   0.0000000000000000     
   1.1875000000000000        9.3750000000000000E-002   0.0000000000000000     
   1.2187500000000000        9.3750000000000000E-002   0.0000000000000000     
   1.2500000000000000        9.3750000000000000E-002   0.0000000000000000     
   1.1250000000000000       0.12500000000000000        0.0000000000000000     
   1.1562500000000000       0.12500000000000000        0.0000000000000000     
   1.1875000000000000       0.12500000000000000        0.0000000000000000     
   1.2187500000000000       0.12500000000000000        0.0000000000000000     
   1.2500000000000000       0.12500000000000000        0.0000000000000000     
   1.2500000000000000        0.0000000000000000        0.0000000000000000     
   1.2812500000000000        0.0000000000000000        0.0000000000000000     
   1.3125000000000000        0.0000000000000000        0.0000000000000000     
   1.3437500000000000        0.0000000000000000        0.0000000000000000     
   1.3750000000000000        0.0000000000000000        0.0000000000000000     
   1.2500000000000000        3.1250000000000000E-002   0.0000000000000000     
   1.2812500000000000        3.1250000000000000E-002   0.0000000000000000     
   1.3125000000000000        3.1250000000000000E-002   0.0000000000000000     
   1.3437500000000000        3.1250000000000000E-002   0.0000000000000000     
   1.3750000000000000        3.1250000000000000E-002   0.0000000000000000     
   1.2500000000000000        6.2500000000000000E-002   0.0000000000000000     
   1.2812500000000000        6.2500000000000000E-002   0.0000000000000000     
   1.3125000000000000        6.2500000000000000E-002   0.0000000000000000     
   1.3437500000000000        6.2500000000000000E-002   0.0000000000000000     
   1.3750000000000000        6.2500000000000000E-002   0.0000000000000000     
   1.2500000000000000        9.3750000000000000E-002   0.0000000000000000     
   1.2812500000000000        9.3750000000000000E-002   0.0000000000000000     
   1.3125000000000000        9.3750000000000000E-002   0.0000000000000000     
   1.3437500000000000        9.3750000000000000E-002   0.0000000000000000     
   1.3750000000000000        9.3750000000000000E-002   0.0000000000000000     
   1.2500000000000000       0.12500000000000000        0.0000000000000000     
   1.2812500000000000       0.12500000000000000        0.0000000000000000     
   1.3125000000000000       0.12500000000000000        0.0000000000000000     
   1.3437500000000000       0.12500000000000000        0.0000000000000000     
   1.3750000000000000       0.12500000000000000        0.0000000000000000     
   1.3750000000000000        0.0000000000000000        0.0000000000000000     
   1.4062500000000000        0.0000000000000000        0.0000000000000000     
   1.4375000000000000        0.0000000000000000        0.0000000000000000     
   1.4687500000000000        0.0000000000000000        0.0000000000000000     
   1.5000000000000000        0.0000000000000000        0.0000000000000000     
   1.3750000000000000        3.1250000000000000E-002   0.0000000000000000     
   1.4062500000000000        3.1250000000000000E-002   0.0000000000000000     
   1.4375000000000000        3.1250000000000000E-002   0.0000000000000000     
   1.4687500000000000        3.1250000000000000E-002   0.0000000000000000     
   1.5000000000000000        3.1250000000000000E-002   0.0000000000000000     
   1.3750000000000000        6.2500000000000000E-002   0.0000000000000000     
   1.4062500000000000        6.2500000000000000E-002   0.0000000000000000     
   1.4375000000000000        6.2500000000000000E-002   0.0000000000000000     
   1.4687500000000000        6.2500000000000000E-002   0.0000000000000000     
   1.5000000000000000        6.2500000000000000E-002   0.0000000000000000     
   1.3750000000000000        9.3750000000000000E-002   0.0000000000000000     
   1.4062500000000000        9.3750000000000000E-002   0.0000000000000000     
   1.4375000000000000        9.3750000000000000E-002   0.0000000000000000     
   1.4687500000000000        9.3750000000000000E-002   0.0000000000000000     
   1.5000000000000000        9.3750000000000000E-002   0.0000000000000000     
   1.3750000000000000       0.12500000000000000        0.0000000000000000     
   1.4062500000000000       0.12500000000000000        0.0000000000000000     
   1.4375000000000000       0.12500000000000000        0.0000000000000000     
   1.4687500000000000       0.12500000000000000        0.0000000000000000     
   1.5000000000000000       0.12500000000000000        0.0000000000000000     
  0.50000000000000000       0.12500000000000000        0.0000000000000000     
  0.53125000000000000       0.12500000000000000        0.0000000000000000     
  0.56250000000000000       0.12500000000000000        0.0000000000000000     
  0.59375000000000000       0.12500000000000000        0.0000000000000000     
  0.62500000000000000       0.12500000000000000        0.0000000000000000     
  0.50000000000000000       0.15625000000000000        0.0000000000000000     
  0.53125000000000000       0.15625000000000000        0.0000000000000000     
  0.56250000000000000       0.15625000000000000        0.0000000000000000     
  0.59375000000000000       0.15625000000000000        0.0000000000000000     
  0.62500000000000000       0.15625000000000000        0.0000000000000000     
  0.50000000000000000       0.18750000000000000        0.0000000000000000     
  0.53125000000000000       0.18750000000000000        0.0000000000000000     
  0.56250000000000000       0.18750000000000000        0.0000000000000000     
  0.59375000000000000       0.18750000000000000        0.0000000000000000     
  0.62500000000000000       0.18750000000000000        0.0000000000000000     
  0.50000000000000000       0.21875000000000000        0.0000000000000000     
  0.53125000000000000       0.21875000000000000        0.0000000000000000     
  0.56250000000000000       0.21875000000000000        0.0000000000000000     
  0.59375000000000000       0.21875000000000000        0.0000000000000000     
  0.62500000000000000       0.21875000000000000        0.0000000000000000     
  0.50000000000000000       0.25000000000000000        0.0000000000000000     
  0.53125000000000000       0.25000000000000000        0.0000000000000000     
  0.56250000000000000       0.25000000000000000        0.0000000000000000     
  0.59375000000000000       0.25000000000000000        0.0000000000000000     
  0.62500000000000000       0.25000000000000000        0.0000000000000000     
  0.62500000000000000       0.12500000000000000        0.0000000000000000     
  0.65625000000000000       0.12500000000000000        0.0000000000000000     
  0.68750000000000000       0.12500000000000000        0.0000000000000000     
  0.71875000000000000       0.12500000000000000        0.0000000000000000     
  0.75000000000000000       0.12500000000000000        0.0000000000000000     
  0.62500000000000000       0.15625000000000000        0.0000000000000000     
  0.65625000000000000       0.15625000000000000        0.0000000000000000     
  0.68750000000000000       0.15625000000000000        0.0000000000000000     
  0.71875000000000000       0.15625000000000000        0.0000000000000000     
  0.75000000000000000       0.15625000000000000        0.0000000000000000     
  0.62500000000000000       0.18750000000000000        0.0000000000000000     
  0.65625000000000000       0.18750000000000000        0.0000000000000000     
  0.68750000000000000       0.18750000000000000        0.0000000000000000     
  0.71875000000000000       0.18750000000000000        0.0000000000000000     
  0.75000000000000000       0.18750000000000000        0.0000000000000000     
  0.62500000000000000       0.21875000000000000        0.0000000000000000     
  0.65625000000000000       0.21875000000000000        0.0000000000000000     
  0.68750000000000000       0.21875000000000000        0.0000000000000000     
  0.71875000000000000       0.21875000000000000        0.0000000000000000     
  0.75000000000000000       0.21875000000000000        0.0000000000000000     
  0.62500000000000000       0.25000000000000000        0.0000000000000000     
  0.65625000000000000       0.25000000000000000        0.0000000000000000     
  0.68750000000000000       0.25000000000000000        0.0000000000000000     
  0.71875000000000000       0.25000000000000000        0.0000000000000000     
  0.75000000000000000       0.25000000000000000        0.0000000000000000     
  0.75000000000000000       0.12500000000000000        0.0000000000000000     
  0.78125000000000000       0.12500000000000000        0.0000000000000000     
  0.81250000000000000       0.12500000000000000        0.0000000000000000     
  0.84375000000000000       0.12500000000000000        0.0000000000000000     
  0.87500000000000000       0.12500000000000000        0.0000000000000000     
  0.75000000000000000       0.15625000000000000        0.0000000000000000     
  0.78125000000000000       0.15625000000000000        0.0000000000000000     
  0.81250000000000000       0.15625000000000000        0.0000000000000000     
  0.84375000000000000       0.15625000000000000        0.0000000000000000     
  0.87500000000000000       0.15625000000000000        0.0000000000000000     
  0.75000000000000000       0.18750000000000000        0.0000000000000000     
  0.78125000000000000       0.18750000000000000        0.0000000000000000     
  0.81250000000000000       0.18750000000000000        0.0000000000000000     
  0.84375000000000000       0.18750000000000000        0.0000000000000000     
  0.87500000000000000       0.18750000000000000        0.0000000000000000     
  0.75000000000000000       0.21875000000000000        0.0000000000000000     
  0.78125000000000000       0.21875000000000000        0.0000000000000000     
  0.81250000000000000       0.21875000000000000        0.0000000000000000     
  0.84375000000000000       0.21875000000000000        0.0000000000000000     
  0.87500000000000000       0.21875000000000000        0.0000000000000000     
  0.75000000000000000       0.25000000000000000        0.0000000000000000     
  0.78125000000000000       0.25000000000000000        0.0000000000000000     
  0.81250000000000000       0.25000000000000000        0.0000000000000000     
  0.84375000000000000       0.25000000000000000        0.0000000000000000     
  0.87500000000000000       0.25000000000000000        0.0000000000000000     
  0.87500000000000000       0.12500000000000000        0.0000000000000000     
  0.90625000000000000       0.12500000000000000        0.0000000000000000     
  0.93750000000000000       0.12500000000000000        0.0000000000000000     
  0.96875000000000000       0.12500000000000000        0.0000000000000000     
   1.0000000000000000       0.12500000000000000        0.0000000000000000     
  0.87500000000000000       0.15625000000000000        0.0000000000000000     
  0.90625000000000000       0.15625000000000000        0.0000000000000000     
  0.93750000000000000       0.15625000000000000        0.0000000000000000     
  0.96875000000000000       0.15625000000000000        0.0000000000000000     
   1.0000000000000000       0.15625000000000000        0.0000000000000000     
  0.87500000000000000       0.18750000000000000        0.0000000000000000     
  0.90625000000000000       0.18750000000000000        0.0000000000000000     
  0.93750000000000000       0.18750000000000000        0.0000000000000000     
  0.96875000000000000       0.18750000000000000        0.0000000000000000     
   1.0000000000000000       0.18750000000000000        0.0000000000000000     
  0.87500000000000000       0.21875000000000000        0.0000000000000000     
  0.90625000000000000       0.21875000000000000        0.0000000000000000     
  0.93750000000000000       0.21875000000000000        0.0000000000000000     
  0.96875000000000000       0.21875000000000000        0.0000000000000000     
   1.0000000000000000       0.21875000000000000        0.0000000000000000     
  0.87500000000000000       0.25000000000000000        0.0000000000000000     
  0.90625000000000000       0.25000000000000000        0.0000000000000000     
  0.93750000000000000       0.25000000000000000        0.0000000000000000     
  0.96875000000000000       0.25000000000000000        0.0000000000000000     
   1.0000000000000000       0.25000000000000000        0.0000000000000000     
   1.0000000000000000       0.12500000000000000        0.0000000000000000     
   1.0312500000000000       0.12500000000000000        0.0000000000000000     
   1.0625000000000000       0.12500000000000000        0.0000000000000000     
   1.0937500000000000       0.12500000000000000        0.0000000000000000     
   1.1250000000000000       0.12500000000000000        0.0000000000000000     
   1.0000000000000000       0.15625000000000000        0.0000000000000000     
   1.0312500000000000       0.15625000000000000        0.0000000000000000     
   1.0625000000000000       0.15625000000000000        0.0000000000000000     
   1.0937500000000000       0.15625000000000000        0.0000000000000000     
   1.1250000000000000       0.15625000000000000        0.0000000000000000     
   1.0000000000000000       0.18750000000000000        0.0000000000000000     
   1.0312500000000000       0.18750000000000000        0.0000000000000000     
   1.0625000000000000       0.18750000000000000        0.0000000000000000     
   1.0937500000000000       0.18750000000000000        0.0000000000000000     
   1.1250000000000000       0.18750000000000000        0.0000000000000000     
   1.0000000000000000       0.21875000000000000        0.0000000000000000     
   1.0312500000000000       0.21875000000000000        0.0000000000000000     
   1.0625000000000000       0.21875000000000000        0.0000000000000000     
   1.0937500000000000       0.21875000000000000        0.0000000000000000     
   1.1250000000000000       0.21875000000000000        0.0000000000000000     
   1.0000000000000000       0.25000000000000000        0.0000000000000000     
   1.0312500000000000       0.25000000000000000        0.0000000000000000     
   1.0625000000000000       0.25000000000000000        0.0000000000000000     
   1.0937500000000000       0.25000000000000000        0.0000000000000000     
   1.1250000000000000       0.25000000000000000        0.0000000000000000     
   1.1250000000000000       0.12500000000000000        0.0000000000000000     
   1.1562500000000000       0.12500000000000000        0.0000000000000000     
   1.1875000000000000       0.12500000000000000        0.0000000000000000     
   1.2187500000000000       0.12500000000000000        0.0000000000000000     
   1.2500000000000000       0.12500000000000000        0.0000000000000000     
   1.1250000000000000       0.15625000000000000        0.0000000000000000     
   1.1562500000000000       0.15625000000000000        0.0000000000000000     
   1.1875000000000000       0.15625000000000000        0.0000000000000000     
   1.2187500000000000       0.15625000000000000        0.0000000000000000     
   1.2500000000000000       0.15625000000000000        0.0000000000000000     
   1.1250000000000000       0.18750000000000000        0.0000000000000000     
   1.1562500000000000       0.18750000000000000        0.0000000000000000     
   1.1875000000000000       0.18750000000000000        0.0000000000000000     
   1.2187500000000000       0.18750000000000000        0.0000000000000000     
   1.2500000000000000       0.18750000000000000        0.0000000000000000     
   1.1250000000000000       0.21875000000000000        0.0000000000000000     
   1.1562500000000000       0.21875000000000000        0.0000000000000000     
   1.1875000000000000       0.21875000000000000        0.0000000000000000     
   1.2187500000000000       0.21875000000000000        0.0000000000000000     
   1.2500000000000000       0.21875000000000000        0.0000000000000000     
   1.1250000000000000       0.25000000000000000        0.0000000000000000     
   1.1562500000000000       0.25000000000000000        0.0000000000000000     
   1.1875000000000000       0.25000000000000000        0.0000000000000000     
   1.2187500000000000       0.25000000000000000        0.0000000000000000     
   1.2500000000000000       0.25000000000000000        0.0000000000000000     
   1.2500000000000000       0.12500000000000000        0.0000000000000000     
   1.2812500000000000       0.12500000000000000        0.0000000000000000     
   1.3125000000000000       0.12500000000000000        0.0000000000000000     
   1.3437500000000000       0.12500000000000000        0.0000000000000000     
   1.3750000000000000       0.12500000000000000        0.0000000000000000     
   1.2500000000000000       0.15625000000000000        0.0000000000000000     
   1.2812500000000000       0.15625000000000000        0.0000000000000000     
   1.3125000000000000       0.15625000000000000        0.0000000000000000     
   1.3437500000000000       0.15625000000000000        0.0000000000000000     
   1.3750000000000000       0.15625000000000000        0.0000000000000000     
   1.2500000000000000       0.18750000000000000        0.0000000000000000     
   1.2812500000000000       0.18750000000000000        0.0000000000000000     
   1.3125000000000000       0.18750000000000000        0.0000000000000000     
   1.3437500000000000       0.18750000000000000        0.0000000000000000     
   1.3750000000000000       0.18750000000000000        0.0000000000000000     
   1.2500000000000000       0.21875000000000000        0.0000000000000000     
   1.2812500000000000       0.21875000000000000        0.0000000000000000     
   1.3125000000000000       0.21875000000000000        0.0000000000000000     
   1.3437500000000000       0.21875000000000000        0.0000000000000000     
   1.3750000000000000       0.21875000000000000        0.0000000000000000     
   1.2500000000000000       0.25000000000000000        0.0000000000000000     
   1.2812500000000000       0.25000000000000000        0.0000000000000000     
   1.3125000000000000       0.25000000000000000        0.0000000000000000     
   1.3437500000000000       0.25000000000000000        0.0000000000000000     
   1.3750000000000000       0.25000000000000000        0.0000000000000000     
   1.3750000000000000       0.12500000000000000        0.0000000000000000     
   1.4062500000000000       0.12500000000000000        0.0000000000000000     
   1.4375000000000000       0.12500000000000000        0.0000000000000000     
   1.4687500000000000       0.12500000000000000        0.0000000000000000     
   1.5000000000000000       0.12500000000000000        0.0000000000000000     
   1.3750000000000000       0.15625000000000000        0.0000000000000000     
   1.4062500000000000       0.15625000000000000        0.0000000000000000     
   1.4375000000000000       0.15625000000000000        0.0000000000000000     
   1.4687500000000000       0.15625000000000000        0.0000000000000000     
   1.5000000000000000       0.15625000000000000        0.0000000000000000     
   1.3750000000000000       0.18750000000000000        0.0000000000000000     
   1.4062500000000000       0.18750000000000000        0.0000000000000000     
   1.4375000000000000       0.18750000000000000        0.0000000000000000     
   1.4687500000000000       0.18750000000000000        0.0000000000000000     
   1.5000000000000000       0.18750000000000000        0.0000000000000000     
   1.3750000000000000       0.21875000000000000        0.0000000000000000     
   1.4062500000000000       0.21875000000000000        0.0000000000000000     
   1.4375000000000000       0.21875000000000000        0.0000000000000000     
   1.4687500000000000       0.21875000000000000        0.0000000000000000     
   1.5000000000000000       0.21875000000000000        0.0000000000000000     
   1.3750000000000000       0.25000000000000000        0.0000000000000000     
   1.4062500000000000       0.25000000000000000        0.0000000000000000     
   1.4375000000000000       0.25000000000000000        0.0000000000000000     
   1.4687500000000000       0.25000000000000000        0.0000000000000000     
   1.5000000000000000       0.25000000000000000        0.0000000000000000     
  0.50000000000000000       0.25000000000000000        0.0000000000000000     
  0.53125000000000000       0.25000000000000000        0.0000000000000000     
  0.56250000000000000       0.25000000000000000        0.0000000000000000     
  0.59375000000000000       0.25000000000000000        0.0000000000000000     
  0.62500000000000000       0.25000000000000000        0.0000000000000000     
  0.50000000000000000       0.28125000000000000        0.0000000000000000     
  0.53125000000000000       0.28125000000000000        0.0000000000000000     
  0.56250000000000000       0.28125000000000000        0.0000000000000000     
  0.59375000000000000       0.28125000000000000        0.0000000000000000     
  0.62500000000000000       0.28125000000000000        0.0000000000000000     
  0.50000000000000000       0.31250000000000000        0.0000000000000000     
  0.53125000000000000       0.31250000000000000        0.0000000000000000     
  0.56250000000000000       0.31250000000000000        0.0000000000000000     
  0.59375000000000000       0.31250000000000000        0.0000000000000000     
  0.62500000000000000       0.31250000000000000        0.0000000000000000     
  0.50000000000000000       0.34375000000000000        0.0000000000000000     
  0.53125000000000000       0.34375000000000000        0.0000000000000000     
  0.56250000000000000       0.34375000000000000        0.0000000000000000     
  0.59375000000000000       0.34375000000000000        0.0000000000000000     
  0.62500000000000000       0.34375000000000000        0.0000000000000000     
  0.50000000000000000       0.37500000000000000        0.0000000000000000     
  0.53125000000000000       0.37500000000000000        0.0000000000000000     
  0.56250000000000000       0.37500000000000000        0.0000000000000000     
  0.59375000000000000       0.37500000000000000        0.0000000000000000     
  0.62500000000000000       0.37500000000000000        0.0000000000000000     
  0.62500000000000000       0.25000000000000000        0.0000000000000000     
  0.65625000000000000       0.25000000000000000        0.0000000000000000     
  0.68750000000000000       0.25000000000000000        0.0000000000000000     
  0.71875000000000000       0.25000000000000000        0.0000000000000000     
  0.75000000000000000       0.25000000000000000        0.0000000000000000     
  0.62500000000000000       0.28125000000000000        0.0000000000000000     
  0.65625000000000000       0.28125000000000000        0.0000000000000000     
  0.68750000000000000       0.28125000000000000        0.0000000000000000     
  0.71875000000000000       0.28125000000000000        0.0000000000000000     
  0.75000000000000000       0.28125000000000000        0.0000000000000000     
  0.62500000000000000       0.31250000000000000        0.0000000000000000     
  0.65625000000000000       0.31250000000000000        0.0000000000000000     
  0.68750000000000000       0.31250000000000000        0.0000000000000000     
  0.71875000000000000       0.31250000000000000        0.0000000000000000     
  0.75000000000000000       0.31250000000000000        0.0000000000000000     
  0.62500000000000000       0.34375000000000000        0.0000000000000000     
  0.65625000000000000       0.34375000000000000        0.0000000000000000     
  0.68750000000000000       0.34375000000000000        0.0000000000000000     
  0.71875000000000000       0.34375000000000000        0.0000000000000000     
  0.75000000000000000       0.34375000000000000        0.0000000000000000     
  0.62500000000000000       0.37500000000000000        0.0000000000000000     
  0.65625000000000000       0.37500000000000000        0.0000000000000000     
  0.68750000000000000       0.37500000000000000        0.0000000000000000     
  0.71875000000000000       0.37500000000000000        0.0000000000000000     
  0.75000000000000000       0.37500000000000000        0.0000000000000000     
  0.75000000000000000       0.25000000000000000        0.0000000000000000     
  0.78125000000000000       0.25000000000000000        0.0000000000000000     
  0.81250000000000000       0.25000000000000000        0.0000000000000000     
  0.84375000000000000       0.25000000000000000        0.0000000000000000     
  0.87500000000000000       0.25000000000000000        0.0000000000000000     
  0.75000000000000000       0.28125000000000000        0.0000000000000000     
  0.78125000000000000       0.28125000000000000        0.0000000000000000     
  0.81250000000000000       0.28125000000000000        0.0000000000000000     
  0.84375000000000000       0.28125000000000000        0.0000000000000000     
  0.87500000000000000       0.28125000000000000        0.0000000000000000     
  0.75000000000000000       0.31250000000000000        0.0000000000000000     
  0.78125000000000000       0.31250000000000000        0.0000000000000000     
  0.81250000000000000       0.31250000000000000        0.0000000000000000     
  0.84375000000000000       0.31250000000000000        0.0000000000000000     
  0.87500000000000000       0.31250000000000000        0.0000000000000000     
  0.75000000000000000       0.34375000000000000        0.0000000000000000     
  0.78125000000000000       0.34375000000000000        0.0000000000000000     
  0.81250000000000000       0.34375000000000000        0.0000000000000000     
  0.84375000000000000       0.34375000000000000        0.0000000000000000     
  0.87500000000000000       0.34375000000000000        0.0000000000000000     
  0.75000000000000000       0.37500000000000000        0.0000000000000000     
  0.78125000000000000       0.37500000000000000        0.0000000000000000     
  0.81250000000000000       0.37500000000000000        0.0000000000000000     
  0.84375000000000000       0.37500000000000000        0.0000000000000000     
  0.87500000000000000       0.37500000000000000        0.0000000000000000     
  0.87500000000000000       0.25000000000000000        0.0000000000000000     
  0.90625000000000000       0.25000000000000000        0.0000000000000000     
  0.93750000000000000       0.25000000000000000        0.0000000000000000     
  0.96875000000000000       0.25000000000000000        0.0000000000000000     
   1.0000000000000000       0.25000000000000000        0.0000000000000000     
  0.87500000000000000       0.28125000000000000        0.0000000000000000     
  0.90625000000000000       0.28125000000000000        0.0000000000000000     
  0.93750000000000000       0.28125000000000000        0.0000000000000000     
  0.96875000000000000       0.28125000000000000        0.0000000000000000     
   1.0000000000000000       0.28125000000000000        0.0000000000000000     
  0.87500000000000000       0.31250000000000000        0.0000000000000000     
  0.90625000000000000       0.31250000000000000        0.0000000000000000     
  0.93750000000000000       0.31250000000000000        0.0000000000000000     
  0.96875000000000000       0.31250000000000000        0.0000000000000000     
   1.0000000000000000       0.31250000000000000        0.0000000000000000     
  0.87500000000000000       0.34375000000000000        0.0000000000000000     
  0.90625000000000000       0.34375000000000000        0.0000000000000000     
  0.93750000000000000       0.34375000000000000        0.0000000000000000     
  0.96875000000000000       0.34375000000000000        0.0000000000000000     
   1.0000000000000000       0.34375000000000000        0.0000000000000000     
  0.87500000000000000       0.37500000000000000        0.0000000000000000     
  0.90625000000000000       0.37500000000000000        0.0000000000000000     
  0.93750000000000000       0.37500000000000000        0.0000000000000000     
  0.96875000000000000       0.37500000000000000        0.0000000000000000     
   1.0000000000000000       0.37500000000000000        0.0000000000000000     
   1.0000000000000000       0.25000000000000000        0.0000000000000000     
   1.0312500000000000       0.25000000000000000        0.0000000000000000     
   1.0625000000000000       0.25000000000000000        0.0000000000000000     
   1.0937500000000000       0.25000000000000000        0.0000000000000000     
   1.1250000000000000       0.25000000000000000        0.0000000000000000     
   1.0000000000000000       0.28125000000000000        0.0000000000000000     
   1.0312500000000000       0.28125000000000000        0.0000000000000000     
   1.0625000000000000       0.28125000000000000        0.0000000000000000     
   1.0937500000000000       0.28125000000000000        0.0000000000000000     
   1.1250000000000000       0.28125000000000000        0.0000000000000000     
   1.0000000000000000       0.31250000000000000        0.0000000000000000     
   1.0312500000000000       0.31250000000000000        0.0000000000000000     
   1.0625000000000000       0.31250000000000000        0.0000000000000000     
   1.0937500000000000       0.31250000000000000        0.0000000000000000     
   1.1250000000000000       0.31250000000000000        0.0000000000000000     
   1.0000000000000000       0.34375000000000000        0.0000000000000000     
   1.0312500000000000       0.34375000000000000        0.0000000000000000     
   1.0625000000000000       0.34375000000000000        0.0000000000000000     
   1.0937500000000000       0.34375000000000000        0.0000000000000000     
   1.1250000000000000       0.34375000000000000        0.0000000000000000     
   1.0000000000000000       0.37500000000000000        0.0000000000000000     
   1.0312500000000000       0.37500000000000000        0.0000000000000000     
   1.0625000000000000       0.37500000000000000        0.0000000000000000     
   1.0937500000000000       0.37500000000000000        0.0000000000000000     
   1.1250000000000000       0.37500000000000000        0.0000000000000000     
   1.1250000000000000       0.25000000000000000        0.0000000000000000     
   1.1562500000000000       0.25000000000000000        0.0000000000000000     
   1.1875000000000000       0.25000000000000000        0.0000000000000000     
   1.2187500000000000       0.25000000000000000        0.0000000000000000     
   1.2500000000000000       0.25000000000000000        0.0000000000000000     
   1.1250000000000000       0.28125000000000000        0.0000000000000000     
   1.1562500000000000       0.28125000000000000        0.0000000000000000     
   1.1875000000000000       0.28125000000000000        0.0000000000000000     
   1.2187500000000000       0.28125000000000000        0.0000000000000000     
   1.2500000000000000       0.28125000000000000        0.0000000000000000     
   1.1250000000000000       0.31250000000000000        0.0000000000000000     
   1.1562500000000000       0.31250000000000000        0.0000000000000000     
   1.1875000000000000       0.31250000000000000        0.0000000000000000     
   1.2187500000000000       0.31250000000000000        0.0000000000000000     
   1.2500000000000000       0.31250000000000000        0.0000000000000000     
   1.1250000000000000       0.34375000000000000        0.0000000000000000     
   1.1562500000000000       0.34375000000000000        0.0000000000000000     
   1.1875000000000000       0.34375000000000000        0.0000000000000000     
   1.2187500000000000       0.34375000000000000        0.0000000000000000     
   1.2500000000000000       0.34375000000000000        0.0000000000000000     
   1.1250000000000000       0.37500000000000000        0.0000000000000000     
   1.1562500000000000       0.37500000000000000        0.0000000000000000     
   1.1875000000000000       0.37500000000000000        0.0000000000000000     
   1.2187500000000000       0.37500000000000000        0.0000000000000000     
   1.2500000000000000       0.37500000000000000        0.0000000000000000     
   1.2500000000000000       0.25000000000000000        0.0000000000000000     
   1.2812500000000000       0.25000000000000000        0.0000000000000000     
   1.3125000000000000       0.25000000000000000        0.0000000000000000     
   1.3437500000000000       0.25000000000000000        0.0000000000000000     
   1.3750000000000000       0.25000000000000000        0.0000000000000000     
   1.2500000000000000       0.28125000000000000        0.0000000000000000     
   1.2812500000000000       0.28125000000000000        0.0000000000000000     
   1.3125000000000000       0.28125000000000000        0.0000000000000000     
   1.3437500000000000       0.28125000000000000        0.0000000000000000     
   1.3750000000000000       0.28125000000000000        0.0000000000000000     
   1.2500000000000000       0.31250000000000000        0.0000000000000000     
   1.2812500000000000       0.31250000000000000        0.0000000000000000     
   1.3125000000000000       0.31250000000000000        0.0000000000000000     
   1.3437500000000000       0.31250000000000000        0.0000000000000000     
   1.3750000000000000       0.31250000000000000        0.0000000000000000     
   1.2500000000000000       0.34375000000000000        0.0000000000000000     
   1.2812500000000000       0.34375000000000000        0.0000000000000000     
   1.3125000000000000       0.34375000000000000        0.0000000000000000     
   1.3437500000000000       0.34375000000000000        0.0000000000000000     
   1.3750000000000000       0.34375000000000000        0.0000000000000000     
   1.2500000000000000       0.37500000000000000        0.0000000000000000     
   1.2812500000000000       0.37500000000000000        0.0000000000000000     
   1.3125000000000000       0.37500000000000000        0.0000000000000000     
   1.3437500000000000       0.37500000000000000        0.0000000000000000     
   1.3750000000000000       0.37500000000000000        0.0000000000000000     
   1.3750000000000000       0.25000000000000000        0.0000000000000000     
   1.4062500000000000       0.25000000000000000        0.0000000000000000     
   1.4375000000000000       0.25000000000000000        0.0000000000000000     
   1.4687500000000000       0.25000000000000000        0.0000000000000000     
   1.5000000000000000       0.25000000000000000        0.0000000000000000     
   1.3750000000000000       0.28125000000000000        0.0000000000000000     
   1.4062500000000000       0.28125000000000000        0.0000000000000000     
   1.4375000000000000       0.28125000000000000        0.0000000000000000     
   1.4687500000000000       0.28125000000000000        0.0000000000000000     
   1.5000000000000000       0.28125000000000000        0.0000000000000000     
   1.3750000000000000       0.31250000000000000        0.0000000000000000     
   1.4062500000000000       0.31250000000000000        0.0000000000000000     
   1.4375000000000000       0.31250000000000000        0.0000000000000000     
   1.4687500000000000       0.31250000000000000        0.0000000000000000     
   1.5000000000000000       0.31250000000000000        0.0000000000000000     
   1.3750000000000000       0.34375000000000000        0.0000000000000000     
   1.4062500000000000       0.34375000000000000        0.0000000000000000     
   1.4375000000000000       0.34375000000000000        0.0000000000000000     
   1.4687500000000000       0.34375000000000000        0.0000000000000000     
   1.5000000000000000       0.34375000000000000        0.0000000000000000     
   1.3750000000000000       0.37500000000000000        0.0000000000000000     
   1.4062500000000000       0.37500000000000000        0.0000000000000000     
   1.4375000000000000       0.37500000000000000        0.0000000000000000     
   1.4687500000000000       0.37500000000000000        0.0000000000000000     
   1.5000000000000000       0.37500000000000000        0.0000000000000000     
  0.50000000000000000       0.37500000000000000        0.0000000000000000     
  0.53125000000000000       0.37500000000000000        0.0000000000000000     
  0.56250000000000000       0.37500000000000000        0.0000000000000000     
  0.59375000000000000       0.37500000000000000        0.0000000000000000     
  0.62500000000000000       0.37500000000000000        0.0000000000000000     
  0.50000000000000000       0.40625000000000000        0.0000000000000000     
  0.53125000000000000       0.40625000000000000        0.0000000000000000     
  0.56250000000000000       0.40625000000000000        0.0000000000000000     
  0.59375000000000000       0.40625000000000000        0.0000000000000000     
  0.62500000000000000       0.40625000000000000        0.0000000000000000     
  0.50000000000000000       0.43750000000000000        0.0000000000000000     
  0.53125000000000000       0.43750000000000000        0.0000000000000000     
  0.56250000000000000       0.43750000000000000        0.0000000000000000     
  0.59375000000000000       0.43750000000000000        0.0000000000000000     
  0.62500000000000000       0.43750000000000000        0.0000000000000000     
  0.50000000000000000       0.46875000000000000        0.0000000000000000     
  0.53125000000000000       0.46875000000000000        0.0000000000000000     
  0.56250000000000000       0.46875000000000000        0.0000000000000000     
  0.59375000000000000       0.46875000000000000        0.0000000000000000     
  0.62500000000000000       0.46875000000000000        0.0000000000000000     
  0.50000000000000000       0.50000000000000000        0.0000000000000000     
  0.53125000000000000       0.50000000000000000        0.0000000000000000     
  0.56250000000000000       0.50000000000000000        0.0000000000000000     
  0.59375000000000000       0.50000000000000000        0.0000000000000000     
  0.62500000000000000       0.50000000000000000        0.0000000000000000     
  0.62500000000000000       0.37500000000000000        0.0000000000000000     
  0.65625000000000000       0.37500000000000000        0.0000000000000000     
  0.68750000000000000       0.37500000000000000        0.0000000000000000     
  0.71875000000000000       0.37500000000000000        0.0000000000000000     
  0.75000000000000000       0.37500000000000000        0.0000000000000000     
  0.62500000000000000       0.40625000000000000        0.0000000000000000     
  0.65625000000000000       0.40625000000000000        0.0000000000000000     
  0.68750000000000000       0.40625000000000000        0.0000000000000000     
  0.71875000000000000       0.40625000000000000        0.0000000000000000     
  0.75000000000000000       0.40625000000000000        0.0000000000000000     
  0.62500000000000000       0.43750000000000000        0.0000000000000000     
  0.65625000000000000       0.43750000000000000        0.0000000000000000     
  0.68750000000000000       0.43750000000000000        0.0000000000000000     
  0.71875000000000000       0.43750000000000000        0.0000000000000000     
  0.75000000000000000       0.43750000000000000        0.0000000000000000     
  0.62500000000000000       0.46875000000000000        0.0000000000000000     
  0.65625000000000000       0.46875000000000000        0.0000000000000000     
  0.68750000000000000       0.46875000000000000        0.0000000000000000     
  0.71875000000000000       0.46875000000000000        0.0000000000000000     
  0.75000000000000000       0.46875000000000000        0.0000000000000000     
  0.62500000000000000       0.50000000000000000        0.0000000000000000     
  0.65625000000000000       0.50000000000000000        0.0000000000000000     
  0.68750000000000000       0.50000000000000000        0.0000000000000000     
  0.71875000000000000       0.50000000000000000        0.0000000000000000     
  0.75000000000000000       0.50000000000000000        0.0000000000000000     
  0.75000000000000000       0.37500000000000000        0.0000000000000000     
  0.78125000000000000       0.37500000000000000        0.0000000000000000     
  0.81250000000000000       0.37500000000000000        0.0000000000000000     
  0.84375000000000000       0.37500000000000000        0.0000000000000000     
  0.87500000000000000       0.37500000000000000        0.0000000000000000     
  0.75000000000000000       0.40625000000000000        0.0000000000000000     
  0.78125000000000000       0.40625000000000000        0.0000000000000000     
  0.81250000000000000       0.40625000000000000        0.0000000000000000     
  0.84375000000000000       0.40625000000000000        0.0000000000000000     
  0.87500000000000000       0.40625000000000000        0.0000000000000000     
  0.75000000000000000       0.43750000000000000        0.0000000000000000     
  0.78125000000000000       0.43750000000000000        0.0000000000000000     
  0.81250000000000000       0.43750000000000000        0.0000000000000000     
  0.84375000000000000       0.43750000000000000        0.0000000000000000     
  0.87500000000000000       0.43750000000000000        0.0000000000000000     
  0.75000000000000000       0.46875000000000000        0.0000000000000000     
  0.78125000000000000       0.46875000000000000        0.0000000000000000     
  0.81250000000000000       0.46875000000000000        0.0000000000000000     
  0.84375000000000000       0.46875000000000000        0.0000000000000000     
  0.87500000000000000       0.46875000000000000        0.0000000000000000     
  0.75000000000000000       0.50000000000000000        0.0000000000000000     
  0.78125000000000000       0.50000000000000000        0.0000000000000000     
  0.81250000000000000       0.50000000000000000        0.0000000000000000     
  0.84375000000000000       0.50000000000000000        0.0000000000000000     
  0.87500000000000000       0.50000000000000000        0.0000000000000000     
  0.87500000000000000       0.37500000000000000        0.0000000000000000     
  0.90625000000000000       0.37500000000000000        0.0000000000000000     
  0.93750000000000000       0.37500000000000000        0.0000000000000000     
  0.96875000000000000       0.37500000000000000        0.0000000000000000     
   1.0000000000000000       0.37500000000000000        0.0000000000000000     
  0.87500000000000000       0.40625000000000000        0.0000000000000000     
  0.90625000000000000       0.40625000000000000        0.0000000000000000     
  0.93750000000000000       0.40625000000000000        0.0000000000000000     
  0.96875000000000000       0.40625000000000000        0.0000000000000000     
   1.0000000000000000       0.40625000000000000        0.0000000000000000     
  0.87500000000000000       0.43750000000000000        0.0000000000000000     
  0.90625000000000000       0.43750000000000000        0.0000000000000000     
  0.93750000000000000       0.43750000000000000        0.0000000000000000     
  0.96875000000000000       0.43750000000000000        0.0000000000000000     
   1.0000000000000000       0.43750000000000000        0.0000000000000000     
  0.87500000000000000       0.46875000000000000        0.0000000000000000     
  0.90625000000000000       0.46875000000000000        0.0000000000000000     
  0.93750000000000000       0.46875000000000000        0.0000000000000000     
  0.96875000000000000       0.46875000000000000        0.0000000000000000     
   1.0000000000000000       0.46875000000000000        0.0000000000000000     
  0.87500000000000000       0.50000000000000000        0.0000000000000000     
  0.90625000000000000       0.50000000000000000        0.0000000000000000     
  0.93750000000000000       0.50000000000000000        0.0000000000000000     
  0.96875000000000000       0.50000000000000000        0.0000000000000000     
   1.0000000000000000       0.50000000000000000        0.0000000000000000     
   1.0000000000000000       0.37500000000000000        0.0000000000000000     
   1.0312500000000000       0.37500000000000000        0.0000000000000000     
   1.0625000000000000       0.37500000000000000        0.0000000000000000     
   1.0937500000000000       0.37500000000000000        0.0000000000000000     
   1.1250000000000000       0.37500000000000000        0.0000000000000000     
   1.0000000000000000       0.40625000000000000        0.0000000000000000     
   1.0312500000000000       0.40625000000000000        0.0000000000000000     
   1.0625000000000000       0.40625000000000000        0.0000000000000000     
   1.0937500000000000       0.40625000000000000        0.0000000000000000     
   1.1250000000000000       0.40625000000000000        0.0000000000000000     
   1.0000000000000000       0.43750000000000000        0.0000000000000000     
   1.0312500000000000       0.43750000000000000        0.0000000000000000     
   1.0625000000000000       0.43750000000000000        0.0000000000000000     
   1.0937500000000000       0.43750000000000000        0.0000000000000000     
   1.1250000000000000       0.43750000000000000        0.0000000000000000     
   1.0000000000000000       0.46875000000000000        0.0000000000000000     
   1.0312500000000000       0.46875000000000000        0.0000000000000000     
   1.0625000000000000       0.46875000000000000        0.0000000000000000     
   1.0937500000000000       0.46875000000000000        0.0000000000000000     
   1.1250000000000000       0.46875000000000000        0.0000000000000000     
   1.0000000000000000       0.50000000000000000        0.0000000000000000     
   1.0312500000000000       0.50000000000000000        0.0000000000000000     
   1.0625000000000000       0.50000000000000000        0.0000000000000000     
   1.0937500000000000       0.50000000000000000        0.0000000000000000     
   1.1250000000000000       0.50000000000000000        0.0000000000000000     
   1.1250000000000000       0.37500000000000000        0.0000000000000000     
   1.1562500000000000       0.37500000000000000        0.0000000000000000     
   1.1875000000000000       0.37500000000000000        0.0000000000000000     
   1.2187500000000000       0.37500000000000000        0.0000000000000000     
   1.2500000000000000       0.37500000000000000        0.0000000000000000     
   1.1250000000000000       0.40625000000000000        0.0000000000000000     
   1.1562500000000000       0.40625000000000000        0.0000000000000000     
   1.1875000000000000       0.40625000000000000        0.0000000000000000     
   1.2187500000000000       0.40625000000000000        0.0000000000000000     
   1.2500000000000000       0.40625000000000000        0.0000000000000000     
   1.1250000000000000       0.43750000000000000        0.0000000000000000     
   1.1562500000000000       0.43750000000000000        0.0000000000000000     
   1.1875000000000000       0.43750000000000000        0.0000000000000000     
   1.2187500000000000       0.43750000000000000        0.0000000000000000     
   1.2500000000000000       0.43750000000000000        0.0000000000000000     
   1.1250000000000000       0.46875000000000000        0.0000000000000000     
   1.1562500000000000       0.46875000000000000        0.0000000000000000     
   1.1875000000000000       0.46875000000000000        0.0000000000000000     
   1.2187500000000000       0.46875000000000000        0.0000000000000000     
   1.2500000000000000       0.46875000000000000        0.0000000000000000     
   1.1250000000000000       0.50000000000000000        0.0000000000000000     
   1.1562500000000000       0.50000000000000000        0.0000000000000000     
   1.1875000000000000       0.50000000000000000        0.0000000000000000     
   1.2187500000000000       0.50000000000000000        0.0000000000000000     
   1.2500000000000000       0.50000000000000000        0.0000000000000000     
   1.2500000000000000       0.37500000000000000        0.0000000000000000     
   1.2812500000000000       0.37500000000000000        0.0000000000000000     
   1.3125000000000000       0.37500000000000000        0.0000000000000000     
   1.3437500000000000       0.37500000000000000        0.0000000000000000     
   1.3750000000000000       0.37500000000000000        0.0000000000000000     
   1.2500000000000000       0.40625000000000000        0.0000000000000000     
   1.2812500000000000       0.40625000000000000        0.0000000000000000     
   1.3125000000000000       0.40625000000000000        0.0000000000000000     
   1.3437500000000000       0.40625000000000000        0.0000000000000000     
   1.3750000000000000       0.40625000000000000        0.0000000000000000     
   1.2500000000000000       0.43750000000000000        0.0000000000000000     
   1.2812500000000000       0.43750000000000000        0.0000000000000000     
   1.3125000000000000       0.43750000000000000        0.0000000000000000     
   1.3437500000000000       0.43750000000000000        0.0000000000000000     
   1.3750000000000000       0.43750000000000000        0.0000000000000000     
   1.2500000000000000       0.46875000000000000        0.0000000000000000     
   1.2812500000000000       0.46875000000000000        0.0000000000000000     
   1.3125000000000000       0.46875000000000000        0.0000000000000000     
   1.3437500000000000       0.46875000000000000        0.0000000000000000     
   1.3750000000000000       0.46875000000000000        0.0000000000000000     
   1.2500000000000000       0.50000000000000000        0.0000000000000000     
   1.2812500000000000       0.50000000000000000        0.0000000000000000     
   1.3125000000000000       0.50000000000000000        0.0000000000000000     
   1.3437500000000000       0.50000000000000000        0.0000000000000000     
   1.3750000000000000       0.50000000000000000        0.0000000000000000     
   1.3750000000000000       0.37500000000000000        0.0000000000000000     
   1.4062500000000000       0.37500000000000000        0.0000000000000000     
   1.4375000000000000       0.37500000000000000        0.0000000000000000     
   1.4687500000000000       0.37500000000000000        0.0000000000000000     
   1.5000000000000000       0.37500000000000000        0.0000000000000000     
   1.3750000000000000       0.40625000000000000        0.0000000000000000     
   1.4062500000000000       0.40625000000000000        0.0000000000000000     
   1.4375000000000000       0.40625000000000000        0.0000000000000000     
   1.4687500000000000       0.40625000000000000        0.0000000000000000     
   1.5000000000000000       0.40625000000000000        0.0000000000000000     
   1.3750000000000000       0.43750000000000000        0.0000000000000000     
   1.4062500000000000       0.43750000000000000        0.0000000000000000     
   1.4375000000000000       0.43750000000000000        0.0000000000000000     
   1.4687500000000000       0.43750000000000000        0.0000000000000000     
   1.5000000000000000       0.43750000000000000        0.0000000000000000     
   1.3750000000000000       0.46875000000000000        0.0000000000000000     
   1.4062500000000000       0.46875000000000000        0.0000000000000000     
   1.4375000000000000       0.46875000000000000        0.0000000000000000     
   1.4687500000000000       0.46875000000000000        0.0000000000000000     
   1.5000000000000000       0.46875000000000000        0.0000000000000000     
   1.3750000000000000       0.50000000000000000        0.0000000000000000     
   1.4062500000000000       0.50000000000000000        0.0000000000000000     
   1.4375000000000000       0.50000000000000000        0.0000000000000000     
   1.4687500000000000       0.50000000000000000        0.0000000000000000     
   1.5000000000000000       0.50000000000000000        0.0000000000000000     
  0.50000000000000000       0.50000000000000000        0.0000000000000000     
  0.53125000000000000       0.50000000000000000        0.0000000000000000     
  0.56250000000000000       0.50000000000000000        0.0000000000000000     
  0.59375000000000000       0.50000000000000000        0.0000000000000000     
  0.62500000000000000       0.50000000000000000        0.0000000000000000     
  0.50000000000000000       0.53125000000000000        0.0000000000000000     
  0.53125000000000000       0.53125000000000000        0.0000000000000000     
  0.56250000000000000       0.53125000000000000        0.0000000000000000     
  0.59375000000000000       0.53125000000000000        0.0000000000000000     
  0.62500000000000000       0.53125000000000000        0.0000000000000000     
  0.50000000000000000       0.56250000000000000        0.0000000000000000     
  0.53125000000000000       0.56250000000000000        0.0000000000000000     
  0.56250000000000000       0.56250000000000000        0.0000000000000000     
  0.59375000000000000       0.56250000000000000        0.0000000000000000     
  0.62500000000000000       0.56250000000000000        0.0000000000000000     
  0.50000000000000000       0.59375000000000000        0.0000000000000000     
  0.53125000000000000       0.59375000000000000        0.0000000000000000     
  0.56250000000000000       0.59375000000000000        0.0000000000000000     
  0.59375000000000000       0.59375000000000000        0.0000000000000000     
  0.62500000000000000       0.59375000000000000        0.0000000000000000     
  0.50000000000000000       0.62500000000000000        0.0000000000000000     
  0.53125000000000000       0.62500000000000000        0.0000000000000000     
  0.56250000000000000       0.62500000000000000        0.0000000000000000     
  0.59375000000000000       0.62500000000000000        0.0000000000000000     
  0.62500000000000000       0.62500000000000000        0.0000000000000000     
  0.62500000000000000       0.50000000000000000        0.0000000000000000     
  0.65625000000000000       0.50000000000000000        0.0000000000000000     
  0.68750000000000000       0.50000000000000000        0.0000000000000000     
  0.71875000000000000       0.50000000000000000        0.0000000000000000     
  0.75000000000000000       0.50000000000000000        0.0000000000000000     
  0.62500000000000000       0.53125000000000000        0.0000000000000000     
  0.65625000000000000       0.53125000000000000        0.0000000000000000     
  0.68750000000000000       0.53125000000000000        0.0000000000000000     
  0.71875000000000000       0.53125000000000000        0.0000000000000000     
  0.75000000000000000       0.53125000000000000        0.0000000000000000     
  0.62500000000000000       0.56250000000000000        0.0000000000000000     
  0.65625000000000000       0.56250000000000000        0.0000000000000000     
  0.68750000000000000       0.56250000000000000        0.0000000000000000     
  0.71875000000000000       0.56250000000000000        0.0000000000000000     
  0.75000000000000000       0.56250000000000000        0.0000000000000000     
  0.62500000000000000       0.59375000000000000        0.0000000000000000     
  0.65625000000000000       0.59375000000000000        0.0000000000000000     
  0.68750000000000000       0.59375000000000000        0.0000000000000000     
  0.71875000000000000       0.59375000000000000        0.0000000000000000     
  0.75000000000000000       0.59375000000000000        0.0000000000000000     
  0.62500000000000000       0.62500000000000000        0.0000000000000000     
  0.65625000000000000       0.62500000000000000        0.0000000000000000     
  0.68750000000000000       0.62500000000000000        0.0000000000000000     
  0.71875000000000000       0.62500000000000000        0.0000000000000000     
  0.75000000000000000       0.62500000000000000        0.0000000000000000     
  0.75000000000000000       0.50000000000000000        0.0000000000000000     
  0.78125000000000000       0.50000000000000000        0.0000000000000000     
  0.81250000000000000       0.50000000000000000        0.0000000000000000     
  0.84375000000000000       0.50000000000000000        0.0000000000000000     
  0.87500000000000000       0.50000000000000000        0.0000000000000000     
  0.75000000000000000       0.53125000000000000        0.0000000000000000     
  0.78125000000000000       0.53125000000000000        0.0000000000000000     
  0.81250000000000000       0.53125000000000000        0.0000000000000000     
  0.84375000000000000       0.53125000000000000        0.0000000000000000     
  0.87500000000000000       0.53125000000000000        0.0000000000000000     
  0.75000000000000000       0.56250000000000000        0.0000000000000000     
  0.78125000000000000       0.56250000000000000        0.0000000000000000     
  0.81250000000000000       0.56250000000000000        0.0000000000000000     
  0.84375000000000000       0.56250000000000000        0.0000000000000000     
  0.87500000000000000       0.56250000000000000        0.0000000000000000     
  0.75000000000000000       0.59375000000000000        0.0000000000000000     
  0.78125000000000000       0.59375000000000000        0.0000000000000000     
  0.81250000000000000       0.59375000000000000        0.0000000000000000     
  0.84375000000000000       0.59375000000000000        0.0000000000000000     
  0.87500000000000000       0.59375000000000000        0.0000000000000000     
  0.75000000000000000       0.62500000000000000        0.0000000000000000     
  0.78125000000000000       0.62500000000000000        0.0000000000000000     
  0.81250000000000000       0.62500000000000000        0.0000000000000000     
  0.84375000000000000       0.62500000000000000        0.0000000000000000     
  0.87500000000000000       0.62500000000000000        0.0000000000000000     
  0.87500000000000000       0.50000000000000000        0.0000000000000000     
  0.90625000000000000       0.50000000000000000        0.0000000000000000     
  0.93750000000000000       0.50000000000000000        0.0000000000000000     
  0.96875000000000000       0.50000000000000000        0.0000000000000000     
   1.0000000000000000       0.50000000000000000        0.0000000000000000     
  0.87500000000000000       0.53125000000000000        0.0000000000000000     
  0.90625000000000000       0.53125000000000000        0.0000000000000000     
  0.93750000000000000       0.53125000000000000        0.0000000000000000     
  0.96875000000000000       0.53125000000000000        0.0000000000000000     
   1.0000000000000000       0.53125000000000000        0.0000000000000000     
  0.87500000000000000       0.56250000000000000        0.0000000000000000     
  0.90625000000000000       0.56250000000000000        0.0000000000000000     
  0.93750000000000000       0.56250000000000000        0.0000000000000000     
  0.96875000000000000       0.56250000000000000        0.0000000000000000     
   1.0000000000000000       0.56250000000000000        0.0000000000000000     
  0.87500000000000000       0.59375000000000000        0.0000000000000000     
  0.90625000000000000       0.59375000000000000        0.0000000000000000     
  0.93750000000000000       0.59375000000000000        0.0000000000000000     
  0.96875000000000000       0.59375000000000000        0.0000000000000000     
   1.0000000000000000       0.59375000000000000        0.0000000000000000     
  0.87500000000000000       0.62500000000000000        0.0000000000000000     
  0.90625000000000000       0.62500000000000000        0.0000000000000000     
  0.93750000000000000       0.62500000000000000        0.0000000000000000     
  0.96875000000000000       0.62500000000000000        0.0000000000000000     
   1.0000000000000000       0.62500000000000000        0.0000000000000000     
   1.0000000000000000       0.50000000000000000        0.0000000000000000     
   1.0312500000000000       0.50000000000000000        0.0000000000000000     
   1.0625000000000000       0.50000000000000000        0.0000000000000000     
   1.0937500000000000       0.50000000000000000        0.0000000000000000     
   1.1250000000000000       0.50000000000000000        0.0000000000000000     
   1.0000000000000000       0.53125000000000000        0.0000000000000000     
   1.0312500000000000       0.53125000000000000        0.0000000000000000     
   1.0625000000000000       0.53125000000000000        0.0000000000000000     
   1.0937500000000000       0.53125000000000000        0.0000000000000000     
   1.1250000000000000       0.53125000000000000        0.0000000000000000     
   1.0000000000000000       0.56250000000000000        0.0000000000000000     
   1.0312500000000000       0.56250000000000000        0.0000000000000000     
   1.0625000000000000       0.56250000000000000        0.0000000000000000     
   1.0937500000000000       0.56250000000000000        0.0000000000000000     
   1.1250000000000000       0.56250000000000000        0.0000000000000000     
   1.0000000000000000       0.59375000000000000        0.0000000000000000     
   1.0312500000000000       0.59375000000000000        0.0000000000000000     
   1.0625000000000000       0.59375000000000000        0.0000000000000000     
   1.0937500000000000       0.59375000000000000        0.0000000000000000     
   1.1250000000000000       0.59375000000000000        0.0000000000000000     
   1.0000000000000000       0.62500000000000000        0.0000000000000000     
   1.0312500000000000       0.62500000000000000        0.0000000000000000     
   1.0625000000000000       0.62500000000000000        0.0000000000000000     
   1.0937500000000000       0.62500000000000000        0.0000000000000000     
   1.1250000000000000       0.62500000000000000        0.0000000000000000     
   1.1250000000000000       0.50000000000000000        0.0000000000000000     
   1.1562500000000000       0.50000000000000000        0.0000000000000000     
   1.1875000000000000       0.50000000000000000        0.0000000000000000     
   1.2187500000000000       0.50000000000000000        0.0000000000000000     
   1.2500000000000000       0.50000000000000000        0.0000000000000000     
   1.1250000000000000       0.53125000000000000        0.0000000000000000     
   1.1562500000000000       0.53125000000000000        0.0000000000000000     
   1.1875000000000000       0.53125000000000000        0.0000000000000000     
   1.2187500000000000       0.53125000000000000        0.0000000000000000     
   1.2500000000000000       0.53125000000000000        0.0000000000000000     
   1.1250000000000000       0.56250000000000000        0.0000000000000000     
   1.1562500000000000       0.56250000000000000        0.0000000000000000     
   1.1875000000000000       0.56250000000000000        0.0000000000000000     
   1.2187500000000000       0.56250000000000000        0.0000000000000000     
   1.2500000000000000       0.56250000000000000        0.0000000000000000     
   1.1250000000000000       0.59375000000000000        0.0000000000000000     
   1.1562500000000000       0.59375000000000000        0.0000000000000000     
   1.1875000000000000       0.59375000000000000        0.0000000000000000     
   1.2187500000000000       0.59375000000000000        0.0000000000000000     
   1.2500000000000000       0.59375000000000000        0.0000000000000000     
   1.1250000000000000       0.62500000000000000        0.0000000000000000     
   1.1562500000000000       0.62500000000000000        0.0000000000000000     
   1.1875000000000000       0.62500000000000000        0.0000000000000000     
   1.2187500000000000       0.62500000000000000        0.0000000000000000     
   1.2500000000000000       0.62500000000000000        0.0000000000000000     
   1.2500000000000000       0.50000000000000000        0.0000000000000000     
   1.2812500000000000       0.50000000000000000        0.0000000000000000     
   1.3125000000000000       0.50000000000000000        0.0000000000000000     
   1.3437500000000000       0.50000000000000000        0.0000000000000000     
   1.3750000000000000       0.50000000000000000        0.0000000000000000     
   1.2500000000000000       0.53125000000000000        0.0000000000000000     
   1.2812500000000000       0.53125000000000000        0.0000000000000000     
   1.3125000000000000       0.53125000000000000        0.0000000000000000     
   1.3437500000000000       0.53125000000000000        0.0000000000000000     
   1.3750000000000000       0.53125000000000000        0.0000000000000000     
   1.2500000000000000       0.56250000000000000        0.0000000000000000     
   1.2812500000000000       0.56250000000000000        0.0000000000000000     
   1.3125000000000000       0.56250000000000000        0.0000000000000000     
   1.3437500000000000       0.56250000000000000        0.0000000000000000     
   1.3750000000000000       0.56250000000000000        0.0000000000000000     
   1.2500000000000000       0.59375000000000000        0.0000000000000000     
   1.2812500000000000       0.59375000000000000        0.0000000000000000     
   1.3125000000000000       0.59375000000000000        0.0000000000000000     
   1.3437500000000000       0.59375000000000000        0.0000000000000000     
   1.3750000000000000       0.59375000000000000        0.0000000000000000     
   1.2500000000000000       0.62500000000000000        0.0000000000000000     
   1.2812500000000000       0.62500000000000000        0.0000000000000000     
   1.3125000000000000       0.62500000000000000        0.0000000000000000     
   1.3437500000000000       0.62500000000000000        0.0000000000000000     
   1.3750000000000000       0.62500000000000000        0.0000000000000000     
   1.3750000000000000       0.50000000000000000        0.0000000000000000     
   1.4062500000000000       0.50000000000000000        0.0000000000000000     
   1.4375000000000000       0.50000000000000000        0.0000000000000000     
   1.4687500000000000       0.50000000000000000        0.0000000000000000     
   1.5000000000000000       0.50000000000000000        0.0000000000000000     
   1.3750000000000000       0.53125000000000000        0.0000000000000000     
   1.4062500000000000       0.53125000000000000        0.0000000000000000     
   1.4375000000000000       0.53125000000000000        0.0000000000000000     
   1.4687500000000000       0.53125000000000000        0.0000000000000000     
   1.5000000000000000       0.53125000000000000        0.0000000000000000     
   1.3750000000000000       0.56250000000000000        0.0000000000000000     
   1.4062500000000000       0.56250000000000000        0.0000000000000000     
   1.4375000000000000       0.56250000000000000        0.0000000000000000     
   1.4687500000000000       0.56250000000000000        0.0000000000000000     
   1.5000000000000000       0.56250000000000000        0.0000000000000000     
   1.3750000000000000       0.59375000000000000        0.0000000000000000     
   1.4062500000000000       0.59375000000000000        0.0000000000000000     
   1.4375000000000000       0.59375000000000000        0.0000000000000000     
   1.4687500000000000       0.59375000000000000        0.0000000000000000     
   1.5000000000000000       0.59375000000000000        0.0000000000000000     
   1.3750000000000000       0.62500000000000000        0.0000000000000000     
   1.4062500000000000       0.62500000000000000        0.0000000000000000     
   1.4375000000000000       0.62500000000000000        0.0000000000000000     
   1.4687500000000000       0.62500000000000000        0.0000000000000000     
   1.5000000000000000       0.62500000000000000        0.0000000000000000     
  0.50000000000000000       0.62500000000000000        0.0000000000000000     
  0.53125000000000000       0.62500000000000000        0.0000000000000000     
  0.56250000000000000       0.62500000000000000        0.0000000000000000     
  0.59375000000000000       0.62500000000000000        0.0000000000000000     
  0.62500000000000000       0.62500000000000000        0.0000000000000000     
  0.50000000000000000       0.65625000000000000        0.0000000000000000     
  0.53125000000000000       0.65625000000000000        0.0000000000000000     
  0.56250000000000000       0.65625000000000000        0.0000000000000000     
  0.59375000000000000       0.65625000000000000        0.0000000000000000     
  0.62500000000000000       0.65625000000000000        0.0000000000000000     
  0.50000000000000000       0.68750000000000000        0.0000000000000000     
  0.53125000000000000       0.68750000000000000        0.0000000000000000     
  0.56250000000000000       0.68750000000000000        0.0000000000000000     
  0.59375000000000000       0.68750000000000000        0.0000000000000000     
  0.62500000000000000       0.68750000000000000        0.0000000000000000     
  0.50000000000000000       0.71875000000000000        0.0000000000000000     
  0.53125000000000000       0.71875000000000000        0.0000000000000000     
  0.56250000000000000       0.71875000000000000        0.0000000000000000     
  0.59375000000000000       0.71875000000000000        0.0000000000000000     
  0.62500000000000000       0.71875000000000000        0.0000000000000000     
  0.50000000000000000       0.75000000000000000        0.0000000000000000     
  0.53125000000000000       0.75000000000000000        0.0000000000000000     
  0.56250000000000000       0.75000000000000000        0.0000000000000000     
  0.59375000000000000       0.75000000000000000        0.0000000000000000     
  0.62500000000000000       0.75000000000000000        0.0000000000000000     
  0.62500000000000000       0.62500000000000000        0.0000000000000000     
  0.65625000000000000       0.62500000000000000        0.0000000000000000     
  0.68750000000000000       0.62500000000000000        0.0000000000000000     
  0.71875000000000000       0.62500000000000000        0.0000000000000000     
  0.75000000000000000       0.62500000000000000        0.0000000000000000     
  0.62500000000000000       0.65625000000000000        0.0000000000000000     
  0.65625000000000000       0.65625000000000000        0.0000000000000000     
  0.68750000000000000       0.65625000000000000        0.0000000000000000     
  0.71875000000000000       0.65625000000000000        0.0000000000000000     
  0.75000000000000000       0.65625000000000000        0.0000000000000000     
  0.62500000000000000       0.68750000000000000        0.0000000000000000     
  0.65625000000000000       0.68750000000000000        0.0000000000000000     
  0.68750000000000000       0.68750000000000000        0.0000000000000000     
  0.71875000000000000       0.68750000000000000        0.0000000000000000     
  0.75000000000000000       0.68750000000000000        0.0000000000000000     
  0.62500000000000000       0.71875000000000000        0.0000000000000000     
  0.65625000000000000       0.71875000000000000        0.0000000000000000     
  0.68750000000000000       0.71875000000000000        0.0000000000000000     
  0.71875000000000000       0.71875000000000000        0.0000000000000000     
  0.75000000000000000       0.71875000000000000        0.0000000000000000     
  0.62500000000000000       0.75000000000000000        0.0000000000000000     
  0.65625000000000000       0.75000000000000000        0.0000000000000000     
  0.68750000000000000       0.75000000000000000        0.0000000000000000     
  0.71875000000000000       0.75000000000000000        0.0000000000000000     
  0.75000000000000000       0.75000000000000000        0.0000000000000000     
  0.75000000000000000       0.62500000000000000        0.0000000000000000     
  0.78125000000000000       0.62500000000000000        0.0000000000000000     
  0.81250000000000000       0.62500000000000000        0.0000000000000000     
  0.84375000000000000       0.62500000000000000        0.0000000000000000     
  0.87500000000000000       0.62500000000000000        0.0000000000000000     
  0.75000000000000000       0.65625000000000000        0.0000000000000000     
  0.78125000000000000       0.65625000000000000        0.0000000000000000     
  0.81250000000000000       0.65625000000000000        0.0000000000000000     
  0.84375000000000000       0.65625000000000000        0.0000000000000000     
  0.87500000000000000       0.65625000000000000        0.0000000000000000     
  0.75000000000000000       0.68750000000000000        0.0000000000000000     
  0.78125000000000000       0.68750000000000000        0.0000000000000000     
  0.81250000000000000       0.68750000000000000        0.0000000000000000     
  0.84375000000000000       0.68750000000000000        0.0000000000000000     
  0.87500000000000000       0.68750000000000000        0.0000000000000000     
  0.75000000000000000       0.71875000000000000        0.0000000000000000     
  0.78125000000000000       0.71875000000000000        0.0000000000000000     
  0.81250000000000000       0.71875000000000000        0.0000000000000000     
  0.84375000000000000       0.71875000000000000        0.0000000000000000     
  0.87500000000000000       0.71875000000000000        0.0000000000000000     
  0.75000000000000000       0.75000000000000000        0.0000000000000000     
  0.78125000000000000       0.75000000000000000        0.0000000000000000     
  0.81250000000000000       0.75000000000000000        0.0000000000000000     
  0.84375000000000000       0.75000000000000000        0.0000000000000000     
  0.87500000000000000       0.75000000000000000        0.0000000000000000     
  0.87500000000000000       0.62500000000000000        0.0000000000000000     
  0.90625000000000000       0.62500000000000000        0.0000000000000000     
  0.93750000000000000       0.62500000000000000        0.0000000000000000     
  0.96875000000000000       0.62500000000000000        0.0000000000000000     
   1.0000000000000000       0.62500000000000000        0.0000000000000000     
  0.87500000000000000       0.65625000000000000        0.0000000000000000     
  0.90625000000000000       0.65625000000000000        0.0000000000000000     
  0.93750000000000000       0.65625000000000000        0.0000000000000000     
  0.96875000000000000       0.65625000000000000        0.0000000000000000     
   1.0000000000000000       0.65625000000000000        0.0000000000000000     
  0.87500000000000000       0.68750000000000000        0.0000000000000000     
  0.90625000000000000       0.68750000000000000        0.0000000000000000     
  0.93750000000000000       0.68750000000000000        0.0000000000000000     
  0.96875000000000000       0.68750000000000000        0.0000000000000000     
   1.0000000000000000       0.68750000000000000        0.0000000000000000     
  0.87500000000000000       0.71875000000000000        0.0000000000000000     
  0.90625000000000000       0.71875000000000000        0.0000000000000000     
  0.93750000000000000       0.71875000000000000        0.0000000000000000     
  0.96875000000000000       0.71875000000000000        0.0000000000000000     
   1.0000000000000000       0.71875000000000000        0.0000000000000000     
  0.87500000000000000       0.75000000000000000        0.0000000000000000     
  0.90625000000000000       0.75000000000000000        0.0000000000000000     
  0.93750000000000000       0.75000000000000000        0.0000000000000000     
  0.96875000000000000       0.75000000000000000        0.0000000000000000     
   1.0000000000000000       0.75000000000000000        0.0000000000000000     
   1.0000000000000000       0.62500000000000000        0.0000000000000000     
   1.0312500000000000       0.62500000000000000        0.0000000000000000     
   1.0625000000000000       0.62500000000000000        0.0000000000000000     
   1.0937500000000000       0.62500000000000000        0.0000000000000000     
   1.1250000000000000       0.62500000000000000        0.0000000000000000     
   1.0000000000000000       0.65625000000000000        0.0000000000000000     
   1.0312500000000000       0.65625000000000000        0.0000000000000000     
   1.0625000000000000       0.65625000000000000        0.0000000000000000     
   1.0937500000000000       0.65625000000000000        0.0000000000000000     
   1.1250000000000000       0.65625000000000000        0.0000000000000000     
   1.0000000000000000       0.68750000000000000        0.0000000000000000     
   1.0312500000000000       0.68750000000000000        0.0000000000000000     
   1.0625000000000000       0.68750000000000000        0.0000000000000000     
   1.0937500000000000       0.68750000000000000        0.0000000000000000     
   1.1250000000000000       0.68750000000000000        0.0000000000000000     
   1.0000000000000000       0.71875000000000000        0.0000000000000000     
   1.0312500000000000       0.71875000000000000        0.0000000000000000     
   1.0625000000000000       0.71875000000000000        0.0000000000000000     
   1.0937500000000000       0.71875000000000000        0.0000000000000000     
   1.1250000000000000       0.71875000000000000        0.0000000000000000     
   1.0000000000000000       0.75000000000000000        0.0000000000000000     
   1.0312500000000000       0.75000000000000000        0.0000000000000000     
   1.0625000000000000       0.75000000000000000        0.0000000000000000     
   1.0937500000000000       0.75000000000000000        0.0000000000000000     
   1.1250000000000000       0.75000000000000000        0.0000000000000000     
   1.1250000000000000       0.62500000000000000        0.0000000000000000     
   1.1562500000000000       0.62500000000000000        0.0000000000000000     
   1.1875000000000000       0.62500000000000000        0.0000000000000000     
   1.2187500000000000       0.62500000000000000        0.0000000000000000     
   1.2500000000000000       0.62500000000000000        0.0000000000000000     
   1.1250000000000000       0.65625000000000000        0.0000000000000000     
   1.1562500000000000       0.65625000000000000        0.0000000000000000     
   1.1875000000000000       0.65625000000000000        0.0000000000000000     
   1.2187500000000000       0.65625000000000000        0.0000000000000000     
   1.2500000000000000       0.65625000000000000        0.0000000000000000     
   1.1250000000000000       0.68750000000000000        0.0000000000000000     
   1.1562500000000000       0.68750000000000000        0.0000000000000000     
   1.1875000000000000       0.68750000000000000        0.0000000000000000     
   1.2187500000000000       0.68750000000000000        0.0000000000000000     
   1.2500000000000000       0.68750000000000000        0.0000000000000000     
   1.1250000000000000       0.71875000000000000        0.0000000000000000     
   1.1562500000000000       0.71875000000000000        0.0000000000000000     
   1.1875000000000000       0.71875000000000000        0.0000000000000000     
   1.2187500000000000       0.71875000000000000        0.0000000000000000     
   1.2500000000000000       0.71875000000000000        0.0000000000000000     
   1.1250000000000000       0.75000000000000000        0.0000000000000000     
   1.1562500000000000       0.75000000000000000        0.0000000000000000     
   1.1875000000000000       0.75000000000000000        0.0000000000000000     
   1.2187500000000000       0.75000000000000000        0.0000000000000000     
   1.2500000000000000       0.75000000000000000        0.0000000000000000     
   1.2500000000000000       0.62500000000000000        0.0000000000000000     
   1.2812500000000000       0.62500000000000000        0.0000000000000000     
   1.3125000000000000       0.62500000000000000        0.0000000000000000     
   1.3437500000000000       0.62500000000000000        0.0000000000000000     
   1.3750000000000000       0.62500000000000000        0.0000000000000000     
   1.2500000000000000       0.65625000000000000        0.0000000000000000     
   1.2812500000000000       0.65625000000000000        0.0000000000000000     
   1.3125000000000000       0.65625000000000000        0.0000000000000000     
   1.3437500000000000       0.65625000000000000        0.0000000000000000     
   1.3750000000000000       0.65625000000000000        0.0000000000000000     
   1.2500000000000000       0.68750000000000000        0.0000000000000000     
   1.2812500000000000       0.68750000000000000        0.0000000000000000     
   1.3125000000000000       0.68750000000000000        0.0000000000000000     
   1.3437500000000000       0.68750000000000000        0.0000000000000000     
   1.3750000000000000       0.68750000000000000        0.0000000000000000     
   1.2500000000000000       0.71875000000000000        0.0000000000000000     
   1.2812500000000000       0.71875000000000000        0.0000000000000000     
   1.3125000000000000       0.71875000000000000        0.0000000000000000     
   1.3437500000000000       0.71875000000000000        0.0000000000000000     
   1.3750000000000000       0.71875000000000000        0.0000000000000000     
   1.2500000000000000       0.75000000000000000        0.0000000000000000     
   1.2812500000000000       0.75000000000000000        0.0000000000000000     
   1.3125000000000000       0.75000000000000000        0.0000000000000000     
   1.3437500000000000       0.75000000000000000        0.0000000000000000     
   1.3750000000000000       0.75000000000000000        0.0000000000000000     
   1.3750000000000000       0.62500000000000000        0.0000000000000000     
   1.4062500000000000       0.62500000000000000        0.0000000000000000     
   1.4375000000000000       0.62500000000000000        0.0000000000000000     
   1.4687500000000000       0.62500000000000000        0.0000000000000000     
   1.5000000000000000       0.62500000000000000        0.0000000000000000     
   1.3750000000000000       0.65625000000000000        0.0000000000000000     
   1.4062500000000000       0.65625000000000000        0.0000000000000000     
   1.4375000000000000       0.65625000000000000        0.0000000000000000     
   1.4687500000000000       0.65625000000000000        0.0000000000000000     
   1.5000000000000000       0.65625000000000000        0.0000000000000000     
   1.3750000000000000       0.68750000000000000        0.0000000000000000     
   1.4062500000000000       0.68750000000000000        0.0000000000000000     
   1.4375000000000000       0.68750000000000000        0.0000000000000000     
   1.4687500000000000       0.68750000000000000        0.0000000000000000     
   1.5000000000000000       0.68750000000000000        0.0000000000000000     
   1.3750000000000000       0.71875000000000000        0.0000000000000000     
   1.4062500000000000       0.71875000000000000        0.0000000000000000     
   1.4375000000000000       0.71875000000000000        0.0000000000000000     
   1.4687500000000000       0.71875000000000000        0.0000000000000000     
   1.5000000000000000       0.71875000000000000        0.0000000000000000     
   1.3750000000000000       0.75000000000000000        0.0000000000000000     
   1.4062500000000000       0.75000000000000000        0.0000000000000000     
   1.4375000000000000       0.75000000000000000        0.0000000000000000     
   1.4687500000000000       0.75000000000000000        0.0000000000000000     
   1.5000000000000000       0.75000000000000000        0.0000000000000000     
  0.50000000000000000       0.75000000000000000        0.0000000000000000     
  0.53125000000000000       0.75000000000000000        0.0000000000000000     
  0.56250000000000000       0.75000000000000000        0.0000000000000000     
  0.59375000000000000       0.75000000000000000        0.0000000000000000     
  0.62500000000000000       0.75000000000000000        0.0000000000000000     
  0.50000000000000000       0.78125000000000000        0.0000000000000000     
  0.53125000000000000       0.78125000000000000        0.0000000000000000     
  0.56250000000000000       0.78125000000000000        0.0000000000000000     
  0.59375000000000000       0.78125000000000000        0.0000000000000000     
  0.62500000000000000       0.78125000000000000        0.0000000000000000     
  0.50000000000000000       0.81250000000000000        0.0000000000000000     
  0.53125000000000000       0.81250000000000000        0.0000000000000000     
  0.56250000000000000       0.81250000000000000        0.0000000000000000     
  0.59375000000000000       0.81250000000000000        0.0000000000000000     
  0.62500000000000000       0.81250000000000000        0.0000000000000000     
  0.50000000000000000       0.84375000000000000        0.0000000000000000     
  0.53125000000000000       0.84375000000000000        0.0000000000000000     
  0.56250000000000000       0.84375000000000000        0.0000000000000000     
  0.59375000000000000       0.84375000000000000        0.0000000000000000     
  0.62500000000000000       0.84375000000000000        0.0000000000000000     
  0.50000000000000000       0.87500000000000000        0.0000000000000000     
  0.53125000000000000       0.87500000000000000        0.0000000000000000     
  0.56250000000000000       0.87500000000000000        0.0000000000000000     
  0.59375000000000000       0.87500000000000000        0.0000000000000000     
  0.62500000000000000       0.87500000000000000        0.0000000000000000     
  0.62500000000000000       0.75000000000000000        0.0000000000000000     
  0.65625000000000000       0.75000000000000000        0.0000000000000000     
  0.68750000000000000       0.75000000000000000        0.0000000000000000     
  0.71875000000000000       0.75000000000000000        0.0000000000000000     
  0.75000000000000000       0.75000000000000000        0.0000000000000000     
  0.62500000000000000       0.78125000000000000        0.0000000000000000     
  0.65625000000000000       0.78125000000000000        0.0000000000000000     
  0.68750000000000000       0.78125000000000000        0.0000000000000000     
  0.71875000000000000       0.78125000000000000        0.0000000000000000     
  0.75000000000000000       0.78125000000000000        0.0000000000000000     
  0.62500000000000000       0.81250000000000000        0.0000000000000000     
  0.65625000000000000       0.81250000000000000        0.0000000000000000     
  0.68750000000000000       0.81250000000000000        0.0000000000000000     
  0.71875000000000000       0.81250000000000000        0.0000000000000000     
  0.75000000000000000       0.81250000000000000        0.0000000000000000     
  0.62500000000000000       0.84375000000000000        0.0000000000000000     
  0.65625000000000000       0.84375000000000000        0.0000000000000000     
  0.68750000000000000       0.84375000000000000        0.0000000000000000     
  0.71875000000000000       0.84375000000000000        0.0000000000000000     
  0.75000000000000000       0.84375000000000000        0.0000000000000000     
  0.62500000000000000       0.87500000000000000        0.0000000000000000     
  0.65625000000000000       0.87500000000000000        0.0000000000000000     
  0.68750000000000000       0.87500000000000000        0.0000000000000000     
  0.71875000000000000       0.87500000000000000        0.0000000000000000     
  0.75000000000000000       0.87500000000000000        0.0000000000000000     
  0.75000000000000000       0.75000000000000000        0.0000000000000000     
  0.78125000000000000       0.75000000000000000        0.0000000000000000     
  0.81250000000000000       0.75000000000000000        0.0000000000000000     
  0.84375000000000000       0.75000000000000000        0.0000000000000000     
  0.87500000000000000       0.75000000000000000        0.0000000000000000     
  0.75000000000000000       0.78125000000000000        0.0000000000000000     
  0.78125000000000000       0.78125000000000000        0.0000000000000000     
  0.81250000000000000       0.78125000000000000        0.0000000000000000     
  0.84375000000000000       0.78125000000000000        0.0000000000000000     
  0.87500000000000000       0.78125000000000000        0.0000000000000000     
  0.75000000000000000       0.81250000000000000        0.0000000000000000     
  0.78125000000000000       0.81250000000000000        0.0000000000000000     
  0.81250000000000000       0.81250000000000000        0.0000000000000000     
  0.84375000000000000       0.81250000000000000        0.0000000000000000     
  0.87500000000000000       0.81250000000000000        0.0000000000000000     
  0.75000000000000000       0.84375000000000000        0.0000000000000000     
  0.78125000000000000       0.84375000000000000        0.0000000000000000     
  0.81250000000000000       0.84375000000000000        0.0000000000000000     
  0.84375000000000000       0.84375000000000000        0.0000000000000000     
  0.87500000000000000       0.84375000000000000        0.0000000000000000     
  0.75000000000000000       0.87500000000000000        0.0000000000000000     
  0.78125000000000000       0.87500000000000000        0.0000000000000000     
  0.81250000000000000       0.87500000000000000        0.0000000000000000     
  0.84375000000000000       0.87500000000000000        0.0000000000000000     
  0.87500000000000000       0.87500000000000000        0.0000000000000000     
  0.87500000000000000       0.75000000000000000        0.0000000000000000     
  0.90625000000000000       0.75000000000000000        0.0000000000000000     
  0.93750000000000000       0.75000000000000000        0.0000000000000000     
  0.96875000000000000       0.75000000000000000        0.0000000000000000     
   1.0000000000000000       0.75000000000000000        0.0000000000000000     
  0.87500000000000000       0.78125000000000000        0.0000000000000000     
  0.90625000000000000       0.78125000000000000        0.0000000000000000     
  0.93750000000000000       0.78125000000000000        0.0000000000000000     
  0.96875000000000000       0.78125000000000000        0.0000000000000000     
   1.0000000000000000       0.78125000000000000        0.0000000000000000     
  0.87500000000000000       0.81250000000000000        0.0000000000000000     
  0.90625000000000000       0.81250000000000000        0.0000000000000000     
  0.93750000000000000       0.81250000000000000        0.0000000000000000     
  0.96875000000000000       0.81250000000000000        0.0000000000000000     
   1.0000000000000000       0.81250000000000000        0.0000000000000000     
  0.87500000000000000       0.84375000000000000        0.0000000000000000     
  0.90625000000000000       0.84375000000000000        0.0000000000000000     
  0.93750000000000000       0.84375000000000000        0.0000000000000000     
  0.96875000000000000       0.84375000000000000        0.0000000000000000     
   1.0000000000000000       0.84375000000000000        0.0000000000000000     
  0.87500000000000000       0.87500000000000000        0.0000000000000000     
  0.90625000000000000       0.87500000000000000        0.0000000000000000     
  0.93750000000000000       0.87500000000000000        0.0000000000000000     
  0.96875000000000000       0.87500000000000000        0.0000000000000000     
   1.0000000000000000       0.87500000000000000        0.0000000000000000     
   1.0000000000000000       0.75000000000000000        0.0000000000000000     
   1.0312500000000000       0.75000000000000000        0.0000000000000000     
   1.0625000000000000       0.75000000000000000        0.0000000000000000     
   1.0937500000000000       0.75000000000000000        0.0000000000000000     
   1.1250000000000000       0.75000000000000000        0.0000000000000000     
   1.0000000000000000       0.78125000000000000        0.0000000000000000     
   1.0312500000000000       0.78125000000000000        0.0000000000000000     
   1.0625000000000000       0.78125000000000000        0.0000000000000000     
   1.0937500000000000       0.78125000000000000        0.0000000000000000     
   1.1250000000000000       0.78125000000000000        0.0000000000000000     
   1.0000000000000000       0.81250000000000000        0.0000000000000000     
   1.0312500000000000       0.81250000000000000        0.0000000000000000     
   1.0625000000000000       0.81250000000000000        0.0000000000000000     
   1.0937500000000000       0.81250000000000000        0.0000000000000000     
   1.1250000000000000       0.81250000000000000        0.0000000000000000     
   1.0000000000000000       0.84375000000000000        0.0000000000000000     
   1.0312500000000000       0.84375000000000000        0.0000000000000000     
   1.0625000000000000       0.84375000000000000        0.0000000000000000     
   1.0937500000000000       0.84375000000000000        0.0000000000000000     
   1.1250000000000000       0.84375000000000000        0.0000000000000000     
   1.0000000000000000       0.87500000000000000        0.0000000000000000     
   1.0312500000000000       0.87500000000000000        0.0000000000000000     
   1.0625000000000000       0.87500000000000000        0.0000000000000000     
   1.0937500000000000       0.87500000000000000        0.0000000000000000     
   1.1250000000000000       0.87500000000000000        0.0000000000000000     
   1.1250000000000000       0.75000000000000000        0.0000000000000000     
   1.1562500000000000       0.75000000000000000        0.0000000000000000     
   1.1875000000000000       0.75000000000000000        0.0000000000000000     
   1.2187500000000000       0.75000000000000000        0.0000000000000000     
   1.2500000000000000       0.75000000000000000        0.0000000000000000     
   1.1250000000000000       0.78125000000000000        0.0000000000000000     
   1.1562500000000000       0.78125000000000000        0.0000000000000000     
   1.1875000000000000       0.78125000000000000        0.0000000000000000     
   1.2187500000000000       0.78125000000000000        0.0000000000000000     
   1.2500000000000000       0.78125000000000000        0.0000000000000000     
   1.1250000000000000       0.81250000000000000        0.0000000000000000     
   1.1562500000000000       0.81250000000000000        0.0000000000000000     
   1.1875000000000000       0.81250000000000000        0.0000000000000000     
   1.2187500000000000       0.81250000000000000        0.0000000000000000     
   1.2500000000000000       0.81250000000000000        0.0000000000000000     
   1.1250000000000000       0.84375000000000000        0.0000000000000000     
   1.1562500000000000       0.84375000000000000        0.0000000000000000     
   1.1875000000000000       0.84375000000000000        0.0000000000000000     
   1.2187500000000000       0.84375000000000000        0.0000000000000000     
   1.2500000000000000       0.84375000000000000        0.0000000000000000     
   1.1250000000000000       0.87500000000000000        0.0000000000000000     
   1.1562500000000000       0.87500000000000000        0.0000000000000000     
   1.1875000000000000       0.87500000000000000        0.0000000000000000     
   1.2187500000000000       0.87500000000000000        0.0000000000000000     
   1.2500000000000000       0.87500000000000000        0.0000000000000000     
   1.2500000000000000       0.75000000000000000        0.0000000000000000     
   1.2812500000000000       0.75000000000000000        0.0000000000000000     
   1.3125000000000000       0.75000000000000000        0.0000000000000000     
   1.3437500000000000       0.75000000000000000        0.0000000000000000     
   1.3750000000000000       0.75000000000000000        0.0000000000000000     
   1.2500000000000000       0.78125000000000000        0.0000000000000000     
   1.2812500000000000       0.78125000000000000        0.0000000000000000     
   1.3125000000000000       0.78125000000000000        0.0000000000000000     
   1.3437500000000000       0.78125000000000000        0.0000000000000000     
   1.3750000000000000       0.78125000000000000        0.0000000000000000     
   1.2500000000000000       0.81250000000000000        0.0000000000000000     
   1.2812500000000000       0.81250000000000000        0.0000000000000000     
   1.3125000000000000       0.81250000000000000        0.0000000000000000     
   1.3437500000000000       0.81250000000000000        0.0000000000000000     
   1.3750000000000000       0.81250000000000000        0.0000000000000000     
   1.2500000000000000       0.84375000000000000        0.0000000000000000     
   1.2812500000000000       0.84375000000000000        0.0000000000000000     
   1.3125000000000000       0.84375000000000000        0.0000000000000000     
   1.3437500000000000       0.84375000000000000        0.0000000000000000     
   1.3750000000000000       0.84375000000000000        0.0000000000000000     
   1.2500000000000000       0.87500000000000000        0.0000000000000000     
   1.2812500000000000       0.87500000000000000        0.0000000000000000     
   1.3125000000000000       0.87500000000000000        0.0000000000000000     
   1.3437500000000000       0.87500000000000000        0.0000000000000000     
   1.3750000000000000       0.87500000000000000        0.0000000000000000     
   1.3750000000000000       0.75000000000000000        0.0000000000000000     
   1.4062500000000000       0.75000000000000000        0.0000000000000000     
   1.4375000000000000       0.75000000000000000        0.0000000000000000     
   1.4687500000000000       0.75000000000000000        0.0000000000000000     
   1.5000000000000000       0.75000000000000000        0.0000000000000000     
   1.3750000000000000       0.78125000000000000        0.0000000000000000     
   1.4062500000000000       0.78125000000000000        0.0000000000000000     
   1.4375000000000000       0.78125000000000000        0.0000000000000000     
   1.4687500000000000       0.78125000000000000        0.0000000000000000     
   1.5000000000000000       0.78125000000000000        0.0000000000000000     
   1.3750000000000000       0.81250000000000000        0.0000000000000000     
   1.4062500000000000       0.81250000000000000        0.0000000000000000     
   1.4375000000000000       0.81250000000000000        0.0000000000000000     
   1.4687500000000000       0.81250000000000000        0.0000000000000000     
   1.5000000000000000       0.81250000000000000        0.0000000000000000     
   1.3750000000000000       0.84375000000000000        0.0000000000000000     
   1.4062500000000000       0.84375000000000000        0.0000000000000000     
   1.4375000000000000       0.84375000000000000        0.0000000000000000     
   1.4687500000000000       0.84375000000000000        0.0000000000000000     
   1.5000000000000000       0.84375000000000000        0.0000000000000000     
   1.3750000000000000       0.87500000000000000        0.0000000000000000     
   1.4062500000000000       0.87500000000000000        0.0000000000000000     
   1.4375000000000000       0.87500000000000000        0.0000000000000000     
   1.4687500000000000       0.87500000000000000        0.0000000000000000     
   1.5000000000000000       0.87500000000000000        0.0000000000000000     
  0.50000000000000000       0.87500000000000000        0.0000000000000000     
  0.53125000000000000       0.87500000000000000        0.0000000000000000     
  0.56250000000000000       0.87500000000000000        0.0000000000000000     
  0.59375000000000000       0.87500000000000000        0.0000000000000000     
  0.62500000000000000       0.87500000000000000        0.0000000000000000     
  0.50000000000000000       0.90625000000000000        0.0000000000000000     
  0.53125000000000000       0.90625000000000000        0.0000000000000000     
  0.56250000000000000       0.90625000000000000        0.0000000000000000     
  0.59375000000000000       0.90625000000000000        0.0000000000000000     
  0.62500000000000000       0.90625000000000000        0.0000000000000000     
  0.50000000000000000       0.93750000000000000        0.0000000000000000     
  0.53125000000000000       0.93750000000000000        0.0000000000000000     
  0.56250000000000000       0.93750000000000000        0.0000000000000000     
  0.59375000000000000       0.93750000000000000        0.0000000000000000     
  0.62500000000000000       0.93750000000000000        0.0000000000000000     
  0.50000000000000000       0.96875000000000000        0.0000000000000000     
  0.53125000000000000       0.96875000000000000        0.0000000000000000     
  0.56250000000000000       0.96875000000000000        0.0000000000000000     
  0.59375000000000000       0.96875000000000000        0.0000000000000000     
  0.62500000000000000       0.96875000000000000        0.0000000000000000     
  0.50000000000000000        1.0000000000000000        0.0000000000000000     
  0.53125000000000000        1.0000000000000000        0.0000000000000000     
  0.56250000000000000        1.0000000000000000        0.0000000000000000     
  0.59375000000000000        1.0000000000000000        0.0000000000000000     
  0.62500000000000000        1.0000000000000000        0.0000000000000000     
  0.62500000000000000       0.87500000000000000        0.0000000000000000     
  0.65625000000000000       0.87500000000000000        0.0000000000000000     
  0.68750000000000000       0.87500000000000000        0.0000000000000000     
  0.71875000000000000       0.87500000000000000        0.0000000000000000     
  0.75000000000000000       0.87500000000000000        0.0000000000000000     
  0.62500000000000000       0.90625000000000000        0.0000000000000000     
  0.65625000000000000       0.90625000000000000        0.0000000000000000     
  0.68750000000000000       0.90625000000000000        0.0000000000000000     
  0.71875000000000000       0.90625000000000000        0.0000000000000000     
  0.75000000000000000       0.90625000000000000        0.0000000000000000     
  0.62500000000000000       0.93750000000000000        0.0000000000000000     
  0.65625000000000000       0.93750000000000000        0.0000000000000000     
  0.68750000000000000       0.93750000000000000        0.0000000000000000     
  0.71875000000000000       0.93750000000000000        0.0000000000000000     
  0.75000000000000000       0.93750000000000000        0.0000000000000000     
  0.62500000000000000       0.96875000000000000        0.0000000000000000     
  0.65625000000000000       0.96875000000000000        0.0000000000000000     
  0.68750000000000000       0.96875000000000000        0.0000000000000000     
  0.71875000000000000       0.96875000000000000        0.0000000000000000     
  0.75000000000000000       0.96875000000000000        0.0000000000000000     
  0.62500000000000000        1.0000000000000000        0.0000000000000000     
  0.65625000000000000        1.0000000000000000        0.0000000000000000     
  0.68750000000000000        1.0000000000000000        0.0000000000000000     
  0.71875000000000000        1.0000000000000000        0.0000000000000000     
  0.75000000000000000        1.0000000000000000        0.0000000000000000     
  0.75000000000000000       0.87500000000000000        0.0000000000000000     
  0.78125000000000000       0.87500000000000000        0.0000000000000000     
  0.81250000000000000       0.87500000000000000        0.0000000000000000     
  0.84375000000000000       0.87500000000000000        0.0000000000000000     
  0.87500000000000000       0.87500000000000000        0.0000000000000000     
  0.75000000000000000       0.90625000000000000        0.0000000000000000     
  0.78125000000000000       0.90625000000000000        0.0000000000000000     
  0.81250000000000000       0.90625000000000000        0.0000000000000000     
  0.84375000000000000       0.90625000000000000        0.0000000000000000     
  0.87500000000000000       0.90625000000000000        0.0000000000000000     
  0.75000000000000000       0.93750000000000000        0.0000000000000000     
  0.78125000000000000       0.93750000000000000        0.0000000000000000     
  0.81250000000000000       0.93750000000000000        0.0000000000000000     
  0.84375000000000000       0.93750000000000000        0.0000000000000000     
  0.87500000000000000       0.93750000000000000        0.0000000000000000     
  0.75000000000000000       0.96875000000000000        0.0000000000000000     
  0.78125000000000000       0.96875000000000000        0.0000000000000000     
  0.81250000000000000       0.96875000000000000        0.0000000000000000     
  0.84375000000000000       0.96875000000000000        0.0000000000000000     
  0.87500000000000000       0.96875000000000000        0.0000000000000000     
  0.75000000000000000        1.0000000000000000        0.0000000000000000     
  0.78125000000000000        1.0000000000000000        0.0000000000000000     
  0.81250000000000000        1.0000000000000000        0.0000000000000000     
  0.84375000000000000        1.0000000000000000        0.0000000000000000     
  0.87500000000000000        1.0000000000000000        0.0000000000000000     
  0.87500000000000000       0.87500000000000000        0.0000000000000000     
  0.90625000000000000       0.87500000000000000        0.0000000000000000     
  0.93750000000000000       0.87500000000000000        0.0000000000000000     
  0.96875000000000000       0.87500000000000000        0.0000000000000000     
   1.0000000000000000       0.87500000000000000        0.0000000000000000     
  0.87500000000000000       0.90625000000000000        0.0000000000000000     
  0.90625000000000000       0.90625000000000000        0.0000000000000000     
  0.93750000000000000       0.90625000000000000        0.0000000000000000     
  0.96875000000000000       0.90625000000000000        0.0000000000000000     
   1.0000000000000000       0.90625000000000000        0.0000000000000000     
  0.87500000000000000       0.93750000000000000        0.0000000000000000     
  0.90625000000000000       0.93750000000000000        0.0000000000000000     
  0.93750000000000000       0.93750000000000000        0.0000000000000000     
  0.96875000000000000       0.93750000000000000        0.0000000000000000     
   1.0000000000000000       0.93750000000000000        0.0000000000000000     
  0.87500000000000000       0.96875000000000000        0.0000000000000000     
  0.90625000000000000       0.96875000000000000        0.0000000000000000     
  0.93750000000000000       0.96875000000000000        0.0000000000000000     
  0.96875000000000000       0.96875000000000000        0.0000000000000000     
   1.0000000000000000       0.96875000000000000        0.0000000000000000     
  0.87500000000000000        1.0000000000000000        0.0000000000000000     
  0.90625000000000000        1.0000000000000000        0.0000000000000000     
  0.93750000000000000        1.0000000000000000        0.0000000000000000     
  0.96875000000000000        1.0000000000000000        0.0000000000000000     
   1.0000000000000000        1.0000000000000000        0.0000000000000000     
   1.0000000000000000       0.87500000000000000        0.0000000000000000     
   1.0312500000000000       0.87500000000000000        0.0000000000000000     
   1.0625000000000000       0.87500000000000000        0.0000000000000000     
   1.0937500000000000       0.87500000000000000        0.0000000000000000     
   1.1250000000000000       0.87500000000000000        0.0000000000000000     
   1.0000000000000000       0.90625000000000000        0.0000000000000000     
   1.0312500000000000       0.90625000000000000        0.0000000000000000     
   1.0625000000000000       0.90625000000000000        0.0000000000000000     
   1.0937500000000000       0.90625000000000000        0.0000000000000000     
   1.1250000000000000       0.90625000000000000        0.0000000000000000     
   1.0000000000000000       0.93750000000000000        0.0000000000000000     
   1.0312500000000000       0.93750000000000000        0.0000000000000000     
   1.0625000000000000       0.93750000000000000        0.0000000000000000     
   1.0937500000000000       0.93750000000000000        0.0000000000000000     
   1.1250000000000000       0.93750000000000000        0.0000000000000000     
   1.0000000000000000       0.96875000000000000        0.0000000000000000     
   1.0312500000000000       0.96875000000000000        0.0000000000000000     
   1.0625000000000000       0.96875000000000000        0.0000000000000000     
   1.0937500000000000       0.96875000000000000        0.0000000000000000     
   1.1250000000000000       0.96875000000000000        0.0000000000000000     
   1.0000000000000000        1.0000000000000000        0.0000000000000000     
   1.0312500000000000        1.0000000000000000        0.0000000000000000     
   1.0625000000000000        1.0000000000000000        0.0000000000000000     
   1.0937500000000000        1.0000000000000000        0.0000000000000000     
   1.1250000000000000        1.0000000000000000        0.0000000000000000     
   1.1250000000000000       0.87500000000000000        0.0000000000000000     
   1.1562500000000000       0.87500000000000000        0.0000000000000000     
   1.1875000000000000       0.87500000000000000        0.0000000000000000     
   1.2187500000000000       0.87500000000000000        0.0000000000000000     
   1.2500000000000000       0.87500000000000000        0.0000000000000000     
   1.1250000000000000       0.90625000000000000        0.0000000000000000     
   1.1562500000000000       0.90625000000000000        0.0000000000000000     
   1.1875000000000000       0.90625000000000000        0.0000000000000000     
   1.2187500000000000       0.90625000000000000        0.0000000000000000     
   1.2500000000000000       0.90625000000000000        0.0000000000000000     
   1.1250000000000000       0.93750000000000000        0.0000000000000000     
   1.1562500000000000       0.93750000000000000        0.0000000000000000     
   1.1875000000000000       0.93750000000000000        0.0000000000000000     
   1.2187500000000000       0.93750000000000000        0.0000000000000000     
   1.2500000000000000       0.93750000000000000        0.0000000000000000     
   1.1250000000000000       0.96875000000000000        0.0000000000000000     
   1.1562500000000000       0.96875000000000000        0.0000000000000000     
   1.1875000000000000       0.96875000000000000        0.0000000000000000     
   1.2187500000000000       0.96875000000000000        0.0000000000000000     
   1.2500000000000000       0.96875000000000000        0.0000000000000000     
   1.1250000000000000        1.0000000000000000        0.0000000000000000     
   1.1562500000000000        1.0000000000000000        0.0000000000000000     
   1.1875000000000000        1.0000000000000000        0.0000000000000000     
   1.2187500000000000        1.0000000000000000        0.0000000000000000     
   1.2500000000000000        1.0000000000000000        0.0000000000000000     
   1.2500000000000000       0.87500000000000000        0.0000000000000000     
   1.2812500000000000       0.87500000000000000        0.0000000000000000     
   1.3125000000000000       0.87500000000000000        0.0000000000000000     
   1.3437500000000000       0.87500000000000000        0.0000000000000000     
   1.3750000000000000       0.87500000000000000        0.0000000000000000     
   1.2500000000000000       0.90625000000000000        0.0000000000000000     
   1.2812500000000000       0.90625000000000000        0.0000000000000000     
   1.3125000000000000       0.90625000000000000        0.0000000000000000     
   1.3437500000000000       0.90625000000000000        0.0000000000000000     
   1.3750000000000000       0.90625000000000000        0.0000000000000000     
   1.2500000000000000       0.93750000000000000        0.0000000000000000     
   1.2812500000000000       0.93750000000000000        0.0000000000000000     
   1.3125000000000000       0.93750000000000000        0.0000000000000000     
   1.3437500000000000       0.93750000000000000        0.0000000000000000     
   1.3750000000000000       0.93750000000000000        0.0000000000000000     
   1.2500000000000000       0.96875000000000000        0.0000000000000000     
   1.2812500000000000       0.96875000000000000        0.0000000000000000     
   1.3125000000000000       0.96875000000000000        0.0000000000000000     
   1.3437500000000000       0.96875000000000000        0.0000000000000000     
   1.3750000000000000       0.96875000000000000        0.0000000000000000     
   1.2500000000000000        1.0000000000000000        0.0000000000000000     
   1.2812500000000000        1.0000000000000000        0.0000000000000000     
   1.3125000000000000        1.0000000000000000        0.0000000000000000     
   1.3437500000000000        1.0000000000000000        0.0000000000000000     
   1.3750000000000000        1.0000000000000000        0.0000000000000000     
   1.3750000000000000       0.87500000000000000        0.0000000000000000     
   1.4062500000000000       0.87500000000000000        0.0000000000000000     
   1.4375000000000000       0.87500000000000000        0.0000000000000000     
   1.4687500000000000       0.87500000000000000        0.0000000000000000     
   1.5000000000000000       0.87500000000000000        0.0000000000000000     
   1.3750000000000000       0.90625000000000000        0.0000000000000000     
   1.4062500000000000       0.90625000000000000        0.0000000000000000     
   1.4375000000000000       0.90625000000000000        0.0000000000000000     
   1.4687500000000000       0.90625000000000000        0.0000000000000000     
   1.5000000000000000       0.90625000000000000        0.0000000000000000     
   1.3750000000000000       0.93750000000000000        0.0000000000000000     
   1.4062500000000000       0.93750000000000000        0.0000000000000000     
   1.4375000000000000       0.93750000000000000        0.0000000000000000     
   1.4687500000000000       0.93750000000000000        0.0000000000000000     
   1.5000000000000000       0.93750000000000000        0.0000000000000000     
   1.3750000000000000       0.96875000000000000        0.0000000000000000     
   1.4062500000000000       0.96875000000000000        0.0000000000000000     
   1.4375000000000000       0.96875000000000000        0.0000000000000000     
   1.4687500000000000       0.96875000000000000        0.0000000000000000     
   1.5000000000000000       0.96875000000000000        0.0000000000000000     
   1.3750000000000000        1.0000000000000000        0.0000000000000000     
   1.4062500000000000        1.0000000000000000        0.0000000000000000     
   1.4375000000000000        1.0000000000000000        0.0000000000000000     
   1.4687500000000000        1.0000000000000000        0.0000000000000000     
   1.5000000000000000        1.0000000000000000        0.0000000000000000     
 </DataArray>
 </Points>
 <Cells>
 <DataArray  type="Int32"  Name="connectivity"  format="ascii">
           0           1           6           5
           1           2           7           6
           2           3           8           7
           3           4           9           8
           5           6          11          10
           6           7          12          11
           7           8          13          12
           8           9          14          13
          10          11          16          15
          11          12          17          16
          12          13          18          17
          13          14          19          18
          15          16          21          20
          16          17          22          21
          17          18          23          22
          18          19          24          23
          25          26          31          30
          26          27          32          31
          27          28          33          32
          28          29          34          33
          30          31          36          35
          31          32          37          36
          32          33          38          37
          33          34          39          38
          35          36          41          40
          36          37          42          41
          37          38          43          42
          38          39          44          43
          40          41          46          45
          41          42          47          46
          42          43          48          47
          43          44          49          48
          50          51          56          55
          51          52          57          56
          52          53          58          57
          53          54          59          58
          55          56          61          60
          56          57          62          61
          57          58          63          62
          58          59          64          63
          60          61          66          65
          61          62          67          66
          62          63          68          67
          63          64          69          68
          65          66          71          70
          66          67          72          71
          67          68          73          72
          68          69          74          73
          75          76          81          80
          76          77          82          81
          77          78          83          82
          78          79          84          83
          80          81          86          85
          81          82          87          86
          82          83          88          87
          83          84          89          88
          85          86          91          90
          86          87          92          91
          87          88          93          92
          88          89          94          93
          90          91          96          95
          91          92          97          96
          92          93          98          97
          93          94          99          98
         100         101         106         105
         101         102         107         106
         102         103         108         107
         103         104         109         108
         105         106         111         110
         106         107         112         111
         107         108         113         112
         108         109         114         113
         110         111         116         115
         111         112         117         116
         112         113         118         117
         113         114         119         118
         115         116         121         120
         116         117         122         121
         117         118         123         122
         118         119         124         123
         125         126         131         130
         126         127         132         131
         127         128         133         132
         128         129         134         133
         130         131         136         135
         131         132         137         136
         132         133         138         137
         133         134         139         138
         135         136         141         140
         136         137         142         141
         137         138         143         142
         138         139         144         143
         140         141         146         145
         141         142         147         146
         142         143         148         147
         143         144         149         148
         150         151         156         155
         151         152         157         156
         152         153         158         157
         153         154         159         158
         155         156         161         160
         156         157         162         161
         157         158         163         162
         158         159         164         163
         160         161         166         165
         161         162         167         166
         162         163         168         167
         163         164         169         168
         165         166         171         170
         166         167         172         171
         167         168         173         172
         168         169         174         173
         175         176         181         180
         176         177         182         181
         177         178         183         182
         178         179         184         183
         180         181         186         185
         181         182         187         186
         182         183         188         187
         183         184         189         188
         185         186         191         190
         186         187         192         191
         187         188         193         192
         188         189         194         193
         190         191         196         195
         191         192         197         196
         192         193         198         197
         193         194         199         198
         200         201         206         205
         201         202         207         206
         202         203         208         207
         203         204         209         208
         205         206         211         210
         206         207         212         211
         207         208         213         212
         208         209         214         213
         210         211         216         215
         211         212         217         216
         212         213         218         217
         213         214         219         218
         215         216         221         220
         216         217         222         221
         217         218         223         222
         218         219         224         223
         225         226         231         230
         226         227         232         231
         227         228         233         232
         228         229         234         233
         230         231         236         235
         231         232         237         236
         232         233         238         237
         233         234         239         238
         235         236         241         240
         236         237         242         241
         237         238         243         242
         238         239         244         243
         240         241         246         245
         241         242         247         246
         242         243         248         247
         243         244         249         248
         250         251         256         255
         251         252         257         256
         252         253         258         257
         253         254         259         258
         255         256         261         260
         256         257         262         261
         257         258         263         262
         258         259         264         263
         260         261         266         265
         261         262         267         266
         262         263         268         267
         263         264         269         268
         265         266         271         270
         266         267         272         271
         267         268         273         272
         268         269         274         273
         275         276         281         280
         276         277         282         281
         277         278         283         282
         278         279         284         283
         280         281         286         285
         281         282         287         286
         282         283         288         287
         283         284         289         288
         285         286         291         290
         286         287         292         291
         287         288         293         292
         288         289         294         293
         290         291         296         295
         291         292         297         296
         292         293         298         297
         293         294         299         298
         300         301         306         305
         301         302         307         306
         302         303         308         307
         303         304         309         308
         305         306         311         310
         306         307         312         311
         307         308         313         312
         308         309         314         313
         310         311         316         315
         311         312         317         316
         312         313         318         317
         313         314         319         318
         315         316         321         320
         316         317         322         321
         317         318         323         322
         318         319         324         323
         325         326         331         330
         326         327         332         331
         327         328         333         332
         328         329         334         333
         330         331         336         335
         331         332         337         336
         332         333         338         337
         333         334         339         338
         335         336         341         340
         336         337         342         341
         337         338         343         342
         338         339         344         343
         340         341         346         345
         341         342         347         346
         342         343         348         347
         343         344         349         348
         350         351         356         355
         351         352         357         356
         352         353         358         357
         353         354         359         358
         355         356         361         360
         356         357         362         361
         357         358         363         362
         358         359         364         363
         360         361         366         365
         361         362         367         366
         362         363         368         367
         363         364         369         368
         365         366         371         370
         366         367         372         371
         367         368         373         372
         368         369         374         373
         375         376         381         380
         376         377         382         381
         377         378         383         382
         378         379         384         383
         380         381         386         385
         381         382         387         386
         382         383         388         387
         383         384         389         388
         385         386         391         390
         386         387         392         391
         387         388         393         392
         388         389         394         393
         390         391         396         395
         391         392         397         396
         392         393         398         397
         393         394         399         398
         400         401         406         405
         401         402         407         406
         402         403         408         407
         403         404         409         408
         405         406         411         410
         406         407         412         411
         407         408         413         412
         408         409         414         413
         410         411         416         415
         411         412         417         416
         412         413         418         417
         413         414         419         418
         415         416         421         420
         416         417         422         421
         417         418         423         422
         418         419         424         423
         425         426         431         430
         426         427         432         431
         427         428         433         432
         428         429         434         433
         430         431         436         435
         431         432         437         436
         432         433         438         437
         433         434         439         438
         435         436         441         440
         436         437         442         441
         437         438         443         442
         438         439         444         443
         440         441         446         445
         441         442         447         446
         442         443         448         447
         443         444         449         448
         450         451         456         455
         451         452         457         456
         452         453         458         457
         453         454         459         458
         455         456         461         460
         456         457         462         461
         457         458         463         462
         458         459         464         463
         460         461         466         465
         461         462         467         466
         462         463         468         467
         463         464         469         468
         465         466         471         470
         466         467         472         471
         467         468         473         472
         468         469         474         473
         475         476         481         480
         476         477         482         481
         477         478         483         482
         478         479         484         483
         480         481         486         485
         481         482         487         486
         482         483         488         487
         483         484         489         488
         485         486         491         490
         486         487         492         491
         487         488         493         492
         488         489         494         493
         490         491         496         495
         491         492         497         496
         492         493         498         497
         493         494         499         498
         500         501         506         505
         501         502         507         506
         502         503         508         507
         503         504         509         508
         505         506         511         510
         506         507         512         511
         507         508         513         512
         508         509         514         513
         510         511         516         515
         511         512         517         516
         512         513         518         517
         513         514         519         518
         515         516         521         520
         516         517         522         521
         517         518         523         522
         518         519         524         523
         525         526         531         530
         526         527         532         531
         527         528         533         532
         528         529         534         533
         530         531         536         535
         531         532         537         536
         532         533         538         537
         533         534         539         538
         535         536         541         540
         536         537         542         541
         537         538         543         542
         538         539         544         543
         540         541         546         545
         541         542         547         546
         542         543         548         547
         543         544         549         548
         550         551         556         555
         551         552         557         556
         552         553         558         557
         553         554         559         558
         555         556         561         560
         556         557         562         561
         557         558         563         562
         558         559         564         563
         560         561         566         565
         561         562         567         566
         562         563         568         567
         563         564         569         568
         565         566         571         570
         566         567         572         571
         567         568         573         572
         568         569         574         573
         575         576         581         580
         576         577         582         581
         577         578         583         582
         578         579         584         583
         580         581         586         585
         581         582         587         586
         582         583         588         587
         583         584         589         588
         585         586         591         590
         586         587         592         591
         587         588         593         592
         588         589         594         593
         590         591         596         595
         591         592         597         596
         592         593         598         597
         593         594         599         598
         600         601         606         605
         601         602         607         606
         602         603         608         607
         603         604         609         608
         605         606         611         610
         606         607         612         611
         607         608         613         612
         608         609         614         613
         610         611         616         615
         611         612         617         616
         612         613         618         617
         613         614         619         618
         615         616         621         620
         616         617         622         621
         617         618         623         622
         618         619         624         623
         625         626         631         630
         626         627         632         631
         627         628         633         632
         628         629         634         633
         630         631         636         635
         631         632         637         636
         632         633         638         637
         633         634         639         638
         635         636         641         640
         636         637         642         641
         637         638         643         642
         638         639         644         643
         640         641         646         645
         641         642         647         646
         642         643         648         647
         643         644         649         648
         650         651         656         655
         651         652         657         656
         652         653         658         657
         653         654         659         658
         655         656         661         660
         656         657         662         661
         657         658         663         662
         658         659         664         663
         660         661         666         665
         661         662         667         666
         662         663         668         667
         663         664         669         668
         665         666         671         670
         666         667         672         671
         667         668         673         672
         668         669         674         673
         675         676         681         680
         676         677         682         681
         677         678         683         682
         678         679         684         683
         680         681         686         685
         681         682         687         686
         682         683         688         687
         683         684         689         688
         685         686         691         690
         686         687         692         691
         687         688         693         692
         688         689         694         693
         690         691         696         695
         691         692         697         696
         692         693         698         697
         693         694         699         698
         700         701         706         705
         701         702         707         706
         702         703         708         707
         703         704         709         708
         705         706         711         710
         706         707         712         711
         707         708         713         712
         708         709         714         713
         710         711         716         715
         711         712         717         716
         712         713         718         717
         713         714         719         718
         715         716         721         720
         716         717         722         721
         717         718         723         722
         718         719         724         723
         725         726         731         730
         726         727         732         731
         727         728         733         732
         728         729         734         733
         730         731         736         735
         731         732         737         736
         732         733         738         737
         733         734         739         738
         735         736         741         740
         736         737         742         741
         737         738         743         742
         738         739         744         743
         740         741         746         745
         741         742         747         746
         742         743         748         747
         743         744         749         748
         750         751         756         755
         751         752         757         756
         752         753         758         757
         753         754         759         758
         755         756         761         760
         756         757         762         761
         757         758         763         762
         758         759         764         763
         760         761         766         765
         761         762         767         766
         762         763         768         767
         763         764         769         768
         765         766         771         770
         766         767         772         771
         767         768         773         772
         768         769         774         773
         775         776         781         780
         776         777         782         781
         777         778         783         782
         778         779         784         783
         780         781         786         785
         781         782         787         786
         782         783         788         787
         783         784         789         788
         785         786         791         790
         786         787         792         791
         787         788         793         792
         788         789         794         793
         790         791         796         795
         791         792         797         796
         792         793         798         797
         793         794         799         798
         800         801         806         805
         801         802         807         806
         802         803         808         807
         803         804         809         808
         805         806         811         810
         806         807         812         811
         807         808         813         812
         808         809         814         813
         810         811         816         815
         811         812         817         816
         812         813         818         817
         813         814         819         818
         815         816         821         820
         816         817         822         821
         817         818         823         822
         818         819         824         823
         825         826         831         830
         826         827         832         831
         827         828         833         832
         828         829         834         833
         830         831         836         835
         831         832         837         836
         832         833         838         837
         833         834         839         838
         835         836         841         840
         836         837         842         841
         837         838         843         842
         838         839         844         843
         840         841         846         845
         841         842         847         846
         842         843         848         847
         843         844         849         848
         850         851         856         855
         851         852         857         856
         852         853         858         857
         853         854         859         858
         855         856         861         860
         856         857         862         861
         857         858         863         862
         858         859         864         863
         860         861         866         865
         861         862         867         866
         862         863         868         867
         863         864         869         868
         865         866         871         870
         866         867         872         871
         867         868         873         872
         868         869         874         873
         875         876         881         880
         876         877         882         881
         877         878         883         882
         878         879         884         883
         880         881         886         885
         881         882         887         886
         882         883         888         887
         883         884         889         888
         885         886         891         890
         886         887         892         891
         887         888         893         892
         888         889         894         893
         890         891         896         895
         891         892         897         896
         892         893         898         897
         893         894         899         898
         900         901         906         905
         901         902         907         906
         902         903         908         907
         903         904         909         908
         905         906         911         910
         906         907         912         911
         907         908         913         912
         908         909         914         913
         910         911         916         915
         911         912         917         916
         912         913         918         917
         913         914         919         918
         915         916         921         920
         916         917         922         921
         917         918         923         922
         918         919         924         923
         925         926         931         930
         926         927         932         931
         927         928         933         932
         928         929         934         933
         930         931         936         935
         931         932         937         936
         932         933         938         937
         933         934         939         938
         935         936         941         940
         936         937         942         941
         937         938         943         942
         938         939         944         943
         940         941         946         945
         941         942         947         946
         942         943         948         947
         943         944         949         948
         950         951         956         955
         951         952         957         956
         952         953         958         957
         953         954         959         958
         955         956         961         960
         956         957         962         961
         957         958         963         962
         958         959         964         963
         960         961         966         965
         961         962         967         966
         962         963         968         967
         963         964         969         968
         965         966         971         970
         966         967         972         971
         967         968         973         972
         968         969         974         973
         975         976         981         980
         976         977         982         981
         977         978         983         982
         978         979         984         983
         980         981         986         985
         981         982         987         986
         982         983         988         987
         983         984         989         988
         985         986         991         990
         986         987         992         991
         987         988         993         992
         988         989         994         993
         990         991         996         995
         991         992         997         996
         992         993         998         997
         993         994         999         998
        1000        1001        1006        1005
        1001        1002        1007        1006
        1002        1003        1008        1007
        1003        1004        1009        1008
        1005        1006        1011        1010
        1006        1007        1012        1011
        1007        1008        1013        1012
        1008        1009        1014        1013
        1010        1011        1016        1015
        1011        1012        1017        1016
        1012        1013        1018        1017
        1013        1014        1019        1018
        1015        1016        1021        1020
        1016        1017        1022        1021
        1017        1018        1023        1022
        1018        1019        1024        1023
        1025        1026        1031        1030
        1026        1027        1032        1031
        1027        1028        1033        1032
        1028        1029        1034        1033
        1030        1031        1036        1035
        1031        1032        1037        1036
        1032        1033        1038        1037
        1033        1034        1039        1038
        1035        1036        1041        1040
        1036        1037        1042        1041
        1037        1038        1043        1042
        1038        1039        1044        1043
        1040        1041        1046        1045
        1041        1042        1047        1046
        1042        1043        1048        1047
        1043        1044        1049        1048
        1050        1051        1056        1055
        1051        1052        1057        1056
        1052        1053        1058        1057
        1053        1054        1059        1058
        1055        1056        1061        1060
        1056        1057        1062        1061
        1057        1058        1063        1062
        1058        1059        1064        1063
        1060        1061        1066        1065
        1061        1062        1067        1066
        1062        1063        1068        1067
        1063        1064        1069        1068
        1065        1066        1071        1070
        1066        1067        1072        1071
        1067        1068        1073        1072
        1068        1069        1074        1073
        1075        1076        1081        1080
        1076        1077        1082        1081
        1077        1078        1083        1082
        1078        1079        1084        1083
        1080        1081        1086        1085
        1081        1082        1087        1086
        1082        1083        1088        1087
        1083        1084        1089        1088
        1085        1086        1091        1090
        1086        1087        1092        1091
        1087        1088        1093        1092
        1088        1089        1094        1093
        1090        1091        1096        1095
        1091        1092        1097        1096
        1092        1093        1098        1097
        1093        1094        1099        1098
        1100        1101        1106        1105
        1101        1102        1107        1106
        1102        1103        1108        1107
        1103        1104        1109        1108
        1105        1106        1111        1110
        1106        1107        1112        1111
        1107        1108        1113        1112
        1108        1109        1114        1113
        1110        1111        1116        1115
        1111        1112        1117        1116
        1112        1113        1118        1117
        1113        1114        1119        1118
        1115        1116        1121        1120
        1116        1117        1122        1121
        1117        1118        1123        1122
        1118        1119        1124        1123
        1125        1126        1131        1130
        1126        1127        1132        1131
        1127        1128        1133        1132
        1128        1129        1134        1133
        1130        1131        1136        1135
        1131        1132        1137        1136
        1132        1133        1138        1137
        1133        1134        1139        1138
        1135        1136        1141        1140
        1136        1137        1142        1141
        1137        1138        1143        1142
        1138        1139        1144        1143
        1140        1141        1146        1145
        1141        1142        1147        1146
        1142        1143        1148        1147
        1143        1144        1149        1148
        1150        1151        1156        1155
        1151        1152        1157        1156
        1152        1153        1158        1157
        1153        1154        1159        1158
        1155        1156        1161        1160
        1156        1157        1162        1161
        1157        1158        1163        1162
        1158        1159        1164        1163
        1160        1161        1166        1165
        1161        1162        1167        1166
        1162        1163        1168        1167
        1163        1164        1169        1168
        1165        1166        1171        1170
        1166        1167        1172        1171
        1167        1168        1173        1172
        1168        1169        1174        1173
        1175        1176        1181        1180
        1176        1177        1182        1181
        1177        1178        1183        1182
        1178        1179        1184        1183
        1180        1181        1186        1185
        1181        1182        1187        1186
        1182        1183        1188        1187
        1183        1184        1189        1188
        1185        1186        1191        1190
        1186        1187        1192        1191
        1187        1188        1193        1192
        1188        1189        1194        1193
        1190        1191        1196        1195
        1191        1192        1197        1196
        1192        1193        1198        1197
        1193        1194        1199        1198
        1200        1201        1206        1205
        1201        1202        1207        1206
        1202        1203        1208        1207
        1203        1204        1209        1208
        1205        1206        1211        1210
        1206        1207        1212        1211
        1207        1208        1213        1212
        1208        1209        1214        1213
        1210        1211        1216        1215
        1211        1212        1217        1216
        1212        1213        1218        1217
        1213        1214        1219        1218
        1215        1216        1221        1220
        1216        1217        1222        1221
        1217        1218        1223        1222
        1218        1219        1224        1223
        1225        1226        1231        1230
        1226        1227        1232        1231
        1227        1228        1233        1232
        1228        1229        1234        1233
        1230        1231        1236        1235
        1231        1232        1237        1236
        1232        1233        1238        1237
        1233        1234        1239        1238
        1235        1236        1241        1240
        1236        1237        1242        1241
        1237        1238        1243        1242
        1238        1239        1244        1243
        1240        1241        1246        1245
        1241        1242        1247        1246
        1242        1243        1248        1247
        1243        1244        1249        1248
        1250        1251        1256        1255
        1251        1252        1257        1256
        1252        1253        1258        1257
        1253        1254        1259        1258
        1255        1256        1261        1260
        1256        1257        1262        1261
        1257        1258        1263        1262
        1258        1259        1264        1263
        1260        1261        1266        1265
        1261        1262        1267        1266
        1262        1263        1268        1267
        1263        1264        1269        1268
        1265        1266        1271        1270
        1266        1267        1272        1271
        1267        1268        1273        1272
        1268        1269        1274        1273
        1275        1276        1281        1280
        1276        1277        1282        1281
        1277        1278        1283        1282
        1278        1279        1284        1283
        1280        1281        1286        1285
        1281        1282        1287        1286
        1282        1283        1288        1287
        1283        1284        1289        1288
        1285        1286        1291        1290
        1286        1287        1292        1291
        1287        1288        1293        1292
        1288        1289        1294        1293
        1290        1291        1296        1295
        1291        1292        1297        1296
        1292        1293        1298        1297
        1293        1294        1299        1298
        1300        1301        1306        1305
        1301        1302        1307        1306
        1302        1303        1308        1307
        1303        1304        1309        1308
        1305        1306        1311        1310
        1306        1307        1312        1311
        1307        1308        1313        1312
        1308        1309        1314        1313
        1310        1311        1316        1315
        1311        1312        1317        1316
        1312        1313        1318        1317
        1313        1314        1319        1318
        1315        1316        1321        1320
        1316        1317        1322        1321
        1317        1318        1323        1322
        1318        1319        1324        1323
        1325        1326        1331        1330
        1326        1327        1332        1331
        1327        1328        1333        1332
        1328        1329        1334        1333
        1330        1331        1336        1335
        1331        1332        1337        1336
        1332        1333        1338        1337
        1333        1334        1339        1338
        1335        1336        1341        1340
        1336        1337        1342        1341
        1337        1338        1343        1342
        1338        1339        1344        1343
        1340        1341        1346        1345
        1341        1342        1347        1346
        1342        1343        1348        1347
        1343        1344        1349        1348
        1350        1351        1356        1355
        1351        1352        1357        1356
        1352        1353        1358        1357
        1353        1354        1359        1358
        1355        1356        1361        1360
        1356        1357        1362        1361
        1357        1358        1363        1362
        1358        1359        1364        1363
        1360        1361        1366        1365
        1361        1362        1367        1366
        1362        1363        1368        1367
        1363        1364        1369        1368
        1365        1366        1371        1370
        1366        1367        1372        1371
        1367        1368        1373        1372
        1368        1369        1374        1373
        1375        1376        1381        1380
        1376        1377        1382        1381
        1377        1378        1383        1382
        1378        1379        1384        1383
        1380        1381        1386        1385
        1381        1382        1387        1386
        1382        1383        1388        1387
        1383        1384        1389        1388
        1385        1386        1391        1390
        1386        1387        1392        1391
        1387        1388        1393        1392
        1388        1389        1394        1393
        1390        1391        1396        1395
        1391        1392        1397        1396
        1392        1393        1398        1397
        1393        1394        1399        1398
        1400        1401        1406        1405
        1401        1402        1407        1406
        1402        1403        1408        1407
        1403        1404        1409        1408
        1405        1406        1411        1410
        1406        1407        1412        1411
        1407        1408        1413        1412
        1408        1409        1414        1413
        1410        1411        1416        1415
        1411        1412        1417        1416
        1412        1413        1418        1417
        1413        1414        1419        1418
        1415        1416        1421        1420
        1416        1417        1422        1421
        1417        1418        1423        1422
        1418        1419        1424        1423
        1425        1426        1431        1430
        1426        1427        1432        1431
        1427        1428        1433        1432
        1428        1429        1434        1433
        1430        1431        1436        1435
        1431        1432        1437        1436
        1432        1433        1438        1437
        1433        1434        1439        1438
        1435        1436        1441        1440
        1436        1437        1442        1441
        1437        1438        1443        1442
        1438        1439        1444        1443
        1440        1441        1446        1445
        1441        1442        1447        1446
        1442        1443        1448        1447
        1443        1444        1449        1448
        1450        1451        1456        1455
        1451        1452        1457        1456
        1452        1453        1458        1457
        1453        1454        1459        1458
        1455        1456        1461        1460
        1456        1457        1462        1461
        1457        1458        1463        1462
        1458        1459        1464        1463
        1460        1461        1466        1465
        1461        1462        1467        1466
        1462        1463        1468        1467
        1463        1464        1469        1468
        1465        1466        1471        1470
        1466        1467        1472        1471
        1467        1468        1473        1472
        1468        1469        1474        1473
        1475        1476        1481        1480
        1476        1477        1482        1481
        1477        1478        1483        1482
        1478        1479        1484        1483
        1480        1481        1486        1485
        1481        1482        1487        1486
        1482        1483        1488        1487
        1483        1484        1489        1488
        1485        1486        1491        1490
        1486        1487        1492        1491
        1487        1488        1493        1492
        1488        1489        1494        1493
        1490        1491        1496        1495
        1491        1492        1497        1496
        1492        1493        1498        1497
        1493        1494        1499        1498
        1500        1501        1506        1505
        1501        1502        1507        1506
        1502        1503        1508        1507
        1503        1504        1509        1508
        1505        1506        1511        1510
        1506        1507        1512        1511
        1507        1508        1513        1512
        1508        1509        1514        1513
        1510        1511        1516        1515
        1511        1512        1517        1516
        1512        1513        1518        1517
        1513        1514        1519        1518
        1515        1516        1521        1520
        1516        1517        1522        1521
        1517        1518        1523        1522
        1518        1519        1524        1523
        1525        1526        1531        1530
        1526        1527        1532        1531
        1527        1528        1533        1532
        1528        1529        1534        1533
        1530        1531        1536        1535
        1531        1532        1537        1536
        1532        1533        1538        1537
        1533        1534        1539        1538
        1535        1536        1541        1540
        1536        1537        1542        1541
        1537        1538        1543        1542
        1538        1539        1544        1543
        1540        1541        1546        1545
        1541        1542        1547        1546
        1542        1543        1548        1547
        1543        1544        1549        1548
        1550        1551        1556        1555
        1551        1552        1557        1556
        1552        1553        1558        1557
        1553        1554        1559        1558
        1555        1556        1561        1560
        1556        1557        1562        1561
        1557        1558        1563        1562
        1558        1559        1564        1563
        1560        1561        1566        1565
        1561        1562        1567        1566
        1562        1563        1568        1567
        1563        1564        1569        1568
        1565        1566        1571        1570
        1566        1567        1572        1571
        1567        1568        1573        1572
        1568        1569        1574        1573
        1575        1576        1581        1580
        1576        1577        1582        1581
        1577        1578        1583        1582
        1578        1579        1584        1583
        1580        1581        1586        1585
        1581        1582        1587        1586
        1582        1583        1588        1587
        1583        1584        1589        1588
        1585        1586        1591        1590
        1586        1587        1592        1591
        1587        1588        1593        1592
        1588        1589        1594        1593
        1590        1591        1596        1595
        1591        1592        1597        1596
        1592        1593        1598        1597
        1593        1594        1599        1598
 </DataArray>
 <DataArray  type="Int32"  Name="offsets"  format="ascii"> 
           4
           8
          12
          16
          20
          24
          28
          32
          36
          40
          44
          48
          52
          56
          60
          64
          68
          72
          76
          80
          84
          88
          92
          96
         100
         104
         108
         112
         116
         120
         124
         128
         132
         136
         140
         144
         148
         152
         156
         160
         164
         168
         172
         176
         180
         184
         188
         192
         196
         200
         204
         208
         212
         216
         220
         224
         228
         232
         236
         240
         244
         248
         252
         256
         260
         264
         268
         272
         276
         280
         284
         288
         292
         296
         300
         304
         308
         312
         316
         320
         324
         328
         332
         336
         340
         344
         348
         352
         356
         360
         364
         368
         372
         376
         380
         384
         388
         392
         396
         400
         404
         408
         412
         416
         420
         424
         428
         432
         436
         440
         444
         448
         452
         456
         460
         464
         468
         472
         476
         480
         484
         488
         492
         496
         500
         504
         508
         512
         516
         520
         524
         528
         532
         536
         540
         544
         548
         552
         556
         560
         564
         568
         572
         576
         580
         584
         588
         592
         596
         600
         604
         608
         612
         616
         620
         624
         628
         632
         636
         640
         644
         648
         652
         656
         660
         664
         668
         672
         676
         680
         684
         688
         692
         696
         700
         704
         708
         712
         716
         720
         724
         728
         732
         736
         740
         744
         748
         752
         756
         760
         764
         768
         772
         776
         780
         784
         788
         792
         796
         800
         804
         808
         812
         816
         820
         824
         828
         832
         836
         840
         844
         848
         852
         856
         860
         864
         868
         872
         876
         880
         884
         888
         892
         896
         900
         904
         908
         912
         916
         920
         924
         928
         932
         936
         940
         944
         948
         952
         956
         960
         964
         968
         972
         976
         980
         984
         988
         992
         996
        1000
        1004
        1008
        1012
        1016
        1020
        1024
        1028
        1032
        1036
        1040
        1044
        1048
        1052
        1056
        1060
        1064
        1068
        1072
        1076
        1080
        1084
        1088
        1092
        1096
        1100
        1104
        1108
        1112
        1116
        1120
        1124
        1128
        1132
        1136
        1140
        1144
        1148
        1152
        1156
        1160
        1164
        1168
        1172
        1176
        1180
        1184
        1188
        1192
        1196
        1200
        1204
        1208
        1212
        1216
        1220
        1224
        1228
        1232
        1236
        1240
        1244
        1248
        1252
        1256
        1260
        1264
        1268
        1272
        1276
        1280
        1284
        1288
        1292
        1296
        1300
        1304
        1308
        1312
        1316
        1320
        1324
        1328
        1332
        1336
        1340
        1344
        1348
        1352
        1356
        1360
        1364
        1368
        1372
        1376
        1380
        1384
        1388
        1392
        1396
        1400
        1404
        1408
        1412
        1416
        1420
        1424
        1428
        1432
        1436
        1440
        1444
        1448
        1452
        1456
        1460
        1464
        1468
        1472
        1476
        1480
        1484
        1488
        1492
        1496
        1500
        1504
        1508
        1512
        1516
        1520
        1524
        1528
        1532
        1536
        1540
        1544
        1548
        1552
        1556
        1560
        1564
        1568
        1572
        1576
        1580
        1584
        1588
        1592
        1596
        1600
        1604
        1608
        1612
        1616
        1620
        1624
        1628
        1632
        1636
        1640
        1644
        1648
        1652
        1656
        1660
        1664
        1668
        1672
        1676
        1680
        1684
        1688
        1692
        1696
        1700
        1704
        1708
        1712
        1716
        1720
        1724
        1728
        1732
        1736
        1740
        1744
        1748
        1752
        1756
        1760
        1764
        1768
        1772
        1776
        1780
        1784
        1788
        1792
        1796
        1800
        1804
        1808
        1812
        1816
        1820
        1824
        1828
        1832
        1836
        1840
        1844
        1848
        1852
        1856
        1860
        1864
        1868
        1872
        1876
        1880
        1884
        1888
        1892
        1896
        1900
        1904
        1908
        1912
        1916
        1920
        1924
        1928
        1932
        1936
        1940
        1944
        1948
        1952
        1956
        1960
        1964
        1968
        1972
        1976
        1980
        1984
        1988
        1992
        1996
        2000
        2004
        2008
        2012
        2016
        2020
        2024
        2028
        2032
        2036
        2040
        2044
        2048
        2052
        2056
        2060
        2064
        2068
        2072
        2076
        2080
        2084
        2088
        2092
        2096
        2100
        2104
        2108
        2112
        2116
        2120
        2124
        2128
        2132
        2136
        2140
        2144
        2148
        2152
        2156
        2160
        2164
        2168
        2172
        2176
        2180
        2184
        2188
        2192
        2196
        2200
        2204
        2208
        2212
        2216
        2220
        2224
        2228
        2232
        2236
        2240
        2244
        2248
        2252
        2256
        2260
        2264
        2268
        2272
        2276
        2280
        2284
        2288
        2292
        2296
        2300
        2304
        2308
        2312
        2316
        2320
        2324
        2328
        2332
        2336
        2340
        2344
        2348
        2352
        2356
        2360
        2364
        2368
        2372
        2376
        2380
        2384
        2388
        2392
        2396
        2400
        2404
        2408
        2412
        2416
        2420
        2424
        2428
        2432
        2436
        2440
        2444
        2448
        2452
        2456
        2460
        2464
        2468
        2472
        2476
        2480
        2484
        2488
        2492
        2496
        2500
        2504
        2508
        2512
        2516
        2520
        2524
        2528
        2532
        2536
        2540
        2544
        2548
        2552
        2556
        2560
        2564
        2568
        2572
        2576
        2580
        2584
        2588
        2592
        2596
        2600
        2604
        2608
        2612
        2616
        2620
        2624
        2628
        2632
        2636
        2640
        2644
        2648
        2652
        2656
        2660
        2664
        2668
        2672
        2676
        2680
        2684
        2688
        2692
        2696
        2700
        2704
        2708
        2712
        2716
        2720
        2724
        2728
        2732
        2736
        2740
        2744
        2748
        2752
        2756
        2760
        2764
        2768
        2772
        2776
        2780
        2784
        2788
        2792
        2796
        2800
        2804
        2808
        2812
        2816
        2820
        2824
        2828
        2832
        2836
        2840
        2844
        2848
        2852
        2856
        2860
        2864
        2868
        2872
        2876
        2880
        2884
        2888
        2892
        2896
        2900
        2904
        2908
        2912
        2916
        2920
        2924
        2928
        2932
        2936
        2940
        2944
        2948
        2952
        2956
        2960
        2964
        2968
        2972
        2976
        2980
        2984
        2988
        2992
        2996
        3000
        3004
        3008
        3012
        3016
        3020
        3024
        3028
        3032
        3036
        3040
        3044
        3048
        3052
        3056
        3060
        3064
        3068
        3072
        3076
        3080
        3084
        3088
        3092
        3096
        3100
        3104
        3108
        3112
        3116
        3120
        3124
        3128
        3132
        3136
        3140
        3144
        3148
        3152
        3156
        3160
        3164
        3168
        3172
        3176
        3180
        3184
        3188
        3192
        3196
        3200
        3204
        3208
        3212
        3216
        3220
        3224
        3228
        3232
        3236
        3240
        3244
        3248
        3252
        3256
        3260
        3264
        3268
        3272
        3276
        3280
        3284
        3288
        3292
        3296
        3300
        3304
        3308
        3312
        3316
        3320
        3324
        3328
        3332
        3336
        3340
        3344
        3348
        3352
        3356
        3360
        3364
        3368
        3372
        3376
        3380
        3384
        3388
        3392
        3396
        3400
        3404
        3408
        3412
        3416
        3420
        3424
        3428
        3432
        3436
        3440
        3444
        3448
        3452
        3456
        3460
        3464
        3468
        3472
        3476
        3480
        3484
        3488
        3492
        3496
        3500
        3504
        3508
        3512
        3516
        3520
        3524
        3528
        3532
        3536
        3540
        3544
        3548
        3552
        3556
        3560
        3564
        3568
        3572
        3576
        3580
        3584
        3588
        3592
        3596
        3600
        3604
        3608
        3612
        3616
        3620
        3624
        3628
        3632
        3636
        3640
        3644
        3648
        3652
        3656
        3660
        3664
        3668
        3672
        3676
        3680
        3684
        3688
        3692
        3696
        3700
        3704
        3708
        3712
        3716
        3720
        3724
        3728
        3732
        3736
        3740
        3744
        3748
        3752
        3756
        3760
        3764
        3768
        3772
        3776
        3780
        3784
        3788
        3792
        3796
        3800
        3804
        3808
        3812
        3816
        3820
        3824
        3828
        3832
        3836
        3840
        3844
        3848
        3852
        3856
        3860
        3864
        3868
        3872
        3876
        3880
        3884
        3888
        3892
        3896
        3900
        3904
        3908
        3912
        3916
        3920
        3924
        3928
        3932
        3936
        3940
        3944
        3948
        3952
        3956
        3960
        3964
        3968
        3972
        3976
        3980
        3984
        3988
        3992
        3996
        4000
        4004
        4008
        4012
        4016
        4020
        4024
        4028
        4032
        4036
        4040
        4044
        4048
        4052
        4056
        4060
        4064
        4068
        4072
        4076
        4080
        4084
        4088
        4092
        4096
 </DataArray>
 <DataArray  type="UInt8"  Name="types"  format="ascii">
 9
 9
 9
 9
 9
 9
 9
 9
 9
 9
 9
 9
 9
 9
 9
 9
 9
 9
 9
 9
 9
 9
 9
 9
 9
 9
 9
 9
 9
 9
 9
 9
 9
 9
 9
 9
 9
 9
 9
 9
 9
 9
 9
 9
 9
 9
 9
 9
 9
 9
 9
 9
 9
 9
 9
 9
 9
 9
 9
 9
 9
 9
 9
 9
 9
 9
 9
 9
 9
 9
 9
 9
 9
 9
 9
 9
 9
 9
 9
 9
 9
 9
 9
 9
 9
 9
 9
 9
 9
 9
 9
 9
 9
 9
 9
 9
 9
 9
 9
 9
 9
 9
 9
 9
 9
 9
 9
 9
 9
 9
 9
 9
 9
 9
 9
 9
 9
 9
 9
 9
 9
 9
 9
 9
 9
 9
 9
 9
 9
 9
 9
 9
 9
 9
 9
 9
 9
 9
 9
 9
 9
 9
 9
 9
 9
 9
 9
 9
 9
 9
 9
 9
 9
 9
 9
 9
 9
 9
 9
 9
 9
 9
 9
 9
 9
 9
 9
 9
 9
 9
 9
 9
 9
 9
 9
 9
 9
 9
 9
 9
 9
 9
 9
 9
 9
 9
 9
 9
 9
 9
 9
 9
 9
 9
 9
 9
 9
 9
 9
 9
 9
 9
 9
 9
 9
 9
 9
 9
 9
 9
 9
 9
 9
 9
 9
 9
 9
 9
 9
 9
 9
 9
 9
 9
 9
 9
 9
 9
 9
 9
 9
 9
 9
 9
 9
 9
 9
 9
 9
 9
 9
 9
 9
 9
 9
 9
 9
 9
 9
 9
 9
 9
 9
 9
 9
 9
 9
 9
 9
 9
 9
 9
 9
 9
 9
 9
 9
 9
 9
 9
 9
 9
 9
 9
 9
 9
 9
 9
 9
 9
 9
 9
 9
 9
 9
 9
 9
 9
 9
 9
 9
 9
 9
 9
 9
 9
 9
 9
 9
 9
 9
 9
 9
 9
 9
 9
 9
 9
 9
 9
 9
 9
 9
 9
 9
 9
 9
 9
 9
 9
 9
 9
 9
 9
 9
 9
 9
 9
 9
 9
 9
 9
 9
 9
 9
 9
 9
 9
 9
 9
 9
 9
 9
 9
 9
 9
 9
 9
 9
 9
 9
 9
 9
 9
 9
 9
 9
 9
 9
 9
 9
 9
 9
 9
 9
 9
 9
 9
 9
 9
 9
 9
 9
 9
 9
 9
 9
 9
 9
 9
 9
 9
 9
 9
 9
 9
 9
 9
 9
 9
 9
 9
 9
 9
 9
 9
 9
 9
 9
 9
 9
 9
 9
 9
 9
 9
 9
 9
 9
 9
 9
 9
 9
 9
 9
 9
 9
 9
 9
 9
 9
 9
 9
 9
 9
 9
 9
 9
 9
 9
 9
 9
 9
 9
 9
 9
 9
 9
 9
 9
 9
 9
 9
 9
 9
 9
 9
 9
 9
 9
 9
 9
 9
 9
 9
 9
 9
 9
 9
 9
 9
 9
 9
 9
 9
 9
 9
 9
 9
 9
 9
 9
 9
 9
 9
 9
 9
 9
 9
 9
 9
 9
 9
 9
 9
 9
 9
 9
 9
 9
 9
 9
 9
 9
 9
 9
 9
 9
 9
 9
 9
 9
 9
 9
 9
 9
 9
 9
 9
 9
 9
 9
 9
 9
 9
 9
 9
 9
 9
 9
 9
 9
 9
 9
 9
 9
 9
 9
 9
 9
 9
 9
 9
 9
 9
 9
 9
 9
 9
 9
 9
 9
 9
 9
 9
 9
 9
 9
 9
 9
 9
 9
 9
 9
 9
 9
 9
 9
 9
 9
 9
 9
 9
 9
 9
 9
 9
 9
 9
 9
 9
 9
 9
 9
 9
 9
 9
 9
 9
 9
 9
 9
 9
 9
 9
 9
 9
 9
 9
 9
 9
 9
 9
 9
 9
 9
 9
 9
 9
 9
 9
 9
 9
 9
 9
 9
 9
 9
 9
 9
 9
 9
 9
 9
 9
 9
 9
 9
 9
 9
 9
 9
 9
 9
 9
 9
 9
 9
 9
 9
 9
 9
 9
 9
 9
 9
 9
 9
 9
 9
 9
 9
 9
 9
 9
 9
 9
 9
 9
 9
 9
 9
 9
 9
 9
 9
 9
 9
 9
 9
 9
 9
 9
 9
 9
 9
 9
 9
 9
 9
 9
 9
 9
 9
 9
 9
 9
 9
 9
 9
 9
 9
 9
 9
 9
 9
 9
 9
 9
 9
 9
 9
 9
 9
 9
 9
 9
 9
 9
 9
 9
 9
 9
 9
 9
 9
 9
 9
 9
 9
 9
 9
 9
 9
 9
 9
 9
 9
 9
 9
 9
 9
 9
 9
 9
 9
 9
 9
 9
 9
 9
 9
 9
 9
 9
 9
 9
 9
 9
 9
 9
 9
 9
 9
 9
 9
 9
 9
 9
 9
 9
 9
 9
 9
 9
 9
 9
 9
 9
 9
 9
 9
 9
 9
 9
 9
 9
 9
 9
 9
 9
 9
 9
 9
 9
 9
 9
 9
 9
 9
 9
 9
 9
 9
 9
 9
 9
 9
 9
 9
 9
 9
 9
 9
 9
 9
 9
 9
 9
 9
 9
 9
 9
 9
 9
 9
 9
 9
 9
 9
 9
 9
 9
 9
 9
 9
 9
 9
 9
 9
 9
 9
 9
 9
 9
 9
 9
 9
 9
 9
 9
 9
 9
 9
 9
 9
 9
 9
 9
 9
 9
 9
 9
 9
 9
 9
 9
 9
 9
 9
 9
 9
 9
 9
 9
 9
 9
 9
 9
 9
 9
 9
 9
 9
 9
 9
 9
 9
 9
 9
 9
 9
 9
 9
 9
 9
 9
 9
 9
 9
 9
 9
 9
 9
 9
 9
 9
 9
 9
 9
 9
 9
 9
 9
 9
 9
 9
 9
 9
 9
 9
 9
 9
 9
 9
 9
 9
 9
 9
 9
 9
 9
 9
 9
 9
 9
 9
 9
 9
 9
 9
 9
 9
 9
 9
 9
 9
 9
 9
 9
 9
 9
 9
 9
 9
 9
 9
 9
 9
 9
 9
 9
 9
 9
 9
 9
 9
 9
 9
 9
 9
 9
 9
 9
 9
 9
 9
 9
 9
 9
 9
 9
 9
 9
 9
 9
 9
 9
 9
 9
 9
 9
 9
 9
 9
 9
 9
 9
 9
 9
 9
 9
 9
 9
 9
 9
 9
 9
 9
 9
 9
 9
 9
 9
 9
 9
 9
 9
 9
 9
 9
 9
 9
 9
 9
 9
 9
 9
 9
 9
 9
 9
 9
 9
 9
 9
 9
 9
 9
 9
 9
 9
 9
 9
 </DataArray>
 </Cells> 
 <PointData>
 <DataArray  type="Float64" Name="disp" NumberOfComponents="3" format="ascii">
   7.0510632720155161E-002   5.4104579278574795E-002   0.0000000000000000     
   7.2486401497363712E-002   6.1929211907673185E-002   0.0000000000000000     
   7.4569444465041476E-002   6.9408038126241120E-002   0.0000000000000000     
   7.6759761623188427E-002   7.6541057934278608E-002   0.0000000000000000     
   7.9057352971804593E-002   8.3328271331785608E-002   0.0000000000000000     
   6.2330954812203326E-002   5.4188429717962297E-002   0.0000000000000000     
   6.4747851729993838E-002   6.1647104694982802E-002   0.0000000000000000     
   6.7176972442997515E-002   6.8870020263542345E-002   0.0000000000000000     
   6.9618316951214398E-002   7.5857176423640899E-002   0.0000000000000000     
   7.2071885254644460E-002   8.2608573175278519E-002   0.0000000000000000     
   5.5379432070006035E-002   5.4517603681379735E-002   0.0000000000000000     
   5.7992090999446251E-002   6.1581348185809667E-002   0.0000000000000000     
   6.0564166264872078E-002   6.8520391286027049E-002   0.0000000000000000     
   6.3095657866283503E-002   7.5334732982031916E-002   0.0000000000000000     
   6.5586565803680538E-002   8.2024373273824253E-002   0.0000000000000000     
   4.9656064493563287E-002   5.5092101168827137E-002   0.0000000000000000     
   5.2219119305720985E-002   6.1731942380153781E-002   0.0000000000000000     
   5.4731025930665138E-002   6.8359151193695303E-002   0.0000000000000000     
   5.7191784368395761E-002   7.4973727609451632E-002   0.0000000000000000     
   5.9601394618912826E-002   8.1575671627422811E-002   0.0000000000000000     
   4.5160852082875069E-002   5.5911922180304469E-002   0.0000000000000000     
   4.7428936648818025E-002   6.2098887278015179E-002   0.0000000000000000     
   4.9677551440376715E-002   6.8386299986547036E-002   0.0000000000000000     
   5.1906696457551152E-002   7.4774160305900048E-002   0.0000000000000000     
   5.4116371700341323E-002   8.1262468236074206E-002   0.0000000000000000     
   7.9057352971804593E-002   8.3328271331785608E-002   0.0000000000000000     
   8.1390886168578022E-002   8.9969354831731380E-002   0.0000000000000000     
   8.3689028871196808E-002   9.6663984947085071E-002   0.0000000000000000     
   8.5951781079660936E-002  0.10341216167784671        0.0000000000000000     
   8.8179142793970419E-002  0.11021388502401627        0.0000000000000000     
   7.2071885254644460E-002   8.2608573175278519E-002   0.0000000000000000     
   7.4490653743474591E-002   8.9268966261237592E-002   0.0000000000000000     
   7.6827598807891709E-002   9.5983111424300563E-002   0.0000000000000000     
   7.9082720447895785E-002  0.10275100866446743        0.0000000000000000     
   8.1256018663486820E-002  0.10957265798173821        0.0000000000000000     
   6.5586565803680538E-002   8.2024373273824253E-002   0.0000000000000000     
   6.8003021338993608E-002   8.8681414852206680E-002   0.0000000000000000     
   7.0311155734153155E-002   9.5397960407981902E-002   0.0000000000000000     
   7.2510968989159194E-002  0.10217400994114985        0.0000000000000000     
   7.4602461104011711E-002  0.10900956345171056        0.0000000000000000     
   5.9601394618912826E-002   8.1575671627422811E-002   0.0000000000000000     
   6.1927988955135051E-002   8.8206700604638658E-002   0.0000000000000000     
   6.4139699649981174E-002   9.4908531898129020E-002   0.0000000000000000     
   6.6236526703451204E-002  0.10168116550789391        0.0000000000000000     
   6.8218470115545091E-002  0.10852460143393337        0.0000000000000000     
   5.4116371700341323E-002   8.1262468236074206E-002   0.0000000000000000     
   5.6265556591898948E-002   8.7844823518533510E-002   0.0000000000000000     
   5.8313230555375760E-002   9.4514825894742013E-002   0.0000000000000000     
   6.0259393590771766E-002  0.10127247536469970        0.0000000000000000     
   6.2104045698086953E-002  0.10811777192840658        0.0000000000000000     
   8.8179142793970419E-002  0.11021388502401627        0.0000000000000000     
   9.0353779013426269E-002  0.11710144475620510        0.0000000000000000     
   9.2458354737329482E-002  0.12410713064502454        0.0000000000000000     
   9.4492869965680099E-002  0.13123094269047453        0.0000000000000000     
   9.6457324698478064E-002  0.13847288089255511        0.0000000000000000     
   8.1256018663486820E-002  0.10957265798173821        0.0000000000000000     
   8.3349457574273658E-002  0.11648092642942494        0.0000000000000000     
   8.5365001299865101E-002  0.12350868106083970        0.0000000000000000     
   8.7302649840261190E-002  0.13065592187598249        0.0000000000000000     
   8.9162403195461870E-002  0.13792264887485334        0.0000000000000000     
   7.4602461104011711E-002  0.10900956345171056        0.0000000000000000     
   7.6598731460256336E-002  0.11593510307438973        0.0000000000000000     
   7.8512879439438701E-002  0.12298111094391308        0.0000000000000000     
   8.0344905041558806E-002  0.13014758706028057        0.0000000000000000     
   8.2094808266616637E-002  0.13743453142349224        0.0000000000000000     
   6.8218470115545091E-002  0.10852460143393337        0.0000000000000000     
   7.0101600671374317E-002  0.11546397469109951        0.0000000000000000     
   7.1901989156050256E-002  0.12252442029424461        0.0000000000000000     
   7.3619635569572975E-002  0.12970593824336871        0.0000000000000000     
   7.5254539911942392E-002  0.13700852853847173        0.0000000000000000     
   6.2104045698086953E-002  0.10811777192840658        0.0000000000000000     
   6.3858065207627560E-002  0.11506754127955424        0.0000000000000000     
   6.5532330449699777E-002  0.12213860911183433        0.0000000000000000     
   6.7126841424303640E-002  0.12933097542524688        0.0000000000000000     
   6.8641598131439108E-002  0.13664464021979186        0.0000000000000000     
   9.6457324698478064E-002  0.13847288089255511        0.0000000000000000     
   9.8335614351377998E-002  0.14583181366937936        0.0000000000000000     
  0.10011163434003441       0.15330660943906030        0.0000000000000000     
  0.10178538466444732       0.16089726820159794        0.0000000000000000     
  0.10335686532461671       0.16860378995699235        0.0000000000000000     
   8.9162403195461870E-002  0.13792264887485334        0.0000000000000000     
   9.0936664402497536E-002  0.14530701191942799        0.0000000000000000     
   9.2617836498398540E-002  0.15280716087168225        0.0000000000000000     
   9.4205919483164868E-002  0.16042309573161612        0.0000000000000000     
   9.5700913356796563E-002  0.16815481649922959        0.0000000000000000     
   8.2094808266616637E-002  0.13743453142349224        0.0000000000000000     
   8.3760957618632906E-002  0.14483944186111139        0.0000000000000000     
   8.5341721601628284E-002  0.15235981620070146        0.0000000000000000     
   8.6837100215602828E-002  0.15999565444226241        0.0000000000000000     
   8.8247093460556453E-002  0.16774695658579425        0.0000000000000000     
   7.5254539911942392E-002  0.13700852853847173        0.0000000000000000     
   7.6808493999784108E-002  0.14442910349442953        0.0000000000000000     
   7.8283289649723697E-002  0.15196457542611788        0.0000000000000000     
   7.9678926861761132E-002  0.15961494433353679        0.0000000000000000     
   8.0995405635896398E-002  0.16738021021668631        0.0000000000000000     
   6.8641598131439108E-002  0.13664464021979186        0.0000000000000000     
   7.0079273545951171E-002  0.14407599681938241        0.0000000000000000     
   7.1442540642684738E-002  0.15162143854793156        0.0000000000000000     
   7.2731399421639809E-002  0.15928096540543937        0.0000000000000000     
   7.3945849882816383E-002  0.16705457739190582        0.0000000000000000     
  0.10335686532461671       0.16860378995699235        0.0000000000000000     
  0.10483607551396895       0.17639921942209080        0.0000000000000000     
  0.10623301442593036       0.18425660131374061        0.0000000000000000     
  0.10754768206050096       0.19217593563194182        0.0000000000000000     
  0.10878007841768071       0.20015722237669437        0.0000000000000000     
   9.5700913356796563E-002  0.16815481649922959        0.0000000000000000     
   9.7108006063606950E-002  0.17597548901424698        0.0000000000000000     
   9.8432385547909410E-002  0.18385827911639260        0.0000000000000000     
   9.9674051809703942E-002  0.19180318680566652        0.0000000000000000     
  0.10083300484899053       0.19981021208206862        0.0000000000000000     
   8.8247093460556453E-002  0.16774695658579425        0.0000000000000000     
   8.9573628786907916E-002  0.17558766609756679        0.0000000000000000     
   9.0818633645075891E-002  0.18349172644384990        0.0000000000000000     
   9.1982108035060392E-002  0.19145913762464353        0.0000000000000000     
   9.3064051956861404E-002  0.19948989963994770        0.0000000000000000     
   8.0995405635896398E-002  0.16738021021668631        0.0000000000000000     
   8.2232943683871865E-002  0.17523575067205027        0.0000000000000000     
   8.3391758717429820E-002  0.18315694329611243        0.0000000000000000     
   8.4471850736570361E-002  0.19114378808887292        0.0000000000000000     
   8.5473219741293377E-002  0.19919628505033168        0.0000000000000000     
   7.3945849882816383E-002  0.16705457739190582        0.0000000000000000     
   7.5085950754498754E-002  0.17491974273769734        0.0000000000000000     
   7.6151760764971224E-002  0.18285392967318026        0.0000000000000000     
   7.7143279914233781E-002  0.19085713819835468        0.0000000000000000     
   7.8060508202286438E-002  0.19892936831322047        0.0000000000000000     
  0.10878007841768071       0.20015722237669437        0.0000000000000000     
  0.10993854920434674       0.20820723091427595        0.0000000000000000     
  0.11103144012737612       0.21633273061096411        0.0000000000000000     
  0.11205875118676888       0.22453372146675890        0.0000000000000000     
  0.11302048238252496       0.23281020348166026        0.0000000000000000     
  0.10083300484899053       0.19981021208206862        0.0000000000000000     
  0.10191691201554358       0.20788400929147974        0.0000000000000000     
  0.10293344065913747       0.21602923277978051        0.0000000000000000     
  0.10388259077977222       0.22424588254697095        0.0000000000000000     
  0.10476436237744780       0.23253395859305109        0.0000000000000000     
   9.3064051956861404E-002  0.19948989963994770        0.0000000000000000     
   9.4070520443367722E-002  0.20758690681929728        0.0000000000000000     
   9.5007568527468139E-002  0.21575305349222698        0.0000000000000000     
   9.5875196209162600E-002  0.22398833965873682        0.0000000000000000     
   9.6673403488451146E-002  0.23229276531882681        0.0000000000000000     
   8.5473219741293377E-002  0.19919628505033168        0.0000000000000000     
   8.6399374487819230E-002  0.20731592349772859        0.0000000000000000     
   8.7253823732368091E-002  0.21550419274830351        0.0000000000000000     
   8.8036567474940056E-002  0.22376109280205647        0.0000000000000000     
   8.8747605715535055E-002  0.23208662365898747        0.0000000000000000     
   7.8060508202286438E-002  0.19892936831322047        0.0000000000000000     
   7.8903474148898020E-002  0.20707105932677369        0.0000000000000000     
   7.9672206273837393E-002  0.21528265054801016        0.0000000000000000     
   8.0366704577104556E-002  0.22356414197692995        0.0000000000000000     
   8.0986969058699537E-002  0.23191553361353306        0.0000000000000000     
  0.11302048238252496       0.23281020348166026        0.0000000000000000     
  0.11394138581490545       0.24118175064441233        0.0000000000000000     
  0.11484621358417134       0.24966793694375908        0.0000000000000000     
  0.11573496569032264       0.25826876237970064        0.0000000000000000     
  0.11660764213335933       0.26698422695223689        0.0000000000000000     
  0.10476436237744780       0.23253395859305109        0.0000000000000000     
  0.10558208316502257       0.24091996377230360        0.0000000000000000     
  0.10633908085535496       0.24943040093901123        0.0000000000000000     
  0.10703535544844495       0.25806527009317387        0.0000000000000000     
  0.10767090694429252       0.26682457123479175        0.0000000000000000     
   9.6673403488451146E-002  0.23229276531882681        0.0000000000000000     
   9.7392577078390774E-002  0.24069575030135759        0.0000000000000000     
   9.8023103692038469E-002  0.24922671443518968        0.0000000000000000     
   9.8564983329394257E-002  0.25788565772032312        0.0000000000000000     
   9.9018215990458111E-002  0.26667258015675799        0.0000000000000000     
   8.8747605715535055E-002  0.23208662365898747        0.0000000000000000     
   8.9372867555010033E-002  0.24050911023157423        0.0000000000000000     
   8.9898282094221862E-002  0.24905687743229452        0.0000000000000000     
   9.0323849333170558E-002  0.25772992526114835        0.0000000000000000     
   9.0649569271856079E-002  0.26652825371813571        0.0000000000000000     
   8.0986969058699537E-002  0.23191553361353306        0.0000000000000000     
   8.1522954594880362E-002  0.24036004356295360        0.0000000000000000     
   8.1964616061905110E-002  0.24892088993032571        0.0000000000000000     
   8.2311953459773810E-002  0.25759807271564950        0.0000000000000000     
   8.2564966788486446E-002  0.26639159191892475        0.0000000000000000     
  0.11660764213335933       0.26698422695223689        0.0000000000000000     
  0.11740372132736693       0.27597969356490293        0.0000000000000000     
  0.11806268168643087       0.28542052512123356        0.0000000000000000     
  0.11858452321055121       0.29530672162122901        0.0000000000000000     
  0.11896924589972792       0.30563828306488916        0.0000000000000000     
  0.10767090694429252       0.26682457123479175        0.0000000000000000     
  0.10822606084117085       0.27584127633187705        0.0000000000000000     
  0.10868114263735308       0.28524835735244219        0.0000000000000000     
  0.10903615233283923       0.29504581429648735        0.0000000000000000     
  0.10929108992762923       0.30523364716401230        0.0000000000000000     
   9.9018215990458111E-002  0.26667258015675799        0.0000000000000000     
   9.9393334874320435E-002  0.27568668923846157        0.0000000000000000     
   9.9700873180071606E-002  0.28502719245940128        0.0000000000000000     
   9.9940830907711581E-002  0.29469408981957718        0.0000000000000000     
  0.10011320805724042       0.30468738131898909        0.0000000000000000     
   9.0649569271856079E-002  0.26652825371813571        0.0000000000000000     
   9.0905543426815658E-002  0.27551593228465654        0.0000000000000000     
   9.1121873314586377E-002  0.28475703044211076        0.0000000000000000     
   9.1298558935168334E-002  0.29425154819049837        0.0000000000000000     
   9.1435600288561431E-002  0.30399948552981942        0.0000000000000000     
   8.2564966788486446E-002  0.26639159191892475        0.0000000000000000     
   8.2762686498656521E-002  0.27532900547046180        0.0000000000000000     
   8.2944143040897506E-002  0.28443787130057058        0.0000000000000000     
   8.3109336415209428E-002  0.29371818940925110        0.0000000000000000     
   8.3258266621592303E-002  0.30316995979650341        0.0000000000000000     
   4.5160852082875069E-002   5.5911922180304469E-002   0.0000000000000000     
   4.7428936648818025E-002   6.2098887278015179E-002   0.0000000000000000     
   4.9677551440376715E-002   6.8386299986547036E-002   0.0000000000000000     
   5.1906696457551152E-002   7.4774160305900048E-002   0.0000000000000000     
   5.4116371700341323E-002   8.1262468236074206E-002   0.0000000000000000     
   4.1256754536689394E-002   5.6769828811324731E-002   0.0000000000000000     
   4.3147518749201037E-002   6.2544760307581465E-002   0.0000000000000000     
   4.5061772192926328E-002   6.8517541477184640E-002   0.0000000000000000     
   4.6999514867865265E-002   7.4688172320134250E-002   0.0000000000000000     
   4.8960746774017842E-002   8.1056652836430293E-002   0.0000000000000000     
   3.7306731553754267E-002   5.7458583157400885E-002   0.0000000000000000     
   3.8900841327333693E-002   6.2932138897040302E-002   0.0000000000000000     
   4.0541717587233503E-002   6.8668579478210451E-002   0.0000000000000000     
   4.2229360333453675E-002   7.4667904900911353E-002   0.0000000000000000     
   4.3963769565994217E-002   8.0930115165142980E-002   0.0000000000000000     
   3.3310783134069676E-002   5.7978185218532922E-002   0.0000000000000000     
   3.4688904383216007E-002   6.3261023046391654E-002   0.0000000000000000     
   3.6117387623298240E-002   6.8839413989624468E-002   0.0000000000000000     
   3.7596232854316389E-002   7.4713358048231329E-002   0.0000000000000000     
   3.9125440076270446E-002   8.0882855222212294E-002   0.0000000000000000     
   2.9268909277635632E-002   5.8328634994720865E-002   0.0000000000000000     
   3.0511707916847958E-002   6.3531412755635563E-002   0.0000000000000000     
   3.1788782301120547E-002   6.9030045011426691E-002   0.0000000000000000     
   3.3100132430453399E-002   7.4824531762094235E-002   0.0000000000000000     
   3.4445758304846530E-002   8.0914873007638166E-002   0.0000000000000000     
   5.4116371700341323E-002   8.1262468236074206E-002   0.0000000000000000     
   5.6265556591898948E-002   8.7844823518533510E-002   0.0000000000000000     
   5.8313230555375760E-002   9.4514825894742013E-002   0.0000000000000000     
   6.0259393590771766E-002  0.10127247536469970        0.0000000000000000     
   6.2104045698086953E-002  0.10811777192840658        0.0000000000000000     
   4.8960746774017842E-002   8.1056652836430293E-002   0.0000000000000000     
   5.0893627926507021E-002   8.7577425277645990E-002   0.0000000000000000     
   5.2746318340455747E-002   9.4204931895354532E-002   0.0000000000000000     
   5.4518818015864036E-002  0.10093917268955599        0.0000000000000000     
   5.6211126952731866E-002  0.10778014766025025        0.0000000000000000     
   4.3963769565994217E-002   8.0930115165142980E-002   0.0000000000000000     
   4.5690106636181026E-002   8.7386147565730848E-002   0.0000000000000000     
   4.7353532895339986E-002   9.3966939397500393E-002   0.0000000000000000     
   4.8954048343471106E-002  0.10067249066045161        0.0000000000000000     
   5.0491652980574377E-002  0.10750280135458451        0.0000000000000000     
   3.9125440076270446E-002   8.0882855222212294E-002   0.0000000000000000     
   4.0654992720920970E-002   8.7270990382788072E-002   0.0000000000000000     
   4.2134874220028470E-002   9.3800848401179512E-002   0.0000000000000000     
   4.3565084573592990E-002  0.10047242927738659        0.0000000000000000     
   4.4945623781614499E-002  0.10728573301140931        0.0000000000000000     
   3.4445758304846530E-002   8.0914873007638166E-002   0.0000000000000000     
   3.5788286180726825E-002   8.7231953728817688E-002   0.0000000000000000     
   3.7090342314521206E-002   9.3706658906391960E-002   0.0000000000000000     
   3.8351926706229673E-002  0.10033898854036091        0.0000000000000000     
   3.9573039355852227E-002  0.10712894263072466        0.0000000000000000     
   6.2104045698086953E-002  0.10811777192840658        0.0000000000000000     
   6.3858065207627560E-002  0.11506754127955424        0.0000000000000000     
   6.5532330449699777E-002  0.12213860911183433        0.0000000000000000     
   6.7126841424303640E-002  0.12933097542524688        0.0000000000000000     
   6.8641598131439108E-002  0.13664464021979186        0.0000000000000000     
   5.6211126952731866E-002  0.10778014766025025        0.0000000000000000     
   5.7826061219351098E-002  0.11473546745870060        0.0000000000000000     
   5.9366436884013600E-002  0.12181274273617021        0.0000000000000000     
   6.0832253946719358E-002  0.12901197349265905        0.0000000000000000     
   6.2223512407468373E-002  0.13633315972816712        0.0000000000000000     
   5.0491652980574377E-002  0.10750280135458451        0.0000000000000000     
   5.1963524856879981E-002  0.11445741784748528        0.0000000000000000     
   5.3366842022618065E-002  0.12153588650674010        0.0000000000000000     
   5.4701604477788657E-002  0.12873820733234898        0.0000000000000000     
   5.5967812222391729E-002  0.13606438032431190        0.0000000000000000     
   4.4945623781614499E-002  0.10728573301140931        0.0000000000000000     
   4.6270456120214173E-002  0.11423339244590827        0.0000000000000000     
   4.7533545865513192E-002  0.12130804042354408        0.0000000000000000     
   4.8734893017511521E-002  0.12850967694431675        0.0000000000000000     
   4.9874497576209195E-002  0.13583830200822627        0.0000000000000000     
   3.9573039355852227E-002  0.10712894263072466        0.0000000000000000     
   4.0746855009353704E-002  0.11406339125396957        0.0000000000000000     
   4.1866548412698948E-002  0.12112920448658211        0.0000000000000000     
   4.2932119565887966E-002  0.12832638232856233        0.0000000000000000     
   4.3943568468920752E-002  0.13565492477991017        0.0000000000000000     
   6.8641598131439108E-002  0.13664464021979186        0.0000000000000000     
   7.0079273545951171E-002  0.14407599681938241        0.0000000000000000     
   7.1442540642684738E-002  0.15162143854793156        0.0000000000000000     
   7.2731399421639809E-002  0.15928096540543937        0.0000000000000000     
   7.3945849882816383E-002  0.16705457739190582        0.0000000000000000     
   6.2223512407468373E-002  0.13633315972816712        0.0000000000000000     
   6.3542447025784043E-002  0.14377191557403857        0.0000000000000000     
   6.4791292561189762E-002  0.15132385516161756        0.0000000000000000     
   6.5970049013685528E-002  0.15898897849090399        0.0000000000000000     
   6.7078716383271328E-002  0.16676728556189802        0.0000000000000000     
   5.5967812222391729E-002  0.13606438032431190        0.0000000000000000     
   5.7167165207932753E-002  0.14350865349646666        0.0000000000000000     
   5.8301363385917175E-002  0.15106527486265092        0.0000000000000000     
   5.9370406756344966E-002  0.15873424442286471        0.0000000000000000     
   6.0374295319216155E-002  0.16651556217710811        0.0000000000000000     
   4.9874497576209195E-002  0.13583830200822627        0.0000000000000000     
   5.0953428092397293E-002  0.14328621058666657        0.0000000000000000     
   5.1972753116866943E-002  0.15084569765103167        0.0000000000000000     
   5.2932472649618131E-002  0.15851676320132149        0.0000000000000000     
   5.3832586690650851E-002  0.16629940723753611        0.0000000000000000     
   4.3943568468920752E-002  0.13565492477991017        0.0000000000000000     
   4.4901235679177663E-002  0.14310458684463842        0.0000000000000000     
   4.5805461754039087E-002  0.15066512352675981        0.0000000000000000     
   4.6656246693505009E-002  0.15833653482627438        0.0000000000000000     
   4.7453590497575422E-002  0.16611882074318204        0.0000000000000000     
   7.3945849882816383E-002  0.16705457739190582        0.0000000000000000     
   7.5085950754498754E-002  0.17491974273769734        0.0000000000000000     
   7.6151760764971224E-002  0.18285392967318026        0.0000000000000000     
   7.7143279914233781E-002  0.19085713819835468        0.0000000000000000     
   7.8060508202286438E-002  0.19892936831322047        0.0000000000000000     
   6.7078716383271328E-002  0.16676728556189802        0.0000000000000000     
   6.8117807770704322E-002  0.17463866370394976        0.0000000000000000     
   6.9087836276741657E-002  0.18258300024640958        0.0000000000000000     
   6.9988801901383305E-002  0.19060029518927743        0.0000000000000000     
   7.0820704644629293E-002  0.19869054853255330        0.0000000000000000     
   6.0374295319216155E-002  0.16651556217710811        0.0000000000000000     
   6.1313672504404226E-002  0.17439153498024929        0.0000000000000000     
   6.2189181741782680E-002  0.18234446968715659        0.0000000000000000     
   6.3000823031351516E-002  0.19037436629782994        0.0000000000000000     
   6.3748596373110755E-002  0.19848122481226940        0.0000000000000000     
   5.3832586690650851E-002  0.16629940723753611        0.0000000000000000     
   5.4673544955598459E-002  0.17417835656659589        0.0000000000000000     
   5.5455797160094328E-002  0.18213833799542128        0.0000000000000000     
   5.6179343304138422E-002  0.19017935152401225        0.0000000000000000     
   5.6844183387730764E-002  0.19830139715236880        0.0000000000000000     
   4.7453590497575422E-002  0.16611882074318204        0.0000000000000000     
   4.8197425124287041E-002  0.17399912846298959        0.0000000000000000     
   4.8887682531676573E-002  0.18196460517120364        0.0000000000000000     
   4.9524362719744010E-002  0.19001525086782431        0.0000000000000000     
   5.0107465688489360E-002  0.19815106555285145        0.0000000000000000     
   7.8060508202286438E-002  0.19892936831322047        0.0000000000000000     
   7.8903474148898020E-002  0.20707105932677369        0.0000000000000000     
   7.9672206273837393E-002  0.21528265054801016        0.0000000000000000     
   8.0366704577104556E-002  0.22356414197692995        0.0000000000000000     
   8.0986969058699537E-002  0.23191553361353306        0.0000000000000000     
   7.0820704644629293E-002  0.19869054853255330        0.0000000000000000     
   7.1580307927266759E-002  0.20685302527963154        0.0000000000000000     
   7.2264375170082842E-002  0.21508699043390642        0.0000000000000000     
   7.2872906373077542E-002  0.22339244399537789        0.0000000000000000     
   7.3405901536250859E-002  0.23176938596404600        0.0000000000000000     
   6.3748596373110755E-002  0.19848122481226940        0.0000000000000000     
   6.4427364323588088E-002  0.20666253232950130        0.0000000000000000     
   6.5031989439311308E-002  0.21491577594855174        0.0000000000000000     
   6.5562471720280388E-002  0.22324095566942095        0.0000000000000000     
   6.6018811166495356E-002  0.23163807149210877        0.0000000000000000     
   5.6844183387730764E-002  0.19830139715236880        0.0000000000000000     
   5.7444643337861999E-002  0.20649958047638281        0.0000000000000000     
   5.7975049081522803E-002  0.21476900709194632        0.0000000000000000     
   5.8435400618713142E-002  0.22310967699905909        0.0000000000000000     
   5.8825697949433056E-002  0.23152159019772137        0.0000000000000000     
   5.0107465688489360E-002  0.19815106555285145        0.0000000000000000     
   5.0632144970088493E-002  0.20636416972027630        0.0000000000000000     
   5.1093554096717300E-002  0.21464668386408994        0.0000000000000000     
   5.1491693068375775E-002  0.22299860798429250        0.0000000000000000     
   5.1826561885063918E-002  0.23141994208088376        0.0000000000000000     
   8.0986969058699537E-002  0.23191553361353306        0.0000000000000000     
   8.1522954594880362E-002  0.24036004356295360        0.0000000000000000     
   8.1964616061905110E-002  0.24892088993032571        0.0000000000000000     
   8.2311953459773810E-002  0.25759807271564950        0.0000000000000000     
   8.2564966788486446E-002  0.26639159191892475        0.0000000000000000     
   7.3405901536250859E-002  0.23176938596404600        0.0000000000000000     
   7.3860667922270293E-002  0.24023377176652844        0.0000000000000000     
   7.4234512793803345E-002  0.24880155682944285        0.0000000000000000     
   7.4527436150850043E-002  0.25747274115278923        0.0000000000000000     
   7.4739437993410346E-002  0.26624732473656759        0.0000000000000000     
   6.6018811166495356E-002  0.23163807149210877        0.0000000000000000     
   6.6403837261448398E-002  0.24011551631333153        0.0000000000000000     
   6.6720379488631659E-002  0.24868168302980531        0.0000000000000000     
   6.6968437848045195E-002  0.25733657164153023        0.0000000000000000     
   6.7148012339688951E-002  0.26608018214850632        0.0000000000000000     
   5.8825697949433056E-002  0.23152159019772137        0.0000000000000000     
   5.9152462612414636E-002  0.24000527720336276        0.0000000000000000     
   5.9422216146390039E-002  0.24856126853141319        0.0000000000000000     
   5.9634958551359231E-002  0.25718956418187255        0.0000000000000000     
   5.9790689827322260E-002  0.26589016415474093        0.0000000000000000     
   5.1826561885063918E-002  0.23141994208088376        0.0000000000000000     
   5.2106543975169048E-002  0.23990305443662230        0.0000000000000000     
   5.2340022767078484E-002  0.24844031333426642        0.0000000000000000     
   5.2526998260792220E-002  0.25703171877381614        0.0000000000000000     
   5.2667470456310261E-002  0.26567727075527142        0.0000000000000000     
   8.2564966788486446E-002  0.26639159191892475        0.0000000000000000     
   8.2762686498656521E-002  0.27532900547046180        0.0000000000000000     
   8.2944143040897506E-002  0.28443787130057058        0.0000000000000000     
   8.3109336415209428E-002  0.29371818940925110        0.0000000000000000     
   8.3258266621592303E-002  0.30316995979650341        0.0000000000000000     
   7.4739437993410346E-002  0.26624732473656759        0.0000000000000000     
   7.4911791243421066E-002  0.27512021714679269        0.0000000000000000     
   7.5085768822819005E-002  0.28408632794947924        0.0000000000000000     
   7.5261370731604132E-002  0.29314565714462720        0.0000000000000000     
   7.5438596969776464E-002  0.30229820473223673        0.0000000000000000     
   6.7148012339688951E-002  0.26608018214850632        0.0000000000000000     
   6.7299884814687405E-002  0.27488387566456429        0.0000000000000000     
   6.7464837124164956E-002  0.28371901330353505        0.0000000000000000     
   6.7642869268121630E-002  0.29258559506541859        0.0000000000000000     
   6.7833981246557387E-002  0.30148362095021491        0.0000000000000000     
   5.9790689827322260E-002  0.26589016415474093        0.0000000000000000     
   5.9926967212455481E-002  0.27461998102377666        0.0000000000000000     
   6.0081347944935366E-002  0.28333592736273799        0.0000000000000000     
   6.0253832024761901E-002  0.29203800317162515        0.0000000000000000     
   6.0444419451935079E-002  0.30072620845043802        0.0000000000000000     
   5.2667470456310261E-002  0.26567727075527142        0.0000000000000000     
   5.2793038436725351E-002  0.27432853322442968        0.0000000000000000     
   5.2935301285130257E-002  0.28293707012708824        0.0000000000000000     
   5.3094259001524979E-002  0.29150288146324704        0.0000000000000000     
   5.3269911585909512E-002  0.30002596723290609        0.0000000000000000     
   2.9268909277635632E-002   5.8328634994720865E-002   0.0000000000000000     
   3.0511707916847958E-002   6.3531412755635563E-002   0.0000000000000000     
   3.1788782301120547E-002   6.9030045011426691E-002   0.0000000000000000     
   3.3100132430453399E-002   7.4824531762094235E-002   0.0000000000000000     
   3.4445758304846530E-002   8.0914873007638166E-002   0.0000000000000000     
   2.5275320064372366E-002   5.8597931734690578E-002   0.0000000000000000     
   2.6409807334340871E-002   6.3769371188325083E-002   0.0000000000000000     
   2.7557162550045020E-002   6.9224516492915861E-002   0.0000000000000000     
   2.8717385711484807E-002   7.4963367648462897E-002   0.0000000000000000     
   2.9890476818660243E-002   8.0985924654966221E-002   0.0000000000000000     
   2.1424225574200109E-002   5.8874074687167904E-002   0.0000000000000000     
   2.2423758041806071E-002   6.4000961508013238E-002   0.0000000000000000     
   2.3423789299416267E-002   6.9406872383390703E-002   0.0000000000000000     
   2.4424319347030703E-002   7.5091807313300285E-002   0.0000000000000000     
   2.5425348184649376E-002   8.1055766297741999E-002   0.0000000000000000     
   1.7715625807118857E-002   5.9157063852152872E-002   0.0000000000000000     
   1.8553560039243550E-002   6.4226183714700055E-002   0.0000000000000000     
   1.9388662549234287E-002   6.9577112682851203E-002   0.0000000000000000     
   2.0220933337091084E-002   7.5209850756606370E-002   0.0000000000000000     
   2.1050372402813929E-002   8.1124397935965500E-002   0.0000000000000000     
   1.4149520763128615E-002   5.9446899229645467E-002   0.0000000000000000     
   1.4799213326653311E-002   6.4445037808385508E-002   0.0000000000000000     
   1.5451782299499086E-002   6.9735237391297417E-002   0.0000000000000000     
   1.6107227681665951E-002   7.5317497978381165E-002   0.0000000000000000     
   1.6765549473153899E-002   8.1191819569636753E-002   0.0000000000000000     
   3.4445758304846530E-002   8.0914873007638166E-002   0.0000000000000000     
   3.5788286180726825E-002   8.7231953728817688E-002   0.0000000000000000     
   3.7090342314521206E-002   9.3706658906391960E-002   0.0000000000000000     
   3.8351926706229673E-002  0.10033898854036091        0.0000000000000000     
   3.9573039355852227E-002  0.10712894263072466        0.0000000000000000     
   2.9890476818660243E-002   8.0985924654966221E-002   0.0000000000000000     
   3.1053145943487539E-002   8.7236096946806535E-002   0.0000000000000000     
   3.2182103157882926E-002   9.3657793958364599E-002   0.0000000000000000     
   3.3277348461846407E-002  0.10025101568964036        0.0000000000000000     
   3.4338881855377971E-002  0.10701576214063387        0.0000000000000000     
   2.5425348184649376E-002   8.1055766297741999E-002   0.0000000000000000     
   2.6412730937092010E-002   8.7250479379741494E-002   0.0000000000000000     
   2.7372322729178354E-002   9.3627676602324350E-002   0.0000000000000000     
   2.8304123560908393E-002  0.10018735796549059        0.0000000000000000     
   2.9208133432282134E-002  0.10692952346924026        0.0000000000000000     
   2.1050372402813929E-002   8.1124397935965500E-002   0.0000000000000000     
   2.1867041161540254E-002   8.7275101027622495E-002   0.0000000000000000     
   2.2661001028407492E-002   9.3616306838271227E-002   0.0000000000000000     
   2.3432252003415650E-002  0.10014801536791169        0.0000000000000000     
   2.4180794086564719E-002  0.10687022661654386        0.0000000000000000     
   1.6765549473153899E-002   8.1191819569636753E-002   0.0000000000000000     
   1.7416076616832258E-002   8.7309961890449608E-002   0.0000000000000000     
   1.8048138055570349E-002   9.3623684666205229E-002   0.0000000000000000     
   1.8661733789368168E-002  0.10013298789690359        0.0000000000000000     
   1.9256863818225722E-002  0.10683787158254465        0.0000000000000000     
   3.9573039355852227E-002  0.10712894263072466        0.0000000000000000     
   4.0746855009353704E-002  0.11406339125396957        0.0000000000000000     
   4.1866548412698948E-002  0.12112920448658211        0.0000000000000000     
   4.2932119565887966E-002  0.12832638232856233        0.0000000000000000     
   4.3943568468920752E-002  0.13565492477991017        0.0000000000000000     
   3.4338881855377971E-002  0.10701576214063387        0.0000000000000000     
   3.5360430986046069E-002  0.11393430691053773        0.0000000000000000     
   3.6335723501419129E-002  0.12098892359854466        0.0000000000000000     
   3.7264759401497170E-002  0.12817961220465457        0.0000000000000000     
   3.8147538686280166E-002  0.13550637272886756        0.0000000000000000     
   2.9208133432282134E-002  0.10692952346924026        0.0000000000000000     
   3.0078893512038768E-002  0.11383303205448141        0.0000000000000000     
   3.0910944968917494E-002  0.12087674266212213        0.0000000000000000     
   3.1704287802918313E-002  0.12806065529216243        0.0000000000000000     
   3.2458922014041235E-002  0.13538476994460230        0.0000000000000000     
   2.4180794086564719E-002  0.10687022661654386        0.0000000000000000     
   2.4902242587331813E-002  0.11375956668580055        0.0000000000000000     
   2.5592212815194047E-002  0.12079266167731455        0.0000000000000000     
   2.6250704770151425E-002  0.12796951159108585        0.0000000000000000     
   2.6877718452203932E-002  0.13529011642711444        0.0000000000000000     
   1.9256863818225722E-002  0.10683787158254465        0.0000000000000000     
   1.9830478211925202E-002  0.11371391080449518        0.0000000000000000     
   2.0379527040248781E-002  0.12073668064412191        0.0000000000000000     
   2.0904010303196476E-002  0.12790618110142485        0.0000000000000000     
   2.1403928000768273E-002  0.13522241217640393        0.0000000000000000     
   4.3943568468920752E-002  0.13565492477991017        0.0000000000000000     
   4.4901235679177663E-002  0.14310458684463842        0.0000000000000000     
   4.5805461754039087E-002  0.15066512352675981        0.0000000000000000     
   4.6656246693505009E-002  0.15833653482627438        0.0000000000000000     
   4.7453590497575422E-002  0.16611882074318204        0.0000000000000000     
   3.8147538686280166E-002  0.13550637272886756        0.0000000000000000     
   3.8983720128780534E-002  0.14295632888628992        0.0000000000000000     
   3.9772962502010664E-002  0.15051660439202821        0.0000000000000000     
   4.0515265805970542E-002  0.15818719924608238        0.0000000000000000     
   4.1210630040660189E-002  0.16596811344845241        0.0000000000000000     
   3.2458922014041235E-002  0.13538476994460230        0.0000000000000000     
   3.3174013601712599E-002  0.14283398332752900        0.0000000000000000     
   3.3848728565358761E-002  0.15039319214902983        0.0000000000000000     
   3.4483066904979716E-002  0.15806239640910469        0.0000000000000000     
   3.5077028620575469E-002  0.16584159610775365        0.0000000000000000     
   2.6877718452203932E-002  0.13529011642711444        0.0000000000000000     
   2.7472116097973832E-002  0.14273755016835557        0.0000000000000000     
   2.8032759944083351E-002  0.15029488679776454        0.0000000000000000     
   2.8559649990532503E-002  0.15796212631534129        0.0000000000000000     
   2.9052786237321278E-002  0.16573926872108588        0.0000000000000000     
   2.1403928000768273E-002  0.13522241217640393        0.0000000000000000     
   2.1878027617564244E-002  0.14266702940876966        0.0000000000000000     
   2.2325056638184456E-002  0.15022168833823241        0.0000000000000000     
   2.2745015062628909E-002  0.15788638896479215        0.0000000000000000     
   2.3137902890897601E-002  0.16566113128844898        0.0000000000000000     
   4.7453590497575422E-002  0.16611882074318204        0.0000000000000000     
   4.8197425124287041E-002  0.17399912846298959        0.0000000000000000     
   4.8887682531676573E-002  0.18196460517120364        0.0000000000000000     
   4.9524362719744010E-002  0.19001525086782431        0.0000000000000000     
   5.0107465688489360E-002  0.19815106555285145        0.0000000000000000     
   4.1210630040660189E-002  0.16596811344845241        0.0000000000000000     
   4.1858427576282733E-002  0.17384871890365614        0.0000000000000000     
   4.2458030783041313E-002  0.18181838751621140        0.0000000000000000     
   4.3009439660935955E-002  0.18987711928611825        0.0000000000000000     
   4.3512654209966639E-002  0.19802491421337662        0.0000000000000000     
   3.5077028620575469E-002  0.16584159610775365        0.0000000000000000     
   3.5629666877398297E-002  0.17372199612282133        0.0000000000000000     
   3.6140034840700434E-002  0.18169480133215218        0.0000000000000000     
   3.6608132510481901E-002  0.18976001173574630        0.0000000000000000     
   3.7033959886742684E-002  0.19791762733360363        0.0000000000000000     
   2.9052786237321278E-002  0.16573926872108588        0.0000000000000000     
   2.9511143027633739E-002  0.17361896012048514        0.0000000000000000     
   2.9933694704653929E-002  0.18159384661902600        0.0000000000000000     
   3.0320441268381855E-002  0.18966392821670844        0.0000000000000000     
   3.0671382718817520E-002  0.19782920491353254        0.0000000000000000     
   2.3137902890897601E-002  0.16566113128844898        0.0000000000000000     
   2.3502856026989059E-002  0.17353961089664760        0.0000000000000000     
   2.3839010374901798E-002  0.18151552337683283        0.0000000000000000     
   2.4146365934635823E-002  0.18958886872900471        0.0000000000000000     
   2.4424922706191135E-002  0.19775964695316320        0.0000000000000000     
   5.0107465688489360E-002  0.19815106555285145        0.0000000000000000     
   5.0632144970088493E-002  0.20636416972027630        0.0000000000000000     
   5.1093554096717300E-002  0.21464668386408994        0.0000000000000000     
   5.1491693068375775E-002  0.22299860798429250        0.0000000000000000     
   5.1826561885063918E-002  0.23141994208088376        0.0000000000000000     
   4.3512654209966639E-002  0.19802491421337662        0.0000000000000000     
   4.3964200381343403E-002  0.20625072635023167        0.0000000000000000     
   4.4360604126276307E-002  0.21454350974892841        0.0000000000000000     
   4.4701865444765371E-002  0.22290326440946689        0.0000000000000000     
   4.4987984336810560E-002  0.23132999033184712        0.0000000000000000     
   3.7033959886742684E-002  0.19791762733360363        0.0000000000000000     
   3.7415140732702579E-002  0.20615367665529910        0.0000000000000000     
   3.7749298811581358E-002  0.21445418823040732        0.0000000000000000     
   3.8036434123379002E-002  0.22281916205892852        0.0000000000000000     
   3.8276546668095560E-002  0.23124859814086254        0.0000000000000000     
   3.0671382718817520E-002  0.19782920491353254        0.0000000000000000     
   3.0984966024166002E-002  0.20607302063547853        0.0000000000000000     
   3.1259638152632392E-002  0.21437871930852676        0.0000000000000000     
   3.1495399104216705E-002  0.22274630093267725        0.0000000000000000     
   3.1692248878918923E-002  0.23117576550793001        0.0000000000000000     
   2.4424922706191135E-002  0.19775964695316320        0.0000000000000000     
   2.4673676255733693E-002  0.20600875829076998        0.0000000000000000     
   2.4891622149429464E-002  0.21431710298328663        0.0000000000000000     
   2.5078760387278451E-002  0.22268468103071315        0.0000000000000000     
   2.5235090969280650E-002  0.23111149243304957        0.0000000000000000     
   5.1826561885063918E-002  0.23141994208088376        0.0000000000000000     
   5.2106543975169048E-002  0.23990305443662230        0.0000000000000000     
   5.2340022767078484E-002  0.24844031333426642        0.0000000000000000     
   5.2526998260792220E-002  0.25703171877381614        0.0000000000000000     
   5.2667470456310261E-002  0.26567727075527142        0.0000000000000000     
   4.4987984336810560E-002  0.23132999033184712        0.0000000000000000     
   4.5227921422185277E-002  0.23980849768562898        0.0000000000000000     
   4.5430637320662902E-002  0.24832359664037251        0.0000000000000000     
   4.5596132032243442E-002  0.25687528719607761        0.0000000000000000     
   4.5724405556926903E-002  0.26546356935274434        0.0000000000000000     
   3.8276546668095560E-002  0.23124859814086254        0.0000000000000000     
   3.8478435025936966E-002  0.23972125662290189        0.0000000000000000     
   3.8650897777109186E-002  0.24821589765173890        0.0000000000000000     
   3.8793934921612240E-002  0.25673252122737361        0.0000000000000000     
   3.8907546459446121E-002  0.26527112734980601        0.0000000000000000     
   3.1692248878918923E-002  0.23117576550793001        0.0000000000000000     
   3.1858084786424122E-002  0.23964133124844084        0.0000000000000000     
   3.2000804136417350E-002  0.24811721636836553        0.0000000000000000     
   3.2120406928898622E-002  0.25660342086770410        0.0000000000000000     
   3.2216893163867937E-002  0.26509994474645643        0.0000000000000000     
   2.5235090969280650E-002  0.23111149243304957        0.0000000000000000     
   2.5366870703646738E-002  0.23956872156224601        0.0000000000000000     
   2.5480356398587381E-002  0.24802755279025246        0.0000000000000000     
   2.5575548054102580E-002  0.25648798611706902        0.0000000000000000     
   2.5652445670192335E-002  0.26495002154269570        0.0000000000000000     
   5.2667470456310261E-002  0.26567727075527142        0.0000000000000000     
   5.2793038436725351E-002  0.27432853322442968        0.0000000000000000     
   5.2935301285130257E-002  0.28293707012708824        0.0000000000000000     
   5.3094259001524979E-002  0.29150288146324704        0.0000000000000000     
   5.3269911585909512E-002  0.30002596723290609        0.0000000000000000     
   4.5724405556926903E-002  0.26546356935274434        0.0000000000000000     
   4.5840388250689847E-002  0.27403894926850558        0.0000000000000000     
   4.5969010469508874E-002  0.28255193310149435        0.0000000000000000     
   4.6110272213383999E-002  0.29100252085171058        0.0000000000000000     
   4.6264173482315180E-002  0.29939071251915422        0.0000000000000000     
   3.8907546459446121E-002  0.26527112734980601        0.0000000000000000     
   3.9011306417541872E-002  0.27378064615798642        0.0000000000000000     
   3.9124788822830533E-002  0.28221000779086508        0.0000000000000000     
   3.9247993675312100E-002  0.29055921224844217        0.0000000000000000     
   3.9380920974986577E-002  0.29882825953071757        0.0000000000000000     
   3.2216893163867937E-002  0.26509994474645643        0.0000000000000000     
   3.2305792937281426E-002  0.27355362389287219        0.0000000000000000     
   3.2402636345095208E-002  0.28191129419520067        0.0000000000000000     
   3.2507423387309289E-002  0.29017295565344198        0.0000000000000000     
   3.2620154063923677E-002  0.29833860826759617        0.0000000000000000     
   2.5652445670192335E-002  0.26495002154269570        0.0000000000000000     
   2.5723847809908496E-002  0.27335788247316284        0.0000000000000000     
   2.5802553036302911E-002  0.28165579231450094        0.0000000000000000     
   2.5888561349375578E-002  0.28984375106670995        0.0000000000000000     
   2.5981872749126503E-002  0.29792175872978999        0.0000000000000000     
   1.4149520763128615E-002   5.9446899229645467E-002   0.0000000000000000     
   1.4799213326653311E-002   6.4445037808385508E-002   0.0000000000000000     
   1.5451782299499086E-002   6.9735237391297417E-002   0.0000000000000000     
   1.6107227681665951E-002   7.5317497978381165E-002   0.0000000000000000     
   1.6765549473153899E-002   8.1191819569636753E-002   0.0000000000000000     
   1.0644032453599545E-002   5.9703500402923562E-002   0.0000000000000000     
   1.1101946693034425E-002   6.4633749090922177E-002   0.0000000000000000     
   1.1570228156146552E-002   6.9868295940119035E-002   0.0000000000000000     
   1.2048876842935929E-002   7.5407140950514123E-002   0.0000000000000000     
   1.2537892753402557E-002   8.1250284122107413E-002   0.0000000000000000     
   7.1172828899018058E-003   5.9886786955265003E-002   0.0000000000000000     
   7.4029889273859659E-003   6.4768542864162587E-002   0.0000000000000000     
   7.7010797251125798E-003   6.9963337760705804E-002   0.0000000000000000     
   8.0115552830816467E-003   7.5471171644894683E-002   0.0000000000000000     
   8.3344156012931658E-003   8.1292044516729223E-002   0.0000000000000000     
   3.5692720720354007E-003   5.9996758886669839E-002   0.0000000000000000     
   3.7023400297079350E-003   6.4849419128106725E-002   0.0000000000000000     
   3.8443370063971673E-003   7.0020362853057738E-002   0.0000000000000000     
   3.9952630021030978E-003   7.5509590061522872E-002   0.0000000000000000     
   4.1551180168257259E-003   8.1317100753502153E-002   0.0000000000000000     
   3.2829641782861074E-016   6.0033416197138020E-002   0.0000000000000000     
   3.3133218391157016E-016   6.4876377882754591E-002   0.0000000000000000     
   3.1723755566925860E-016   7.0039371217174823E-002   0.0000000000000000     
   2.8617516342754890E-016   7.5522396200398703E-002   0.0000000000000000     
   2.3613923316734287E-016   8.1325452832426232E-002   0.0000000000000000     
   1.6765549473153899E-002   8.1191819569636753E-002   0.0000000000000000     
   1.7416076616832258E-002   8.7309961890449608E-002   0.0000000000000000     
   1.8048138055570349E-002   9.3623684666205229E-002   0.0000000000000000     
   1.8661733789368168E-002  0.10013298789690359        0.0000000000000000     
   1.9256863818225722E-002  0.10683787158254465        0.0000000000000000     
   1.2537892753402557E-002   8.1250284122107413E-002   0.0000000000000000     
   1.3024870381315666E-002   8.7344944801962227E-002   0.0000000000000000     
   1.3497404220444490E-002   9.3638342337141814E-002   0.0000000000000000     
   1.3955494270789032E-002  0.10013047672764619        0.0000000000000000     
   1.4399140532349286E-002  0.10682134797347534        0.0000000000000000     
   8.3344156012931658E-003   8.1292044516729223E-002   0.0000000000000000     
   8.6584555333381226E-003   8.7369932595899716E-002   0.0000000000000000     
   8.9724699328075051E-003   9.3648812102096440E-002   0.0000000000000000     
   9.2764587997013065E-003  0.10012868303531940        0.0000000000000000     
   9.5704221340195302E-003  0.10680954539556863        0.0000000000000000     
   4.1551180168257259E-003   8.1317100753502153E-002   0.0000000000000000     
   4.3168320728996287E-003   8.7384925272262048E-002   0.0000000000000000     
   4.4733351926593860E-003   9.3655093961069080E-002   0.0000000000000000     
   4.6246273761049971E-003  0.10012760681992325        0.0000000000000000     
   4.7707086232364618E-003  0.10680246384882454        0.0000000000000000     
   2.3613923316734287E-016   8.1325452832426232E-002   0.0000000000000000     
   1.8236280541206185E-016   8.7389922831049294E-002   0.0000000000000000     
   1.3991629035925435E-016   9.3657187914059775E-002   0.0000000000000000     
   1.0295854880465471E-016  0.10012724808145772        0.0000000000000000     
   7.7195194680967916E-017  0.10680010333324307        0.0000000000000000     
   1.9256863818225722E-002  0.10683787158254465        0.0000000000000000     
   1.9830478211925202E-002  0.11371391080449518        0.0000000000000000     
   2.0379527040248781E-002  0.12073668064412191        0.0000000000000000     
   2.0904010303196476E-002  0.12790618110142485        0.0000000000000000     
   2.1403928000768273E-002  0.13522241217640393        0.0000000000000000     
   1.4399140532349286E-002  0.10682134797347534        0.0000000000000000     
   1.4826582498112546E-002  0.11368612855907975        0.0000000000000000     
   1.5236059661066108E-002  0.12069999096890989        0.0000000000000000     
   1.5627572021209967E-002  0.12786293520296574        0.0000000000000000     
   1.6001119578544127E-002  0.13517496126124734        0.0000000000000000     
   9.5704221340195302E-003  0.10680954539556863        0.0000000000000000     
   9.8535375581874727E-003  0.11366628409806868        0.0000000000000000     
   1.0124982694630429E-002  0.12067378405804412        0.0000000000000000     
   1.0384757543348399E-002  0.12783204527549497        0.0000000000000000     
   1.0632862104341377E-002  0.13514106775042117        0.0000000000000000     
   4.7707086232364618E-003  0.10680246384882454        0.0000000000000000     
   4.9113433921499769E-003  0.11365437742146199        0.0000000000000000     
   5.0462961409417422E-003  0.12065805991152462        0.0000000000000000     
   5.1755668696117571E-003  0.12781351131901242        0.0000000000000000     
   5.2991555781600206E-003  0.13512073164392541        0.0000000000000000     
   7.7195194680967916E-017  0.10680010333324307        0.0000000000000000     
   5.9414279052205643E-017  0.11365040852925967        0.0000000000000000     
   5.0523821237824507E-017  0.12065281852935138        0.0000000000000000     
   4.9385408956714727E-017  0.12780733333351818        0.0000000000000000     
   5.7245874707234634E-017  0.13511395294176010        0.0000000000000000     
   2.1403928000768273E-002  0.13522241217640393        0.0000000000000000     
   2.1878027617564244E-002  0.14266702940876966        0.0000000000000000     
   2.2325056638184456E-002  0.15022168833823241        0.0000000000000000     
   2.2745015062628909E-002  0.15788638896479215        0.0000000000000000     
   2.3137902890897601E-002  0.16566113128844898        0.0000000000000000     
   1.6001119578544127E-002  0.13517496126124734        0.0000000000000000     
   1.6355512914907739E-002  0.14261666041895152        0.0000000000000000     
   1.6689562612139955E-002  0.15016862395127500        0.0000000000000000     
   1.7003268670240775E-002  0.15783085185821794        0.0000000000000000     
   1.7296631089210202E-002  0.16560334413978017        0.0000000000000000     
   1.0632862104341377E-002  0.13514106775042117        0.0000000000000000     
   1.0868336744428208E-002  0.14258068256908132        0.0000000000000000     
   1.1090221830427727E-002  0.15013072081773401        0.0000000000000000     
   1.1298517362339933E-002  0.15779118249637913        0.0000000000000000     
   1.1493223340164827E-002  0.16556206760501677        0.0000000000000000     
   5.2991555781600206E-003  0.13512073164392541        0.0000000000000000     
   5.4164991061256534E-003  0.14255909585915924        0.0000000000000000     
   5.5270342930477745E-003  0.15010797893760933        0.0000000000000000     
   5.6307611389263866E-003  0.15776738087927583        0.0000000000000000     
   5.7276796437614862E-003  0.16553730168415864        0.0000000000000000     
   5.7245874707234634E-017  0.13511395294176010        0.0000000000000000     
   7.3725747729014302E-017  0.14255190028918507        0.0000000000000000     
   9.7795035958192500E-017  0.15010039831090102        0.0000000000000000     
   1.3135109319661886E-016  0.15775944700690794        0.0000000000000000     
   1.7217130499069810E-016  0.16552904637720586        0.0000000000000000     
   2.3137902890897601E-002  0.16566113128844898        0.0000000000000000     
   2.3502856026989059E-002  0.17353961089664760        0.0000000000000000     
   2.3839010374901798E-002  0.18151552337683283        0.0000000000000000     
   2.4146365934635823E-002  0.18958886872900471        0.0000000000000000     
   2.4424922706191135E-002  0.19775964695316320        0.0000000000000000     
   1.7296631089210202E-002  0.16560334413978017        0.0000000000000000     
   1.7569051093238700E-002  0.17348054329138288        0.0000000000000000     
   1.7819929906516745E-002  0.18145689180844696        0.0000000000000000     
   1.8049267529044326E-002  0.18953238969097258        0.0000000000000000     
   1.8257063960821454E-002  0.19770703693895961        0.0000000000000000     
   1.1493223340164827E-002  0.16556206760501677        0.0000000000000000     
   1.1673973444157106E-002  0.17343835214476516        0.0000000000000000     
   1.1840401354571465E-002  0.18141501211674280        0.0000000000000000     
   1.1992507071407903E-002  0.18949204752094961        0.0000000000000000     
   1.2130290594666420E-002  0.19766945835738564        0.0000000000000000     
   5.7276796437614862E-003  0.16553730168415864        0.0000000000000000     
   5.8176230797442772E-003  0.17341303745679457        0.0000000000000000     
   5.9004247190659635E-003  0.18138988430172032        0.0000000000000000     
   5.9760845617265477E-003  0.18946784221893584        0.0000000000000000     
   6.0446026077260280E-003  0.19764691120844124        0.0000000000000000     
   1.7217130499069810E-016  0.16552904637720586        0.0000000000000000     
   2.1337098754514727E-016  0.17340459922747095        0.0000000000000000     
   2.4372864837474140E-016  0.18138150836337943        0.0000000000000000     
   2.6541269182445149E-016  0.18945977378493126        0.0000000000000000     
   2.7668839441830073E-016  0.19763939549212639        0.0000000000000000     
   2.4424922706191135E-002  0.19775964695316320        0.0000000000000000     
   2.4673676255733693E-002  0.20600875829076998        0.0000000000000000     
   2.4891622149429464E-002  0.21431710298328663        0.0000000000000000     
   2.5078760387278451E-002  0.22268468103071315        0.0000000000000000     
   2.5235090969280650E-002  0.23111149243304957        0.0000000000000000     
   1.8257063960821454E-002  0.19770703693895961        0.0000000000000000     
   1.8442686015965215E-002  0.20595970097201149        0.0000000000000000     
   1.8605500508592693E-002  0.21426924920973170        0.0000000000000000     
   1.8745507438703891E-002  0.22263568165212017        0.0000000000000000     
   1.8862706806298809E-002  0.23105899829917698        0.0000000000000000     
   1.2130290594666420E-002  0.19766945835738564        0.0000000000000000     
   1.2253409893420154E-002  0.20592466003004120        0.0000000000000000     
   1.2361522936742237E-002  0.21423506794290681        0.0000000000000000     
   1.2454629724632673E-002  0.22260068209598238        0.0000000000000000     
   1.2532730257091458E-002  0.23102150248926798        0.0000000000000000     
   6.0446026077260280E-003  0.19764691120844124        0.0000000000000000     
   6.1058478880985090E-003  0.20590363546485904        0.0000000000000000     
   6.1596894338780961E-003  0.21421455918281185        0.0000000000000000     
   6.2061272450647936E-003  0.22257968236229972        0.0000000000000000     
   6.2451613216585964E-003  0.23099900500332263        0.0000000000000000     
   2.7668839441830073E-016  0.19763939549212639        0.0000000000000000     
   2.7820627745978044E-016  0.20589662727646496        0.0000000000000000     
   2.7246000594560726E-016  0.21420772292944690        0.0000000000000000     
   2.5373041341592018E-016  0.22257268245107217        0.0000000000000000     
   2.2768245622195593E-016  0.23099150584134084        0.0000000000000000     
   2.5235090969280650E-002  0.23111149243304957        0.0000000000000000     
   2.5366870703646738E-002  0.23956872156224601        0.0000000000000000     
   2.5480356398587381E-002  0.24802755279025246        0.0000000000000000     
   2.5575548054102580E-002  0.25648798611706902        0.0000000000000000     
   2.5652445670192335E-002  0.26495002154269570        0.0000000000000000     
   1.8862706806298809E-002  0.23105899829917698        0.0000000000000000     
   1.8961456781361598E-002  0.23950838870044192        0.0000000000000000     
   1.9046115533876411E-002  0.24795304240545490        0.0000000000000000     
   1.9116683063843242E-002  0.25639295941421597        0.0000000000000000     
   1.9173159371262100E-002  0.26482813972672514        0.0000000000000000     
   1.2532730257091458E-002  0.23102150248926798        0.0000000000000000     
   1.2598507023325461E-002  0.23946529379915329        0.0000000000000000     
   1.2654642512541557E-002  0.24789982070202812        0.0000000000000000     
   1.2701136724739737E-002  0.25632508319789238        0.0000000000000000     
   1.2737989659920011E-002  0.26474108128674612        0.0000000000000000     
   6.2451613216585964E-003  0.23099900500332263        0.0000000000000000     
   6.2780214295383302E-003  0.23943943685838021        0.0000000000000000     
   6.3059373345828226E-003  0.24786788767997206        0.0000000000000000     
   6.3289090367920691E-003  0.25628435746809819        0.0000000000000000     
   6.3469365361660699E-003  0.26468884622275873        0.0000000000000000     
   2.2768245622195593E-016  0.23099150584134084        0.0000000000000000     
   2.0643209364124004E-016  0.23943081787812251        0.0000000000000000     
   2.0870891820345960E-016  0.24785724333928674        0.0000000000000000     
   2.3215479018345864E-016  0.25627078222483352        0.0000000000000000     
   2.7885679876327174E-016  0.26467143453476288        0.0000000000000000     
   2.5652445670192335E-002  0.26495002154269570        0.0000000000000000     
   2.5723847809908496E-002  0.27335788247316284        0.0000000000000000     
   2.5802553036302911E-002  0.28165579231450094        0.0000000000000000     
   2.5888561349375578E-002  0.28984375106670995        0.0000000000000000     
   2.5981872749126503E-002  0.29792175872978999        0.0000000000000000     
   1.9173159371262100E-002  0.26482813972672514        0.0000000000000000     
   1.9225986608592361E-002  0.27320029410078184        0.0000000000000000     
   1.9285606928293411E-002  0.28145113329418570        0.0000000000000000     
   1.9352020330365250E-002  0.28958065730693677        0.0000000000000000     
   1.9425226814807878E-002  0.29758886613903496        0.0000000000000000     
   1.2737989659920011E-002  0.26474108128674612        0.0000000000000000     
   1.2772724906502286E-002  0.27308773097765249        0.0000000000000000     
   1.2812866052906484E-002  0.28130494827967484        0.0000000000000000     
   1.2858413099132601E-002  0.28939273319281300        0.0000000000000000     
   1.2909366045180634E-002  0.29735108571706709        0.0000000000000000     
   6.3469365361660699E-003  0.26468884622275873        0.0000000000000000     
   6.3640627036382754E-003  0.27302019310377490        0.0000000000000000     
   6.3843304101421292E-003  0.28121723727096826        0.0000000000000000     
   6.4077396556776320E-003  0.28927997872433875        0.0000000000000000     
   6.4342904402447838E-003  0.29720841746388643        0.0000000000000000     
   2.7885679876327174E-016  0.26467143453476288        0.0000000000000000     
   3.2352592826967452E-016  0.27299768047914902        0.0000000000000000     
   3.4607733345737302E-016  0.28118800026806601        0.0000000000000000     
   3.4260788650541940E-016  0.28924239390151402        0.0000000000000000     
   3.1745439610375570E-016  0.29716086137949288        0.0000000000000000     
   3.2829641782861074E-016   6.0033416197138020E-002   0.0000000000000000     
   3.3133218391157016E-016   6.4876377882754591E-002   0.0000000000000000     
   3.1723755566925860E-016   7.0039371217174823E-002   0.0000000000000000     
   2.8617516342754890E-016   7.5522396200398703E-002   0.0000000000000000     
   2.3613923316734287E-016   8.1325452832426232E-002   0.0000000000000000     
  -3.5692720720348113E-003   5.9996758886669554E-002   0.0000000000000000     
  -3.7023400297073504E-003   6.4849419128106212E-002   0.0000000000000000     
  -3.8443370063966156E-003   7.0020362853057086E-002   0.0000000000000000     
  -3.9952630021026069E-003   7.5509590061522164E-002   0.0000000000000000     
  -4.1551180168253226E-003   8.1317100753501459E-002   0.0000000000000000     
  -7.1172828899014190E-003   5.9886786955264441E-002   0.0000000000000000     
  -7.4029889273856163E-003   6.4768542864161588E-002   0.0000000000000000     
  -7.7010797251122753E-003   6.9963337760704541E-002   0.0000000000000000     
  -8.0115552830813952E-003   7.5471171644893295E-002   0.0000000000000000     
  -8.3344156012929767E-003   8.1292044516727890E-002   0.0000000000000000     
  -1.0644032453599496E-002   5.9703500402922646E-002   0.0000000000000000     
  -1.1101946693034463E-002   6.4633749090920706E-002   0.0000000000000000     
  -1.1570228156146662E-002   6.9868295940117203E-002   0.0000000000000000     
  -1.2048876842936082E-002   7.5407140950512153E-002   0.0000000000000000     
  -1.2537892753402721E-002   8.1250284122105540E-002   0.0000000000000000     
  -1.4149520763129038E-002   5.9446899229644183E-002   0.0000000000000000     
  -1.4799213326653900E-002   6.4445037808383565E-002   0.0000000000000000     
  -1.5451782299499771E-002   6.9735237391295071E-002   0.0000000000000000     
  -1.6107227681666659E-002   7.5317497978378667E-002   0.0000000000000000     
  -1.6765549473154555E-002   8.1191819569634380E-002   0.0000000000000000     
   2.3613923316734287E-016   8.1325452832426232E-002   0.0000000000000000     
   1.8236280541206185E-016   8.7389922831049294E-002   0.0000000000000000     
   1.3991629035925435E-016   9.3657187914059775E-002   0.0000000000000000     
   1.0295854880465471E-016  0.10012724808145772        0.0000000000000000     
   7.7195194680967916E-017  0.10680010333324307        0.0000000000000000     
  -4.1551180168253226E-003   8.1317100753501459E-002   0.0000000000000000     
  -4.3168320728993207E-003   8.7384925272261438E-002   0.0000000000000000     
  -4.4733351926591561E-003   9.3655093961068539E-002   0.0000000000000000     
  -4.6246273761048279E-003  0.10012760681992278        0.0000000000000000     
  -4.7707086232363378E-003  0.10680246384882418        0.0000000000000000     
  -8.3344156012929767E-003   8.1292044516727890E-002   0.0000000000000000     
  -8.6584555333379908E-003   8.7369932595898522E-002   0.0000000000000000     
  -8.9724699328074184E-003   9.3648812102095400E-002   0.0000000000000000     
  -9.2764587997012527E-003  0.10012868303531852        0.0000000000000000     
  -9.5704221340195007E-003  0.10680954539556792        0.0000000000000000     
  -1.2537892753402721E-002   8.1250284122105540E-002   0.0000000000000000     
  -1.3024870381315827E-002   8.7344944801960533E-002   0.0000000000000000     
  -1.3497404220444644E-002   9.3638342337140329E-002   0.0000000000000000     
  -1.3955494270789173E-002  0.10013047672764490        0.0000000000000000     
  -1.4399140532349412E-002  0.10682134797347424        0.0000000000000000     
  -1.6765549473154555E-002   8.1191819569634380E-002   0.0000000000000000     
  -1.7416076616832834E-002   8.7309961890447485E-002   0.0000000000000000     
  -1.8048138055570841E-002   9.3623684666203341E-002   0.0000000000000000     
  -1.8661733789368588E-002  0.10013298789690191        0.0000000000000000     
  -1.9256863818226069E-002  0.10683787158254320        0.0000000000000000     
   7.7195194680967916E-017  0.10680010333324307        0.0000000000000000     
   5.9414279052205643E-017  0.11365040852925967        0.0000000000000000     
   5.0523821237824507E-017  0.12065281852935138        0.0000000000000000     
   4.9385408956714727E-017  0.12780733333351818        0.0000000000000000     
   5.7245874707234634E-017  0.13511395294176010        0.0000000000000000     
  -4.7707086232363378E-003  0.10680246384882418        0.0000000000000000     
  -4.9113433921498832E-003  0.11365437742146173        0.0000000000000000     
  -5.0462961409416616E-003  0.12065805991152438        0.0000000000000000     
  -5.1755668696116738E-003  0.12781351131901225        0.0000000000000000     
  -5.2991555781599173E-003  0.13512073164392521        0.0000000000000000     
  -9.5704221340195007E-003  0.10680954539556792        0.0000000000000000     
  -9.8535375581874536E-003  0.11366628409806810        0.0000000000000000     
  -1.0124982694630405E-002  0.12067378405804365        0.0000000000000000     
  -1.0384757543348359E-002  0.12783204527549449        0.0000000000000000     
  -1.0632862104341310E-002  0.13514106775042070        0.0000000000000000     
  -1.4399140532349412E-002  0.10682134797347424        0.0000000000000000     
  -1.4826582498112650E-002  0.11368612855907884        0.0000000000000000     
  -1.5236059661066181E-002  0.12069999096890910        0.0000000000000000     
  -1.5627572021210005E-002  0.12786293520296499        0.0000000000000000     
  -1.6001119578544117E-002  0.13517496126124659        0.0000000000000000     
  -1.9256863818226069E-002  0.10683787158254320        0.0000000000000000     
  -1.9830478211925476E-002  0.11371391080449390        0.0000000000000000     
  -2.0379527040248986E-002  0.12073668064412077        0.0000000000000000     
  -2.0904010303196614E-002  0.12790618110142379        0.0000000000000000     
  -2.1403928000768339E-002  0.13522241217640291        0.0000000000000000     
   5.7245874707234634E-017  0.13511395294176010        0.0000000000000000     
   7.3725747729014302E-017  0.14255190028918507        0.0000000000000000     
   9.7795035958192500E-017  0.15010039831090102        0.0000000000000000     
   1.3135109319661886E-016  0.15775944700690794        0.0000000000000000     
   1.7217130499069810E-016  0.16552904637720586        0.0000000000000000     
  -5.2991555781599173E-003  0.13512073164392521        0.0000000000000000     
  -5.4164991061255146E-003  0.14255909585915896        0.0000000000000000     
  -5.5270342930475863E-003  0.15010797893760905        0.0000000000000000     
  -5.6307611389261308E-003  0.15776738087927558        0.0000000000000000     
  -5.7276796437611497E-003  0.16553730168415845        0.0000000000000000     
  -1.0632862104341310E-002  0.13514106775042070        0.0000000000000000     
  -1.0868336744428098E-002  0.14258068256908085        0.0000000000000000     
  -1.1090221830427564E-002  0.15013072081773349        0.0000000000000000     
  -1.1298517362339704E-002  0.15779118249637869        0.0000000000000000     
  -1.1493223340164522E-002  0.16556206760501638        0.0000000000000000     
  -1.6001119578544117E-002  0.13517496126124659        0.0000000000000000     
  -1.6355512914907673E-002  0.14261666041895074        0.0000000000000000     
  -1.6689562612139833E-002  0.15016862395127428        0.0000000000000000     
  -1.7003268670240587E-002  0.15783085185821727        0.0000000000000000     
  -1.7296631089209938E-002  0.16560334413977967        0.0000000000000000     
  -2.1403928000768339E-002  0.13522241217640291        0.0000000000000000     
  -2.1878027617564244E-002  0.14266702940876866        0.0000000000000000     
  -2.2325056638184394E-002  0.15022168833823146        0.0000000000000000     
  -2.2745015062628781E-002  0.15788638896479135        0.0000000000000000     
  -2.3137902890897406E-002  0.16566113128844831        0.0000000000000000     
   1.7217130499069810E-016  0.16552904637720586        0.0000000000000000     
   2.1337098754514727E-016  0.17340459922747095        0.0000000000000000     
   2.4372864837474140E-016  0.18138150836337943        0.0000000000000000     
   2.6541269182445149E-016  0.18945977378493126        0.0000000000000000     
   2.7668839441830073E-016  0.19763939549212639        0.0000000000000000     
  -5.7276796437611497E-003  0.16553730168415845        0.0000000000000000     
  -5.8176230797438635E-003  0.17341303745679443        0.0000000000000000     
  -5.9004247190654890E-003  0.18138988430172023        0.0000000000000000     
  -5.9760845617260324E-003  0.18946784221893578        0.0000000000000000     
  -6.0446026077254885E-003  0.19764691120844122        0.0000000000000000     
  -1.1493223340164522E-002  0.16556206760501638        0.0000000000000000     
  -1.1673973444156724E-002  0.17343835214476491        0.0000000000000000     
  -1.1840401354571024E-002  0.18141501211674269        0.0000000000000000     
  -1.1992507071407426E-002  0.18949204752094953        0.0000000000000000     
  -1.2130290594665928E-002  0.19766945835738559        0.0000000000000000     
  -1.7296631089209938E-002  0.16560334413977967        0.0000000000000000     
  -1.7569051093238378E-002  0.17348054329138246        0.0000000000000000     
  -1.7819929906516367E-002  0.18145689180844674        0.0000000000000000     
  -1.8049267529043917E-002  0.18953238969097241        0.0000000000000000     
  -1.8257063960821038E-002  0.19770703693895955        0.0000000000000000     
  -2.3137902890897406E-002  0.16566113128844831        0.0000000000000000     
  -2.3502856026988803E-002  0.17353961089664707        0.0000000000000000     
  -2.3839010374901510E-002  0.18151552337683247        0.0000000000000000     
  -2.4146365934635514E-002  0.18958886872900446        0.0000000000000000     
  -2.4424922706190819E-002  0.19775964695316309        0.0000000000000000     
   2.7668839441830073E-016  0.19763939549212639        0.0000000000000000     
   2.7820627745978044E-016  0.20589662727646496        0.0000000000000000     
   2.7246000594560726E-016  0.21420772292944690        0.0000000000000000     
   2.5373041341592018E-016  0.22257268245107217        0.0000000000000000     
   2.2768245622195593E-016  0.23099150584134084        0.0000000000000000     
  -6.0446026077254885E-003  0.19764691120844122        0.0000000000000000     
  -6.1058478880979660E-003  0.20590363546485904        0.0000000000000000     
  -6.1596894338775670E-003  0.21421455918281188        0.0000000000000000     
  -6.2061272450642949E-003  0.22257968236229977        0.0000000000000000     
  -6.2451613216581462E-003  0.23099900500332268        0.0000000000000000     
  -1.2130290594665928E-002  0.19766945835738559        0.0000000000000000     
  -1.2253409893419658E-002  0.20592466003004117        0.0000000000000000     
  -1.2361522936741746E-002  0.21423506794290686        0.0000000000000000     
  -1.2454629724632200E-002  0.22260068209598249        0.0000000000000000     
  -1.2532730257091014E-002  0.23102150248926812        0.0000000000000000     
  -1.8257063960821038E-002  0.19770703693895955        0.0000000000000000     
  -1.8442686015964795E-002  0.20595970097201152        0.0000000000000000     
  -1.8605500508592270E-002  0.21426924920973175        0.0000000000000000     
  -1.8745507438703464E-002  0.22263568165212033        0.0000000000000000     
  -1.8862706806298382E-002  0.23105899829917714        0.0000000000000000     
  -2.4424922706190819E-002  0.19775964695316309        0.0000000000000000     
  -2.4673676255733374E-002  0.20600875829076998        0.0000000000000000     
  -2.4891622149429131E-002  0.21431710298328666        0.0000000000000000     
  -2.5078760387278087E-002  0.22268468103071326        0.0000000000000000     
  -2.5235090969280245E-002  0.23111149243304971        0.0000000000000000     
   2.2768245622195593E-016  0.23099150584134084        0.0000000000000000     
   2.0643209364124004E-016  0.23943081787812251        0.0000000000000000     
   2.0870891820345960E-016  0.24785724333928674        0.0000000000000000     
   2.3215479018345864E-016  0.25627078222483352        0.0000000000000000     
   2.7885679876327174E-016  0.26467143453476288        0.0000000000000000     
  -6.2451613216581462E-003  0.23099900500332268        0.0000000000000000     
  -6.2780214295379156E-003  0.23943943685838026        0.0000000000000000     
  -6.3059373345824002E-003  0.24786788767997214        0.0000000000000000     
  -6.3289090367915999E-003  0.25628435746809819        0.0000000000000000     
  -6.3469365361655131E-003  0.26468884622275868        0.0000000000000000     
  -1.2532730257091014E-002  0.23102150248926812        0.0000000000000000     
  -1.2598507023325038E-002  0.23946529379915349        0.0000000000000000     
  -1.2654642512541118E-002  0.24789982070202826        0.0000000000000000     
  -1.2701136724739255E-002  0.25632508319789243        0.0000000000000000     
  -1.2737989659919451E-002  0.26474108128674606        0.0000000000000000     
  -1.8862706806298382E-002  0.23105899829917714        0.0000000000000000     
  -1.8961456781361161E-002  0.23950838870044211        0.0000000000000000     
  -1.9046115533875946E-002  0.24795304240545507        0.0000000000000000     
  -1.9116683063842739E-002  0.25639295941421603        0.0000000000000000     
  -1.9173159371261538E-002  0.26482813972672514        0.0000000000000000     
  -2.5235090969280245E-002  0.23111149243304971        0.0000000000000000     
  -2.5366870703646287E-002  0.23956872156224615        0.0000000000000000     
  -2.5480356398586885E-002  0.24802755279025265        0.0000000000000000     
  -2.5575548054102042E-002  0.25648798611706919        0.0000000000000000     
  -2.5652445670191763E-002  0.26495002154269576        0.0000000000000000     
   2.7885679876327174E-016  0.26467143453476288        0.0000000000000000     
   3.2352592826967452E-016  0.27299768047914902        0.0000000000000000     
   3.4607733345737302E-016  0.28118800026806601        0.0000000000000000     
   3.4260788650541940E-016  0.28924239390151402        0.0000000000000000     
   3.1745439610375570E-016  0.29716086137949288        0.0000000000000000     
  -6.3469365361655131E-003  0.26468884622275868        0.0000000000000000     
  -6.3640627036376310E-003  0.27302019310377479        0.0000000000000000     
  -6.3843304101414439E-003  0.28121723727096820        0.0000000000000000     
  -6.4077396556769519E-003  0.28927997872433869        0.0000000000000000     
  -6.4342904402441559E-003  0.29720841746388649        0.0000000000000000     
  -1.2737989659919451E-002  0.26474108128674606        0.0000000000000000     
  -1.2772724906501656E-002  0.27308773097765243        0.0000000000000000     
  -1.2812866052905818E-002  0.28130494827967473        0.0000000000000000     
  -1.2858413099131943E-002  0.28939273319281289        0.0000000000000000     
  -1.2909366045180030E-002  0.29735108571706720        0.0000000000000000     
  -1.9173159371261538E-002  0.26482813972672514        0.0000000000000000     
  -1.9225986608591747E-002  0.27320029410078178        0.0000000000000000     
  -1.9285606928292780E-002  0.28145113329418558        0.0000000000000000     
  -1.9352020330364629E-002  0.28958065730693666        0.0000000000000000     
  -1.9425226814807309E-002  0.29758886613903496        0.0000000000000000     
  -2.5652445670191763E-002  0.26495002154269576        0.0000000000000000     
  -2.5723847809907909E-002  0.27335788247316284        0.0000000000000000     
  -2.5802553036302325E-002  0.28165579231450094        0.0000000000000000     
  -2.5888561349375019E-002  0.28984375106670990        0.0000000000000000     
  -2.5981872749125987E-002  0.29792175872978988        0.0000000000000000     
  -1.4149520763129038E-002   5.9446899229644183E-002   0.0000000000000000     
  -1.4799213326653900E-002   6.4445037808383565E-002   0.0000000000000000     
  -1.5451782299499771E-002   6.9735237391295071E-002   0.0000000000000000     
  -1.6107227681666659E-002   7.5317497978378667E-002   0.0000000000000000     
  -1.6765549473154555E-002   8.1191819569634380E-002   0.0000000000000000     
  -1.7715625807119838E-002   5.9157063852151158E-002   0.0000000000000000     
  -1.8553560039244747E-002   6.4226183714697585E-002   0.0000000000000000     
  -1.9388662549235595E-002   6.9577112682848302E-002   0.0000000000000000     
  -2.0220933337092375E-002   7.5209850756603316E-002   0.0000000000000000     
  -2.1050372402815098E-002   8.1124397935962628E-002   0.0000000000000000     
  -2.1424225574201681E-002   5.8874074687165663E-002   0.0000000000000000     
  -2.2423758041807844E-002   6.4000961508010157E-002   0.0000000000000000     
  -2.3423789299418112E-002   6.9406872383387150E-002   0.0000000000000000     
  -2.4424319347032479E-002   7.5091807313296594E-002   0.0000000000000000     
  -2.5425348184650948E-002   8.1055766297738516E-002   0.0000000000000000     
  -2.5275320064374569E-002   5.8597931734687712E-002   0.0000000000000000     
  -2.6409807334343192E-002   6.3769371188321294E-002   0.0000000000000000     
  -2.7557162550047327E-002   6.9224516492911545E-002   0.0000000000000000     
  -2.8717385711486961E-002   7.4963367648458457E-002   0.0000000000000000     
  -2.9890476818662106E-002   8.0985924654962030E-002   0.0000000000000000     
  -2.9268909277638502E-002   5.8328634994717285E-002   0.0000000000000000     
  -3.0511707916850796E-002   6.3531412755630998E-002   0.0000000000000000     
  -3.1788782301123232E-002   6.9030045011421542E-002   0.0000000000000000     
  -3.3100132430455828E-002   7.4824531762088933E-002   0.0000000000000000     
  -3.4445758304848577E-002   8.0914873007633170E-002   0.0000000000000000     
  -1.6765549473154555E-002   8.1191819569634380E-002   0.0000000000000000     
  -1.7416076616832834E-002   8.7309961890447485E-002   0.0000000000000000     
  -1.8048138055570841E-002   9.3623684666203341E-002   0.0000000000000000     
  -1.8661733789368588E-002  0.10013298789690191        0.0000000000000000     
  -1.9256863818226069E-002  0.10683787158254320        0.0000000000000000     
  -2.1050372402815098E-002   8.1124397935962628E-002   0.0000000000000000     
  -2.1867041161541246E-002   8.7275101027619942E-002   0.0000000000000000     
  -2.2661001028408331E-002   9.3616306838268923E-002   0.0000000000000000     
  -2.3432252003416341E-002  0.10014801536790963        0.0000000000000000     
  -2.4180794086565288E-002  0.10687022661654202        0.0000000000000000     
  -2.5425348184650948E-002   8.1055766297738516E-002   0.0000000000000000     
  -2.6412730937093329E-002   8.7250479379738358E-002   0.0000000000000000     
  -2.7372322729179450E-002   9.3627676602321561E-002   0.0000000000000000     
  -2.8304123560909302E-002  0.10018735796548811        0.0000000000000000     
  -2.9208133432282884E-002  0.10692952346923802        0.0000000000000000     
  -2.9890476818662106E-002   8.0985924654962030E-002   0.0000000000000000     
  -3.1053145943489072E-002   8.7236096946802788E-002   0.0000000000000000     
  -3.2182103157884195E-002   9.3657793958361227E-002   0.0000000000000000     
  -3.3277348461847454E-002  0.10025101568963739        0.0000000000000000     
  -3.4338881855378867E-002  0.10701576214063119        0.0000000000000000     
  -3.4445758304848577E-002   8.0914873007633170E-002   0.0000000000000000     
  -3.5788286180728483E-002   8.7231953728813177E-002   0.0000000000000000     
  -3.7090342314522559E-002   9.3706658906387907E-002   0.0000000000000000     
  -3.8351926706230798E-002  0.10033898854035737        0.0000000000000000     
  -3.9573039355853219E-002  0.10712894263072152        0.0000000000000000     
  -1.9256863818226069E-002  0.10683787158254320        0.0000000000000000     
  -1.9830478211925476E-002  0.11371391080449390        0.0000000000000000     
  -2.0379527040248986E-002  0.12073668064412077        0.0000000000000000     
  -2.0904010303196614E-002  0.12790618110142379        0.0000000000000000     
  -2.1403928000768339E-002  0.13522241217640291        0.0000000000000000     
  -2.4180794086565288E-002  0.10687022661654202        0.0000000000000000     
  -2.4902242587332271E-002  0.11375956668579891        0.0000000000000000     
  -2.5592212815194408E-002  0.12079266167731305        0.0000000000000000     
  -2.6250704770151678E-002  0.12796951159108444        0.0000000000000000     
  -2.6877718452204106E-002  0.13529011642711314        0.0000000000000000     
  -2.9208133432282884E-002  0.10692952346923802        0.0000000000000000     
  -3.0078893512039392E-002  0.11383303205447938        0.0000000000000000     
  -3.0910944968918008E-002  0.12087674266212028        0.0000000000000000     
  -3.1704287802918715E-002  0.12806065529216076        0.0000000000000000     
  -3.2458922014041547E-002  0.13538476994460077        0.0000000000000000     
  -3.4338881855378867E-002  0.10701576214063119        0.0000000000000000     
  -3.5360430986046840E-002  0.11393430691053537        0.0000000000000000     
  -3.6335723501419788E-002  0.12098892359854253        0.0000000000000000     
  -3.7264759401497725E-002  0.12817961220465265        0.0000000000000000     
  -3.8147538686280638E-002  0.13550637272886581        0.0000000000000000     
  -3.9573039355853219E-002  0.10712894263072152        0.0000000000000000     
  -4.0746855009354599E-002  0.11406339125396685        0.0000000000000000     
  -4.1866548412699753E-002  0.12112920448657974        0.0000000000000000     
  -4.2932119565888695E-002  0.12832638232856020        0.0000000000000000     
  -4.3943568468921404E-002  0.13565492477990829        0.0000000000000000     
  -2.1403928000768339E-002  0.13522241217640291        0.0000000000000000     
  -2.1878027617564244E-002  0.14266702940876866        0.0000000000000000     
  -2.2325056638184394E-002  0.15022168833823146        0.0000000000000000     
  -2.2745015062628781E-002  0.15788638896479135        0.0000000000000000     
  -2.3137902890897406E-002  0.16566113128844831        0.0000000000000000     
  -2.6877718452204106E-002  0.13529011642711314        0.0000000000000000     
  -2.7472116097973922E-002  0.14273755016835438        0.0000000000000000     
  -2.8032759944083371E-002  0.15029488679776343        0.0000000000000000     
  -2.8559649990532461E-002  0.15796212631534035        0.0000000000000000     
  -2.9052786237321174E-002  0.16573926872108508        0.0000000000000000     
  -3.2458922014041547E-002  0.13538476994460077        0.0000000000000000     
  -3.3174013601712814E-002  0.14283398332752761        0.0000000000000000     
  -3.3848728565358900E-002  0.15039319214902858        0.0000000000000000     
  -3.4483066904979799E-002  0.15806239640910361        0.0000000000000000     
  -3.5077028620575504E-002  0.16584159610775276        0.0000000000000000     
  -3.8147538686280638E-002  0.13550637272886581        0.0000000000000000     
  -3.8983720128780930E-002  0.14295632888628840        0.0000000000000000     
  -3.9772962502010983E-002  0.15051660439202683        0.0000000000000000     
  -4.0515265805970799E-002  0.15818719924608118        0.0000000000000000     
  -4.1210630040660376E-002  0.16596811344845142        0.0000000000000000     
  -4.3943568468921404E-002  0.13565492477990829        0.0000000000000000     
  -4.4901235679178260E-002  0.14310458684463673        0.0000000000000000     
  -4.5805461754039614E-002  0.15066512352675832        0.0000000000000000     
  -4.6656246693505460E-002  0.15833653482627305        0.0000000000000000     
  -4.7453590497575811E-002  0.16611882074318099        0.0000000000000000     
  -2.3137902890897406E-002  0.16566113128844831        0.0000000000000000     
  -2.3502856026988803E-002  0.17353961089664707        0.0000000000000000     
  -2.3839010374901510E-002  0.18151552337683247        0.0000000000000000     
  -2.4146365934635514E-002  0.18958886872900446        0.0000000000000000     
  -2.4424922706190819E-002  0.19775964695316309        0.0000000000000000     
  -2.9052786237321174E-002  0.16573926872108508        0.0000000000000000     
  -2.9511143027633586E-002  0.17361896012048450        0.0000000000000000     
  -2.9933694704653749E-002  0.18159384661902556        0.0000000000000000     
  -3.0320441268381661E-002  0.18966392821670816        0.0000000000000000     
  -3.0671382718817319E-002  0.19782920491353237        0.0000000000000000     
  -3.5077028620575504E-002  0.16584159610775276        0.0000000000000000     
  -3.5629666877398276E-002  0.17372199612282063        0.0000000000000000     
  -3.6140034840700372E-002  0.18169480133215168        0.0000000000000000     
  -3.6608132510481825E-002  0.18976001173574597        0.0000000000000000     
  -3.7033959886742594E-002  0.19791762733360346        0.0000000000000000     
  -4.1210630040660376E-002  0.16596811344845142        0.0000000000000000     
  -4.1858427576282865E-002  0.17384871890365533        0.0000000000000000     
  -4.2458030783041410E-002  0.18181838751621082        0.0000000000000000     
  -4.3009439660936004E-002  0.18987711928611783        0.0000000000000000     
  -4.3512654209966646E-002  0.19802491421337640        0.0000000000000000     
  -4.7453590497575811E-002  0.16611882074318099        0.0000000000000000     
  -4.8197425124287367E-002  0.17399912846298873        0.0000000000000000     
  -4.8887682531676822E-002  0.18196460517120300        0.0000000000000000     
  -4.9524362719744190E-002  0.19001525086782381        0.0000000000000000     
  -5.0107465688489464E-002  0.19815106555285117        0.0000000000000000     
  -2.4424922706190819E-002  0.19775964695316309        0.0000000000000000     
  -2.4673676255733374E-002  0.20600875829076998        0.0000000000000000     
  -2.4891622149429131E-002  0.21431710298328666        0.0000000000000000     
  -2.5078760387278087E-002  0.22268468103071326        0.0000000000000000     
  -2.5235090969280245E-002  0.23111149243304971        0.0000000000000000     
  -3.0671382718817319E-002  0.19782920491353237        0.0000000000000000     
  -3.0984966024165804E-002  0.20607302063547844        0.0000000000000000     
  -3.1259638152632163E-002  0.21437871930852681        0.0000000000000000     
  -3.1495399104216414E-002  0.22274630093267733        0.0000000000000000     
  -3.1692248878918548E-002  0.23117576550793015        0.0000000000000000     
  -3.7033959886742594E-002  0.19791762733360346        0.0000000000000000     
  -3.7415140732702475E-002  0.20615367665529896        0.0000000000000000     
  -3.7749298811581192E-002  0.21445418823040741        0.0000000000000000     
  -3.8036434123378780E-002  0.22281916205892857        0.0000000000000000     
  -3.8276546668095233E-002  0.23124859814086265        0.0000000000000000     
  -4.3512654209966646E-002  0.19802491421337640        0.0000000000000000     
  -4.3964200381343375E-002  0.20625072635023156        0.0000000000000000     
  -4.4360604126276224E-002  0.21454350974892844        0.0000000000000000     
  -4.4701865444765190E-002  0.22290326440946692        0.0000000000000000     
  -4.4987984336810276E-002  0.23132999033184720        0.0000000000000000     
  -5.0107465688489464E-002  0.19815106555285117        0.0000000000000000     
  -5.0632144970088513E-002  0.20636416972027616        0.0000000000000000     
  -5.1093554096717245E-002  0.21464668386408994        0.0000000000000000     
  -5.1491693068375644E-002  0.22299860798429250        0.0000000000000000     
  -5.1826561885063710E-002  0.23141994208088384        0.0000000000000000     
  -2.5235090969280245E-002  0.23111149243304971        0.0000000000000000     
  -2.5366870703646287E-002  0.23956872156224615        0.0000000000000000     
  -2.5480356398586885E-002  0.24802755279025265        0.0000000000000000     
  -2.5575548054102042E-002  0.25648798611706919        0.0000000000000000     
  -2.5652445670191763E-002  0.26495002154269576        0.0000000000000000     
  -3.1692248878918548E-002  0.23117576550793015        0.0000000000000000     
  -3.1858084786423657E-002  0.23964133124844095        0.0000000000000000     
  -3.2000804136416830E-002  0.24811721636836567        0.0000000000000000     
  -3.2120406928898067E-002  0.25660342086770421        0.0000000000000000     
  -3.2216893163867368E-002  0.26509994474645660        0.0000000000000000     
  -3.8276546668095233E-002  0.23124859814086265        0.0000000000000000     
  -3.8478435025936529E-002  0.23972125662290197        0.0000000000000000     
  -3.8650897777108686E-002  0.24821589765173904        0.0000000000000000     
  -3.8793934921611699E-002  0.25673252122737378        0.0000000000000000     
  -3.8907546459445580E-002  0.26527112734980623        0.0000000000000000     
  -4.4987984336810276E-002  0.23132999033184720        0.0000000000000000     
  -4.5227921422184895E-002  0.23980849768562909        0.0000000000000000     
  -4.5430637320662451E-002  0.24832359664037262        0.0000000000000000     
  -4.5596132032242949E-002  0.25687528719607788        0.0000000000000000     
  -4.5724405556926369E-002  0.26546356935274468        0.0000000000000000     
  -5.1826561885063710E-002  0.23141994208088384        0.0000000000000000     
  -5.2106543975168763E-002  0.23990305443662241        0.0000000000000000     
  -5.2340022767078130E-002  0.24844031333426655        0.0000000000000000     
  -5.2526998260791796E-002  0.25703171877381636        0.0000000000000000     
  -5.2667470456309776E-002  0.26567727075527181        0.0000000000000000     
  -2.5652445670191763E-002  0.26495002154269576        0.0000000000000000     
  -2.5723847809907909E-002  0.27335788247316284        0.0000000000000000     
  -2.5802553036302325E-002  0.28165579231450094        0.0000000000000000     
  -2.5888561349375019E-002  0.28984375106670990        0.0000000000000000     
  -2.5981872749125987E-002  0.29792175872978988        0.0000000000000000     
  -3.2216893163867368E-002  0.26509994474645660        0.0000000000000000     
  -3.2305792937280864E-002  0.27355362389287230        0.0000000000000000     
  -3.2402636345094660E-002  0.28191129419520078        0.0000000000000000     
  -3.2507423387308776E-002  0.29017295565344203        0.0000000000000000     
  -3.2620154063923212E-002  0.29833860826759601        0.0000000000000000     
  -3.8907546459445580E-002  0.26527112734980623        0.0000000000000000     
  -3.9011306417541330E-002  0.27378064615798670        0.0000000000000000     
  -3.9124788822830013E-002  0.28221000779086541        0.0000000000000000     
  -3.9247993675311614E-002  0.29055921224844228        0.0000000000000000     
  -3.9380920974986133E-002  0.29882825953071745        0.0000000000000000     
  -4.5724405556926369E-002  0.26546356935274468        0.0000000000000000     
  -4.5840388250689319E-002  0.27403894926850597        0.0000000000000000     
  -4.5969010469508360E-002  0.28255193310149473        0.0000000000000000     
  -4.6110272213383499E-002  0.29100252085171080        0.0000000000000000     
  -4.6264173482314742E-002  0.29939071251915433        0.0000000000000000     
  -5.2667470456309776E-002  0.26567727075527181        0.0000000000000000     
  -5.2793038436724823E-002  0.27432853322443024        0.0000000000000000     
  -5.2935301285129722E-002  0.28293707012708880        0.0000000000000000     
  -5.3094259001524459E-002  0.29150288146324749        0.0000000000000000     
  -5.3269911585909033E-002  0.30002596723290642        0.0000000000000000     
  -2.9268909277638502E-002   5.8328634994717285E-002   0.0000000000000000     
  -3.0511707916850796E-002   6.3531412755630998E-002   0.0000000000000000     
  -3.1788782301123232E-002   6.9030045011421542E-002   0.0000000000000000     
  -3.3100132430455828E-002   7.4824531762088933E-002   0.0000000000000000     
  -3.4445758304848577E-002   8.0914873007633170E-002   0.0000000000000000     
  -3.3310783134073041E-002   5.7978185218528183E-002   0.0000000000000000     
  -3.4688904383219164E-002   6.3261023046386033E-002   0.0000000000000000     
  -3.6117387623301127E-002   6.8839413989618362E-002   0.0000000000000000     
  -3.7596232854318935E-002   7.4713358048225181E-002   0.0000000000000000     
  -3.9125440076272583E-002   8.0882855222206493E-002   0.0000000000000000     
  -3.7306731553757737E-002   5.7458583157394147E-002   0.0000000000000000     
  -3.8900841327336844E-002   6.2932138897033155E-002   0.0000000000000000     
  -4.0541717587236313E-002   6.8668579478203221E-002   0.0000000000000000     
  -4.2229360333456145E-002   7.4667904900904344E-002   0.0000000000000000     
  -4.3963769565996354E-002   8.0930115165136540E-002   0.0000000000000000     
  -4.1256754536692600E-002   5.6769828811315176E-002   0.0000000000000000     
  -4.3147518749203813E-002   6.2544760307572417E-002   0.0000000000000000     
  -4.5061772192928777E-002   6.8517541477176147E-002   0.0000000000000000     
  -4.6999514867867451E-002   7.4688172320126450E-002   0.0000000000000000     
  -4.8960746774019889E-002   8.1056652836423271E-002   0.0000000000000000     
  -4.5160852082877623E-002   5.5911922180291299E-002   0.0000000000000000     
  -4.7428936648820100E-002   6.2098887278003757E-002   0.0000000000000000     
  -4.9677551440378519E-002   6.8386299986537141E-002   0.0000000000000000     
  -5.1906696457552880E-002   7.4774160305891471E-002   0.0000000000000000     
  -5.4116371700343183E-002   8.1262468236066726E-002   0.0000000000000000     
  -3.4445758304848577E-002   8.0914873007633170E-002   0.0000000000000000     
  -3.5788286180728483E-002   8.7231953728813177E-002   0.0000000000000000     
  -3.7090342314522559E-002   9.3706658906387907E-002   0.0000000000000000     
  -3.8351926706230798E-002  0.10033898854035737        0.0000000000000000     
  -3.9573039355853219E-002  0.10712894263072152        0.0000000000000000     
  -3.9125440076272583E-002   8.0882855222206493E-002   0.0000000000000000     
  -4.0654992720922704E-002   8.7270990382782868E-002   0.0000000000000000     
  -4.2134874220029900E-002   9.3800848401174863E-002   0.0000000000000000     
  -4.3565084573594211E-002  0.10047242927738251        0.0000000000000000     
  -4.4945623781615616E-002  0.10728573301140576        0.0000000000000000     
  -4.3963769565996354E-002   8.0930115165136540E-002   0.0000000000000000     
  -4.5690106636182858E-002   8.7386147565725061E-002   0.0000000000000000     
  -4.7353532895341582E-002   9.3966939397495258E-002   0.0000000000000000     
  -4.8954048343472535E-002  0.10067249066044709        0.0000000000000000     
  -5.0491652980575716E-002  0.10750280135458064        0.0000000000000000     
  -4.8960746774019889E-002   8.1056652836423271E-002   0.0000000000000000     
  -5.0893627926508971E-002   8.7577425277639759E-002   0.0000000000000000     
  -5.2746318340457600E-002   9.4204931895349051E-002   0.0000000000000000     
  -5.4518818015865791E-002  0.10093917268955117        0.0000000000000000     
  -5.6211126952733538E-002  0.10778014766024613        0.0000000000000000     
  -5.4116371700343183E-002   8.1262468236066726E-002   0.0000000000000000     
  -5.6265556591901016E-002   8.7844823518527002E-002   0.0000000000000000     
  -5.8313230555377939E-002   9.4514825894736337E-002   0.0000000000000000     
  -6.0259393590773966E-002  0.10127247536469475        0.0000000000000000     
  -6.2104045698089076E-002  0.10811777192840223        0.0000000000000000     
  -3.9573039355853219E-002  0.10712894263072152        0.0000000000000000     
  -4.0746855009354599E-002  0.11406339125396685        0.0000000000000000     
  -4.1866548412699753E-002  0.12112920448657974        0.0000000000000000     
  -4.2932119565888695E-002  0.12832638232856020        0.0000000000000000     
  -4.3943568468921404E-002  0.13565492477990829        0.0000000000000000     
  -4.4945623781615616E-002  0.10728573301140576        0.0000000000000000     
  -4.6270456120215214E-002  0.11423339244590525        0.0000000000000000     
  -4.7533545865514171E-002  0.12130804042354146        0.0000000000000000     
  -4.8734893017512451E-002  0.12850967694431445        0.0000000000000000     
  -4.9874497576210070E-002  0.13583830200822425        0.0000000000000000     
  -5.0491652980575716E-002  0.10750280135458064        0.0000000000000000     
  -5.1963524856881257E-002  0.11445741784748195        0.0000000000000000     
  -5.3366842022619300E-002  0.12153588650673727        0.0000000000000000     
  -5.4701604477789816E-002  0.12873820733234653        0.0000000000000000     
  -5.5967812222392846E-002  0.13606438032430973        0.0000000000000000     
  -5.6211126952733538E-002  0.10778014766024613        0.0000000000000000     
  -5.7826061219352701E-002  0.11473546745869703        0.0000000000000000     
  -5.9366436884015120E-002  0.12181274273616713        0.0000000000000000     
  -6.0832253946720809E-002  0.12901197349265636        0.0000000000000000     
  -6.2223512407469747E-002  0.13633315972816476        0.0000000000000000     
  -6.2104045698089076E-002  0.10811777192840223        0.0000000000000000     
  -6.3858065207629544E-002  0.11506754127955042        0.0000000000000000     
  -6.5532330449701651E-002  0.12213860911183104        0.0000000000000000     
  -6.7126841424305389E-002  0.12933097542524402        0.0000000000000000     
  -6.8641598131440759E-002  0.13664464021978937        0.0000000000000000     
  -4.3943568468921404E-002  0.13565492477990829        0.0000000000000000     
  -4.4901235679178260E-002  0.14310458684463673        0.0000000000000000     
  -4.5805461754039614E-002  0.15066512352675832        0.0000000000000000     
  -4.6656246693505460E-002  0.15833653482627305        0.0000000000000000     
  -4.7453590497575811E-002  0.16611882074318099        0.0000000000000000     
  -4.9874497576210070E-002  0.13583830200822425        0.0000000000000000     
  -5.0953428092398112E-002  0.14328621058666477        0.0000000000000000     
  -5.1972753116867693E-002  0.15084569765103009        0.0000000000000000     
  -5.2932472649618811E-002  0.15851676320132010        0.0000000000000000     
  -5.3832586690651454E-002  0.16629940723753495        0.0000000000000000     
  -5.5967812222392846E-002  0.13606438032430973        0.0000000000000000     
  -5.7167165207933808E-002  0.14350865349646472        0.0000000000000000     
  -5.8301363385918140E-002  0.15106527486264923        0.0000000000000000     
  -5.9370406756345868E-002  0.15873424442286324        0.0000000000000000     
  -6.0374295319216960E-002  0.16651556217710684        0.0000000000000000     
  -6.2223512407469747E-002  0.13633315972816476        0.0000000000000000     
  -6.3542447025785320E-002  0.14377191557403651        0.0000000000000000     
  -6.4791292561190969E-002  0.15132385516161576        0.0000000000000000     
  -6.5970049013686610E-002  0.15898897849090249        0.0000000000000000     
  -6.7078716383272327E-002  0.16676728556189668        0.0000000000000000     
  -6.8641598131440759E-002  0.13664464021978937        0.0000000000000000     
  -7.0079273545952697E-002  0.14407599681938024        0.0000000000000000     
  -7.1442540642686139E-002  0.15162143854792970        0.0000000000000000     
  -7.2731399421641113E-002  0.15928096540543774        0.0000000000000000     
  -7.3945849882817563E-002  0.16705457739190444        0.0000000000000000     
  -4.7453590497575811E-002  0.16611882074318099        0.0000000000000000     
  -4.8197425124287367E-002  0.17399912846298873        0.0000000000000000     
  -4.8887682531676822E-002  0.18196460517120300        0.0000000000000000     
  -4.9524362719744190E-002  0.19001525086782381        0.0000000000000000     
  -5.0107465688489464E-002  0.19815106555285117        0.0000000000000000     
  -5.3832586690651454E-002  0.16629940723753495        0.0000000000000000     
  -5.4673544955598979E-002  0.17417835656659494        0.0000000000000000     
  -5.5455797160094751E-002  0.18213833799542056        0.0000000000000000     
  -5.6179343304138728E-002  0.19017935152401172        0.0000000000000000     
  -5.6844183387730958E-002  0.19830139715236850        0.0000000000000000     
  -6.0374295319216960E-002  0.16651556217710684        0.0000000000000000     
  -6.1313672504404927E-002  0.17439153498024829        0.0000000000000000     
  -6.2189181741783270E-002  0.18234446968715576        0.0000000000000000     
  -6.3000823031351974E-002  0.19037436629782936        0.0000000000000000     
  -6.3748596373111047E-002  0.19848122481226901        0.0000000000000000     
  -6.7078716383272327E-002  0.16676728556189668        0.0000000000000000     
  -6.8117807770705224E-002  0.17463866370394862        0.0000000000000000     
  -6.9087836276742420E-002  0.18258300024640867        0.0000000000000000     
  -6.9988801901383915E-002  0.19060029518927671        0.0000000000000000     
  -7.0820704644629723E-002  0.19869054853255286        0.0000000000000000     
  -7.3945849882817563E-002  0.16705457739190444        0.0000000000000000     
  -7.5085950754499808E-002  0.17491974273769612        0.0000000000000000     
  -7.6151760764972140E-002  0.18285392967317923        0.0000000000000000     
  -7.7143279914234544E-002  0.19085713819835384        0.0000000000000000     
  -7.8060508202286993E-002  0.19892936831321986        0.0000000000000000     
  -5.0107465688489464E-002  0.19815106555285117        0.0000000000000000     
  -5.0632144970088513E-002  0.20636416972027616        0.0000000000000000     
  -5.1093554096717245E-002  0.21464668386408994        0.0000000000000000     
  -5.1491693068375644E-002  0.22299860798429250        0.0000000000000000     
  -5.1826561885063710E-002  0.23141994208088384        0.0000000000000000     
  -5.6844183387730958E-002  0.19830139715236850        0.0000000000000000     
  -5.7444643337862089E-002  0.20649958047638270        0.0000000000000000     
  -5.7975049081522789E-002  0.21476900709194627        0.0000000000000000     
  -5.8435400618713065E-002  0.22310967699905920        0.0000000000000000     
  -5.8825697949432924E-002  0.23152159019772145        0.0000000000000000     
  -6.3748596373111047E-002  0.19848122481226901        0.0000000000000000     
  -6.4427364323588240E-002  0.20666253232950105        0.0000000000000000     
  -6.5031989439311363E-002  0.21491577594855174        0.0000000000000000     
  -6.5562471720280374E-002  0.22324095566942098        0.0000000000000000     
  -6.6018811166495300E-002  0.23163807149210888        0.0000000000000000     
  -7.0820704644629723E-002  0.19869054853255286        0.0000000000000000     
  -7.1580307927267023E-002  0.20685302527963126        0.0000000000000000     
  -7.2264375170082981E-002  0.21508699043390628        0.0000000000000000     
  -7.2872906373077612E-002  0.22339244399537792        0.0000000000000000     
  -7.3405901536250887E-002  0.23176938596404617        0.0000000000000000     
  -7.8060508202286993E-002  0.19892936831321986        0.0000000000000000     
  -7.8903474148898395E-002  0.20707105932677328        0.0000000000000000     
  -7.9672206273837642E-002  0.21528265054800994        0.0000000000000000     
  -8.0366704577104736E-002  0.22356414197692995        0.0000000000000000     
  -8.0986969058699648E-002  0.23191553361353326        0.0000000000000000     
  -5.1826561885063710E-002  0.23141994208088384        0.0000000000000000     
  -5.2106543975168763E-002  0.23990305443662241        0.0000000000000000     
  -5.2340022767078130E-002  0.24844031333426655        0.0000000000000000     
  -5.2526998260791796E-002  0.25703171877381636        0.0000000000000000     
  -5.2667470456309776E-002  0.26567727075527181        0.0000000000000000     
  -5.8825697949432924E-002  0.23152159019772145        0.0000000000000000     
  -5.9152462612414448E-002  0.24000527720336287        0.0000000000000000     
  -5.9422216146389782E-002  0.24856126853141336        0.0000000000000000     
  -5.9634958551358912E-002  0.25718956418187283        0.0000000000000000     
  -5.9790689827321837E-002  0.26589016415474137        0.0000000000000000     
  -6.6018811166495300E-002  0.23163807149210888        0.0000000000000000     
  -6.6403837261448301E-002  0.24011551631333161        0.0000000000000000     
  -6.6720379488631507E-002  0.24868168302980553        0.0000000000000000     
  -6.6968437848044945E-002  0.25733657164153062        0.0000000000000000     
  -6.7148012339688590E-002  0.26608018214850682        0.0000000000000000     
  -7.3405901536250887E-002  0.23176938596404617        0.0000000000000000     
  -7.3860667922270293E-002  0.24023377176652871        0.0000000000000000     
  -7.4234512793803289E-002  0.24880155682944322        0.0000000000000000     
  -7.4527436150849863E-002  0.25747274115278967        0.0000000000000000     
  -7.4739437993410068E-002  0.26624732473656820        0.0000000000000000     
  -8.0986969058699648E-002  0.23191553361353326        0.0000000000000000     
  -8.1522954594880431E-002  0.24036004356295398        0.0000000000000000     
  -8.1964616061905124E-002  0.24892088993032629        0.0000000000000000     
  -8.2311953459773726E-002  0.25759807271565016        0.0000000000000000     
  -8.2564966788486252E-002  0.26639159191892559        0.0000000000000000     
  -5.2667470456309776E-002  0.26567727075527181        0.0000000000000000     
  -5.2793038436724823E-002  0.27432853322443024        0.0000000000000000     
  -5.2935301285129722E-002  0.28293707012708880        0.0000000000000000     
  -5.3094259001524459E-002  0.29150288146324749        0.0000000000000000     
  -5.3269911585909033E-002  0.30002596723290642        0.0000000000000000     
  -5.9790689827321837E-002  0.26589016415474137        0.0000000000000000     
  -5.9926967212454989E-002  0.27461998102377722        0.0000000000000000     
  -6.0081347944934825E-002  0.28333592736273877        0.0000000000000000     
  -6.0253832024761346E-002  0.29203800317162587        0.0000000000000000     
  -6.0444419451934558E-002  0.30072620845043874        0.0000000000000000     
  -6.7148012339688590E-002  0.26608018214850682        0.0000000000000000     
  -6.7299884814686933E-002  0.27488387566456496        0.0000000000000000     
  -6.7464837124164428E-002  0.28371901330353588        0.0000000000000000     
  -6.7642869268121061E-002  0.29258559506541948        0.0000000000000000     
  -6.7833981246556846E-002  0.30148362095021591        0.0000000000000000     
  -7.4739437993410068E-002  0.26624732473656820        0.0000000000000000     
  -7.4911791243420664E-002  0.27512021714679347        0.0000000000000000     
  -7.5085768822818505E-002  0.28408632794948019        0.0000000000000000     
  -7.5261370731603591E-002  0.29314565714462837        0.0000000000000000     
  -7.5438596969775895E-002  0.30229820473223801        0.0000000000000000     
  -8.2564966788486252E-002  0.26639159191892559        0.0000000000000000     
  -8.2762686498656202E-002  0.27532900547046263        0.0000000000000000     
  -8.2944143040897089E-002  0.28443787130057158        0.0000000000000000     
  -8.3109336415208943E-002  0.29371818940925232        0.0000000000000000     
  -8.3258266621591720E-002  0.30316995979650496        0.0000000000000000     
  -4.5160852082877623E-002   5.5911922180291299E-002   0.0000000000000000     
  -4.7428936648820100E-002   6.2098887278003757E-002   0.0000000000000000     
  -4.9677551440378519E-002   6.8386299986537141E-002   0.0000000000000000     
  -5.1906696457552880E-002   7.4774160305891471E-002   0.0000000000000000     
  -5.4116371700343183E-002   8.1262468236066726E-002   0.0000000000000000     
  -4.9656064493566181E-002   5.5092101168810088E-002   0.0000000000000000     
  -5.2219119305723156E-002   6.1731942380139862E-002   0.0000000000000000     
  -5.4731025930666949E-002   6.8359151193683923E-002   0.0000000000000000     
  -5.7191784368397530E-002   7.4973727609442292E-002   0.0000000000000000     
  -5.9601394618914935E-002   8.1575671627414970E-002   0.0000000000000000     
  -5.5379432070011642E-002   5.4517603681359113E-002   0.0000000000000000     
  -5.7992090999450484E-002   6.1581348185793340E-002   0.0000000000000000     
  -6.0564166264875451E-002   6.8520391286014212E-002   0.0000000000000000     
  -6.3095657866286570E-002   7.5334732982021771E-002   0.0000000000000000     
  -6.5586565803683800E-002   8.2024373273816009E-002   0.0000000000000000     
  -6.2330954812213991E-002   5.4188429717938406E-002   0.0000000000000000     
  -6.4747851730002054E-002   6.1647104694964192E-002   0.0000000000000000     
  -6.7176972443004065E-002   6.8870020263528051E-002   0.0000000000000000     
  -6.9618316951219963E-002   7.5857176423629935E-002   0.0000000000000000     
  -7.2071885254649762E-002   8.2608573175269873E-002   0.0000000000000000     
  -7.0510632720173244E-002   5.4104579278547928E-002   0.0000000000000000     
  -7.2486401497377909E-002   6.1929211907652437E-002   0.0000000000000000     
  -7.4569444465052731E-002   6.9408038126225369E-002   0.0000000000000000     
  -7.6759761623197725E-002   7.6541057934266743E-002   0.0000000000000000     
  -7.9057352971812878E-002   8.3328271331776560E-002   0.0000000000000000     
  -5.4116371700343183E-002   8.1262468236066726E-002   0.0000000000000000     
  -5.6265556591901016E-002   8.7844823518527002E-002   0.0000000000000000     
  -5.8313230555377939E-002   9.4514825894736337E-002   0.0000000000000000     
  -6.0259393590773966E-002  0.10127247536469475        0.0000000000000000     
  -6.2104045698089076E-002  0.10811777192840223        0.0000000000000000     
  -5.9601394618914935E-002   8.1575671627414970E-002   0.0000000000000000     
  -6.1927988955137583E-002   8.8206700604631941E-002   0.0000000000000000     
  -6.4139699649983936E-002   9.4908531898123275E-002   0.0000000000000000     
  -6.6236526703454007E-002  0.10168116550788892        0.0000000000000000     
  -6.8218470115547769E-002  0.10852460143392891        0.0000000000000000     
  -6.5586565803683800E-002   8.2024373273816009E-002   0.0000000000000000     
  -6.8003021338997230E-002   8.8681414852199811E-002   0.0000000000000000     
  -7.0311155734156916E-002   9.5397960407976073E-002   0.0000000000000000     
  -7.2510968989162886E-002  0.10217400994114485        0.0000000000000000     
  -7.4602461104015097E-002  0.10900956345170608        0.0000000000000000     
  -7.2071885254649762E-002   8.2608573175269873E-002   0.0000000000000000     
  -7.4490653743479920E-002   8.9268966261230598E-002   0.0000000000000000     
  -7.6827598807896871E-002   9.5983111424294817E-002   0.0000000000000000     
  -7.9082720447900559E-002  0.10275100866446252        0.0000000000000000     
  -8.1256018663491053E-002  0.10957265798173373        0.0000000000000000     
  -7.9057352971812878E-002   8.3328271331776560E-002   0.0000000000000000     
  -8.1390886168585724E-002   8.9969354831724274E-002   0.0000000000000000     
  -8.3689028871203788E-002   9.6663984947079423E-002   0.0000000000000000     
  -8.5951781079667083E-002  0.10341216167784195        0.0000000000000000     
  -8.8179142793975623E-002  0.11021388502401189        0.0000000000000000     
  -6.2104045698089076E-002  0.10811777192840223        0.0000000000000000     
  -6.3858065207629544E-002  0.11506754127955042        0.0000000000000000     
  -6.5532330449701651E-002  0.12213860911183104        0.0000000000000000     
  -6.7126841424305389E-002  0.12933097542524402        0.0000000000000000     
  -6.8641598131440759E-002  0.13664464021978937        0.0000000000000000     
  -6.8218470115547769E-002  0.10852460143392891        0.0000000000000000     
  -7.0101600671376760E-002  0.11546397469109553        0.0000000000000000     
  -7.1901989156052531E-002  0.12252442029424110        0.0000000000000000     
  -7.3619635569575029E-002  0.12970593824336560        0.0000000000000000     
  -7.5254539911944321E-002  0.13700852853846909        0.0000000000000000     
  -7.4602461104015097E-002  0.10900956345170608        0.0000000000000000     
  -7.6598731460259362E-002  0.11593510307438562        0.0000000000000000     
  -7.8512879439441380E-002  0.12298111094390936        0.0000000000000000     
  -8.0344905041561221E-002  0.13014758706027729        0.0000000000000000     
  -8.2094808266618843E-002  0.13743453142348941        0.0000000000000000     
  -8.1256018663491053E-002  0.10957265798173373        0.0000000000000000     
  -8.3349457574277266E-002  0.11648092642942076        0.0000000000000000     
  -8.5365001299868237E-002  0.12350868106083586        0.0000000000000000     
  -8.7302649840263910E-002  0.13065592187597908        0.0000000000000000     
  -8.9162403195464326E-002  0.13792264887485040        0.0000000000000000     
  -8.8179142793975623E-002  0.11021388502401189        0.0000000000000000     
  -9.0353779013430557E-002  0.11710144475620089        0.0000000000000000     
  -9.2458354737333048E-002  0.12410713064502056        0.0000000000000000     
  -9.4492869965683124E-002  0.13123094269047098        0.0000000000000000     
  -9.6457324698480770E-002  0.13847288089255202        0.0000000000000000     
  -6.8641598131440759E-002  0.13664464021978937        0.0000000000000000     
  -7.0079273545952697E-002  0.14407599681938024        0.0000000000000000     
  -7.1442540642686139E-002  0.15162143854792970        0.0000000000000000     
  -7.2731399421641113E-002  0.15928096540543774        0.0000000000000000     
  -7.3945849882817563E-002  0.16705457739190444        0.0000000000000000     
  -7.5254539911944321E-002  0.13700852853846909        0.0000000000000000     
  -7.6808493999785898E-002  0.14442910349442725        0.0000000000000000     
  -7.8283289649725335E-002  0.15196457542611591        0.0000000000000000     
  -7.9678926861762603E-002  0.15961494433353515        0.0000000000000000     
  -8.0995405635897744E-002  0.16738021021668484        0.0000000000000000     
  -8.2094808266618843E-002  0.13743453142348941        0.0000000000000000     
  -8.3760957618634932E-002  0.14483944186110903        0.0000000000000000     
  -8.5341721601630130E-002  0.15235981620069941        0.0000000000000000     
  -8.6837100215604493E-002  0.15999565444226063        0.0000000000000000     
  -8.8247093460557993E-002  0.16774695658579267        0.0000000000000000     
  -8.9162403195464326E-002  0.13792264887485040        0.0000000000000000     
  -9.0936664402499784E-002  0.14530701191942552        0.0000000000000000     
  -9.2617836498400594E-002  0.15280716087168017        0.0000000000000000     
  -9.4205919483166742E-002  0.16042309573161434        0.0000000000000000     
  -9.5700913356798270E-002  0.16815481649922795        0.0000000000000000     
  -9.6457324698480770E-002  0.13847288089255202        0.0000000000000000     
  -9.8335614351380454E-002  0.14583181366937675        0.0000000000000000     
 -0.10011163434003666       0.15330660943905811        0.0000000000000000     
 -0.10178538466444935       0.16089726820159608        0.0000000000000000     
 -0.10335686532461856       0.16860378995699066        0.0000000000000000     
  -7.3945849882817563E-002  0.16705457739190444        0.0000000000000000     
  -7.5085950754499808E-002  0.17491974273769612        0.0000000000000000     
  -7.6151760764972140E-002  0.18285392967317923        0.0000000000000000     
  -7.7143279914234544E-002  0.19085713819835384        0.0000000000000000     
  -7.8060508202286993E-002  0.19892936831321986        0.0000000000000000     
  -8.0995405635897744E-002  0.16738021021668484        0.0000000000000000     
  -8.2232943683873058E-002  0.17523575067204891        0.0000000000000000     
  -8.3391758717430903E-002  0.18315694329611129        0.0000000000000000     
  -8.4471850736571250E-002  0.19114378808887197        0.0000000000000000     
  -8.5473219741294099E-002  0.19919628505033093        0.0000000000000000     
  -8.8247093460557993E-002  0.16774695658579267        0.0000000000000000     
  -8.9573628786909290E-002  0.17558766609756538        0.0000000000000000     
  -9.0818633645077113E-002  0.18349172644384867        0.0000000000000000     
  -9.1982108035061433E-002  0.19145913762464245        0.0000000000000000     
  -9.3064051956862293E-002  0.19948989963994690        0.0000000000000000     
  -9.5700913356798270E-002  0.16815481649922795        0.0000000000000000     
  -9.7108006063608476E-002  0.17597548901424548        0.0000000000000000     
  -9.8432385547910756E-002  0.18385827911639130        0.0000000000000000     
  -9.9674051809705122E-002  0.19180318680566541        0.0000000000000000     
 -0.10083300484899155       0.19981021208206773        0.0000000000000000     
 -0.10335686532461856       0.16860378995699066        0.0000000000000000     
 -0.10483607551397062       0.17639921942208925        0.0000000000000000     
 -0.10623301442593186       0.18425660131373928        0.0000000000000000     
 -0.10754768206050228       0.19217593563194063        0.0000000000000000     
 -0.10878007841768191       0.20015722237669348        0.0000000000000000     
  -7.8060508202286993E-002  0.19892936831321986        0.0000000000000000     
  -7.8903474148898395E-002  0.20707105932677328        0.0000000000000000     
  -7.9672206273837642E-002  0.21528265054800994        0.0000000000000000     
  -8.0366704577104736E-002  0.22356414197692995        0.0000000000000000     
  -8.0986969058699648E-002  0.23191553361353326        0.0000000000000000     
  -8.5473219741294099E-002  0.19919628505033093        0.0000000000000000     
  -8.6399374487819730E-002  0.20731592349772809        0.0000000000000000     
  -8.7253823732368507E-002  0.21550419274830324        0.0000000000000000     
  -8.8036567474940319E-002  0.22376109280205647        0.0000000000000000     
  -8.8747605715535263E-002  0.23208662365898775        0.0000000000000000     
  -9.3064051956862293E-002  0.19948989963994690        0.0000000000000000     
  -9.4070520443368430E-002  0.20758690681929673        0.0000000000000000     
  -9.5007568527468667E-002  0.21575305349222659        0.0000000000000000     
  -9.5875196209163030E-002  0.22398833965873680        0.0000000000000000     
  -9.6673403488451479E-002  0.23229276531882706        0.0000000000000000     
 -0.10083300484899155       0.19981021208206773        0.0000000000000000     
 -0.10191691201554444       0.20788400929147913        0.0000000000000000     
 -0.10293344065913819       0.21602923277978014        0.0000000000000000     
 -0.10388259077977278       0.22424588254697089        0.0000000000000000     
 -0.10476436237744825       0.23253395859305134        0.0000000000000000     
 -0.10878007841768191       0.20015722237669348        0.0000000000000000     
 -0.10993854920434780       0.20820723091427529        0.0000000000000000     
 -0.11103144012737705       0.21633273061096372        0.0000000000000000     
 -0.11205875118676964       0.22453372146675879        0.0000000000000000     
 -0.11302048238252560       0.23281020348166048        0.0000000000000000     
  -8.0986969058699648E-002  0.23191553361353326        0.0000000000000000     
  -8.1522954594880431E-002  0.24036004356295398        0.0000000000000000     
  -8.1964616061905124E-002  0.24892088993032629        0.0000000000000000     
  -8.2311953459773726E-002  0.25759807271565016        0.0000000000000000     
  -8.2564966788486252E-002  0.26639159191892559        0.0000000000000000     
  -8.8747605715535263E-002  0.23208662365898775        0.0000000000000000     
  -8.9372867555010185E-002  0.24050911023157479        0.0000000000000000     
  -8.9898282094221960E-002  0.24905687743229521        0.0000000000000000     
  -9.0323849333170531E-002  0.25772992526114913        0.0000000000000000     
  -9.0649569271855981E-002  0.26652825371813654        0.0000000000000000     
  -9.6673403488451479E-002  0.23229276531882706        0.0000000000000000     
  -9.7392577078391024E-002  0.24069575030135812        0.0000000000000000     
  -9.8023103692038635E-002  0.24922671443519048        0.0000000000000000     
  -9.8564983329394382E-002  0.25788565772032407        0.0000000000000000     
  -9.9018215990458139E-002  0.26667258015675899        0.0000000000000000     
 -0.10476436237744825       0.23253395859305134        0.0000000000000000     
 -0.10558208316502293       0.24091996377230418        0.0000000000000000     
 -0.10633908085535528       0.24943040093901198        0.0000000000000000     
 -0.10703535544844518       0.25806527009317487        0.0000000000000000     
 -0.10767090694429271       0.26682457123479270        0.0000000000000000     
 -0.11302048238252560       0.23281020348166048        0.0000000000000000     
 -0.11394138581490595       0.24118175064441283        0.0000000000000000     
 -0.11484621358417177       0.24966793694375983        0.0000000000000000     
 -0.11573496569032300       0.25826876237970153        0.0000000000000000     
 -0.11660764213335970       0.26698422695223789        0.0000000000000000     
  -8.2564966788486252E-002  0.26639159191892559        0.0000000000000000     
  -8.2762686498656202E-002  0.27532900547046263        0.0000000000000000     
  -8.2944143040897089E-002  0.28443787130057158        0.0000000000000000     
  -8.3109336415208943E-002  0.29371818940925232        0.0000000000000000     
  -8.3258266621591720E-002  0.30316995979650496        0.0000000000000000     
  -9.0649569271855981E-002  0.26652825371813654        0.0000000000000000     
  -9.0905543426815463E-002  0.27551593228465737        0.0000000000000000     
  -9.1121873314586113E-002  0.28475703044211181        0.0000000000000000     
  -9.1298558935167945E-002  0.29425154819049976        0.0000000000000000     
  -9.1435600288560959E-002  0.30399948552982115        0.0000000000000000     
  -9.9018215990458139E-002  0.26667258015675899        0.0000000000000000     
  -9.9393334874320394E-002  0.27568668923846257        0.0000000000000000     
  -9.9700873180071523E-002  0.28502719245940250        0.0000000000000000     
  -9.9940830907711498E-002  0.29469408981957868        0.0000000000000000     
 -0.10011320805724033       0.30468738131899109        0.0000000000000000     
 -0.10767090694429271       0.26682457123479270        0.0000000000000000     
 -0.10822606084117105       0.27584127633187816        0.0000000000000000     
 -0.10868114263735330       0.28524835735244364        0.0000000000000000     
 -0.10903615233283960       0.29504581429648913        0.0000000000000000     
 -0.10929108992762981       0.30523364716401474        0.0000000000000000     
 -0.11660764213335970       0.26698422695223789        0.0000000000000000     
 -0.11740372132736734       0.27597969356490409        0.0000000000000000     
 -0.11806268168643154       0.28542052512123522        0.0000000000000000     
 -0.11858452321055223       0.29530672162123117        0.0000000000000000     
 -0.11896924589972943       0.30563828306489205        0.0000000000000000     
 </DataArray>
 <DataArray  type="Float64" Name="stress" NumberOfComponents="3" format="ascii">
   4030920337.9742413        1134758361.9475241       -587977592.46681345     
   4034787382.3826647        461093690.97267580       -426989436.51534849     
   4107990585.6531577        18549549.538103342       -351789733.44037491     
   4250529947.7857308       -192874062.35621405       -362378483.24186379     
   4462405468.7803984       -173177144.71023703       -458755685.91984016     
   5217206886.5504694        1961665492.6578834        8089370.7148951190     
   5002189201.8304663        1166707587.5601599        69149556.060030892     
   4857147607.0220776        605003315.50111210        75616072.057370260     
   4782082102.1252947        276552676.48076749        27488918.706926323     
   4776992687.1401167        181355670.49912024       -75231903.991317227     
   5841233889.9210014        2619894759.8065434        582387727.17501235     
   5496459429.0116978        1730382006.4676650        544266528.13826609     
   5222300989.0635271        1076255989.6658971        482746443.28241420     
   5018758570.0764904        657516709.40124166        397827472.60746831     
   4885832172.0505924        474164165.67370129        289509616.11341327     
   5903001348.0858326        3109446163.3934889        1134917476.9135392     
   5517598063.9263420        2152116947.6951962        998361479.71935868     
   5203450731.7775059        1432307572.0324323        869601380.23475921     
   4960559351.6393270        950018036.40519345        748637178.45975363     
   4788923923.5118132        705248340.81349444        635468874.39433253     
   5402509261.0449867        3430319703.4187307        1665678619.9304779     
   5065605106.5744066        2431912411.2427568        1431434410.8033028     
   4800596835.1640167        1673158062.6007276        1236180882.9144101     
   4607484446.8138123        1154056657.4926548        1079918036.2637875     
   4486267941.5237885        874608195.91852379        962645870.85144055     
   4462405468.7803984       -173177144.71023703       -458755685.91984016     
   4407129609.1327505       -130930847.61260653       -323945078.96486741     
   4350228443.5753422       -94102236.880849838       -230784099.71499407     
   4291701972.1081738       -62691312.514955521       -179272748.17022723     
   4231550194.7312403       -36698074.514945030       -169411024.33055604     
   4776992687.1401167        181355670.49912024       -75231903.991317227     
   4609404721.9936781        146399036.25439692       -4920583.5922590578     
   4443702163.7171688        117727091.57610106        38462498.284131266     
   4279885012.3105669        95339836.464184761        54917341.637870073     
   4117953267.7738934        79237270.918685436        44443946.468944237     
   4885832172.0505924        474164165.67370129        289509616.11341327     
   4647993213.3551950        374622933.67158103        299417481.53283828     
   4415550374.3094139        293068767.16815877        297118497.61205304     
   4188503654.9132323        229501666.16340733        282612664.35104668     
   3966853055.1666560        183921630.65733862        255899981.74982718     
   4788923923.5118132        705248340.81349444        635468874.39433253     
   4522895083.2173071        553740844.63893902        589069116.41042686     
   4265773075.3520970        431922789.89535046        545183898.26875639     
   4017557899.9161630        339794176.58270228        503813219.96930838     
   3778249556.9095240        277355004.70101523        464957081.51209474     
   4486267941.5237885        874608195.91852379        962645870.85144055     
   4234110331.5800157        683752769.15648043        864034321.04050326     
   3994370266.8452091        534289159.75767493        782658700.25424349     
   3767047747.3193674        426217367.72208202        718519008.49265671     
   3552142773.0025020        359537393.04973495        671615245.75573599     
   4231550194.7312403       -36698074.514945030       -169411024.33055604     
   4097926107.1832719       -33724528.138094425       -136243415.05190140     
   3965282491.3218207       -27482742.806172848       -110193421.91899620     
   3833619347.1469345       -17972718.519048214       -91261044.931854561     
   3702936674.6585760       -5194455.2768197060       -79446284.090449572     
   4117953267.7738934        79237270.918685436        44443946.468944237     
   3965622996.2201381        69998884.323273659        66821732.651658811     
   3814033957.6130958        63231274.216922760        84745901.046203628     
   3663186151.9527740        58934440.599627018        98216451.652565241     
   3513079579.2391629        57108383.471377611        107233384.47074814     
   3966853055.1666560        183921630.65733862        255899981.74982718     
   3803428023.4859123        164754738.25335038        267208832.97347221     
   3640504986.0120583        147261159.87231767        276728064.76651758     
   3478083942.7450933        131440895.51425278        284457677.12895483     
   3316164893.6850166        117293945.17914522        290397670.06079203     
   3778249556.9095240        277355004.70101523        464957081.51209474     
   3611341188.9805894        250543033.65209293        464917885.91352779     
   3444695576.5187106        224606914.16002941        465753069.24194247     
   3278312719.5238972        199546646.22484076        467462631.49733078     
   3112192617.9961371        175362229.84651101        470046572.67969286     
   3552142773.0025020        359537393.04973495        671615245.75573599     
   3389362492.7041612        327363770.51950562        659948891.47183299     
   3226605729.1330528        295268537.08004999        651820914.47248721     
   3063872482.2891722        263251692.73135531        647231314.75768960     
   2901162752.1725245        231313237.47344673        646180092.32744408     
   3702936674.6585760       -5194455.2768197060       -79446284.090449572     
   3504800792.0124307       -11121546.272199154       -69199206.007969782     
   3306693630.3015447       -16952900.816690922       -51627358.493085459     
   3108615189.5259037       -22688518.910378695       -26730741.545794662     
   2910565469.6855297       -28328400.553175807        5490644.8338917140     
   3513079579.2391629        57108383.471377611        107233384.47074814     
   3331222956.0857511        46689950.888495445        114408097.50787146     
   3149240027.2453985        35850499.349147201        127817011.85797587     
   2967130792.7180905        24590028.853279471        147460127.52104086     
   2784895252.5038524        12908539.400978565        173337444.49707922     
   3316164893.6850166        117293945.17914522        290397670.06079203     
   3147471621.1116858        101449398.33498061        294319153.65999174     
   2978497016.2292032        84667077.126971602        303384270.45273906     
   2809241079.0375752        66946981.555147290        317593020.43902850     
   2639703809.5368023        48289111.619507670        336945403.61884606     
   3112192617.9961371        175362229.84651101        470046572.67969286     
   2953546787.0902267        153156796.06723118        470533962.44840300     
   2794464597.2529583        129496832.51679409        475074417.29121977     
   2634946048.4843450        104382339.19519055        483667937.20815468     
   2474991140.7843881        77813316.102440715        496314522.19919032     
   2901162752.1725245        231313237.47344673        646180092.32744408     
   2749448454.0213690        201812144.08526552        643052523.87309361     
   2597142770.3166609        170339765.51857817        642887452.37341595     
   2444245701.0584078        136896101.77340925        645684877.82843137     
   2290757246.2466083        101481152.84975767        651444800.23811781     
   2910565469.6855297       -28328400.553175807        5490644.8338917140     
   2754607763.6131039       -21651245.493300557        1100411.9487828107     
   2598416566.8729081       -15752392.659357071       -4216069.4320084816     
   2441991879.4649210       -10631842.051378608       -10458799.308464229     
   2285333701.3891511       -6289593.6693229675       -17627777.680586994     
   2784895252.5038524        12908539.400978565        173337444.49707922     
   2624709830.7751880        8321757.6895188093        162836636.34534690     
   2464966982.1149197        5210219.5393841267        152609357.74709746     
   2305666706.5230479        3573924.9505795240        142655608.70232579     
   2146809003.9995697        3412873.9230756760        132975389.21103960     
   2639703809.5368023        48289111.619507670        336945403.61884606     
   2478718609.4351735        33466774.321691751        321122761.22605008     
   2318852046.1381254        22373226.372470140        306773426.43588185     
   2160104119.6456671        15008467.771871924        293897399.24834573     
   2002474829.9577792        11372498.519858360        282494679.66343731     
   2474991140.7843881        77813316.102440715        496314522.19919032     
   2316634099.5930738        53783804.403234243        475958786.59087998     
   2160071758.9425335        35736627.839923739        458276136.63434577     
   2005304118.8327551        23671786.412485242        443266572.32958114     
   1852331179.2637432        17589280.120950580        430930093.67661059     
   2290757246.2466083        101481152.84975767        651444800.23811781     
   2138456301.2488995        69272847.934164166        627344712.43983424     
   1988626120.5281441        45300423.941737771        607117488.34248078     
   1841266704.0843310        29563880.872468114        590763127.94605792     
   1696378051.9174712        22063218.726365447        578281631.25055373     
   2285333701.3891511       -6289593.6693229675       -17627777.680586994     
   2162207990.3299160        3002496.7410614491       -15881265.217442520     
   2035946606.3714495        1842344.1540206671       -15373189.131206146     
   1906549549.5137885       -9770051.4303361177       -16103549.421870183     
   1774016819.7569137       -31834690.012082815       -18072346.089442320     
   2146809003.9995697        3412873.9230756760        132975389.21103960     
   2019522020.2057223        10345474.882187486        129597022.79367645     
   1890224838.9705410        10577417.703542352        124800611.29226351     
   1758917460.2940032        4108702.3870201111        118586154.70682001     
   1625599884.1761277       -9060671.0672738552        110953653.03733186     
   2002474829.9577792        11372498.519858360        282494679.66343731     
   1870513405.6946366        15791659.707309246        275304489.06641996     
   1737667259.4480202        17261747.616503716        266516644.67821890     
   1603936391.2179365        15782762.247479200        256131146.49883437     
   1469320801.0043957        11354703.600258052        244147994.52827695     
   1852331179.2637432        17589280.120950580        430930093.67661059     
   1715182146.7966249        19341051.216321588        421241133.60078746     
   1578273867.8039114        21895333.893020272        409774911.02664369     
   1441606342.2856061        25252128.151085436        396531425.95417720     
   1305179570.2417033        29411433.990511715        381510678.38339961     
   1696378051.9174712        22063218.726365447        578281631.25055373     
   1553528243.5117030        20993649.409267545        567406956.39677823     
   1412044664.0382140        24478176.533088565        554575410.33754456     
   1271927313.4969919        32516800.097810328        539786993.07285213     
   1133176191.8880506        45109520.103457451        523041704.60269004     
   1774016819.7569137       -31834690.012082815       -18072346.089442320     
   1748452281.0011182       -14165575.264635444       -11323717.262022261     
   1731062950.9878154        30754235.291075826       -43720352.434827559     
   1721848829.7169240        102924741.65484798       -115262251.60784028     
   1720809917.1885033        202345943.82685584       -225949414.78107837     
   1625599884.1761277       -9060671.0672738552        110953653.03733186     
   1507430373.6166213       -14331217.247588456        128357025.02601320     
   1393482757.8214033       -5528780.8802429438        118964835.22614127     
   1283757036.7904842        17346638.034756064        82777083.637707129     
   1178253210.5238659        54295039.497412205        19793770.260742795     
   1469320801.0043957        11354703.600258052        244147994.52827695     
   1293831182.1030445       -6270044.4692854285        267593910.03703904     
   1118610143.9878414       -22999523.251668394        276593965.96891618     
   943657686.65878057       -38833732.746915519        271148162.32390153     
   768973810.11584318       -53772672.955073714        251256499.10201156     
   1305179570.2417033        29411433.990511715        381510678.38339961     
   1107654706.4604139        10017943.070318222        406386937.77105784     
   906445109.48711765       -21657991.823241532        429167039.79351163     
   701550779.32180166       -65616370.690196067        449850984.45072514     
   492971715.96448106       -121857193.53052145        468438771.74272662     
   1133176191.8880506        45109520.103457451        523041704.60269004     
   948900946.68872368        34532745.371190608        544736108.22808242     
   756987654.31922364       -1504186.5949924290        576684056.69991481     
   557436314.77955151       -63001275.795071274        618885550.01818907     
   350246928.06972289       -149958522.22902131        671340588.18290472     
   1720809917.1885033        202345943.82685584       -225949414.78107837     
   1452490730.2395844        185509197.63631493       -97461165.319767669     
   1152211367.9307623        62138533.579463124        60066596.815107234     
   819971830.26207006       -167766048.34362805        246633871.62357455     
   455772117.23350924       -504204548.13296968        462240659.10564196     
   1178253210.5238659        54295039.497412205        19793770.260742795     
   973012109.14619780        10619479.360227466        152639876.16147897     
   730118709.22408438       -158563742.59179646        311161646.12344617     
   449573010.75756025       -453254626.35851765        495359080.14661616     
   131375013.74656945       -873453171.94009435        705232178.23101723     
   768973810.11584318       -53772672.955073714        251256499.10201156     
   617199798.27408791       -127170345.84949034        381819651.06021333     
   422081364.70333123       -345049424.50724196        534694618.46727318     
   183618509.40357235       -707409908.92832470        709881401.32316422     
  -98188767.625175059       -1214251799.1127136        907379999.62790060     
   492971715.96448106       -121857193.53052145        468438771.74272662     
   385053797.62326050       -227860277.99279004        590078159.37641752     
   228099334.36848393       -497318512.16693407        730665513.84657264     
   22108326.200165749       -930231896.05290723        890200835.15320063     
  -232919226.88171011       -1526600429.6507170        1068684123.2962792     
   350246928.06972289       -149958522.22902131        671340588.18290472     
   276574107.19370145       -291450317.06972927        777415401.11008883     
   148172618.21955070       -615371005.57085693        899074332.26136220     
  -34957538.852706194       -1121720587.7323303        1036317381.6367304     
  -272816364.02307212       -1810499063.5541949        1189144549.2361712     
   5402509261.0449867        3430319703.4187307        1665678619.9304779     
   5065605106.5744066        2431912411.2427568        1431434410.8033028     
   4800596835.1640167        1673158062.6007276        1236180882.9144101     
   4607484446.8138123        1154056657.4926548        1079918036.2637875     
   4486267941.5237885        874608195.91852379        962645870.85144055     
   4454017568.6384935        2820999808.6041040        1291529645.5555320     
   4277794962.9304285        2083260043.1432414        1188781788.6925242     
   4152981063.2051859        1516882630.9584332        1110490397.3204563     
   4079575869.4627609        1121867572.0496883        1056655471.4393270     
   4057579381.7031498        898214866.41699386        1027277011.0491440     
   3696485256.7922230        2268967727.9575391        1011048086.8166280     
   3639417869.1400061        1779437589.9997897        1015894875.6275181     
   3613272010.3932409        1392979215.0602071        1030663914.1820203     
   3618047680.5519223        1109592603.1387839        1055355202.4801248     
   3653744879.6160564        929277754.23552597        1089968740.5218341     
   3129912325.5061917        1774223461.4790483        824233943.71375930     
   3150473825.2031474        1520445051.8124070        912773671.60829282     
   3181469676.7281833        1301447814.9060426        996701433.49909580     
   3222899880.0813007        1117231750.7599423        1076017229.3861697     
   3274764435.2624974        967796859.37411761        1150721059.2695146     
   2754298774.7803926        1336767009.1686273        731087216.24693143     
   2810962831.1198444        1306282428.5810945        879418176.63484073     
   2857574062.2100153        1242288430.4959540        1008602955.2716888     
   2894132468.0508957        1144785014.9131753        1118641552.1574657     
   2920638048.6424899        1013772181.8327811        1209533967.2921820     
   4486267941.5237885        874608195.91852379        962645870.85144055     
   4234110331.5800157        683752769.15648043        864034321.04050326     
   3994370266.8452091        534289159.75767493        782658700.25424349     
   3767047747.3193674        426217367.72208202        718519008.49265671     
   3552142773.0025020        359537393.04973495        671615245.75573599     
   4057579381.7031498        898214866.41699386        1027277011.0491440     
   3848406625.6848588        714193073.01489735        949967668.87618697     
   3650979312.7221332        569322756.46467960        886910677.61509466     
   3465297442.8149662        463603916.76632380        838106037.26586556     
   3291361015.9633613        397036553.91984546        803553747.82850337     
   3653744879.6160564        929277754.23552597        1089968740.5218341     
   3479032468.6295137        749532241.52525842        1033177486.8078790     
   3315393398.5451274        606697865.15550804        987655005.89297712     
   3162827669.3628912        500774625.12625682        953401297.77713716     
   3021335281.0828109        431762521.43752789        930416362.46035480     
   3274764435.2624974        967796859.37411761        1150721059.2695146     
   3125987860.4139738        789770274.68757081        1113663774.8355851     
   2987612524.3141923        646414485.83016276        1084891685.0879023     
   2859638426.9631543        537729492.80189753        1064404790.0264695     
   2742065568.3608637        463715295.60279548        1052203089.6512911     
   2920638048.6424899        1013772181.8327811        1209533967.2921820     
   2789272801.0382371        834907172.50180244        1191426532.9593000     
   2667636690.0293231        688472618.48862231        1178620715.1998641     
   2555729715.6157451        574468519.79323149        1171116514.0138652     
   2453551877.7975078        492894876.41564059        1168913929.4013124     
   3552142773.0025020        359537393.04973495        671615245.75573599     
   3389362492.7041612        327363770.51950562        659948891.47183299     
   3226605729.1330528        295268537.08004999        651820914.47248721     
   3063872482.2891722        263251692.73135531        647231314.75768960     
   2901162752.1725245        231313237.47344673        646180092.32744408     
   3291361015.9633613        397036553.91984546        803553747.82850337     
   3135584599.5545182        354956885.08016944        789435590.83287013     
   2980616382.4246044        315571213.83692229        779452654.84678876     
   2826456364.5736156        278879540.19009328        773604939.87025476     
   2673104546.0015631        244881864.13971341        771892445.90327501     
   3021335281.0828109        431762521.43752789        930416362.46035480     
   2874267996.3491740        380288386.62410557        914761865.72996950     
   2728793593.4461665        334123857.91278023        903839433.73413539     
   2584912072.3737841        293268935.30353868        897649066.47285032     
   2442623433.1320305        257723618.79639357        896190763.94611323     
   2742065568.3608637        463715295.60279548        1052203089.6512911     
   2605412683.0881419        403358275.15134704        1035927716.1631383     
   2471137362.1977506        350926469.30765015        1024981251.1345301     
   2339239605.6896811        306419878.07170755        1019363694.5654784     
   2209719413.5639400        269838501.44351041        1019075046.4559591     
   2453551877.7975078        492894876.41564059        1168913929.4013124     
   2329018659.7714186        424166550.66188306        1152933142.1323712     
   2207647688.6793504        365979048.02153397        1142878107.0479729     
   2089438964.5213022        318332368.49458420        1138748824.1481230     
   1974392487.2972841        281226512.08106458        1140545293.4328179     
   2901162752.1725245        231313237.47344673        646180092.32744408     
   2749448454.0213690        201812144.08526552        643052523.87309361     
   2597142770.3166609        170339765.51857817        642887452.37341595     
   2444245701.0584078        136896101.77340925        645684877.82843137     
   2290757246.2466083        101481152.84975767        651444800.23811781     
   2673104546.0015631        244881864.13971341        771892445.90327501     
   2529312165.4646087        214144059.64025819        767478312.15951300     
   2384970073.6533976        181573884.22659862        766480859.11306548     
   2240078270.5679183        147171337.89872169        768900086.76392233     
   2094636756.2081807        110936420.65664482        774735995.11208797     
   2442623433.1320305        257723618.79639357        896190763.94611323     
   2308050638.0453620        226138403.53649688        890538684.90544760     
   2172969805.9637227        192859731.62667507        888757470.30471516     
   2037380936.8871033        157887603.06692976        890847120.14392138     
   1901284030.8155003        121222017.85723954        896807634.42306352     
   2209719413.5639400        269838501.44351041        1019075046.4559591     
   2085663871.7636385        237795175.77399975        1012233642.1108819     
   1961141967.2476501        204197307.71884573        1009717285.9483739     
   1836153700.0159597        169044897.27802598        1011525977.9684225     
   1710699070.0685754        132337944.45156598        1017659718.1710440     
   1974392487.2972841        281226512.08106458        1140545293.4328179     
   1862151866.6194324        249114376.35275811        1132563183.7758327     
   1749486557.5051680        215586612.50308198        1129360306.0440347     
   1636396559.9544983        180643220.53204882        1130936660.2374310     
   1522881873.9674060        144284200.43961895        1137292246.3560185     
   2290757246.2466083        101481152.84975767        651444800.23811781     
   2138456301.2488995        69272847.934164166        627344712.43983424     
   1988626120.5281441        45300423.941737771        607117488.34248078     
   1841266704.0843310        29563880.872468114        590763127.94605792     
   1696378051.9174712        22063218.726365447        578281631.25055373     
   2094636756.2081807        110936420.65664482        774735995.11208797     
   1952342047.8972249        78623167.219058156        754499606.55398130     
   1812560318.1065936        54686508.849232197        738111678.32828975     
   1675291566.8363011        39126445.547195911        725572210.43501163     
   1540535794.0863261        31942977.312890232        716881202.87414646     
   1901284030.8155003        121222017.85723954        896807634.42306352     
   1768925835.2812662        88782898.724668384        880484195.05573368     
   1639122832.5107379        64861088.804455340        867984812.65230858     
   1511875022.5039167        49456588.096597493        859309487.21279061     
   1387182405.2608063        42569396.601105928        854458218.73717535     
   1710699070.0685754        132337944.45156598        1017659718.1710440     
   1588207663.4010289        99752042.450987458        1005298477.9450961     
   1468313663.7405717        75824163.807385147        996736891.31454980     
   1351017071.0871944        60554308.520707548        991974958.27939606     
   1236317885.4409096        53942476.591010273        991012678.83962893     
   1522881873.9674060        144284200.43961895        1137292246.3560185     
   1410187532.2565174        111530598.39803773        1128942455.2220697     
   1300132811.7960908        87575733.858005524        1124367914.3150074     
   1192717712.5861282        72419606.819519103        1123568623.6348274     
   1087942234.6266305        66062217.282586455        1126544583.1815248     
   1696378051.9174712        22063218.726365447        578281631.25055373     
   1553528243.5117030        20993649.409267545        567406956.39677823     
   1412044664.0382140        24478176.533088565        554575410.33754456     
   1271927313.4969919        32516800.097810328        539786993.07285213     
   1133176191.8880506        45109520.103457451        523041704.60269004     
   1540535794.0863261        31942977.312890232        716881202.87414646     
   1393701021.1219335        25924388.955096602        709045689.61594045     
   1247510575.0926735        22053557.047747016        701243771.52748048     
   1101964455.9985752        20330481.590944946        693475448.60877752     
   957062663.83960867        20755162.584574282        685740720.85982704     
   1387182405.2608063        42569396.601105928        854458218.73717535     
   1242049714.5240912        33307903.238480628        848819648.07788706     
   1096839448.7253931        23787826.335916162        845205138.96355522     
   951551607.86471462        14009165.893406272        843614691.39419055     
   806186191.94204676        3971921.9109518230        844048305.36978269     
   1236317885.4409096        53942476.591010273        991012678.83962893     
   1098574323.7181909        43144192.259465337        986728831.78261030     
   960031284.93636227        29680984.397543848        986459512.64576089     
   820688769.09542549        13552853.005259097        990204721.42908287     
   680546776.19537401       -5240201.9173922241        997964458.13257623     
   1087942234.6266305        66062217.282586455        1126544583.1815248     
   963274848.70422649        55433256.018017709        1122773240.7301221     
   837086083.72558427        39733031.232654005        1125006892.5741003     
   709375939.69069862        18961542.926478922        1133245538.7134643     
   580144416.59957337       -6881208.9004946649        1147489179.1482038     
   1133176191.8880506        45109520.103457451        523041704.60269004     
   948900946.68872368        34532745.371190608        544736108.22808242     
   756987654.31922364       -1504186.5949924290        576684056.69991481     
   557436314.77955151       -63001275.795071274        618885550.01818907     
   350246928.06972289       -149958522.22902131        671340588.18290472     
   957062663.83960867        20755162.584574282        685740720.85982704     
   796750504.79035711        4278991.7998624742        706358227.18702734     
   627698804.49084520       -41328983.152370483        736516730.94916391     
   449907562.94107509       -116068762.27213719        776216232.14625573     
   263376780.14104471       -219940345.55943841        825456730.77829385     
   806186191.94204676        3971921.9109518230        844048305.36978269     
   667801269.29575205       -19014399.850297183        862303837.97201586     
   519575311.31909919       -74804172.712738782        889387820.59770179     
   361508318.01208848       -163397396.67637622        925300253.24683464     
   193600289.37472516       -284794071.74118459        970041135.91942608     
   680546776.19537401       -5240201.9173922241        997964458.13257623     
   562053240.20490360       -35347429.579346538        1012572940.5830631     
   432617174.80398202       -101929755.27611512        1035297325.6455150     
   292238579.99260175       -204987179.00774860        1066137613.3199142     
   140917455.77077705       -344519700.77421439        1105093803.6062760     
   580144416.59957337       -6881208.9004946649        1147489179.1482038     
   479506417.51779467       -44720097.387284011        1157165535.0201719     
   366824394.94548094       -122705730.84253494        1174245246.0926030     
   242098348.88261062       -240838109.26629937        1198728312.3654950     
   105328279.32920802       -399117232.65851039        1230614733.8388538     
   350246928.06972289       -149958522.22902131        671340588.18290472     
   276574107.19370145       -291450317.06972927        777415401.11008883     
   148172618.21955070       -615371005.57085693        899074332.26136220     
  -34957538.852706194       -1121720587.7323303        1036317381.6367304     
  -272816364.02307212       -1810499063.5541949        1189144549.2361712     
   263376780.14104471       -219940345.55943841        825456730.77829385     
   224483749.59760496       -359979488.78233558        877366718.37878036     
   141280445.61483827       -647719543.46966434        940111045.32998025     
   13766868.192742825       -1083160509.6214209        1013689711.6318815     
  -158056982.66868031       -1666302387.2375975        1098102717.2845027     
   193600289.37472516       -284794071.74118459        970041135.91942608     
   175916252.38279396       -427451802.38057303        979941091.96179199     
   124340336.61031887       -683082462.28844118        995925608.48148143     
   38872542.057299495       -1051686051.4647827        1017994685.4785119     
  -80487131.276255846       -1533262569.9096036        1046148322.9528676     
   140917455.77077705       -344519700.77421439        1105093803.6062760     
   130871615.54926375       -493867257.86444449        1085138521.8591030     
   97352291.206005424       -721459762.02716267        1066518021.7158877     
   40359482.740988314       -1027297213.2624098        1049232303.1766087     
  -40106809.845790267       -1411379611.5701907        1033281366.2413152     
   105328279.32920802       -399117232.65851039        1230614733.8388538     
   89349839.097038954       -559225855.23387766        1192959008.0707400     
   60316309.401908129       -762851442.68578434        1151888285.0331848     
   18227690.243798971       -1009993995.0142879        1107402564.7262166     
  -36916018.377283990       -1300653512.2193656        1059501847.1498156     
   2754298774.7803926        1336767009.1686273        731087216.24693143     
   2810962831.1198444        1306282428.5810945        879418176.63484073     
   2857574062.2100153        1242288430.4959540        1008602955.2716888     
   2894132468.0508957        1144785014.9131753        1118641552.1574657     
   2920638048.6424899        1013772181.8327811        1209533967.2921820     
   2552691166.8769855        1289429454.8122530        817657607.21619678     
   2555822886.7368279        1217513668.3036056        937342110.71386671     
   2553628049.6525431        1127842691.9812098        1044555123.1139216     
   2546106655.6241312        1020416525.8450600        1139296644.4163682     
   2533258704.6515932        895235169.89515257        1221566674.6212053     
   2285333570.5807881        1222366903.9380417        891712737.19569647     
   2254003498.6851678        1114741074.9255238        988264763.49247551     
   2222073138.1505857        1005114283.7831285        1079019989.3451025     
   2189542488.9770355        893486530.51083875        1163978414.7535675     
   2156411551.1645217        779857815.10867310        1243140039.7178767     
   1952225985.8917902        1135579356.5459895        953252606.18543088     
   1905504666.9648719        997964648.44685698        1032186134.9706788     
   1862909327.7041433        874103205.90170074        1111997553.9652200     
   1824439968.1096101        763995028.91052675        1192686863.1690605     
   1790096588.1812756        667640117.47334218        1274254062.5821981     
   1553368412.8099988        1029066812.6361008        1002277214.1853994     
   1510326391.5759277        867184388.86758387        1069106225.1484644     
   1476136618.3132126        734809458.33692336        1143487816.9742808     
   1450799093.0218534        631942021.04410803        1225421989.6628480     
   1434313815.7018511        558582076.98915434        1314908743.2141719     
   2920638048.6424899        1013772181.8327811        1209533967.2921820     
   2789272801.0382371        834907172.50180244        1191426532.9593000     
   2667636690.0293231        688472618.48862231        1178620715.1998641     
   2555729715.6157451        574468519.79323149        1171116514.0138652     
   2453551877.7975078        492894876.41564059        1168913929.4013124     
   2533258704.6515932        895235169.89515257        1221566674.6212053     
   2423402937.4943171        744805506.13512754        1217100575.9126992     
   2321414850.6077366        620601443.27742279        1217316611.9966631     
   2227294443.9918551        522622981.32204890        1222214782.8731058     
   2141041717.6466713        450870120.26899588        1231795088.5420215     
   2156411551.1645217        779857815.10867310        1243140039.7178767     
   2066295316.5085931        657332512.53590238        1250143577.5883329     
   1982185305.7987194        554827956.44998729        1261209768.4702909     
   1904081519.0349073        472344146.85093915        1276338612.3637555     
   1831983956.2171500        409881083.73874396        1295530109.2687218     
   1790096588.1812756        667640117.47334218        1274254062.5821981     
   1717949938.0810699        572488191.70414352        1290555537.9862020     
   1649948055.6022801        491152158.00633192        1310300184.6207397     
   1586090940.7449071        423632016.37991369        1333488002.4858150     
   1526378593.5089552        369927766.82489264        1360118991.5814211     
   1434313815.7018511        558582076.98915434        1314908743.2141719     
   1378366802.2117419        490272543.63984007        1338336457.1063085     
   1324703100.0184073        429574047.94643730        1364587860.4480126     
   1273322709.1218541        376486589.90897346        1393662953.2392819     
   1224225629.5220799        331010169.52743709        1425561735.4801216     
   2453551877.7975078        492894876.41564059        1168913929.4013124     
   2329018659.7714186        424166550.66188306        1152933142.1323712     
   2207647688.6793504        365979048.02153397        1142878107.0479729     
   2089438964.5213022        318332368.49458420        1138748824.1481230     
   1974392487.2972841        281226512.08106458        1140545293.4328179     
   2141041717.6466713        450870120.26899588        1231795088.5420215     
   2033653330.4911277        388951167.63871163        1220381523.9123111     
   1929061838.8885505        336355200.18498087        1214659144.7392192     
   1827267242.8389297        293082217.90776879        1214627951.0227380     
   1728269542.3422787        259132220.80712545        1220287942.7628706     
   1831983956.2171500        409881083.73874396        1295530109.2687218     
   1741070209.2809212        354570447.03657782        1288257524.0003474     
   1652588006.5165925        307364957.57408416        1286441557.4606512     
   1566537347.9241648        268264615.35125887        1290082209.6496317     
   1482918233.5036385        237269420.36810261        1299179480.5672905     
   1526378593.5089552        369927766.82489264        1360118991.5814211     
   1451269296.1407969        321024388.85546917        1356561142.3964741     
   1378226191.5634756        279008320.18884456        1358225345.2122750     
   1307249279.7769930        243879560.82500857        1365111600.0288098     
   1238338560.7813530        215638110.76398608        1377219906.8460960     
   1224225629.5220799        331010169.52743709        1425561735.4801216     
   1164250591.0707464        288312993.09537101        1425292379.1006963     
   1105976394.0291948        251285288.02924335        1430010507.9940813     
   1049403038.3974259        219927054.32905319        1439716122.1602776     
   994530524.17542934        194238291.99477813        1454409221.5992835     
   1974392487.2972841        281226512.08106458        1140545293.4328179     
   1862151866.6194324        249114376.35275811        1132563183.7758327     
   1749486557.5051680        215586612.50308198        1129360306.0440347     
   1636396559.9544983        180643220.53204882        1130936660.2374310     
   1522881873.9674060        144284200.43961895        1137292246.3560185     
   1728269542.3422787        259132220.80712545        1220287942.7628706     
   1629091263.9272103        228948002.75311923        1212188154.7183809     
   1529634739.9078722        197836299.35154533        1208912186.2567761     
   1429899970.2842591        165797110.60239077        1210460037.3780506     
   1329886955.0563779        132830436.50567228        1216831708.0822008     
   1482918233.5036385        237269420.36810261        1299179480.5672905     
   1396929690.6590345        209051337.98070759        1291132864.1061385     
   1310809345.0422940        180393913.01952329        1287954654.8855548     
   1224557196.6534233        151297145.48457006        1289644852.9055357     
   1138173245.4924200        121761035.37584338        1296203458.1660895     
   1238338560.7813530        215638110.76398608        1377219906.8460960     
   1165667146.8148906        189424382.03549212        1369397311.9391055     
   1093010372.9084358        163259453.50703084        1366487711.9303689     
   1020368239.0619826        137143325.17857313        1368491106.8198903     
   947740745.27553749        111075997.05013883        1375407496.6076601     
   994530524.17542934        194238291.99477813        1454409221.5992835     
   935303632.39478731        170067134.91749889        1446981498.2172813     
   876237823.50629091        146432920.81403911        1444511357.3912239     
   817333097.50993383        123335649.68437700        1446998799.1211069     
   758589454.40572727        100775321.52855593        1454443823.4069359     
   1522881873.9674060        144284200.43961895        1137292246.3560185     
   1410187532.2565174        111530598.39803773        1128942455.2220697     
   1300132811.7960908        87575733.858005524        1124367914.3150074     
   1192717712.5861282        72419606.819519103        1123568623.6348274     
   1087942234.6266305        66062217.282586455        1126544583.1815248     
   1329886955.0563779        132830436.50567228        1216831708.0822008     
   1228231427.1620059        102422381.58706784        1212005841.5520973     
   1128866039.1431599        79648126.253553689        1211354839.9332833     
   1031790790.9998293        64507670.505093396        1214878703.2257624     
   937005682.73203087        57001014.341731757        1222577431.4295321     
   1138173245.4924200        121761035.37584338        1296203458.1660895     
   1048698287.6557314        94041054.452562511        1294493787.9690585     
   961163988.31962824        72789935.197889209        1297358597.3677304     
   875570347.48410988        58007677.611835063        1304797886.3621030     
   791917365.14917731        49694281.694404185        1316811654.9521730     
   947740745.27553749        111075997.05013883        1375407496.6076601     
   871588113.73770356        86386616.994527668        1376406294.4729507     
   797026659.32551527        67001160.691063225        1382379186.6183453     
   724056382.03897107        52919628.139750808        1393326173.0438540     
   652677281.87807596        44142019.340597212        1409247253.7494690     
   758589454.40572727        100775321.52855593        1454443823.4069359     
   696900905.40792167        79459069.212980002        1457743361.0637748     
   636454052.16081262        62281802.733062029        1466416607.6851320     
   577248894.66441417        49243522.088843256        1480463563.2710087     
   519285432.91872400        40344227.280321762        1499884227.8214011     
   1087942234.6266305        66062217.282586455        1126544583.1815248     
   963274848.70422649        55433256.018017709        1122773240.7301221     
   837086083.72558427        39733031.232654005        1125006892.5741003     
   709375939.69069862        18961542.926478922        1133245538.7134643     
   580144416.59957337       -6881208.9004946649        1147489179.1482038     
   937005682.73203087        57001014.341731757        1222577431.4295321     
   827922985.65259337        46303553.317649513        1219049094.7073956     
   717274415.80713117        30386516.406824768        1221519793.5135868     
   605059973.19566202        9249903.6093063354        1229989527.8481047     
   491279657.81817526       -17106285.074936688        1244458297.7109466     
   791917365.14917731        49694281.694404185        1316811654.9521730     
   698402331.86396408        38923213.396155924        1313474414.6312416     
   603276932.10296440        22784256.845288038        1316130251.0715785     
   506541165.86617160        1277412.0417776406        1324779164.2731824     
   408195033.15360034       -25597321.014331758        1339421154.2360587     
   652677281.87807596        44142019.340597212        1409247253.7494690     
   574712887.33835685        33292236.253568977        1406049200.5016625     
   495093632.61308432        16926252.548034042        1408838265.2480755     
   413819517.70224059       -4955931.7760732770        1417614447.9887009     
   330890542.60584599       -32354316.718683973        1432377748.7235351     
   519285432.91872400        40344227.280321762        1499884227.8214011     
   456854652.07577205        29410621.889915392        1496773452.3186569     
   392724517.33748907        12812503.515063807        1499643836.0430753     
   326895028.70386469       -9450127.8442547172        1508495378.9946454     
   259366186.17491561       -37377272.187989026        1523328081.1733806     
   580144416.59957337       -6881208.9004946649        1147489179.1482038     
   479506417.51779467       -44720097.387284011        1157165535.0201719     
   366824394.94548094       -122705730.84253494        1174245246.0926030     
   242098348.88261062       -240838109.26629937        1198728312.3654950     
   105328279.32920802       -399117232.65851039        1230614733.8388538     
   491279657.81817526       -17106285.074936688        1244458297.7109466     
   409438564.99644262       -51694331.672695488        1242645178.8159883     
   317418097.89879876       -120213625.85681383        1247137669.1000555     
   215218256.52525926       -222664167.62725919        1257935768.5631399     
   102839040.87580627       -359045956.98407733        1275039477.2052617     
   408195033.15360034       -25597321.014331758        1339421154.2360587     
   342014429.38779891       -57875450.884286091        1328293984.6579168     
   267519100.56072968       -117869330.95847462        1322374678.2373602     
   184709046.67239317       -205578961.23687994        1321663234.9743874     
   93584267.722786352       -321004341.71952641        1326159654.8690019     
   330890542.60584599       -32354316.718683973        1432377748.7235351     
   277234010.69186902       -63263455.022066757        1414111952.5459495     
   217127402.93125501       -115672846.14757085        1399956273.5045235     
   150570719.32401705       -189582490.09515709        1389910711.5992329     
   77563959.870142028       -284992386.86486453        1383975266.8300946     
   259366186.17491561       -37377272.187989026        1523328081.1733806     
   215097308.90865040       -67858344.086030662        1500099082.4801013     
   166243005.01037812       -113624171.42409606        1479882454.9015372     
   112803274.48013514       -174674754.20206642        1462678198.4376786     
   54778117.317880943       -251010092.42007425        1448486313.0885236     
   105328279.32920802       -399117232.65851039        1230614733.8388538     
   89349839.097038954       -559225855.23387766        1192959008.0707400     
   60316309.401908129       -762851442.68578434        1151888285.0331848     
   18227690.243798971       -1009993995.0142879        1107402564.7262166     
  -36916018.377283990       -1300653512.2193656        1059501847.1498156     
   102839040.87580627       -359045956.98407733        1275039477.2052617     
   84647517.519828856       -500577328.52958518        1220910177.0707083     
   54609506.982567370       -681596990.67936766        1164206444.6419349     
   12725009.264033794       -902104943.43339038        1104928279.9189081     
  -41005975.635786831       -1162101186.7917037        1043075682.9016354     
   93584267.722786352       -321004341.71952641        1326159654.8690019     
   75581275.457806885       -443237977.97074628        1256966816.3633447     
   46940398.293240070       -600931230.55392122        1186040110.5386264     
   7661636.2290889323       -794084099.46905029        1113379537.3948569     
  -42255010.734650731       -1022696584.7161367        1038985096.9320298     
   77563959.870142028       -284992386.86486453        1383975266.8300946     
   62151112.910974026       -387207803.55735236        1301128925.9486270     
   37308983.333919257       -520854162.30945921        1217389282.7232881     
   3037571.1389552057       -685931463.12125838        1132756337.1540639     
  -40663123.673892260       -882439705.99268329        1047230089.2409946     
   54778117.317880943       -251010092.42007425        1448486313.0885236     
   44357029.879335135       -332486805.28938687        1353396505.8265557     
   25715262.104588836       -441365785.94603997        1258253961.1958978     
  -1147186.0063561201       -577647034.39001644        1163058679.1965539     
  -36230314.453508139       -741330550.62135530        1067810659.8285172     
   1553368412.8099988        1029066812.6361008        1002277214.1853994     
   1510326391.5759277        867184388.86758387        1069106225.1484644     
   1476136618.3132126        734809458.33692336        1143487816.9742808     
   1450799093.0218534        631942021.04410803        1225421989.6628480     
   1434313815.7018511        558582076.98915434        1314908743.2141719     
   1094429087.8716905        750620942.95627236        931924187.65743506     
   1079469593.9658487        634405731.73573720        1022241650.9273127     
   1071149286.0385305        540321140.44361556        1116069889.9220021     
   1069468164.0897373        468367169.07991034        1213408904.6415043     
   1074426228.1194670        418543817.64461458        1314258695.0858195     
   682554577.42391372        486294517.62360311        877186134.86228490     
   684129596.16647100        412282114.54709768        988410144.78066945     
   690130738.89472401        353023458.08957052        1099103125.2859275     
   700558005.60866928        308518548.25102037        1209265076.3780572     
   715411396.30830562        278767385.03144151        1318895998.0570643     
   317744881.46666396        236087536.63809380        838063055.79994082     
   324306398.17779696        200813537.30166912        967611706.70852983     
   333080976.88179332        172916411.27479160        1092587523.0660543     
   344068617.57864738        152396158.55743930        1212990504.8725123     
   357269320.26836544        139252779.14963317        1328820652.1279070     
  -5.5450149966168531E-005  -2.5977388738275986E-004   814554950.47040522     
  -1.7550063966189974E-004  -5.4891988390601493E-004   959846336.71089852     
  -2.6343396328811750E-004  -7.3100866019755841E-004   1096523083.2623861     
  -3.2037101909083759E-004  -8.1116432252489109E-004   1224585190.1248665     
  -3.5205355114658980E-004  -8.0505657085782559E-004   1344032657.2983427     
   1434313815.7018511        558582076.98915434        1314908743.2141719     
   1378366802.2117419        490272543.63984007        1338336457.1063085     
   1324703100.0184073        429574047.94643730        1364587860.4480126     
   1273322709.1218541        376486589.90897346        1393662953.2392819     
   1224225629.5220799        331010169.52743709        1425561735.4801216     
   1074426228.1194670        418543817.64461458        1314258695.0858195     
   1031211617.0658021        366935362.35181969        1340469094.7225578     
   989709489.48471928        321035185.30096579        1369795865.6939504     
   949919845.37622547        280843286.49207562        1402239007.9999974     
   911842684.74031425        246359665.92512494        1437798521.6406980     
   715411396.30830562        278767385.03144151        1318895998.0570643     
   685765421.64847922        244110877.98238277        1347223117.6435089     
   657261102.63704455        213259889.76129785        1378959290.4496992     
   629898439.27400362        186214420.36818987        1414104516.4756336     
   603677431.55935144        162974469.80304539        1452658795.7213073     
   357269320.26836544        139252779.14963317        1328820652.1279070     
   342028215.95977741        121799090.53154297        1358598525.8691669     
   327357939.47538525        106248161.32743968        1392078134.7152603     
   313258490.81519073        92599991.537328452        1429259478.6661847     
   299729869.97919410        80854581.161208346        1470142557.7219415     
  -3.5205355114658980E-004  -8.0505657085782559E-004   1344032657.2983427     
  -3.1188421808528953E-004  -7.2805772399886384E-004   1374595319.3995287     
  -2.6414310299478056E-004  -6.2547265901401119E-004   1409152398.4906323     
  -2.1293635353138607E-004  -5.1185589649566641E-004   1447703894.5716579     
  -1.5646824495403993E-004  -3.8000738087375893E-004   1490249807.6426022     
   1224225629.5220799        331010169.52743709        1425561735.4801216     
   1164250591.0707464        288312993.09537101        1425292379.1006963     
   1105976394.0291948        251285288.02924335        1430010507.9940813     
   1049403038.3974259        219927054.32905319        1439716122.1602776     
   994530524.17542934        194238291.99477813        1454409221.5992835     
   911842684.74031425        246359665.92512494        1437798521.6406980     
   867830628.70034742        214627550.44065502        1440628556.9342098     
   825094203.71771383        187147538.48062965        1448219925.5142093     
   783633409.79240847        163919630.04503343        1460572627.3806973     
   743448246.92443871        144943825.13388866        1477686662.5336721     
   603677431.55935144        162974469.80304539        1452658795.7213073     
   574982209.39840448        142013570.70647502        1458092143.9432325     
   547137407.94234169        123887407.29285167        1468060673.4653215     
   520143027.19115865        108595979.56216040        1482564384.2875762     
   493999067.14486092        96139287.514419675        1501603276.4099979     
   299729869.97919410        80854581.161208346        1470142557.7219415     
   285705333.16491914        70471053.892831013        1477683140.1277547     
   272106006.70307934        61504894.465903476        1489532751.8474092     
   258931890.59367332        53956102.880421802        1505691392.8809085     
   246182984.83669871        47824679.136377081        1526159063.2282557     
  -1.5646824495403993E-004  -3.8000738087375893E-004   1490249807.6426022     
  -1.0875000533793944E-004  -2.7576384399429112E-004   1499401545.4877794     
  -7.3110016209519224E-005  -2.1178114207375754E-004   1512636160.6604812     
  -5.7737697407017071E-005  -2.1466345184922671E-004   1529953653.1607041     
  -4.9045017131792630E-005  -2.4119900216306971E-004   1551354022.9884501     
   994530524.17542934        194238291.99477813        1454409221.5992835     
   935303632.39478731        170067134.91749889        1446981498.2172813     
   876237823.50629091        146432920.81403911        1444511357.3912239     
   817333097.50993383        123335649.68437700        1446998799.1211069     
   758589454.40572727        100775321.52855593        1454443823.4069359     
   743448246.92443871        144943825.13388866        1477686662.5336721     
   698942222.44149649        126789700.63167515        1471004978.5446031     
   654557010.12766945        109038283.35984807        1469300910.0958841     
   610292609.98294902        91689573.318374082        1472574457.1875176     
   566149022.00734210        74743570.507280976        1480825619.8195019     
   493999067.14486092        96139287.514419675        1501603276.4099979     
   464271147.05792856        84019366.716776669        1495620649.3036540     
   434623768.41707605        72167917.406065494        1494635670.7220681     
   405056931.22229719        60584939.582267702        1498648340.6652403     
   375570635.47359723        49270433.245398119        1507658659.1331723     
   246182984.83669871        47824679.136377081        1526159063.2282557     
   231290406.24408469        41756133.172801219        1520828510.4944346     
   216438098.37450737        35821822.952680342        1520515639.2697759     
   201626061.22798103        30021748.476063676        1525220449.5542827     
   186854294.80449322        24355909.742907524        1534942941.3479538     
  -4.9045017131792630E-005  -2.4119900216306971E-004   1551354022.9884501     
  -4.2868639041501577E-005  -2.7265277947473711E-004   1546628562.1169431     
  -2.6123791774490285E-005  -2.7095999436850922E-004   1546940815.7390046     
  -2.9738116731030921E-006  -2.4652898770024677E-004   1552290783.8546374     
   2.9738116731030975E-005  -1.9091870941321889E-004   1562678466.4638438     
   758589454.40572727        100775321.52855593        1454443823.4069359     
   696900905.40792167        79459069.212980002        1457743361.0637748     
   636454052.16081262        62281802.733062029        1466416607.6851320     
   577248894.66441417        49243522.088843256        1480463563.2710087     
   519285432.91872400        40344227.280321762        1499884227.8214011     
   566149022.00734210        74743570.507280976        1480825619.8195019     
   520004773.70566064        58793030.304600865        1486030185.5390253     
   474791797.21701461        45946729.478708491        1496579955.4188461     
   430510092.54139149        36204668.029553458        1512474929.4589624     
   387159659.67879319        29566845.957156375        1533715107.6593738     
   375570635.47359723        49270433.245398119        1507658659.1331723     
   344889245.57026136        38661172.466300234        1514406091.6547656     
   314828703.54228073        30121404.605053380        1526470223.5324273     
   285389009.38964796        23651129.661633924        1543851054.7661586     
   256570163.11236638        19250347.636048853        1566548585.3559585     
   186854294.80449322        24355909.742907524        1534942941.3479538     
   171554321.00171545        19063495.698048934        1542871079.4109912     
   156564771.13661608        14805828.112119436        1556087412.0258729     
   141885645.20918682        11582906.985089168        1574591939.1925952     
   127516943.21944211        9394732.3170087747        1598384660.9111617     
   2.9738116731030975E-005  -1.9091870941321889E-004   1562678466.4638438     
   2.7633573085450329E-005  -1.3825936732488555E-004   1571425148.8077002     
   2.6581301262659999E-005  -7.8623005541964209E-005   1585431520.8991771     
   2.2829723459668394E-005  -3.1453777311667376E-005   1604697582.7382755     
   8.0521669917868504E-006  -1.7568364345716763E-005   1629223334.3249910     
   519285432.91872400        40344227.280321762        1499884227.8214011     
   456854652.07577205        29410621.889915392        1496773452.3186569     
   392724517.33748907        12812503.515063807        1499643836.0430753     
   326895028.70386469       -9450127.8442547172        1508495378.9946454     
   259366186.17491561       -37377272.187989026        1523328081.1733806     
   387159659.67879319        29566845.957156375        1533715107.6593738     
   340965699.74780291        21555379.624715358        1529333873.8923912     
   293497224.39532107        9295528.5539720505        1530787003.3556159     
   244754233.62133259       -7212707.2551276237        1538074496.0490434     
   194736727.42584151       -27969327.802570343        1551196351.9726744     
   256570163.11236638        19250347.636048853        1566548585.3559585     
   226193606.95918927        14035195.221348666        1561392538.2108803     
   194967373.85834727        5987786.3144327179        1561924058.2990451     
   162891463.80983537       -4891879.0847164765        1568143145.6204684     
   129965876.81365673       -18603800.976088203        1580049800.1751370     
   127516943.21944211        9394732.3170087747        1598384660.9111617     
   112538373.70992111        6850068.6797822639        1592949445.2741253     
   97134965.726572827        2889276.7964660898        1593055000.8733802     
   81306719.269384041       -2487643.3329850286        1598701327.7089295     
   65053634.338367812       -9280691.7085289806        1609888425.7807782     
   8.0521669917868504E-006  -1.7568364345716763E-005   1629223334.3249910     
  -3.7515778029916007E-006   5.5358648068534588E-006   1624004595.0821214     
  -1.3999790337993046E-005   3.2437422711232250E-005   1624179831.0786016     
  -2.0016040107424695E-005   7.3098578472314995E-005   1629749042.3144302     
  -3.6051747667772947E-005   8.2443209768181270E-005   1640712228.7895980     
   259366186.17491561       -37377272.187989026        1523328081.1733806     
   215097308.90865040       -67858344.086030662        1500099082.4801013     
   166243005.01037812       -113624171.42409606        1479882454.9015372     
   112803274.48013514       -174674754.20206642        1462678198.4376786     
   54778117.317880943       -251010092.42007425        1448486313.0885236     
   194736727.42584151       -27969327.802570343        1551196351.9726744     
   160752948.02616450       -51064768.161102518        1523328157.2763150     
   123330098.65248773       -85623775.099637896        1498654828.6996584     
   82468179.304820269       -131646348.61814091        1477176366.2427096     
   38167189.983157046       -189132488.71662846        1458892769.9054646     
   129965876.81365673       -18603800.976088203        1580049800.1751370     
   106788609.58056353       -34157185.505103879        1548879825.5766914     
   81318629.031470224       -57352947.754117042        1521087212.1029460     
   53555935.166374490       -88191087.723141134        1496671959.7539062     
   23500527.985278800       -126671605.41216229        1475634068.5295637     
   65053634.338367812       -9280691.7085289806        1609888425.7807782     
   53204293.571849391       -17135596.118025027        1576754087.3812387     
   40208596.147320874       -28811689.387556151        1547179605.1113973     
   26066542.064800553       -44308971.517059930        1521164978.9712510     
   10778131.324258298       -63627442.506635435        1498710208.9608040     
  -3.6051747667772947E-005   8.2443209768181270E-005   1640712228.7895980     
   8.4181745823226175E-006   8.9122848295459002E-005   1606950942.6899526     
   5.7188686021213424E-005   1.0875000533793944E-004   1576932007.7250102     
   7.6701465691651443E-005   3.2586113294887404E-005   1550655423.8947592     
   1.0101809498787138E-004  -2.9646614833397038E-005   1528121191.1992097     
   54778117.317880943       -251010092.42007425        1448486313.0885236     
   44357029.879335135       -332486805.28938687        1353396505.8265557     
   25715262.104588836       -441365785.94603997        1258253961.1958978     
  -1147186.0063561201       -577647034.39001644        1163058679.1965539     
  -36230314.453508139       -741330550.62135530        1067810659.8285172     
   38167189.983157046       -189132488.71662846        1458892769.9054646     
   33127498.948449418       -249407186.00536567        1355767629.8047037     
   21922297.661589414       -330233584.13461232        1251941989.9415927     
   4551586.1225927472       -431611683.10431439        1147415850.3161564     
  -18984635.668552250       -553541482.91450953        1042189210.9283673     
   23500527.985278800       -126671605.41216229        1475634068.5295637     
   21991483.658258855       -166299512.02918264        1366871294.0214012     
   16372099.163150460       -219628552.53982979        1256760257.3572450     
   6642374.4999612123       -286658726.94407976        1145300958.5371122     
  -7197690.3313267082       -367390035.24199617        1032493397.5609664     
   10778131.324258298       -63627442.506635435        1498710208.9608040     
   10948984.008787543       -83163783.360760495        1386707498.4766464     
   9064666.6092850566       -109550691.16165523        1272708763.4428470     
   5125179.1257404014       -142788165.90935856        1156714003.8594003     
  -869478.44181951135       -182876207.60378498        1038723219.7263298     
   1.0101809498787138E-004  -2.9646614833397038E-005   1528121191.1992097     
   2.4339504770628438E-005  -1.3258624967158117E-004   1415276243.1704490     
  -2.7404818341365470E-005  -1.5310555021599256E-004   1299787508.1984010     
  -4.4332669403644645E-005  -5.6182165147240066E-005   1181654986.2830698     
  -4.4469922250095557E-005   9.3240433688986357E-005   1060878677.4244372     
  -5.5450149966168531E-005  -2.5977388738275986E-004   814554950.47040522     
  -1.7550063966189974E-004  -5.4891988390601493E-004   959846336.71089852     
  -2.6343396328811750E-004  -7.3100866019755841E-004   1096523083.2623861     
  -3.2037101909083759E-004  -8.1116432252489109E-004   1224585190.1248665     
  -3.5205355114658980E-004  -8.0505657085782559E-004   1344032657.2983427     
  -317744881.46682549       -236087536.63869011        838063055.79963374     
  -324306398.17815471       -200813537.30274069        967611706.70827293     
  -333080976.88229287       -172916411.27615798        1092587523.0658550     
  -344068617.57924050       -152396158.55893973        1212990504.8723812     
  -357269320.26899976       -139252779.15109077        1328820652.1278505     
  -682554577.42418635       -486294517.62429941        877186134.86170745     
  -684129596.16686821       -412282114.54815435        988410144.78018105     
  -690130738.89520013       -353023458.09084368        1099103125.2855442     
  -700558005.60918415       -308518548.25237381        1209265076.3778038     
  -715411396.30881763       -278767385.03273416        1318895998.0569539     
  -1094429087.8721347       -750620942.95708418        931924187.65663409     
  -1079469593.9663157       -634405731.73678708        1022241650.9266223     
  -1071149286.0389872       -540321140.44479561        1116069889.9214587     
  -1069468164.0901487       -468367169.08110654        1213408904.6411347     
  -1074426228.1198020       -418543817.64571917        1314258695.0856516     
  -1553368412.8106740       -1029066812.6370461        1002277214.1844079     
  -1510326391.5764985       -867184388.86864448        1069106225.1476048     
  -1476136618.3136525       -734809458.33801281        1143487816.9735916     
  -1450799093.0221417       -631942021.04516160        1225421989.6623716     
  -1434313815.7019572       -558582076.99006557        1314908743.2139440     
  -3.5205355114658980E-004  -8.0505657085782559E-004   1344032657.2983427     
  -3.1188421808528953E-004  -7.2805772399886384E-004   1374595319.3995287     
  -2.6414310299478056E-004  -6.2547265901401119E-004   1409152398.4906323     
  -2.1293635353138607E-004  -5.1185589649566641E-004   1447703894.5716579     
  -1.5646824495403993E-004  -3.8000738087375893E-004   1490249807.6426022     
  -357269320.26899976       -139252779.15109077        1328820652.1278505     
  -342028215.96033478       -121799090.53285094        1358598525.8691363     
  -327357939.47585720       -106248161.32856612        1392078134.7152510     
  -313258490.81558132       -92599991.538288459        1429259478.6661966     
  -299729869.97949809       -80854581.161984846        1470142557.7219741     
  -715411396.30881763       -278767385.03273416        1318895998.0569539     
  -685765421.64892673       -244110877.98354036        1347223117.6434424     
  -657261102.63742721       -213259889.76231650        1378959290.4496698     
  -629898439.27432585       -186214420.36908451        1414104516.4756379     
  -603677431.55961430       -162974469.80382207        1452658795.7213416     
  -1074426228.1198020       -418543817.64571917        1314258695.0856516     
  -1031211617.0660902       -366935362.35280496        1340469094.7224443     
  -989709489.48496807       -321035185.30185312        1369795865.6938834     
  -949919845.37643826       -280843286.49287772        1402239007.9999745     
  -911842684.74050450       -246359665.92588979        1437798521.6407106     
  -1434313815.7019572       -558582076.99006557        1314908743.2139440     
  -1378366802.2118218       -490272543.64063674        1338336457.1061409     
  -1324703100.0184789       -429574047.94717658        1364587860.4478974     
  -1273322709.1219325       -376486589.90970755        1393662953.2392108     
  -1224225629.5221710       -331010169.52819043        1425561735.4800820     
  -1.5646824495403993E-004  -3.8000738087375893E-004   1490249807.6426022     
  -1.0875000533793944E-004  -2.7576384399429112E-004   1499401545.4877794     
  -7.3110016209519224E-005  -2.1178114207375754E-004   1512636160.6604812     
  -5.7737697407017071E-005  -2.1466345184922671E-004   1529953653.1607041     
  -4.9045017131792630E-005  -2.4119900216306971E-004   1551354022.9884501     
  -299729869.97949809       -80854581.161984846        1470142557.7219741     
  -285705333.16514587       -70471053.893451512        1477683140.1277668     
  -272106006.70324224       -61504894.466414258        1489532751.8474052     
  -258931890.59379351       -53956102.880892254        1505691392.8808842     
  -246182984.83679551       -47824679.136874080        1526159063.2282107     
  -603677431.55961430       -162974469.80382207        1452658795.7213416     
  -574982209.39861262       -142013570.70714778        1458092143.9432416     
  -547137407.94250286       -123887407.29345082        1468060673.4653063     
  -520143027.19127971       -108595979.56270829        1482564384.2875328     
  -493999067.14495039       -96139287.514942795        1501603276.4099224     
  -911842684.74050450       -246359665.92588979        1437798521.6407106     
  -867830628.70051420       -214627550.44138536        1440628556.9342086     
  -825094203.71785152       -187147538.48131049        1448219925.5141892     
  -783633409.79251266       -163919630.04564840        1460572627.3806512     
  -743448246.92450762       -144943825.13443226        1477686662.5335956     
  -1224225629.5221710       -331010169.52819043        1425561735.4800820     
  -1164250591.0708430       -288312993.09613603        1425292379.1006644     
  -1105976394.0292888       -251285288.02999592        1430010507.9940474     
  -1049403038.3974895       -219927054.32970476        1439716122.1602340     
  -994530524.17546678       -194238291.99533558        1454409221.5992272     
  -4.9045017131792630E-005  -2.4119900216306971E-004   1551354022.9884501     
  -4.2868639041501577E-005  -2.7265277947473711E-004   1546628562.1169431     
  -2.6123791774490285E-005  -2.7095999436850922E-004   1546940815.7390046     
  -2.9738116731030921E-006  -2.4652898770024677E-004   1552290783.8546374     
   2.9738116731030975E-005  -1.9091870941321889E-004   1562678466.4638438     
  -246182984.83679551       -47824679.136874080        1526159063.2282107     
  -231290406.24415714       -41756133.173315056        1520828510.4944065     
  -216438098.37455052       -35821822.953197047        1520515639.2697706     
  -201626061.22796845       -30021748.476493098        1525220449.5542951     
  -186854294.80442518       -24355909.743253484        1534942941.3479826     
  -493999067.14495039       -96139287.514942795        1501603276.4099224     
  -464271147.05798620       -84019366.717271894        1495620649.3036146     
  -434623768.41709435       -72167917.406508982        1494635670.7220659     
  -405056931.22227198       -60584939.582644418        1498648340.6652694     
  -375570635.47352552       -49270433.245696336        1507658659.1332254     
  -743448246.92450762       -144943825.13443226        1477686662.5335956     
  -698942222.44152939       -126789700.63214301        1471004978.5445714     
  -654557010.12766457       -109038283.36023214        1469300910.0958905     
  -610292609.98291242       -91689573.318695128        1472574457.1875534     
  -566149022.00727546       -74743570.507547423        1480825619.8195648     
  -994530524.17546678       -194238291.99533558        1454409221.5992272     
  -935303632.39478922       -170067134.91793239        1446981498.2172647     
  -876237823.50626385       -146432920.81437406        1444511357.3912432     
  -817333097.50988686       -123335649.68464187        1446998799.1211548     
  -758589454.40567088       -100775321.52877885        1454443823.4070024     
   2.9738116731030975E-005  -1.9091870941321889E-004   1562678466.4638438     
   2.7633573085450329E-005  -1.3825936732488555E-004   1571425148.8077002     
   2.6581301262659999E-005  -7.8623005541964209E-005   1585431520.8991771     
   2.2829723459668394E-005  -3.1453777311667376E-005   1604697582.7382755     
   8.0521669917868504E-006  -1.7568364345716763E-005   1629223334.3249910     
  -186854294.80442518       -24355909.743253484        1534942941.3479826     
  -171554321.00165102       -19063495.698282741        1542871079.4110110     
  -156564771.13657036       -14805828.112291828        1556087412.0258842     
  -141885645.20915684       -11582906.985191651        1574591939.1926007     
  -127516943.21942584       -9394732.3170338646        1598384660.9111662     
  -375570635.47352552       -49270433.245696336        1507658659.1332254     
  -344889245.57020444       -38661172.466529623        1514406091.6548047     
  -314828703.54224074       -30121404.605220377        1526470223.5324526     
  -285389009.38962662       -23651129.661742210        1543851054.7661717     
  -256570163.11236399       -19250347.636104770        1566548585.3559592     
  -566149022.00727546       -74743570.507547423        1480825619.8195648     
  -520004773.70561945       -58793030.304834992        1486030185.5390728     
  -474791797.21698827       -45946729.478872135        1496579955.4188769     
  -430510092.54138517       -36204668.029671088        1512474929.4589753     
  -387159659.67881322       -29566845.957237333        1533715107.6593645     
  -758589454.40567088       -100775321.52877885        1454443823.4070024     
  -696900905.40788448       -79459069.213158727        1457743361.0638235     
  -636454052.16081524       -62281802.733259290        1466416607.6851614     
  -577248894.66443157       -49243522.088980854        1480463563.2710171     
  -519285432.91875917       -40344227.280405566        1499884227.8213935     
   8.0521669917868504E-006  -1.7568364345716763E-005   1629223334.3249910     
  -3.7515778029916007E-006   5.5358648068534588E-006   1624004595.0821214     
  -1.3999790337993046E-005   3.2437422711232250E-005   1624179831.0786016     
  -2.0016040107424695E-005   7.3098578472314995E-005   1629749042.3144302     
  -3.6051747667772947E-005   8.2443209768181270E-005   1640712228.7895980     
  -127516943.21942584       -9394732.3170338646        1598384660.9111662     
  -112538373.70992500       -6850068.6797667742        1592949445.2741196     
  -97134965.726594731       -2889276.7963998057        1593055000.8733757     
  -81306719.269431144        2487643.3330773748        1598701327.7089353     
  -65053634.338439181        9280691.7086491212        1609888425.7807870     
  -256570163.11236399       -19250347.636104770        1566548585.3559592     
  -226193606.95919606       -14035195.221360683        1561392538.2108707     
  -194967373.85836613       -5987786.3144142255        1561924058.2990398     
  -162891463.80986801        4891879.0847610235        1568143145.6204679     
  -129965876.81370747        18603800.976142935        1580049800.1751564     
  -387159659.67881322       -29566845.957237333        1533715107.6593645     
  -340965699.74781233       -21555379.624763161        1529333873.8923771     
  -293497224.39531189       -9295528.5539518148        1530787003.3555954     
  -244754233.62132210        7212707.2551526278        1538074496.0490360     
  -194736727.42583498        27969327.802585632        1551196351.9726822     
  -519285432.91875917       -40344227.280405566        1499884227.8213935     
  -456854652.07576454       -29410621.889943078        1496773452.3186364     
  -392724517.33744848       -12812503.515074968        1499643836.0430434     
  -326895028.70379454        9450127.8442532718        1508495378.9946256     
  -259366186.17482343        37377272.187970057        1523328081.1733730     
  -3.6051747667772947E-005   8.2443209768181270E-005   1640712228.7895980     
   8.4181745823226175E-006   8.9122848295459002E-005   1606950942.6899526     
   5.7188686021213424E-005   1.0875000533793944E-004   1576932007.7250102     
   7.6701465691651443E-005   3.2586113294887404E-005   1550655423.8947592     
   1.0101809498787138E-004  -2.9646614833397038E-005   1528121191.1992097     
  -65053634.338439181        9280691.7086491212        1609888425.7807870     
  -53204293.571837641        17135596.118159283        1576754087.3812380     
  -40208596.147225000        28811689.387706064        1547179605.1113813     
  -26066542.064638671        44308971.517163761        1521164978.9712162     
  -10778131.324051458        63627442.506627545        1498710208.9607425     
  -129965876.81370747        18603800.976142935        1580049800.1751564     
  -106788609.58054540        34157185.505180925        1548879825.5766933     
  -81318629.031383455        57352947.754221350        1521087212.1029255     
  -53555935.166224644        88191087.723247290        1496671959.7538466     
  -23500527.985073224        126671605.41225393        1475634068.5294657     
  -194736727.42583498        27969327.802585632        1551196351.9726822     
  -160752948.02612329        51064768.161129862        1523328157.2763193     
  -123330098.65240523        85623775.099693865        1498654828.6996493     
  -82468179.304690987        131646348.61824661        1477176366.2426720     
  -38167189.982969217        189132488.71682304        1458892769.9053853     
  -259366186.17482343        37377272.187970057        1523328081.1733730     
  -215097308.90856421        67858344.086026549        1500099082.4801192     
  -166243005.01030454        113624171.42408314        1479882454.9015501     
  -112803274.48002504        174674754.20220727        1462678198.4376729     
  -54778117.317754939        251010092.42029858        1448486313.0884826     
   1.0101809498787138E-004  -2.9646614833397038E-005   1528121191.1992097     
   2.4339504770628438E-005  -1.3258624967158117E-004   1415276243.1704490     
  -2.7404818341365470E-005  -1.5310555021599256E-004   1299787508.1984010     
  -4.4332669403644645E-005  -5.6182165147240066E-005   1181654986.2830698     
  -4.4469922250095557E-005   9.3240433688986357E-005   1060878677.4244372     
  -10778131.324051458        63627442.506627545        1498710208.9607425     
  -10948984.008694004        83163783.360665321        1386707498.4766235     
  -9064666.6092943624        109550691.16151421        1272708763.4428616     
  -5125179.1258279905        142788165.90924942        1156714003.8594711     
   869478.44169122726        182876207.60382643        1038723219.7264246     
  -23500527.985073224        126671605.41225393        1475634068.5294657     
  -21991483.658150032        166299512.02921197        1366871294.0213563     
  -16372099.163130850        219628552.53982317        1256760257.3572550     
  -6642374.5000342131        286658726.94403142        1145300958.5371695     
   7197690.3311662227        367390035.24190807        1032493397.5611098     
  -38167189.982969217        189132488.71682304        1458892769.9053853     
  -33127498.948324993        249407186.00556460        1355767629.8046398     
  -21922297.661553472        330233584.13472342        1251941989.9415746     
  -4551586.1226539910        431611683.10431439        1147415850.3161809     
   18984635.668359876        553541482.91428530        1042189210.9284333     
  -54778117.317754939        251010092.42029858        1448486313.0884826     
  -44357029.879227281        332486805.28969234        1353396505.8264916     
  -25715262.104534179        441365785.94630617        1258253961.1958363     
   1147186.0062913895        577647034.39003277        1163058679.1964910     
   36230314.453291655        741330550.62099731        1067810659.8284661     
  -1553368412.8106740       -1029066812.6370461        1002277214.1844079     
  -1510326391.5764985       -867184388.86864448        1069106225.1476048     
  -1476136618.3136525       -734809458.33801281        1143487816.9735916     
  -1450799093.0221417       -631942021.04516160        1225421989.6623716     
  -1434313815.7019572       -558582076.99006557        1314908743.2139440     
  -1952225985.8926861       -1135579356.5471849        953252606.18434131     
  -1905504666.9655643       -997964648.44812787        1032186134.9697992     
  -1862909327.7046216       -874103205.90298939        1111997553.9645774     
  -1824439968.1098440       -763995028.91174483        1192686863.1686766     
  -1790096588.1812365       -667640117.47439706        1274254062.5820971     
  -2285333570.5817351       -1222366903.9394300        891712737.19450867     
  -2254003498.6858711       -1114741074.9269953        988264763.49158108     
  -2222073138.1510262       -1005114283.7845960        1079019989.3445024     
  -2189542488.9771862       -893486530.51222324        1163978414.7532759     
  -2156411551.1643562       -779857815.10988414        1243140039.7179012     
  -2552691166.8778114       -1289429454.8137846        817657607.21490955     
  -2555822886.7374134       -1217513668.3052292        937342110.71294796     
  -2553628049.6528673       -1127842691.9828336        1044555123.1133679     
  -2546106655.6241674       -1020416525.8466001        1139296644.4161696     
  -2533258704.6513157       -895235169.89652157        1221566674.6213517     
  -2754298774.7809272       -1336767009.1702530        731087216.24553633     
  -2810962831.1201954       -1306282428.5828350        879418176.63389790     
  -2857574062.2101460       -1242288430.4976995        1008602955.2711744     
  -2894132468.0507860       -1144785014.9148569        1118641552.1573596     
  -2920638048.6421132       -1013772181.8343136        1209533967.2924550     
  -1434313815.7019572       -558582076.99006557        1314908743.2139440     
  -1378366802.2118218       -490272543.64063674        1338336457.1061409     
  -1324703100.0184789       -429574047.94717658        1364587860.4478974     
  -1273322709.1219325       -376486589.90970755        1393662953.2392108     
  -1224225629.5221710       -331010169.52819043        1425561735.4800820     
  -1790096588.1812365       -667640117.47439706        1274254062.5820971     
  -1717949938.0810344       -572488191.70509338        1290555537.9861419     
  -1649948055.6022511       -491152158.00719464        1310300184.6207099     
  -1586090940.7448988       -423632016.38072693        1333488002.4858017     
  -1526378593.5089650       -369927766.82565576        1360118991.5814183     
  -2156411551.1643562       -779857815.10988414        1243140039.7179012     
  -2066295316.5084634       -657332512.53700662        1250143577.5883856     
  -1982185305.7986288       -554827956.45099151        1261209768.4703605     
  -1904081519.0348511       -472344146.85183215        1276338612.3638232     
  -1831983956.2171340       -409881083.73954201        1295530109.2687769     
  -2533258704.6513157       -895235169.89652157        1221566674.6213517     
  -2423402937.4941196       -744805506.13639557        1217100575.9128740     
  -2321414850.6076131       -620601443.27856827        1217316611.9968514     
  -2227294443.9917998       -522622981.32305133        1222214782.8732808     
  -2141041717.6466763       -450870120.26983428        1231795088.5421708     
  -2920638048.6421132       -1013772181.8343136        1209533967.2924550     
  -2789272801.0379968       -834907172.50324571        1191426532.9596057     
  -2667636690.0292058       -688472618.48993456        1178620715.2001755     
  -2555729715.6157346       -574468519.79435444        1171116514.0141711     
  -2453551877.7975955       -492894876.41654623        1168913929.4015853     
  -1224225629.5221710       -331010169.52819043        1425561735.4800820     
  -1164250591.0708430       -288312993.09613603        1425292379.1006644     
  -1105976394.0292888       -251285288.02999592        1430010507.9940474     
  -1049403038.3974895       -219927054.32970476        1439716122.1602340     
  -994530524.17546678       -194238291.99533558        1454409221.5992272     
  -1526378593.5089650       -369927766.82565576        1360118991.5814183     
  -1451269296.1408038       -321024388.85618031        1356561142.3964698     
  -1378226191.5634809       -279008320.18949580        1358225345.2122610     
  -1307249279.7769902       -243879560.82558441        1365111600.0287931     
  -1238338560.7813327       -215638110.76445621        1377219906.8460624     
  -1831983956.2171340       -409881083.73954201        1295530109.2687769     
  -1741070209.2808893       -354570447.03725934        1288257524.0003874     
  -1652588006.5165510       -307364957.57465959        1286441557.4606731     
  -1566537347.9241157       -268264615.35173827        1290082209.6496370     
  -1482918233.5035834       -237269420.36849570        1299179480.5672727     
  -2141041717.6466763       -450870120.26983428        1231795088.5421708     
  -2033653330.4911034       -388951167.63937658        1220381523.9124212     
  -1929061838.8884993       -336355200.18548656        1214659144.7392836     
  -1827267242.8388689       -293082217.90817386        1214627951.0227628     
  -1728269542.3422127       -259132220.80744696        1220287942.7628527     
  -2453551877.7975955       -492894876.41654623        1168913929.4015853     
  -2329018659.7714405       -424166550.66253090        1152933142.1325648     
  -2207647688.6793261       -365979048.02197778        1142878107.0480959     
  -2089438964.5212600       -318332368.49492270        1138748824.1481743     
  -1974392487.2972274       -281226512.08131403        1140545293.4328077     
  -994530524.17546678       -194238291.99533558        1454409221.5992272     
  -935303632.39478922       -170067134.91793239        1446981498.2172647     
  -876237823.50626385       -146432920.81437406        1444511357.3912432     
  -817333097.50988686       -123335649.68464187        1446998799.1211548     
  -758589454.40567088       -100775321.52877885        1454443823.4070024     
  -1238338560.7813327       -215638110.76445621        1377219906.8460624     
  -1165667146.8148563       -189424382.03587154        1369397311.9390981     
  -1093010372.9083896       -163259453.50732213        1366487711.9303834     
  -1020368239.0619340       -137143325.17880797        1368491106.8199253     
  -947740745.27549183       -111075997.05034328        1375407496.6077147     
  -1482918233.5035834       -237269420.36849570        1299179480.5672727     
  -1396929690.6589737       -209051337.98102072        1291132864.1061337     
  -1310809345.0422356       -180393913.01978636        1287954654.8855603     
  -1224557196.6533694       -151297145.48479065        1289644852.9055588     
  -1138173245.4923744       -121761035.37602624        1296203458.1661158     
  -1728269542.3422127       -259132220.80744696        1220287942.7628527     
  -1629091263.9271426       -228948002.75338453        1212188154.7183707     
  -1529634739.9078059       -197836299.35177112        1208912186.2567701     
  -1429899970.2841935       -165797110.60257322        1210460037.3780522     
  -1329886955.0563190       -132830436.50583452        1216831708.0822189     
  -1974392487.2972274       -281226512.08131403        1140545293.4328077     
  -1862151866.6193633       -249114376.35296386        1132563183.7758095     
  -1749486557.5050960       -215586612.50327182        1129360306.0440116     
  -1636396559.9544156       -180643220.53220344        1130936660.2374139     
  -1522881873.9673195       -144284200.43974614        1137292246.3560159     
  -758589454.40567088       -100775321.52877885        1454443823.4070024     
  -696900905.40788448       -79459069.213158727        1457743361.0638235     
  -636454052.16081524       -62281802.733259290        1466416607.6851614     
  -577248894.66443157       -49243522.088980854        1480463563.2710171     
  -519285432.91875917       -40344227.280405566        1499884227.8213935     
  -947740745.27549183       -111075997.05034328        1375407496.6077147     
  -871588113.73768473       -86386616.994721889        1376406294.4729872     
  -797026659.32552040       -67001160.691236734        1382379186.6183770     
  -724056382.03899539       -52919628.139889359        1393326173.0438750     
  -652677281.87811840       -44142019.340694875        1409247253.7494857     
  -1138173245.4923744       -121761035.37602624        1296203458.1661158     
  -1048698287.6557013       -94041054.452714980        1294493787.9690835     
  -961163988.31961584       -72789935.198032081        1297358597.3677585     
  -875570347.48411250       -58007677.611950725        1304797886.3621371     
  -791917365.14919186       -49694281.694481790        1316811654.9522178     
  -1329886955.0563190       -132830436.50583452        1216831708.0822189     
  -1228231427.1619475       -102422381.58720106        1212005841.5521154     
  -1128866039.1431015       -79648126.253650725        1211354839.9333088     
  -1031790790.9997810       -64507670.505184114        1214878703.2258019     
  -937005682.73198390       -57001014.341799259        1222577431.4295900     
  -1522881873.9673195       -144284200.43974614        1137292246.3560159     
  -1410187532.2564156       -111530598.39814049        1128942455.2220774     
  -1300132811.7959790       -87575733.858093500        1124367914.3150294     
  -1192717712.5859983       -72419606.819567084        1123568623.6348684     
  -1087942234.6264915       -66062217.282618165        1126544583.1815989     
  -519285432.91875917       -40344227.280405566        1499884227.8213935     
  -456854652.07576454       -29410621.889943078        1496773452.3186364     
  -392724517.33744848       -12812503.515074968        1499643836.0430434     
  -326895028.70379454        9450127.8442532718        1508495378.9946256     
  -259366186.17482343        37377272.187970057        1523328081.1733730     
  -652677281.87811840       -44142019.340694875        1409247253.7494857     
  -574712887.33833122       -33292236.253604591        1406049200.5016656     
  -495093632.61299813       -16926252.548029840        1408838265.2480602     
  -413819517.70210326        4955931.7760882378        1417614447.9886775     
  -330890542.60566151        32354316.718696058        1432377748.7235131     
  -791917365.14919186       -49694281.694481790        1316811654.9522178     
  -698402331.86390889       -38923213.396181017        1313474414.6312633     
  -603276932.10284555       -22784256.845273226        1316130251.0715852     
  -506541165.86600250       -1277412.0417670906        1324779164.2731690     
  -408195033.15336955        25597321.014367700        1339421154.2360222     
  -937005682.73198390       -57001014.341799259        1222577431.4295900     
  -827922985.65249038       -46303553.317652792        1219049094.7074378     
  -717274415.80699098       -30386516.406816393        1221519793.5136082     
  -605059973.19547749       -9249903.6092686057        1229989527.8480945     
  -491279657.81795639        17106285.074972361        1244458297.7108955     
  -1087942234.6264915       -66062217.282618165        1126544583.1815989     
  -963274848.70408022       -55433256.018023729        1122773240.7301862     
  -837086083.72542691       -39733031.232623428        1125006892.5741401     
  -709375939.69054627       -18961542.926464051        1133245538.7134552     
  -580144416.59941912        6881208.9005142748        1147489179.1481371     
  -259366186.17482343        37377272.187970057        1523328081.1733730     
  -215097308.90856421        67858344.086026549        1500099082.4801192     
  -166243005.01030454        113624171.42408314        1479882454.9015501     
  -112803274.48002504        174674754.20220727        1462678198.4376729     
  -54778117.317754939        251010092.42029858        1448486313.0884826     
  -330890542.60566151        32354316.718696058        1432377748.7235131     
  -277234010.69173026        63263455.022074252        1414111952.5459507     
  -217127402.93115586        115672846.14759851        1399956273.5045290     
  -150570719.32394591        189582490.09524119        1389910711.5992448     
  -77563959.870084554        284992386.86505330        1383975266.8300979     
  -408195033.15336955        25597321.014367700        1339421154.2360222     
  -342014429.38762957        57875450.884311900        1328293984.6578956     
  -267519100.56061506        117869330.95850486        1322374678.2373619     
  -184709046.67231715        205578961.23697335        1321663234.9744122     
  -93584267.722746894        321004341.71968818        1326159654.8690472     
  -491279657.81795639        17106285.074972361        1244458297.7108955     
  -409438564.99627674        51694331.672700286        1242645178.8159492     
  -317418097.89867723        120213625.85683030        1247137669.1000445     
  -215218256.52515972        222664167.62735403        1257935768.5631740     
  -102839040.87573183        359045956.98424292        1275039477.2053339     
  -580144416.59941912        6881208.9005142748        1147489179.1481371     
  -479506417.51765209        44720097.387306780        1157165535.0201206     
  -366824394.94533324        122705730.84259425        1174245246.0925798     
  -242098348.88246354        240838109.26638722        1198728312.3655238     
  -105328279.32904807        399117232.65867162        1230614733.8389485     
  -54778117.317754939        251010092.42029858        1448486313.0884826     
  -44357029.879227281        332486805.28969234        1353396505.8264916     
  -25715262.104534179        441365785.94630617        1258253961.1958363     
   1147186.0062913895        577647034.39003277        1163058679.1964910     
   36230314.453291655        741330550.62099731        1067810659.8284661     
  -77563959.870084554        284992386.86505330        1383975266.8300979     
  -62151112.910917372        387207803.55761749        1301128925.9485803     
  -37308983.333887637        520854162.30972385        1217389282.7231987     
  -3037571.1389854252        685931463.12140477        1132756337.1539514     
   40663123.673772484        882439705.99260747        1047230089.2408223     
  -93584267.722746894        321004341.71968818        1326159654.8690472     
  -75581275.457760543        443237977.97100008        1256966816.3633280     
  -46940398.293205678        600931230.55420721        1186040110.5385461     
  -7661636.2290765047        794084099.46932936        1113379537.3947127     
   42255010.734619617        1022696584.7163407        1038985096.9318095     
  -102839040.87573183        359045956.98424292        1275039477.2053339     
  -84647517.519759059        500577328.52983427        1220910177.0707295     
  -54609506.982511699        681596990.67967999        1164206444.6418867     
  -12725009.263989091        902104943.43378258        1104928279.9187918     
   41005975.635825694        1162101186.7921748        1043075682.9014419     
  -105328279.32904807        399117232.65867162        1230614733.8389485     
  -89349839.096913606        559225855.23411512        1192959008.0707965     
  -60316309.401803821        762851442.68614030        1151888285.0332015     
  -18227690.243689597        1009993995.0148485        1107402564.7261646     
   36916018.377393067        1300653512.2201178        1059501847.1497028     
  -2754298774.7809272       -1336767009.1702530        731087216.24553633     
  -2810962831.1201954       -1306282428.5828350        879418176.63389790     
  -2857574062.2101460       -1242288430.4976995        1008602955.2711744     
  -2894132468.0507860       -1144785014.9148569        1118641552.1573596     
  -2920638048.6421132       -1013772181.8343136        1209533967.2924550     
  -3129912325.5068383       -1774223461.4822741        824233943.71272624     
  -3150473825.2034636       -1520445051.8149650        912773671.60768020     
  -3181469676.7281971       -1301447814.9080491        996701433.49885988     
  -3222899880.0810509       -1117231750.7615225        1076017229.3862689     
  -3274764435.2620249       -967796859.37539542        1150721059.2699075     
  -3696485256.7930408       -2268967727.9623857        1011048086.8162786     
  -3639417869.1403899       -1779437590.0031934        1015894875.6274816     
  -3613272010.3932877       -1392979215.0624971        1030663914.1822331     
  -3618047680.5517325       -1109592603.1403012        1055355202.4805287     
  -3653744879.6157331       -929277754.23661149        1089968740.5223713     
  -4454017568.6395264       -2820999808.6105804        1291529645.5561903     
  -4277794962.9309826       -2083260043.1475201        1188781788.6933100     
  -4152981063.2054176       -1516882630.9610605        1110490397.3212945     
  -4079575869.4628358       -1121867572.0512121        1056655471.4401418     
  -4057579381.7032375       -898214866.41796887        1027277011.0498487     
  -5402509261.0462961       -3430319703.4268608        1665678619.9324660     
  -5065605106.5752382       -2431912411.2479472        1431434410.8051615     
  -4800596835.1645927       -1673158062.6037414        1236180882.9160421     
  -4607484446.8143616       -1154056657.4942470        1079918036.2651012     
  -4486267941.5245419       -874608195.91946614        962645870.85234237     
  -2920638048.6421132       -1013772181.8343136        1209533967.2924550     
  -2789272801.0379968       -834907172.50324571        1191426532.9596057     
  -2667636690.0292058       -688472618.48993456        1178620715.2001755     
  -2555729715.6157346       -574468519.79435444        1171116514.0141711     
  -2453551877.7975955       -492894876.41654623        1168913929.4015853     
  -3274764435.2620249       -967796859.37539542        1150721059.2699075     
  -3125987860.4136400       -789770274.68869841        1113663774.8359385     
  -2987612524.3140016       -646414485.83116865        1084891685.0882249     
  -2859638426.9631090       -537729492.80278051        1064404790.0267674     
  -2742065568.3609638       -463715295.60355419        1052203089.6515664     
  -3653744879.6157331       -929277754.23661149        1089968740.5223713     
  -3479032468.6292667       -749532241.52615190        1033177486.8082918     
  -3315393398.5449700       -606697865.15625119        987655005.89330173     
  -3162827669.3628378       -500774625.12690634        953401297.77740514     
  -3021335281.0828762       -431762521.43812704        930416362.46059787     
  -4057579381.7032375       -898214866.41796887        1027277011.0498487     
  -3848406625.6848793       -714193073.01559353        949967668.87666714     
  -3650979312.7221084       -569322756.46518981        886910677.61540830     
  -3465297442.8149271       -463603916.76674843        838106037.26607740     
  -3291361015.9633312       -397036553.92026520        803553747.82866967     
  -4486267941.5245419       -874608195.91946614        962645870.85234237     
  -4234110331.5804753       -683752769.15704155        864034321.04106104     
  -3994370266.8454146       -534289159.75796974        782658700.25454581     
  -3767047747.3193650       -426217367.72227824        718519008.49278867     
  -3552142773.0023327       -359537393.04996371        671615245.75578856     
  -2453551877.7975955       -492894876.41654623        1168913929.4015853     
  -2329018659.7714405       -424166550.66253090        1152933142.1325648     
  -2207647688.6793261       -365979048.02197778        1142878107.0480959     
  -2089438964.5212600       -318332368.49492270        1138748824.1481743     
  -1974392487.2972274       -281226512.08131403        1140545293.4328077     
  -2742065568.3609638       -463715295.60355419        1052203089.6515664     
  -2605412683.0882034       -403358275.15194976        1035927716.1633371     
  -2471137362.1977696       -350926469.30810422        1024981251.1346601     
  -2339239605.6896782       -306419878.07206303        1019363694.5655308     
  -2209719413.5639157       -269838501.44378889        1019075046.4559511     
  -3021335281.0828762       -431762521.43812704        930416362.46059787     
  -2874267996.3492212       -380288386.62464333        914761865.73015046     
  -2728793593.4461918       -334123857.91323358        903839433.73425376     
  -2584912072.3737888       -293268935.30392456        897649066.47290778     
  -2442623433.1320086       -257723618.79667842        896190763.94610965     
  -3291361015.9633312       -397036553.92026520        803553747.82866967     
  -3135584599.5545044       -354956885.08062077        789435590.83300209     
  -2980616382.4245825       -315571213.83734882        779452654.84688330     
  -2826456364.5735874       -278879540.19048905        773604939.87031281     
  -2673104546.0015006       -244881864.13999116        771892445.90329456     
  -3552142773.0023327       -359537393.04996371        671615245.75578856     
  -3389362492.7040358       -327363770.51986444        659948891.47188938     
  -3226605729.1329479       -295268537.08045900        651820914.47254169     
  -3063872482.2890716       -263251692.73176003        647231314.75774050     
  -2901162752.1723981       -231313237.47372532        646180092.32748890     
  -1974392487.2972274       -281226512.08131403        1140545293.4328077     
  -1862151866.6193633       -249114376.35296386        1132563183.7758095     
  -1749486557.5050960       -215586612.50327182        1129360306.0440116     
  -1636396559.9544156       -180643220.53220344        1130936660.2374139     
  -1522881873.9673195       -144284200.43974614        1137292246.3560159     
  -2209719413.5639157       -269838501.44378889        1019075046.4559511     
  -2085663871.7635882       -237795175.77421701        1012233642.1108736     
  -1961141967.2475705       -204197307.71901238        1009717285.9483649     
  -1836153700.0158601       -169044897.27816850        1011525977.9684211     
  -1710699070.0684583       -132337944.45167899        1017659718.1710510     
  -2442623433.1320086       -257723618.79667842        896190763.94610965     
  -2308050638.0452981       -226138403.53669912        890538684.90544760     
  -2172969805.9636245       -192859731.62682676        888757470.30472231     
  -2037380936.8869739       -157887603.06704104        890847120.14393127     
  -1901284030.8153543       -121222017.85735220        896807634.42308271     
  -2673104546.0015006       -244881864.13999116        771892445.90329456     
  -2529312165.4645090       -214144059.64044642        767478312.15953755     
  -2384970073.6532564       -181573884.22671115        766480859.11308694     
  -2240078270.5677609       -147171337.89882565        768900086.76394153     
  -2094636756.2080030       -110936420.65673137        774735995.11210775     
  -2901162752.1723981       -231313237.47372532        646180092.32748890     
  -2749448454.0212011       -201812144.08542156        643052523.87313581     
  -2597142770.3164687       -170339765.51867127        642887452.37346017     
  -2444245701.0582061       -136896101.77348638        645684877.82845473     
  -2290757246.2464142       -101481152.84985912        651444800.23812807     
  -1522881873.9673195       -144284200.43974614        1137292246.3560159     
  -1410187532.2564156       -111530598.39814049        1128942455.2220774     
  -1300132811.7959790       -87575733.858093500        1124367914.3150294     
  -1192717712.5859983       -72419606.819567084        1123568623.6348684     
  -1087942234.6264915       -66062217.282618165        1126544583.1815989     
  -1710699070.0684583       -132337944.45167899        1017659718.1710510     
  -1588207663.4008908       -99752042.451110125        1005298477.9451183     
  -1468313663.7404034       -75824163.807472885        996736891.31457937     
  -1351017071.0870018       -60554308.520792603        991974958.27944148     
  -1236317885.4406865       -53942476.591048300        991012678.83970499     
  -1901284030.8153543       -121222017.85735220        896807634.42308271     
  -1768925835.2810910       -88782898.724783957        880484195.05575871     
  -1639122832.5105255       -64861088.804554760        867984812.65234518     
  -1511875022.5036764       -49456588.096699357        859309487.21283638     
  -1387182405.2605221       -42569396.601183891        854458218.73724008     
  -2094636756.2080030       -110936420.65673137        774735995.11210775     
  -1952342047.8970218       -78623167.219187021        754499606.55400312     
  -1812560318.1063604       -54686508.849373817        738111678.32832301     
  -1675291566.8360238       -39126445.547314703        725572210.43505299     
  -1540535794.0860200       -31942977.313024938        716881202.87420642     
  -2290757246.2464142       -101481152.84985912        651444800.23812807     
  -2138456301.2486806       -69272847.934295058        627344712.43985605     
  -1988626120.5278792       -45300423.941856503        607117488.34251142     
  -1841266704.0840459       -29563880.872635365        590763127.94609249     
  -1696378051.9171467       -22063218.726527989        578281631.25060236     
  -1087942234.6264915       -66062217.282618165        1126544583.1815989     
  -963274848.70408022       -55433256.018023729        1122773240.7301862     
  -837086083.72542691       -39733031.232623428        1125006892.5741401     
  -709375939.69054627       -18961542.926464051        1133245538.7134552     
  -580144416.59941912        6881208.9005142748        1147489179.1481371     
  -1236317885.4406865       -53942476.591048300        991012678.83970499     
  -1098574323.7180052       -43144192.259501219        986728831.78267264     
  -960031284.93622005       -29680984.397593915        986459512.64579487     
  -820688769.09530509       -13552853.005263686        990204721.42907202     
  -680546776.19527531        5240201.9174534976        997964458.13252115     
  -1387182405.2605221       -42569396.601183891        854458218.73724008     
  -1242049714.5238750       -33307903.238557220        848819648.07793772     
  -1096839448.7252350       -23787826.335966170        845205138.96358955     
  -951551607.86460495       -14009165.893406093        843614691.39419460     
  -806186191.94198740       -3971921.9108773768        844048305.36975574     
  -1540535794.0860200       -31942977.313024938        716881202.87420642     
  -1393701021.1216965       -25924388.955207825        709045689.61599398     
  -1247510575.0925081       -22053557.047831535        701243771.52752435     
  -1101964455.9984579       -20330481.590930760        693475448.60880780     
  -957062663.83953941       -20755162.584460258        685740720.85983956     
  -1696378051.9171467       -22063218.726527989        578281631.25060236     
  -1553528243.5114608       -20993649.409431338        567406956.39683712     
  -1412044664.0380328       -24478176.533205688        554575410.33760226     
  -1271927313.4968524       -32516800.097794712        539786993.07292330     
  -1133176191.8879387       -45109520.103284001        523041704.60278481     
  -580144416.59941912        6881208.9005142748        1147489179.1481371     
  -479506417.51765209        44720097.387306780        1157165535.0201206     
  -366824394.94533324        122705730.84259425        1174245246.0925798     
  -242098348.88246354        240838109.26638722        1198728312.3655238     
  -105328279.32904807        399117232.65867162        1230614733.8389485     
  -680546776.19527531        5240201.9174534976        997964458.13252115     
  -562053240.20475888        35347429.579459906        1012572940.5830299     
  -432617174.80379182        101929755.27628210        1035297325.6455060     
  -292238579.99237180        204987179.00796413        1066137613.3199538     
  -140917455.77050966        344519700.77443945        1105093803.6063759     
  -806186191.94198740       -3971921.9108773768        844048305.36975574     
  -667801269.29560101        19014399.850494057        862303837.97200942     
  -519575311.31887716        74804172.713000238        889387820.59771395     
  -361508318.01180696        163397396.67665592        925300253.24688017     
  -193600289.37439197        284794071.74146104        970041135.91950607     
  -957062663.83953941       -20755162.584460258        685740720.85983956     
  -796750504.79018521       -4278991.7996019125        706358227.18704784     
  -627698804.49059486        41328983.152709544        736516730.94919860     
  -449907562.94075972        116068762.27250600        776216232.14629638     
  -263376780.14068353        219940345.55975664        825456730.77834094     
  -1133176191.8879387       -45109520.103284001        523041704.60278481     
  -948900946.68850923       -34532745.370819807        544736108.22815931     
  -756987654.31893992        1504186.5954439044        576684056.69996607     
  -557436314.77923083        63001275.795498878        618885550.01820767     
  -350246928.06939054        149958522.22934085        671340588.18288159     
  -105328279.32904807        399117232.65867162        1230614733.8389485     
  -89349839.096913606        559225855.23411512        1192959008.0707965     
  -60316309.401803821        762851442.68614030        1151888285.0332015     
  -18227690.243689597        1009993995.0148485        1107402564.7261646     
   36916018.377393067        1300653512.2201178        1059501847.1497028     
  -140917455.77050966        344519700.77443945        1105093803.6063759     
  -130871615.54907814        493867257.86466503        1085138521.8591814     
  -97352291.205865383        721459762.02747655        1066518021.7159300     
  -40359482.740880847        1027297213.2628629        1049232303.1766335     
   40106809.845879912        1411379611.5708504        1033281366.2412839     
  -193600289.37439197        284794071.74146104        970041135.91950607     
  -175916252.38255829        427451802.38080359        979941091.96185863     
  -124340336.61015281        683082462.28870666        995925608.48154831     
  -38872542.057184041        1051686051.4651610        1017994685.4785807     
   80487131.276354492        1533262569.9101794        1046148322.9529316     
  -263376780.14068353        219940345.55975664        825456730.77834094     
  -224483749.59733993        359979488.78255337        877366718.37883568     
  -141280445.61463484        647719543.46987772        940111045.33004856     
  -13766868.192570806        1083160509.6217320        1013689711.6319823     
   158056982.66885066        1666302387.2381215        1098102717.2846398     
  -350246928.06939054        149958522.22934085        671340588.18288159     
  -276574107.19342768        291450317.06993133        777415401.11009908     
  -148172618.21932068        615371005.57100749        899074332.26143003     
   34957538.852933109        1121720587.7325621        1036317381.6368681     
   272816364.02334154        1810499063.5546489        1189144549.2364068     
  -5402509261.0462961       -3430319703.4268608        1665678619.9324660     
  -5065605106.5752382       -2431912411.2479472        1431434410.8051615     
  -4800596835.1645927       -1673158062.6037414        1236180882.9160421     
  -4607484446.8143616       -1154056657.4942470        1079918036.2651012     
  -4486267941.5245419       -874608195.91946614        962645870.85234237     
  -5903001348.0862961       -3109446163.4007835        1134917476.9149146     
  -5517598063.9267368       -2152116947.7000246        998361479.72066057     
  -5203450731.7780218       -1432307572.0354125        869601380.23587561     
  -4960559351.6401501       -950018036.40695000        748637178.46056366     
  -4788923923.5131254       -705248340.81463265        635468874.39471900     
  -5841233889.9197159       -2619894759.8127346        582387727.17561281     
  -5496459429.0108309       -1730382006.4718862        544266528.13890409     
  -5222300989.0632181       -1076255989.6686182        482746443.28295624     
  -5018758570.0768795       -657516709.40293503        397827472.60776240     
  -4885832172.0518169       -474164165.67482495        289509616.11333477     
  -5217206886.5465574       -1961665492.6627057        8089370.7145602107     
  -5002189201.8275232       -1166707587.5635304        69149556.059895024     
  -4857147607.0201797       -605003315.50334728        75616072.057278305     
  -4782082102.1245556       -276552676.48221254        27488918.706704445     
  -4776992687.1406269       -181355670.50005937       -75231903.991807550     
  -4030920337.9668179       -1134758361.9507129       -587977592.46824563     
  -4034787382.3767934       -461093690.97493112       -426989436.51637334     
  -4107990585.6489081       -18549549.539614677       -351789733.44115311     
  -4250529947.7831540        192874062.35525465       -362378483.24260342     
  -4462405468.7795410        173177144.70967484       -458755685.92071766     
  -4486267941.5245419       -874608195.91946614        962645870.85234237     
  -4234110331.5804753       -683752769.15704155        864034321.04106104     
  -3994370266.8454146       -534289159.75796974        782658700.25454581     
  -3767047747.3193650       -426217367.72227824        718519008.49278867     
  -3552142773.0023327       -359537393.04996371        671615245.75578856     
  -4788923923.5131254       -705248340.81463265        635468874.39471900     
  -4522895083.2181129       -553740844.63953280        589069116.41062093     
  -4265773075.3524337       -431922789.89556181        545183898.26879930     
  -4017557899.9161000       -339794176.58273840        503813219.96925217     
  -3778249556.9091048       -277355004.70104444        464957081.51198071     
  -4885832172.0518169       -474164165.67482495        289509616.11333477     
  -4647993213.3558121       -374622933.67205405        299417481.53269768     
  -4415550374.3094749       -293068767.16816330        297118497.61185414     
  -4188503654.9128065       -229501666.16318321        282612664.35079890     
  -3966853055.1658120       -183921630.65710402        255899981.74953574     
  -4776992687.1406269       -181355670.50005937       -75231903.991807550     
  -4609404721.9935875       -146399036.25459003       -4920583.5927004917     
  -4443702163.7165365       -117727091.57574964        38462498.283712089     
  -4279885012.3094997       -95339836.463624477        54917341.637430362     
  -4117953267.7724566       -79237270.918145418        44443946.468457207     
  -4462405468.7795410        173177144.70967484       -458755685.92071766     
  -4407129609.1314201        130930847.61285591       -323945078.96558350     
  -4350228443.5736303        94102236.881626129       -230784099.71562272     
  -4291701972.1061711        62691312.515935183       -179272748.17085424     
  -4231550194.7290449        36698074.515823364       -169411024.33126059     
  -3552142773.0023327       -359537393.04996371        671615245.75578856     
  -3389362492.7040358       -327363770.51986444        659948891.47188938     
  -3226605729.1329479       -295268537.08045900        651820914.47254169     
  -3063872482.2890716       -263251692.73176003        647231314.75774050     
  -2901162752.1723981       -231313237.47372532        646180092.32748890     
  -3778249556.9091048       -277355004.70104444        464957081.51198071     
  -3611341188.9802585       -250543033.65229678        464917885.91349846     
  -3444695576.5184393       -224606914.16032791        465753069.24197483     
  -3278312719.5236621       -199546646.22513902        467462631.49740440     
  -3112192617.9959154       -175362229.84674585        470046572.67979807     
  -3966853055.1658120       -183921630.65710402        255899981.74953574     
  -3803428023.4852443       -164754738.25335228        267208832.97334093     
  -3640504986.0115480       -147261159.87250221        276728064.76651198     
  -3478083942.7446918       -131440895.51445997        284457677.12904793     
  -3316164893.6847138       -117293945.17933738        290397670.06094706     
  -4117953267.7724566       -79237270.918145418        44443946.468457207     
  -3965622996.2190084       -69998884.323057413        66821732.651421182     
  -3814033957.6122494       -63231274.216927528        84745901.046149597     
  -3663186151.9521761       -58934440.599745512        98216451.652664512     
  -3513079579.2387877       -57108383.471531630        107233384.47094430     
  -4231550194.7290449        36698074.515823364       -169411024.33126059     
  -4097926107.1815462        33724528.138628483       -136243415.05227289     
  -3965282491.3205662        27482742.806347609       -110193421.91909741     
  -3833619347.1460853        17972718.519082546       -91261044.931750163     
  -3702936674.6581354        5194455.2767121792       -79446284.090218976     
  -2901162752.1723981       -231313237.47372532        646180092.32748890     
  -2749448454.0212011       -201812144.08542156        643052523.87313581     
  -2597142770.3164687       -170339765.51867127        642887452.37346017     
  -2444245701.0582061       -136896101.77348638        645684877.82845473     
  -2290757246.2464142       -101481152.84985912        651444800.23812807     
  -3112192617.9959154       -175362229.84674585        470046572.67979807     
  -2953546787.0899792       -153156796.06736004        470533962.44848573     
  -2794464597.2527080       -129496832.51686597        475074417.29128003     
  -2634946048.4841013       -104382339.19524741        483667937.20818383     
  -2474991140.7841587       -77813316.102511764        496314522.19919097     
  -3316164893.6847138       -117293945.17933738        290397670.06094706     
  -3147471621.1113834       -101449398.33509481        294319153.66011471     
  -2978497016.2289009       -84667077.127039075        303384270.45281851     
  -2809241079.0372820       -66946981.555193663        317593020.43906164     
  -2639703809.5365319       -48289111.619556308        336945403.61884284     
  -3513079579.2387877       -57108383.471531630        107233384.47094430     
  -3331222956.0853882       -46689950.888602257        114408097.50802535     
  -3149240027.2450442       -35850499.349194527        127817011.85806923     
  -2967130792.7177677       -24590028.853351831        147460127.52108756     
  -2784895252.5035443       -12908539.401004314        173337444.49707827     
  -3702936674.6581354        5194455.2767121792       -79446284.090218976     
  -3504800792.0120111        11121546.272131681       -69199206.007791728     
  -3306693630.3011360        16952900.816677094       -51627358.492972091     
  -3108615189.5255189        22688518.910373330       -26730741.545731414     
  -2910565469.6851768        28328400.553175092        5490644.8338994002     
  -2290757246.2464142       -101481152.84985912        651444800.23812807     
  -2138456301.2486806       -69272847.934295058        627344712.43985605     
  -1988626120.5278792       -45300423.941856503        607117488.34251142     
  -1841266704.0840459       -29563880.872635365        590763127.94609249     
  -1696378051.9171467       -22063218.726527989        578281631.25060236     
  -2474991140.7841587       -77813316.102511764        496314522.19919097     
  -2316634099.5928245       -53783804.403330922        475958786.59089440     
  -2160071758.9422526       -35736627.840027452        458276136.63436961     
  -2005304118.8324404       -23671786.412599444        443266572.32962114     
  -1852331179.2633932       -17589280.121042252        430930093.67664707     
  -2639703809.5365319       -48289111.619556308        336945403.61884284     
  -2478718609.4348917       -33466774.321760297        321122761.22606546     
  -2318852046.1378212       -22373226.372531295        306773426.43591356     
  -2160104119.6453400       -15008467.771928430        293897399.24838287     
  -2002474829.9574256       -11372498.519892097        282494679.66347766     
  -2784895252.5035443       -12908539.401004314        173337444.49707827     
  -2624709830.7748666       -8321757.6895140409        162836636.34537011     
  -2464966982.1146069       -5210219.5394065380        152609357.74713212     
  -2305666706.5227270       -3573924.9505672455        142655608.70237109     
  -2146809003.9992445       -3412873.9230581522        132975389.21108475     
  -2910565469.6851768        28328400.553175092        5490644.8338994002     
  -2754607763.6127820        21651245.493283629        1100411.9488109932     
  -2598416566.8725996        15752392.659353018       -4216069.4319585217     
  -2441991879.4646354        10631842.051360369       -10458799.308405623     
  -2285333701.3888583        6289593.6694108248       -17627777.680530630     
  -1696378051.9171467       -22063218.726527989        578281631.25060236     
  -1553528243.5114608       -20993649.409431338        567406956.39683712     
  -1412044664.0380328       -24478176.533205688        554575410.33760226     
  -1271927313.4968524       -32516800.097794712        539786993.07292330     
  -1133176191.8879387       -45109520.103284001        523041704.60278481     
  -1852331179.2633932       -17589280.121042252        430930093.67664707     
  -1715182146.7963457       -19341051.216406107        421241133.60084319     
  -1578273867.8036959       -21895333.893100441        409774911.02671957     
  -1441606342.2854316       -25252128.151077569        396531425.95428497     
  -1305179570.2415648       -29411433.990380228        381510678.38353252     
  -2002474829.9574256       -11372498.519892097        282494679.66347766     
  -1870513405.6943405       -15791659.707338691        275304489.06647509     
  -1737667259.4477720       -17261747.616525769        266516644.67829895     
  -1603936391.2177362       -15782762.247484922        256131146.49895126     
  -1469320801.0042300       -11354703.600208342        244147994.52842617     
  -2146809003.9992445       -3412873.9230581522        132975389.21108475     
  -2019522020.2054317       -10345474.882187843        129597022.79373313     
  -1890224838.9702606       -10577417.703471422        124800611.29234293     
  -1758917460.2937641       -4108702.3869990110        118586154.70692554     
  -1625599884.1759400        9060671.0672368407        110953653.03746605     
  -2285333701.3888583        6289593.6694108248       -17627777.680530630     
  -2162207990.3296161       -3002496.7409515381       -15881265.217398966     
  -2035946606.3711600       -1842344.1539438963       -15373189.131150421     
  -1906549549.5135131        9770051.4303761721       -16103549.421804370     
  -1774016819.7566648        31834690.012024283       -18072346.089344963     
  -1133176191.8879387       -45109520.103284001        523041704.60278481     
  -948900946.68850923       -34532745.370819807        544736108.22815931     
  -756987654.31893992        1504186.5954439044        576684056.69996607     
  -557436314.77923083        63001275.795498878        618885550.01820767     
  -350246928.06939054        149958522.22934085        671340588.18288159     
  -1305179570.2415648       -29411433.990380228        381510678.38353252     
  -1107654706.4602206       -10017943.070073724        406386937.77116030     
  -906445109.48688185        21657991.823551238        429167039.79355091     
  -701550779.32154357        65616370.690506369        449850984.45071638     
  -492971715.96420896        121857193.53078294        468438771.74264079     
  -1469320801.0042300       -11354703.600208342        244147994.52842617     
  -1293831182.1028755        6270044.4693627357        267593910.03714472     
  -1118610143.9876659        22999523.251792669        276593965.96895909     
  -943657686.65859056        38833732.747080326        271148162.32387751     
  -768973810.11566472        53772672.955227137        251256499.10189369     
  -1625599884.1759400        9060671.0672368407        110953653.03746605     
  -1507430373.6164591        14331217.247563839        128357025.02610351     
  -1393482757.8212838        5528780.8801771998        118964835.22618195     
  -1283757036.7903776       -17346638.034754455        82777083.637689039     
  -1178253210.5237582       -54295039.497316599        19793770.260639034     
  -1774016819.7566648        31834690.012024283       -18072346.089344963     
  -1748452281.0009806        14165575.264450312       -11323717.261940274     
  -1731062950.9877315       -30754235.291240573       -43720352.434785925     
  -1721848829.7169023       -102924741.65500879       -115262251.60784204     
  -1720809917.1885078       -202345943.82687044       -225949414.78112960     
  -350246928.06939054        149958522.22934085        671340588.18288159     
  -276574107.19342768        291450317.06993133        777415401.11009908     
  -148172618.21932068        615371005.57100749        899074332.26143003     
   34957538.852933109        1121720587.7325621        1036317381.6368681     
   272816364.02334154        1810499063.5546489        1189144549.2364068     
  -492971715.96420896        121857193.53078294        468438771.74264079     
  -385053797.62301338        227860277.99300739        590078159.37639058     
  -228099334.36823037        497318512.16720665        730665513.84660375     
  -22108326.199868023        930231896.05330372        890200835.15327895     
   232919226.88206899        1526600429.6513443        1068684123.2964100     
  -768973810.11566472        53772672.955227137        251256499.10189369     
  -617199798.27392817        127170345.84971479        381819651.06017488     
  -422081364.70317453        345049424.50760210        534694618.46727705     
  -183618509.40341672        707409908.92881441        709881401.32319367     
   98188767.625355482        1214251799.1134205        907379999.62792873     
  -1178253210.5237582       -54295039.497316599        19793770.260639034     
  -973012109.14618993       -10619479.360003591        152639876.16146216     
  -730118709.22417378        158563742.59212431        311161646.12345243     
  -449573010.75772005        453254626.35906214        495359080.14660543     
  -131375013.74680012        873453171.94086444        705232178.23095512     
  -1720809917.1885078       -202345943.82687044       -225949414.78112960     
  -1452490730.2397850       -185509197.63609535       -97461165.319761261     
  -1152211367.9311910       -62138533.579048812        60066596.815120690     
  -819971830.26273608        167766048.34415013        246633871.62354332     
  -455772117.23440826        504204548.13365930        462240659.10548311     
 </DataArray>
 <DataArray  type="Float64" Name="VM" NumberOfComponents="1" format="ascii">
   3741527455.3279438     
   3895980177.4577141     
   4143790223.0198088     
   4395222032.4460697     
   4620304088.1488829     
   4564335745.5939741     
   4534463175.8238544     
   4586553701.1029463     
   4650221492.7675495     
   4690756209.6746321     
   5167007861.8584690     
   4958123819.4293146     
   4848644577.8024721     
   4774426487.1778917     
   4693713730.8785629     
   5479336502.0269508     
   5117729611.8705606     
   4893166898.5058413     
   4741142833.8357716     
   4611425916.8978529     
   5544846383.0799980     
   5040085173.8707428     
   4732595493.1761847     
   4554352916.8629942     
   4443858013.7950735     
   4620304088.1488829     
   4509078036.1810303     
   4416162686.2927999     
   4334524726.2330894     
   4260135423.7931523     
   4690756209.6746321     
   4537984662.4218721     
   4386529670.2146597     
   4234088993.9981360     
   4079638228.4580631     
   4693713730.8785629     
   4502431663.5900574     
   4307406726.8665771     
   4107867459.9619169     
   3903410642.8869452     
   4611425916.8978529     
   4393142882.3729792     
   4175232816.0065370     
   3956333158.9984269     
   3735335908.8904166     
   4443858013.7950735     
   4211862938.0593162     
   3992990599.1009855     
   3783587913.1958613     
   3580929820.5136247     
   4260135423.7931523     
   4121652963.6150746     
   3983669808.9451394     
   3845886973.6163416     
   3708090731.6318307     
   4079638228.4580631     
   3932794405.8185992     
   3785661448.1555028     
   3638056849.4177480     
   3489822373.4150748     
   3903410642.8869452     
   3752436241.4832764     
   3601193230.1825695     
   3449627612.3546271     
   3297686132.5435381     
   3735335908.8904166     
   3584439501.4878254     
   3434159460.7179151     
   3284591417.2228103     
   3135851576.1155715     
   3580929820.5136247     
   3433946458.2305579     
   3289386629.8323240     
   3147502430.2751536     
   3008624256.1912270     
   3708090731.6318307     
   3512420344.2928143     
   3316408353.4907937     
   3120364824.4371891     
   2924848022.9931979     
   3489822373.4150748     
   3314054818.0098801     
   3139284591.3554921     
   2965930114.8941565     
   2794637163.6954503     
   3297686132.5435381     
   3139654722.5007319     
   2983715535.9910536     
   2830343284.4239955     
   2680204414.5069509     
   3135851576.1155715     
   2993116518.6506457     
   2853246327.7644329     
   2716725701.9093370     
   2584189061.5767455     
   3008624256.1912270     
   2878519150.6469922     
   2751669010.5949440     
   2628535098.8603711     
   2509689120.7157235     
   2924848022.9931979     
   2765497609.7324886     
   2606338695.6902614     
   2447392164.4967666     
   2288688646.7389965     
   2794637163.6954503     
   2635692709.4429560     
   2476512709.1105709     
   2317093723.3571115     
   2157433920.4948893     
   2680204414.5069509     
   2524197047.9277411     
   2368126892.0576038     
   2212008646.5939221     
   2055887002.8315554     
   2584189061.5767455     
   2434070490.6239481     
   2284741666.3638592     
   2136303254.2504194     
   1988959840.0589538     
   2509689120.7157235     
   2368615900.9684157     
   2229882351.8940244     
   2093730003.8805523     
   1960608746.2243009     
   2288688646.7389965     
   2160883391.0564151     
   2035200252.7347152     
   1911656794.1765497     
   1790420126.3617744     
   2157433920.4948893     
   2026837307.1273458     
   1897312231.4705739     
   1768832573.6087008     
   1641437858.8293049     
   2055887002.8315554     
   1922734758.4415634     
   1789660209.2257411     
   1656609787.6552365     
   1523539816.6984310     
   1988959840.0589538     
   1855096419.3586669     
   1720644474.3901894     
   1585614834.4737411     
   1450042321.2484016     
   1960608746.2243009     
   1829515911.9053223     
   1697812325.6294885     
   1565760971.7285213     
   1433779617.2069812     
   1790420126.3617744     
   1755687487.7271373     
   1717562707.3337719     
   1684634146.8734593     
   1675437602.3466520     
   1641437858.8293049     
   1530876090.6357648     
   1411377667.6188078     
   1283207038.4178503     
   1152575661.2231069     
   1523539816.6984310     
   1377305457.1713841     
   1227622824.1401126     
   1072011015.1450993     
   908268398.23159313     
   1450042321.2484016     
   1308187263.2422271     
   1180803383.3063803     
   1072198649.8300655     
   988052168.04021037     
   1433779617.2069812     
   1326291689.3268900     
   1253740294.4018536     
   1224288191.9124997     
   1244900613.2158844     
   1675437602.3466520     
   1379561028.0575199     
   1127244204.7428436     
   1010221501.9551042     
   1154448831.4421177     
   1152575661.2231069     
   1003209475.2644933     
   982064588.07421684     
   1160805130.1488609     
   1544987713.8401890     
   908268398.23159313     
   955487382.15898716     
   1140414714.4009979     
   1475070473.2635400     
   1958274232.3711636     
   988052168.04021037     
   1154340461.5791843     
   1419298879.6767609     
   1806587559.3072326     
   2335688958.8269253     
   1244900613.2158844     
   1433585802.4458814     
   1707870515.3356323     
   2107635561.9235733     
   2664694378.9030747     
   5544846383.0799980     
   5040085173.8707428     
   4732595493.1761847     
   4554352916.8629942     
   4443858013.7950735     
   4498408183.9338055     
   4238791013.5531254     
   4116815098.3001232     
   4083423147.8284025     
   4097811176.1100411     
   3673100427.5991917     
   3609954403.5671601     
   3626253882.1537824     
   3694351043.1128764     
   3792381905.8083630     
   3070690632.1286340     
   3153820455.7679257     
   3264236542.0591650     
   3392344849.8339043     
   3530422496.0444140     
   2700873487.4698353     
   2873343602.0876164     
   3034949527.2473764     
   3182365905.9004469     
   3314500911.9052558     
   4443858013.7950735     
   4211862938.0593162     
   3992990599.1009855     
   3783587913.1958613     
   3580929820.5136247     
   4097811176.1100411     
   3908850939.0457692     
   3732964557.4318051     
   3567065275.6399279     
   3408958873.9108315     
   3792381905.8083630     
   3641453782.7704401     
   3503549745.8505192     
   3375990573.8320823     
   3256901938.8319378     
   3530422496.0444140     
   3412838394.8246937     
   3308083157.0993476     
   3213696577.2392788     
   3127908524.3316560     
   3314500911.9052558     
   3225960388.4694376     
   3149781835.3233752     
   3083524584.1376677     
   3025326155.9209361     
   3580929820.5136247     
   3433946458.2305579     
   3289386629.8323240     
   3147502430.2751536     
   3008624256.1912270     
   3408958873.9108315     
   3273303145.9195757     
   3140971474.5345297     
   3012271955.9214211     
   2887613904.4375687     
   3256901938.8319378     
   3134222845.5811267     
   3016119253.4593153     
   2902933726.1842918     
   2795135525.4038243     
   3127908524.3316560     
   3019833949.2042723     
   2917917311.2944841     
   2822490493.3663282     
   2734034963.0726309     
   3025326155.9209361     
   2933277664.9344192     
   2849246792.4279375     
   2773481797.7384462     
   2706398572.1668606     
   3008624256.1912270     
   2878519150.6469922     
   2751669010.5949440     
   2628535098.8603711     
   2509689120.7157235     
   2887613904.4375687     
   2769243472.9257808     
   2655274330.4182510     
   2546282933.0553236     
   2442966662.0614796     
   2795135525.4038243     
   2689883805.4284129     
   2590286432.6497579     
   2496997829.1820731     
   2410786190.4761877     
   2734034963.0726309     
   2642807288.3343472     
   2558495932.9735212     
   2481773274.5130229     
   2413401779.0933566     
   2706398572.1668606     
   2629425192.2551794     
   2560542720.6811543     
   2500374955.5425372     
   2449604110.8452930     
   2509689120.7157235     
   2368615900.9684157     
   2229882351.8940244     
   2093730003.8805523     
   1960608746.2243009     
   2442966662.0614796     
   2317785738.1519980     
   2196285380.8653154     
   2078929918.5049832     
   1966422529.3266587     
   2410786190.4761877     
   2303407889.1449261     
   2201092509.2515364     
   2104442501.4662654     
   2014282056.6462469     
   2413401779.0933566     
   2325038103.5747600     
   2242947604.0929804     
   2167751600.0848241     
   2100242853.7933662     
   2449604110.8452930     
   2380613805.8898244     
   2318785107.0305982     
   2264655238.5796824     
   2218877810.9280324     
   1960608746.2243009     
   1829515911.9053223     
   1697812325.6294885     
   1565760971.7285213     
   1433779617.2069812     
   1966422529.3266587     
   1848020869.1324806     
   1733345156.0578732     
   1623286824.9785175     
   1518965679.9395201     
   2014282056.6462469     
   1914134588.5146046     
   1822264083.8881061     
   1739934917.5864551     
   1668533029.0510914     
   2100242853.7933662     
   2020453223.0759554     
   1952780956.8842983     
   1898448638.3135762     
   1858638414.5161440     
   2218877810.9280324     
   2158571997.6442370     
   2113280242.3830547     
   2083952795.6824424     
   2071424929.5731971     
   1433779617.2069812     
   1326291689.3268900     
   1253740294.4018536     
   1224288191.9124997     
   1244900613.2158844     
   1518965679.9395201     
   1458850994.1465504     
   1431442179.1421895     
   1440709514.0507672     
   1489900905.1344285     
   1668533029.0510914     
   1640037087.9871638     
   1639345191.2258608     
   1668831377.7157192     
   1731087625.2153590     
   1858638414.5161440     
   1847412326.1832423     
   1859345453.4239485     
   1896648761.6082239     
   1962344856.9416730     
   2071424929.5731971     
   2066510607.6562643     
   2081149678.0612893     
   2117963600.8694568     
   2180748681.6737537     
   1244900613.2158844     
   1433585802.4458814     
   1707870515.3356323     
   2107635561.9235733     
   2664694378.9030747     
   1489900905.1344285     
   1603154642.3080118     
   1783938678.7933033     
   2066649084.5413733     
   2481060995.0314555     
   1731087625.2153590     
   1780368198.2965424     
   1882179674.1479239     
   2063340949.6798403     
   2348881291.5285630     
   1962344856.9416730     
   1964240893.8107111     
   2003147395.8767848     
   2097878670.0999262     
   2267158171.7902074     
   2180748681.6737537     
   2154097786.9874320     
   2147587629.8820615     
   2172061531.6865153     
   2238901492.8405066     
   2700873487.4698353     
   2873343602.0876164     
   3034949527.2473764     
   3182365905.9004469     
   3314500911.9052558     
   2625459430.4034700     
   2745660496.1395335     
   2861160749.7062173     
   2969816528.3403335     
   3070449284.5345058     
   2511746219.7764373     
   2596257090.7911663     
   2684637539.0745440     
   2775000003.4945178     
   2865795886.6717768     
   2368520812.5982690     
   2433409096.7139592     
   2513111267.3811831     
   2604978386.8551636     
   2706698925.4584255     
   2210676568.7432952     
   2269873887.7899475     
   2357315903.6833310     
   2468263554.3128119     
   2599046570.8334203     
   3314500911.9052558     
   3225960388.4694376     
   3149781835.3233752     
   3083524584.1376677     
   3025326155.9209361     
   3070449284.5345058     
   3011088611.0602179     
   2962940913.1497135     
   2924272043.5456300     
   2893781122.6468449     
   2865795886.6717768     
   2834077657.5063033     
   2812307071.6968284     
   2799352500.8085976     
   2794363423.2760582     
   2706698925.4584255     
   2700405424.3360796     
   2702562340.0476899     
   2712526573.6110907     
   2729798408.8107543     
   2599046570.8334203     
   2614941725.4610162     
   2637539417.6223450     
   2666569562.3836017     
   2701803800.4519625     
   3025326155.9209361     
   2933277664.9344192     
   2849246792.4279375     
   2773481797.7384462     
   2706398572.1668606     
   2893781122.6468449     
   2822061344.7758179     
   2758940907.6047320     
   2704667522.1146049     
   2659609517.1933169     
   2794363423.2760582     
   2741994890.1412897     
   2698586358.8556781     
   2664337619.4056201     
   2639525351.9456778     
   2729798408.8107543     
   2695203292.6075921     
   2669671284.7144270     
   2653329150.5247698     
   2646347145.3379502     
   2701803800.4519625     
   2682780338.7417130     
   2672677055.3740797     
   2671548252.3079348     
   2679470492.2540751     
   2706398572.1668606     
   2629425192.2551794     
   2560542720.6811543     
   2500374955.5425372     
   2449604110.8452930     
   2659609517.1933169     
   2596455027.5921531     
   2541792750.1689854     
   2496130972.0540042     
   2460006502.1724663     
   2639525351.9456778     
   2589238733.6790295     
   2547701445.4315619     
   2515295347.5980592     
   2492410309.0316997     
   2646347145.3379502     
   2607604783.8134432     
   2577740686.8916025     
   2557015187.6849122     
   2545685859.3163538     
   2679470492.2540751     
   2650644765.8371735     
   2630734582.7190776     
   2619896055.2190032     
   2618279403.7169929     
   2449604110.8452930     
   2380613805.8898244     
   2318785107.0305982     
   2264655238.5796824     
   2218877810.9280324     
   2460006502.1724663     
   2408343595.6851320     
   2364933812.6524420     
   2330233002.5610251     
   2304757084.4388156     
   2492410309.0316997     
   2457057920.9600081     
   2430759040.5418983     
   2413853991.9342794     
   2406704733.4663153     
   2545685859.3163538     
   2524939167.8692861     
   2513812957.7834158     
   2512531554.1085634     
   2521320908.8794408     
   2618279403.7169929     
   2609915063.4719343     
   2611598414.6921539     
   2623458124.0574646     
   2645617685.6434875     
   2218877810.9280324     
   2158571997.6442370     
   2113280242.3830547     
   2083952795.6824424     
   2071424929.5731971     
   2304757084.4388156     
   2259979380.2230663     
   2229336734.3187776     
   2213415709.1017532     
   2212709122.6092153     
   2406704733.4663153     
   2374392950.7070308     
   2355273545.8869514     
   2349693176.7766414     
   2357938547.2228990     
   2521320908.8794408     
   2498638201.3685789     
   2488272472.2386065     
   2490424499.0015960     
   2505266280.3634105     
   2645617685.6434875     
   2630045072.0605736     
   2626054041.2282872     
   2633764186.4572978     
   2653289959.3181062     
   2071424929.5731971     
   2066510607.6562643     
   2081149678.0612893     
   2117963600.8694568     
   2180748681.6737537     
   2212709122.6092153     
   2196355849.2912326     
   2195317890.9308963     
   2211566597.8952370     
   2248019309.2358098     
   2357938547.2228990     
   2330925225.3278074     
   2315818713.6900878     
   2314029722.1990714     
   2327647105.8625841     
   2505266280.3634105     
   2469319255.5422182     
   2442390829.5535455     
   2425430681.8847980     
   2419814989.6411600     
   2653289959.3181062     
   2610815873.6561012     
   2574799536.6090641     
   2545824477.3131313     
   2524696886.0713830     
   2180748681.6737537     
   2154097786.9874320     
   2147587629.8820615     
   2172061531.6865153     
   2238901492.8405066     
   2248019309.2358098     
   2184486318.0325274     
   2137968257.2047918     
   2118498067.0002327     
   2137411566.8749359     
   2327647105.8625841     
   2230598497.7887883     
   2147464348.3828685     
   2086996460.0050168     
   2059842185.7262132     
   2419814989.6411600     
   2292742350.4858470     
   2176746093.3609300     
   2078943366.8673728     
   2008617223.0853102     
   2524696886.0713830     
   2371140960.5712090     
   2226302755.9552579     
   2095502616.9261029     
   1986122805.3011217     
   2210676568.7432952     
   2269873887.7899475     
   2357315903.6833310     
   2468263554.3128119     
   2599046570.8334203     
   1882857803.7308373     
   2004454418.9832206     
   2144149976.4580297     
   2297674844.7566485     
   2462052790.7603788     
   1636706175.7190475     
   1812958712.3568456     
   1995333731.1813905     
   2181008058.1749768     
   2368238019.6735563     
   1479436576.8087134     
   1699762585.3492599     
   1914285856.9036205     
   2122077039.5720811     
   2322622426.1637006     
   1410850559.7714922     
   1662502622.6421402     
   1899233691.8825312     
   2121043767.4926622     
   2327932849.4725385     
   2599046570.8334203     
   2614941725.4610162     
   2637539417.6223450     
   2666569562.3836017     
   2701803800.4519625     
   2462052790.7603788     
   2492031928.5003595     
   2528612076.8997359     
   2571626870.2123580     
   2620935457.8121152     
   2368238019.6735563     
   2409873839.2805471     
   2458025769.0839033     
   2512613466.4812665     
   2573568697.3929152     
   2322622426.1637006     
   2372241441.5081220     
   2428438863.2647905     
   2491193665.4891853     
   2560487911.5569873     
   2327932849.4725385     
   2380868933.0463524     
   2440723549.7933202     
   2507496699.7134485     
   2581188382.8067331     
   2701803800.4519625     
   2682780338.7417130     
   2672677055.3740797     
   2671548252.3079348     
   2679470492.2540751     
   2620935457.8121152     
   2615180020.6957645     
   2617902434.1821198     
   2629128233.2731771     
   2648893994.3853660     
   2573568697.3929152     
   2578219389.3125200     
   2590855152.4311547     
   2611483845.3715153     
   2640117861.3409290     
   2560487911.5569873     
   2572372861.5343022     
   2591758502.6733670     
   2618645783.8095465     
   2653036769.1609917     
   2581188382.8067331     
   2597039657.7321310     
   2619962683.6298728     
   2649957460.4999518     
   2687023988.3423715     
   2679470492.2540751     
   2650644765.8371735     
   2630734582.7190776     
   2619896055.2190032     
   2618279403.7169929     
   2648893994.3853660     
   2628220714.4881415     
   2616390251.3244543     
   2613490611.1424522     
   2619604715.6106300     
   2640117861.3409290     
   2625688969.4104562     
   2620028148.8446593     
   2623174002.9334621     
   2635162281.0134296     
   2653036769.1609917     
   2642790023.5681872     
   2641264635.3554516     
   2648470023.6678472     
   2664414800.8650379     
   2687023988.3423715     
   2678839250.0237427     
   2679380089.1620007     
   2688646505.7571502     
   2706638499.8091955     
   2618279403.7169929     
   2609915063.4719343     
   2611598414.6921539     
   2623458124.0574646     
   2645617685.6434875     
   2619604715.6106300     
   2620714800.5209398     
   2631535276.4637866     
   2652132062.9842277     
   2682567017.7707987     
   2635162281.0134296     
   2643366581.9717317     
   2660991424.0414658     
   2688063378.7277665     
   2724606975.4173589     
   2664414800.8650379     
   2677289184.9612927     
   2699377293.1202893     
   2730685184.4785342     
   2771218399.3623052     
   2706638499.8091955     
   2721788198.0264201     
   2746047946.1185727     
   2779417744.0856552     
   2821897591.9276595     
   2645617685.6434875     
   2630045072.0605736     
   2626054041.2282872     
   2633764186.4572978     
   2653289959.3181062     
   2682567017.7707987     
   2669449173.7439632     
   2667100553.9117522     
   2675582453.3823724     
   2694954860.2510629     
   2724606975.4173589     
   2713305334.5033731     
   2712139561.1511760     
   2721134539.1724668     
   2740315164.8949242     
   2771218399.3623052     
   2761232463.7752972     
   2760912096.9541144     
   2770262990.8982835     
   2789290963.6129336     
   2821897591.9276595     
   2812858470.4075556     
   2813161988.0567746     
   2822808144.8753133     
   2841796940.8631558     
   2653289959.3181062     
   2610815873.6561012     
   2574799536.6090641     
   2545824477.3131313     
   2524696886.0713830     
   2694954860.2510629     
   2645419429.3384142     
   2602114643.8003821     
   2565372964.5692949     
   2535655897.5057139     
   2740315164.8949242     
   2685759531.4995160     
   2637363240.7378511     
   2595274538.0137501     
   2559699695.7956901     
   2789290963.6129336     
   2731757011.3418798     
   2680466286.6095495     
   2635455636.3156323     
   2596776323.7937822     
   2841796940.8631558     
   2783320678.0097008     
   2731326357.4613152     
   2685813979.2179775     
   2646783543.2797060     
   2524696886.0713830     
   2371140960.5712090     
   2226302755.9552579     
   2095502616.9261029     
   1986122805.3011217     
   2535655897.5057139     
   2363446891.7216258     
   2195188038.5723572     
   2034198436.8162763     
   1885400450.9505608     
   2559699695.7956901     
   2374196228.0559330     
   2188707280.6981149     
   2004810289.8699236     
   1824968693.7198942     
   2596776323.7937822     
   2403501552.5357795     
   2207360267.8855104     
   2008757925.4070125     
   1808348207.0597382     
   2646783543.2797060     
   2451330359.9164228     
   2251298003.2429790     
   2046686473.2593818     
   1837495769.9655988     
   1410850559.7714922     
   1662502622.6421402     
   1899233691.8825312     
   2121043767.4926622     
   2327932849.4725385     
   1479436576.8082445     
   1699762585.3488927     
   1914285856.9033480     
   2122077039.5719175     
   2322622426.1636577     
   1636706175.7182541     
   1812958712.3561926     
   1995333731.1808848     
   2181008058.1746583     
   2368238019.6734533     
   1882857803.7299056     
   2004454418.9823916     
   2144149976.4573543     
   2297674844.7561779     
   2462052790.7601748     
   2210676568.7423720     
   2269873887.7890558     
   2357315903.6825333     
   2468263554.3121953     
   2599046570.8330660     
   2327932849.4725385     
   2380868933.0463524     
   2440723549.7933202     
   2507496699.7134485     
   2581188382.8067331     
   2322622426.1636577     
   2372241441.5081081     
   2428438863.2648010     
   2491193665.4892230     
   2560487911.5570536     
   2368238019.6734533     
   2409873839.2804928     
   2458025769.0838914     
   2512613466.4812970     
   2573568697.3929844     
   2462052790.7601748     
   2492031928.5002160     
   2528612076.8996472     
   2571626870.2123275     
   2620935457.8121319     
   2599046570.8330660     
   2614941725.4607329     
   2637539417.6221313     
   2666569562.3834505     
   2701803800.4518571     
   2581188382.8067331     
   2597039657.7321310     
   2619962683.6298728     
   2649957460.4999518     
   2687023988.3423715     
   2560487911.5570536     
   2572372861.5343280     
   2591758502.6733603     
   2618645783.8095016     
   2653036769.1609082     
   2573568697.3929844     
   2578219389.3125381     
   2590855152.4311242     
   2611483845.3714314     
   2640117861.3407850     
   2620935457.8121319     
   2615180020.6957498     
   2617902434.1820664     
   2629128233.2730746     
   2648893994.3852091     
   2701803800.4518571     
   2682780338.7416153     
   2672677055.3739748     
   2671548252.3078122     
   2679470492.2539330     
   2687023988.3423715     
   2678839250.0237427     
   2679380089.1620007     
   2688646505.7571502     
   2706638499.8091955     
   2653036769.1609082     
   2642790023.5681305     
   2641264635.3554311     
   2648470023.6678567     
   2664414800.8650742     
   2640117861.3407850     
   2625688969.4103703     
   2620028148.8446336     
   2623174002.9334884     
   2635162281.0134959     
   2648893994.3852091     
   2628220714.4880567     
   2616390251.3244319     
   2613490611.1424785     
   2619604715.6107020     
   2679470492.2539330     
   2650644765.8370981     
   2630734582.7190638     
   2619896055.2190404     
   2618279403.7170649     
   2706638499.8091955     
   2721788198.0264201     
   2746047946.1185727     
   2779417744.0856552     
   2821897591.9276595     
   2664414800.8650742     
   2677289184.9613171     
   2699377293.1203022     
   2730685184.4785404     
   2771218399.3623118     
   2635162281.0134959     
   2643366581.9717803     
   2660991424.0414972     
   2688063378.7277822     
   2724606975.4173574     
   2619604715.6107020     
   2620714800.5209947     
   2631535276.4638228     
   2652132062.9842405     
   2682567017.7707810     
   2618279403.7170649     
   2609915063.4719882     
   2611598414.6921849     
   2623458124.0574698     
   2645617685.6434741     
   2821897591.9276595     
   2812858470.4075556     
   2813161988.0567746     
   2822808144.8753133     
   2841796940.8631558     
   2771218399.3623118     
   2761232463.7752881     
   2760912096.9541087     
   2770262990.8982959     
   2789290963.6129527     
   2724606975.4173574     
   2713305334.5033569     
   2712139561.1511688     
   2721134539.1724691     
   2740315164.8949618     
   2682567017.7707810     
   2669449173.7439375     
   2667100553.9117169     
   2675582453.3823600     
   2694954860.2510767     
   2645617685.6434741     
   2630045072.0605354     
   2626054041.2282262     
   2633764186.4572549     
   2653289959.3180823     
   2841796940.8631558     
   2783320678.0097008     
   2731326357.4613152     
   2685813979.2179775     
   2646783543.2797060     
   2789290963.6129527     
   2731757011.3418803     
   2680466286.6095228     
   2635455636.3155713     
   2596776323.7936726     
   2740315164.8949618     
   2685759531.4995213     
   2637363240.7378159     
   2595274538.0136461     
   2559699695.7955189     
   2694954860.2510767     
   2645419429.3384199     
   2602114643.8003645     
   2565372964.5692296     
   2535655897.5055833     
   2653289959.3180823     
   2610815873.6561232     
   2574799536.6090784     
   2545824477.3131256     
   2524696886.0713282     
   2646783543.2797060     
   2451330359.9164228     
   2251298003.2429790     
   2046686473.2593818     
   1837495769.9655988     
   2596776323.7936726     
   2403501552.5357342     
   2207360267.8855286     
   2008757925.4071302     
   1808348207.0599122     
   2559699695.7955189     
   2374196228.0558534     
   2188707280.6981301     
   2004810289.8700202     
   1824968693.7201355     
   2535655897.5055833     
   2363446891.7215304     
   2195188038.5723405     
   2034198436.8163245     
   1885400450.9506321     
   2524696886.0713282     
   2371140960.5711350     
   2226302755.9552021     
   2095502616.9260116     
   1986122805.3009455     
   2210676568.7423720     
   2269873887.7890558     
   2357315903.6825333     
   2468263554.3121953     
   2599046570.8330660     
   2368520812.5975580     
   2433409096.7132640     
   2513111267.3805723     
   2604978386.8546963     
   2706698925.4581733     
   2511746219.7758474     
   2596257090.7905974     
   2684637539.0740447     
   2775000003.4941454     
   2865795886.6715808     
   2625459430.4028749     
   2745660496.1389718     
   2861160749.7057514     
   2969816528.3399987     
   3070449284.5343261     
   2700873487.4690909     
   2873343602.0869541     
   3034949527.2468529     
   3182365905.9000945     
   3314500911.9050736     
   2599046570.8330660     
   2614941725.4607329     
   2637539417.6221313     
   2666569562.3834505     
   2701803800.4518571     
   2706698925.4581733     
   2700405424.3358736     
   2702562340.0475249     
   2712526573.6109562     
   2729798408.8106451     
   2865795886.6715808     
   2834077657.5061474     
   2812307071.6967111     
   2799352500.8085032     
   2794363423.2759805     
   3070449284.5343261     
   3011088611.0600986     
   2962940913.1496530     
   2924272043.5456095     
   2893781122.6468596     
   3314500911.9050736     
   3225960388.4693489     
   3149781835.3233695     
   3083524584.1377516     
   3025326155.9210968     
   2701803800.4518571     
   2682780338.7416153     
   2672677055.3739748     
   2671548252.3078122     
   2679470492.2539330     
   2729798408.8106451     
   2695203292.6074824     
   2669671284.7143083     
   2653329150.5246534     
   2646347145.3378172     
   2794363423.2759805     
   2741994890.1411996     
   2698586358.8555760     
   2664337619.4055085     
   2639525351.9455476     
   2893781122.6468596     
   2822061344.7757969     
   2758940907.6046691     
   2704667522.1145077     
   2659609517.1931796     
   3025326155.9210968     
   2933277664.9344997     
   2849246792.4279532     
   2773481797.7383914     
   2706398572.1667442     
   2679470492.2539330     
   2650644765.8370981     
   2630734582.7190638     
   2619896055.2190404     
   2618279403.7170649     
   2646347145.3378172     
   2607604783.8133602     
   2577740686.8915644     
   2557015187.6849160     
   2545685859.3163972     
   2639525351.9455476     
   2589238733.6789327     
   2547701445.4314938     
   2515295347.5980301     
   2492410309.0316882     
   2659609517.1931796     
   2596455027.5920396     
   2541792750.1688895     
   2496130972.0539308     
   2460006502.1724277     
   2706398572.1667442     
   2629425192.2550507     
   2560542720.6810288     
   2500374955.5424232     
   2449604110.8452063     
   2618279403.7170649     
   2609915063.4719882     
   2611598414.6921849     
   2623458124.0574698     
   2645617685.6434741     
   2545685859.3163972     
   2524939167.8693128     
   2513812957.7834463     
   2512531554.1085882     
   2521320908.8794684     
   2492410309.0316882     
   2457057920.9600086     
   2430759040.5419149     
   2413853991.9343176     
   2406704733.4663820     
   2460006502.1724277     
   2408343595.6851029     
   2364933812.6524343     
   2330233002.5610490     
   2304757084.4388771     
   2449604110.8452063     
   2380613805.8897519     
   2318785107.0305481     
   2264655238.5796657     
   2218877810.9280725     
   2645617685.6434741     
   2630045072.0605354     
   2626054041.2282262     
   2633764186.4572549     
   2653289959.3180823     
   2521320908.8794684     
   2498638201.3685751     
   2488272472.2385640     
   2490424499.0015345     
   2505266280.3633480     
   2406704733.4663820     
   2374392950.7070475     
   2355273545.8869348     
   2349693176.7765837     
   2357938547.2227993     
   2304757084.4388771     
   2259979380.2230973     
   2229336734.3187699     
   2213415709.1016912     
   2212709122.6090841     
   2218877810.9280725     
   2158571997.6442728     
   2113280242.3830626     
   2083952795.6823788     
   2071424929.5730455     
   2653289959.3180823     
   2610815873.6561232     
   2574799536.6090784     
   2545824477.3131256     
   2524696886.0713282     
   2505266280.3633480     
   2469319255.5422029     
   2442390829.5535464     
   2425430681.8848205     
   2419814989.6411858     
   2357938547.2227993     
   2330925225.3277469     
   2315818713.6900778     
   2314029722.1991167     
   2327647105.8626828     
   2212709122.6090841     
   2196355849.2911334     
   2195317890.9308586     
   2211566597.8952947     
   2248019309.2359533     
   2071424929.5730455     
   2066510607.6561468     
   2081149678.0612283     
   2117963600.8694959     
   2180748681.6739249     
   2524696886.0713282     
   2371140960.5711350     
   2226302755.9552021     
   2095502616.9260116     
   1986122805.3009455     
   2419814989.6411858     
   2292742350.4858098     
   2176746093.3608413     
   2078943366.8672421     
   2008617223.0850320     
   2327647105.8626828     
   2230598497.7888088     
   2147464348.3828127     
   2086996460.0048902     
   2059842185.7259860     
   2248019309.2359533     
   2184486318.0326142     
   2137968257.2048063     
   2118498067.0002089     
   2137411566.8748946     
   2180748681.6739249     
   2154097786.9875708     
   2147587629.8821983     
   2172061531.6866722     
   2238901492.8407474     
   2700873487.4690909     
   2873343602.0869541     
   3034949527.2468529     
   3182365905.9000945     
   3314500911.9050736     
   3070690632.1284943     
   3153820455.7675886     
   3264236542.0587816     
   3392344849.8335724     
   3530422496.0441818     
   3673100427.6000285     
   3609954403.5673838     
   3626253882.1537404     
   3694351043.1127777     
   3792381905.8082976     
   4498408183.9359264     
   4238791013.5541534     
   4116815098.3006358     
   4083423147.8287573     
   4097811176.1103797     
   5544846383.0837297     
   5040085173.8728571     
   4732595493.1774826     
   4554352916.8640127     
   4443858013.7960567     
   3314500911.9050736     
   3225960388.4693489     
   3149781835.3233695     
   3083524584.1377516     
   3025326155.9210968     
   3530422496.0441818     
   3412838394.8245173     
   3308083157.0992532     
   3213696577.2392926     
   3127908524.3317943     
   3792381905.8082976     
   3641453782.7703385     
   3503549745.8504353     
   3375990573.8320556     
   3256901938.8320041     
   4097811176.1103797     
   3908850939.0459223     
   3732964557.4318342     
   3567065275.6398902     
   3408958873.9107680     
   4443858013.7960567     
   4211862938.0598931     
   3992990599.1012473     
   3783587913.1958590     
   3580929820.5134044     
   3025326155.9210968     
   2933277664.9344997     
   2849246792.4279532     
   2773481797.7383914     
   2706398572.1667442     
   3127908524.3317943     
   3019833949.2043462     
   2917917311.2944989     
   2822490493.3662739     
   2734034963.0725183     
   3256901938.8320041     
   3134222845.5811443     
   3016119253.4592886     
   2902933726.1842165     
   2795135525.4037042     
   3408958873.9107680     
   3273303145.9194913     
   3140971474.5344205     
   3012271955.9212923     
   2887613904.4374242     
   3580929820.5134044     
   3433946458.2303295     
   3289386629.8320942     
   3147502430.2749276     
   3008624256.1910262     
   2706398572.1667442     
   2629425192.2550507     
   2560542720.6810288     
   2500374955.5424232     
   2449604110.8452063     
   2734034963.0725183     
   2642807288.3342342     
   2558495932.9734020     
   2481773274.5129080     
   2413401779.0932522     
   2795135525.4037042     
   2689883805.4282908     
   2590286432.6496344     
   2496997829.1819439     
   2410786190.4760590     
   2887613904.4374242     
   2769243472.9256425     
   2655274330.4181046     
   2546282933.0551677     
   2442966662.0613174     
   3008624256.1910262     
   2878519150.6468029     
   2751669010.5947614     
   2628535098.8601742     
   2509689120.7155161     
   2449604110.8452063     
   2380613805.8897519     
   2318785107.0305481     
   2264655238.5796657     
   2218877810.9280725     
   2413401779.0932522     
   2325038103.5746613     
   2242947604.0928864     
   2167751600.0847449     
   2100242853.7933352     
   2410786190.4760590     
   2303407889.1447835     
   2201092509.2513905     
   2104442501.4661176     
   2014282056.6461115     
   2442966662.0613174     
   2317785738.1518016     
   2196285380.8651047     
   2078929918.5047600     
   1966422529.3264363     
   2509689120.7155161     
   2368615900.9681830     
   2229882351.8937654     
   2093730003.8802614     
   1960608746.2239966     
   2218877810.9280725     
   2158571997.6442728     
   2113280242.3830626     
   2083952795.6823788     
   2071424929.5730455     
   2100242853.7933352     
   2020453223.0759389     
   1952780956.8842695     
   1898448638.3135068     
   1858638414.5160301     
   2014282056.6461115     
   1914134588.5145097     
   1822264083.8880453     
   1739934917.5864015     
   1668533029.0510397     
   1966422529.3264363     
   1848020869.1323247     
   1733345156.0577793     
   1623286824.9784822     
   1518965679.9395282     
   1960608746.2239966     
   1829515911.9051049     
   1697812325.6293485     
   1565760971.7284892     
   1433779617.2070613     
   2071424929.5730455     
   2066510607.6561468     
   2081149678.0612283     
   2117963600.8694959     
   2180748681.6739249     
   1858638414.5160301     
   1847412326.1831617     
   1859345453.4239125     
   1896648761.6082828     
   1962344856.9418464     
   1668533029.0510397     
   1640037087.9871335     
   1639345191.2258587     
   1668831377.7157781     
   1731087625.2154899     
   1518965679.9395282     
   1458850994.1465571     
   1431442179.1422136     
   1440709514.0508089     
   1489900905.1344912     
   1433779617.2070613     
   1326291689.3269570     
   1253740294.4018898     
   1224288191.9124930     
   1244900613.2158167     
   2180748681.6739249     
   2154097786.9875708     
   2147587629.8821983     
   2172061531.6866722     
   2238901492.8407474     
   1962344856.9418464     
   1964240893.8108683     
   2003147395.8769412     
   2097878670.1001613     
   2267158171.7905426     
   1731087625.2154899     
   1780368198.2966678     
   1882179674.1480939     
   2063340949.6801069     
   2348881291.5289860     
   1489900905.1344912     
   1603154642.3081000     
   1783938678.7934439     
   2066649084.5416396     
   2481060995.0319262     
   1244900613.2158167     
   1433585802.4458778     
   1707870515.3357389     
   2107635561.9238410     
   2664694378.9036117     
   5544846383.0837297     
   5040085173.8728571     
   4732595493.1774826     
   4554352916.8640127     
   4443858013.7960567     
   5479336502.0283833     
   5117729611.8710938     
   4893166898.5061979     
   4741142833.8363667     
   4611425916.8988590     
   5167007861.8571844     
   4958123819.4278479     
   4848644577.8014746     
   4774426487.1776905     
   4693713730.8792906     
   4564335745.5896587     
   4534463175.8199883     
   4586553701.1001692     
   4650221492.7661505     
   4690756209.6747236     
   3741527455.3209968     
   3895980177.4514170     
   4143790223.0150609     
   4395222032.4431973     
   4620304088.1480074     
   4443858013.7960567     
   4211862938.0598931     
   3992990599.1012473     
   3783587913.1958590     
   3580929820.5134044     
   4611425916.8988590     
   4393142882.3736048     
   4175232816.0067945     
   3956333158.9983287     
   3735335908.8899536     
   4693713730.8792906     
   4502431663.5904360     
   4307406726.8665943     
   4107867459.9615450     
   3903410642.8861585     
   4690756209.6747236     
   4537984662.4216909     
   4386529670.2141857     
   4234088993.9973226     
   4079638228.4568729     
   4620304088.1480074     
   4509078036.1799946     
   4416162686.2915936     
   4334524726.2316694     
   4260135423.7914901     
   3580929820.5134044     
   3433946458.2303295     
   3289386629.8320942     
   3147502430.2749276     
   3008624256.1910262     
   3735335908.8899536     
   3584439501.4874039     
   3434159460.7175350     
   3284591417.2224832     
   3135851576.1153011     
   3903410642.8861585     
   3752436241.4825854     
   3601193230.1819773     
   3449627612.3541565     
   3297686132.5431905     
   4079638228.4568729     
   3932794405.8175635     
   3785661448.1546512     
   3638056849.4171004     
   3489822373.4146428     
   4260135423.7914901     
   4121652963.6136589     
   3983669808.9439836     
   3845886973.6155028     
   3708090731.6313224     
   3008624256.1910262     
   2878519150.6468029     
   2751669010.5947614     
   2628535098.8601742     
   2509689120.7155161     
   3135851576.1153011     
   2993116518.6503901     
   2853246327.7641912     
   2716725701.9090948     
   2584189061.5764976     
   3297686132.5431905     
   3139654722.5004148     
   2983715535.9907484     
   2830343284.4236970     
   2680204414.5066628     
   3489822373.4146428     
   3314054818.0094814     
   3139284591.3551269     
   2965930114.8938060     
   2794637163.6951313     
   3708090731.6313224     
   3512420344.2923508     
   3316408353.4903727     
   3120364824.4368005     
   2924848022.9928446     
   2509689120.7155161     
   2368615900.9681830     
   2229882351.8937654     
   2093730003.8802614     
   1960608746.2239966     
   2584189061.5764976     
   2434070490.6236782     
   2284741666.3635631     
   2136303254.2500985     
   1988959840.0586112     
   2680204414.5066628     
   2524197047.9274392     
   2368126892.0572901     
   2212008646.5935917     
   2055887002.8312125     
   2794637163.6951313     
   2635692709.4426432     
   2476512709.1102548     
   2317093723.3568068     
   2157433920.4945827     
   2924848022.9928446     
   2765497609.7321582     
   2606338695.6899500     
   2447392164.4964709     
   2288688646.7387462     
   1960608746.2239966     
   1829515911.9051049     
   1697812325.6293485     
   1565760971.7284892     
   1433779617.2070613     
   1988959840.0586112     
   1855096419.3584099     
   1720644474.3900115     
   1585614834.4736679     
   1450042321.2484398     
   2055887002.8312125     
   1922734758.4412861     
   1789660209.2255266     
   1656609787.6550949     
   1523539816.6983671     
   2157433920.4945827     
   2026837307.1270676     
   1897312231.4703457     
   1768832573.6084950     
   1641437858.8291273     
   2288688646.7387462     
   2160883391.0561690     
   2035200252.7344627     
   1911656794.1762927     
   1790420126.3614924     
   1433779617.2070613     
   1326291689.3269570     
   1253740294.4018898     
   1224288191.9124930     
   1244900613.2158167     
   1450042321.2484398     
   1308187263.2422614     
   1180803383.3063645     
   1072198649.8299981     
   988052168.04003310     
   1523539816.6983671     
   1377305457.1713233     
   1227622824.1400390     
   1072011015.1449889     
   908268398.23141289     
   1641437858.8291273     
   1530876090.6356151     
   1411377667.6186669     
   1283207038.4177415     
   1152575661.2230384     
   1790420126.3614924     
   1755687487.7269044     
   1717562707.3336048     
   1684634146.8733659     
   1675437602.3466718     
   1244900613.2158167     
   1433585802.4458778     
   1707870515.3357389     
   2107635561.9238410     
   2664694378.9036117     
   988052168.04003310     
   1154340461.5791154     
   1419298879.6768413     
   1806587559.3074746     
   2335688958.8274021     
   908268398.23141289     
   955487382.15892959     
   1140414714.4010973     
   1475070473.2637913     
   1958274232.3715763     
   1152575661.2230384     
   1003209475.2645843     
   982064588.07447124     
   1160805130.1492581     
   1544987713.8406570     
   1675437602.3466718     
   1379561028.0578022     
   1127244204.7434609     
   1010221501.9559759     
   1154448831.4429154     
 </DataArray>
 <DataArray  type="Float64" Name="strain" NumberOfComponents="3" format="ascii">
   6.1508213823166402E-002  -1.2419623240791378E-003  -2.5479029006895249E-002
   6.4940987918181037E-002  -1.2489042062368727E-002  -1.8502875582331768E-002
   6.8373762013195449E-002  -2.0230793769297400E-002  -1.5244221782416245E-002
   7.1806536108209917E-002  -2.4467217444865554E-002  -1.5703067607147431E-002
   7.5239310203224496E-002  -2.5198313089072610E-002  -1.9879413056526407E-002
   7.7145120645885079E-002   6.6083904448790420E-003   3.5053939764545516E-004
   7.7536282092706965E-002  -5.5658195498163310E-003   2.9964807626013390E-003
   7.7927443539529073E-002  -1.4202349443425188E-002   3.2766964558193779E-003
   7.8318604986351070E-002  -1.9301199235947017E-002   1.1911864773001407E-003
   7.8709766433173012E-002  -2.0862368927381914E-002  -3.2600491729570802E-003
   8.4254424366317304E-002   1.4458743213837388E-002   2.5236801510917201E-002
   8.2955747117856637E-002   1.3574029627359263E-003   2.3584882885991532E-002
   8.1657069869395971E-002  -8.1739051175526850E-003   2.0919012542237950E-002
   8.0358392620935290E-002  -1.4135181027028421E-002   1.7239190479656961E-002
   7.9059715372474693E-002  -1.6526424765691272E-002   1.2545416698247908E-002
   8.2836124984463091E-002   2.2309095982795651E-002   4.9179757332920036E-002
   8.1199382993629721E-002   8.2806254752882252E-003   4.3262330787838879E-002
   7.9562641002796280E-002  -2.1454607916803273E-003   3.7682726476839568E-002
   7.7925899011962813E-002  -8.9691628181100772E-003   3.2440944399922657E-002
   7.6289157021129414E-002  -1.2190480604000825E-002   2.7536984557087744E-002
   7.2890222500322788E-002   3.0159448751753914E-002   7.2179406863654039E-002
   7.2267189720026326E-002   1.5203847987840580E-002   6.2028824468143118E-002
   7.1644156939729975E-002   3.8829835341920443E-003   5.3567838259624440E-002
   7.1021124159433596E-002  -3.8031446091914799E-003   4.6796448238097463E-002
   7.0398091379137190E-002  -7.8545364423102115E-003   4.1714654403562423E-002
   7.5239310203224496E-002  -2.5198313089072610E-002  -1.9879413056526407E-002
   7.4106814390275555E-002  -2.4217828839207201E-002  -1.4037620088477587E-002
   7.2974318577326613E-002  -2.3319512832557537E-002  -1.0000644320983076E-002
   7.1841822764377672E-002  -2.2503365069123461E-002  -7.7684857540431806E-003
   7.0709326951428730E-002  -2.1769385548905285E-002  -7.3411443876574278E-003
   7.8709766433173012E-002  -2.0862368927381914E-002  -3.2600491729570802E-003
   7.6091416851955973E-002  -2.0607039672395105E-002  -2.1322528899789250E-004
   7.3473067270738962E-002  -2.0256392625650821E-002   1.6667082589790216E-003
   7.0854717689521854E-002  -1.9810427787149754E-002   2.3797514709743700E-003
   6.8236368108304801E-002  -1.9269145156891376E-002   1.9259043469875836E-003
   7.9059715372474693E-002  -1.6526424765691272E-002   1.2545416698247908E-002
   7.5593438887562009E-002  -1.6996250505582955E-002   1.2974757533089659E-002
   7.2127162402649436E-002  -1.7193272418744424E-002   1.2875134896522297E-002
   6.8660885917736836E-002  -1.7117490505176042E-002   1.2246548788545357E-002
   6.5194609432824235E-002  -1.6768904764877635E-002   1.1088999209159178E-002
   7.6289157021129414E-002  -1.2190480604000825E-002   2.7536984557087744E-002
   7.2612880497093760E-002  -1.3385461338770888E-002   2.5526328377785165E-002
   6.8936603973058203E-002  -1.4130152211837978E-002   2.3624635591646109E-002
   6.5260327449022534E-002  -1.4424553223202444E-002   2.1831906198670030E-002
   6.1584050924986991E-002  -1.4268664372864032E-002   2.0148140198857439E-002
   7.0398091379137190E-002  -7.8545364423102115E-003   4.1714654403562423E-002
   6.7149741680551184E-002  -9.7746721719587371E-003   3.7441487245088473E-002
   6.3901391981965108E-002  -1.1067032004931462E-002   3.3915210344350549E-002
   6.0653042283379040E-002  -1.1731615941228801E-002   3.1135823701348458E-002
   5.7404692584793027E-002  -1.1768423980850262E-002   2.9103327316081895E-002
   7.0709326951428730E-002  -2.1769385548905285E-002  -7.3411443876574278E-003
   6.8467391093745000E-002  -2.1051706004884596E-002  -5.9038813189157269E-003
   6.6225455236061215E-002  -2.0284458170045316E-002  -4.7750482831565022E-003
   6.3983519378377485E-002  -1.9467642044385475E-002  -3.9546452803803644E-003
   6.1741583520693699E-002  -1.8601257627906542E-002  -3.4426723105861479E-003
   6.8236368108304801E-002  -1.9269145156891376E-002   1.9259043469875836E-003
   6.5743722182052600E-002  -1.8661466909046132E-002   2.8956084149052153E-003
   6.3251076255800315E-002  -1.8016315217783435E-002   3.6723223786688242E-003
   6.0758430329548099E-002  -1.7333690083103419E-002   4.2560462382778275E-003
   5.8265784403295828E-002  -1.6613591505006187E-002   4.6467799937324195E-003
   6.5194609432824235E-002  -1.6768904764877635E-002   1.1088999209159178E-002
   6.2566693366831794E-002  -1.6271227813207056E-002   1.1579049428850463E-002
   5.9938777300839380E-002  -1.5748172265521665E-002   1.1991549473215762E-002
   5.7310861234846952E-002  -1.5199738121821252E-002   1.2326499342254708E-002
   5.4682945168854552E-002  -1.4625925382105998E-002   1.2583899035967655E-002
   6.1584050924986991E-002  -1.4268664372864032E-002   2.0148140198857439E-002
   5.8936304648082694E-002  -1.3880988717368065E-002   2.0146441722919538E-002
   5.6288558371178361E-002  -1.3480029313259728E-002   2.0182633000484174E-002
   5.3640812094274085E-002  -1.3065786160538807E-002   2.0256714031551000E-002
   5.0993065817369732E-002  -1.2638259259205503E-002   2.0368684816120024E-002
   5.7404692584793027E-002  -1.1768423980850262E-002   2.9103327316081895E-002
   5.4852556025805160E-002  -1.1490749621529045E-002   2.8597785297112766E-002
   5.2300419466817294E-002  -1.1211886360997764E-002   2.8245572960474447E-002
   4.9748282907829428E-002  -1.0931834199256606E-002   2.8046690306166550E-002
   4.7196146348841506E-002  -1.0650593136305175E-002   2.8001137334189241E-002
   6.1741583520693699E-002  -1.8601257627906542E-002  -3.4426723105861479E-003
   5.8468954264901507E-002  -1.7709363064598804E-002  -2.9986322603453575E-003
   5.5196325009109204E-002  -1.6816016498452574E-002  -2.2371855347003700E-003
   5.1923695753316956E-002  -1.5921217929469163E-002  -1.1583321336511021E-003
   4.8651066497524709E-002  -1.5024967357647245E-002   2.3792794280197427E-004
   5.8265784403295828E-002  -1.6613591505006187E-002   4.6467799937324195E-003
   5.5286932846986714E-002  -1.5877948932287167E-002   4.9576842253410969E-003
   5.2308081290677572E-002  -1.5148691813741205E-002   5.5387371805122876E-003
   4.9329229734368443E-002  -1.4425820149369127E-002   6.3899388592451034E-003
   4.6350378178059315E-002  -1.3709333939169621E-002   7.5112892615400995E-003
   5.4682945168854552E-002  -1.4625925382105998E-002   1.2583899035967655E-002
   5.1950613360186526E-002  -1.4046534799975419E-002   1.2753829991932975E-002
   4.9218281551518528E-002  -1.3481367129029823E-002   1.3146651719618693E-002
   4.6485949742850516E-002  -1.2930422369268755E-002   1.3762364219024568E-002
   4.3753617934182504E-002  -1.2393700520692219E-002   1.4600967490149996E-002
   5.0993065817369732E-002  -1.2638259259205503E-002   2.0368684816120024E-002
   4.8459995804500958E-002  -1.2215120667663948E-002   2.0389805039430796E-002
   4.5926925791632003E-002  -1.1814042444318225E-002   2.0586558082619524E-002
   4.3393855778763132E-002  -1.1435024589168551E-002   2.0958943945686703E-002
   4.0860785765894268E-002  -1.1078067102214595E-002   2.1506962628631582E-002
   4.7196146348841506E-002  -1.0650593136305175E-002   2.8001137334189241E-002
   4.4815080179929828E-002  -1.0383706535352422E-002   2.7865609367834054E-002
   4.2434014011018123E-002  -1.0146717759607002E-002   2.7858456269514692E-002
   4.0052947842106418E-002  -9.9396268090685518E-003   2.7979678039232028E-002
   3.7671881673194685E-002  -9.7624336837370818E-003   2.8229274676985106E-002
   4.8651066497524709E-002  -1.5024967357647245E-002   2.3792794280197427E-004
   4.6018385621018232E-002  -1.4133892909620527E-002   4.7684517780588465E-005
   4.3385704744511921E-002  -1.3254622712020492E-002  -1.8269634205370089E-004
   4.0753023868005583E-002  -1.2387156764847584E-002  -4.5321463670011664E-004
   3.8120342991499134E-002  -1.1531495068101139E-002  -7.6387036615876980E-004
   4.6350378178059315E-002  -1.3709333939169621E-002   7.5112892615400995E-003
   4.3703555057805543E-002  -1.2984853192383961E-002   7.0562542416316987E-003
   4.1056731937551744E-002  -1.2237997918251531E-002   6.6130721690408900E-003
   3.8409908817297903E-002  -1.1468768116772249E-002   6.1817430437674514E-003
   3.5763085697044117E-002  -1.0677163787946586E-002   5.7622668658117160E-003
   4.3753617934182504E-002  -1.2393700520692219E-002   1.4600967490149996E-002
   4.1144642952311100E-002  -1.1835813475147672E-002   1.3915319653128838E-002
   3.8535667970439738E-002  -1.1221373124482792E-002   1.3293515145554879E-002
   3.5926692988568425E-002  -1.0550379468697135E-002   1.2735553967428315E-002
   3.3317718006697028E-002  -9.8228325077912571E-003   1.2241436118748950E-002
   4.0860785765894268E-002  -1.1078067102214595E-002   2.1506962628631582E-002
   3.8341649304535062E-002  -1.0686773757911466E-002   2.0624880752271466E-002
   3.5822512843175947E-002  -1.0204748330713942E-002   1.9858632587488316E-002
   3.3303376381816824E-002  -9.6319908206223548E-003   1.9208218134281849E-002
   3.0784239920457632E-002  -8.9685012276362053E-003   1.8673637392653125E-002
   3.7671881673194685E-002  -9.7624336837370818E-003   2.8229274676985106E-002
   3.5294574114477506E-002  -9.5377340406750943E-003   2.7184937539059484E-002
   3.2917266555760383E-002  -9.1881235369450920E-003   2.6308424494840832E-002
   3.0539958997043176E-002  -8.7136021725471857E-003   2.5599735544329177E-002
   2.8162651438326025E-002  -8.1141699474812645E-003   2.5058870687523993E-002
   3.8120342991499134E-002  -1.1531495068101139E-002  -7.6387036615876980E-004
   3.6021787355126622E-002  -1.0760998339298555E-002  -6.8818815942250922E-004
   3.3923231718754054E-002  -1.0149027295956903E-002  -6.6617152901893295E-004
   3.1824676082381487E-002  -9.6955819380745434E-003  -6.9782047494770794E-004
   2.9726120446008975E-002  -9.4006622656526151E-003  -7.8313499720916724E-004
   3.5763085697044117E-002  -1.0677163787946586E-002   5.7622668658117160E-003
   3.3606972962351100E-002  -9.9251855196588190E-003   5.6158709877259794E-003
   3.1450860227657973E-002  -9.2748338997936663E-003   5.4080264893314189E-003
   2.9294747492964957E-002  -8.7261089283530158E-003   5.1387333706288674E-003
   2.7138634758271829E-002  -8.2790106053352019E-003   4.8079916316177140E-003
   3.3317718006697028E-002  -9.8228325077912571E-003   1.2241436118748950E-002
   3.1096265129707396E-002  -9.0893727000180280E-003   1.1929861192878199E-002
   2.8874812252717819E-002  -8.4006405036317067E-003   1.1549054602722819E-002
   2.6653359375728214E-002  -7.7566359186316963E-003   1.1099016348282822E-002
   2.4431906498738637E-002  -7.1573589450176778E-003   1.0579746429558667E-002
   3.0784239920457632E-002  -8.9685012276362053E-003   1.8673637392653125E-002
   2.8489663857195473E-002  -8.2535598803777643E-003   1.8253782456034123E-002
   2.6195087793933425E-002  -7.5264471074692196E-003   1.7756912811154560E-002
   2.3900511730671342E-002  -6.7871629089099397E-003   1.7183028458014345E-002
   2.1605935667409162E-002  -6.0357072846999871E-003   1.6532129396613984E-002
   2.8162651438326025E-002  -8.1141699474812645E-003   2.5058870687523993E-002
   2.5787169144815381E-002  -7.4177470607373897E-003   2.4587634777193723E-002
   2.3411686851304792E-002  -6.6522537113062608E-003   2.4031601114626933E-002
   2.1036204557794147E-002  -5.8176898991881207E-003   2.3390769699823594E-002
   1.8660722264283558E-002  -4.9140556243826294E-003   2.2665140532783234E-002
   2.9726120446008975E-002  -9.4006622656526151E-003  -7.8313499720916724E-004
   2.9211699226341814E-002  -8.9783543260828491E-003  -4.9069441468763131E-004
   2.8697278006674876E-002  -8.1427441667544787E-003  -1.8945486055091942E-003
   2.8182856787007826E-002  -6.8938317876704874E-003  -4.9946975696730789E-003
   2.7668435567340777E-002  -5.2316171888282526E-003  -9.7911413071800624E-003
   2.7138634758271829E-002  -8.2790106053352019E-003   4.8079916316177140E-003
   2.5195495646514965E-002  -7.7760054888762475E-003   5.5621377511272385E-003
   2.3252356534757934E-002  -7.0595601371110650E-003   5.1551428597994553E-003
   2.1309217423000959E-002  -6.1296745500398209E-003   3.5870069576339758E-003
   1.9366078311244039E-002  -4.9863487276624596E-003   8.5773004463218783E-004
   2.4431906498738637E-002  -7.1573589450176778E-003   1.0579746429558667E-002
   2.1595203257397166E-002  -6.5736566516699790E-003   1.1595736101605025E-002
   1.8758500016055696E-002  -5.9763761074670130E-003   1.1985738525319700E-002
   1.5921796774714253E-002  -5.3655173124091612E-003   1.1749753700702401E-002
   1.3085093533372755E-002  -4.7410802664971108E-003   1.0887781627753834E-002
   2.1605935667409162E-002  -6.0357072846999871E-003   1.6532129396613984E-002
   1.8410822058988641E-002  -5.3713078144634330E-003   1.7610100636745840E-002
   1.5215708450568168E-002  -4.8931920778229471E-003   1.8597238391052172E-002
   1.2020594842147674E-002  -4.6013600747789422E-003   1.9493542659531422E-002
   8.8254812337272906E-003  -4.4958118053310958E-003   2.0299013442184821E-002
   1.8660722264283558E-002  -4.9140556243826294E-003   2.2665140532783234E-002
   1.5642352051289443E-002  -4.1689589772571090E-003   2.3605231356550238E-002
   1.2623981838295356E-002  -3.8100080481793253E-003   2.4989642456996308E-002
   9.6056116253012136E-003  -3.8372028371489453E-003   2.6818373834121528E-002
   6.5872414123071543E-003  -4.2505433441656360E-003   2.9091425487925870E-002
   2.7668435567340777E-002  -5.2316171888282526E-003  -9.7911413071800624E-003
   2.3280632849144833E-002  -4.1706336905926733E-003  -4.2233171638565992E-003
   1.8892830130948723E-002  -4.7254146133294261E-003   2.6028858619879802E-003
   1.4505027412752641E-002  -6.8959599570374841E-003   1.0687467770354897E-002
   1.0117224694556670E-002  -1.0682269721717041E-002   2.0030428561244484E-002
   1.9366078311244039E-002  -4.9863487276624596E-003   8.5773004463218783E-004
   1.6163771088968826E-002  -4.6880692230605314E-003   6.6143946336640891E-003
   1.2961463866693723E-002  -6.2933225893170297E-003   1.3483671332016001E-002
   9.7591566444185929E-003  -9.8021088264297618E-003   2.1465560139686701E-002
   6.5568494221432960E-003  -1.5214427934401087E-002   3.0560061056677412E-002
   1.3085093533372755E-002  -4.7410802664971108E-003   1.0887781627753834E-002
   1.0922515033815583E-002  -5.2055047555286116E-003   1.6545518212609245E-002
   8.7599365342583974E-003  -7.8612305653040226E-003   2.3170100133581839E-002
   6.5973580347011632E-003  -1.2708257695823275E-002   3.0761527390670451E-002
   4.4347795351439845E-003  -1.9746586147086020E-002   3.9319799983875692E-002
   8.8254812337272906E-003  -4.4958118053310958E-003   2.0299013442184821E-002
   7.5568646836849593E-003  -5.7229402879961366E-003   2.5570053572978091E-002
   6.2882481336427355E-003  -9.4291385412913209E-003   3.1662172266684815E-002
   5.0196315836006315E-003  -1.5614406565215948E-002   3.8575369523305363E-002
   3.7510150335584164E-003  -2.4278744359770066E-002   4.6309645342838768E-002
   6.5872414123071543E-003  -4.2505433441656360E-003   2.9091425487925870E-002
   6.0668200385770032E-003  -6.2403758204639947E-003   3.3688000714770516E-002
   5.5463986648467967E-003  -1.0997046517278702E-002   3.8959887731325693E-002
   5.0259772911165485E-003  -1.8520555434608642E-002   4.4907086537591651E-002
   4.5055559173864390E-003  -2.8810902572454555E-002   5.1529597133567417E-002
   7.2890222500322788E-002   3.0159448751753914E-002   7.2179406863654039E-002
   7.2267189720026326E-002   1.5203847987840580E-002   6.2028824468143118E-002
   7.1644156939729975E-002   3.8829835341920443E-003   5.3567838259624440E-002
   7.1021124159433596E-002  -3.8031446091914799E-003   4.6796448238097463E-002
   7.0398091379137190E-002  -7.8545364423102115E-003   4.1714654403562423E-002
   6.0128627100954374E-002   2.4746575633542600E-002   5.5966284640739716E-002
   6.0880282499790939E-002   1.3332025904401884E-002   5.1513877510009382E-002
   6.1631937898627601E-002   4.5164718666146214E-003   4.8121250550553107E-002
   6.2383593297464242E-002  -1.7000864798189970E-003   4.5788403762370838E-002
   6.3135248696300855E-002  -5.3176491348991828E-003   4.4515337145462908E-002
   5.0263248973416025E-002   1.9333702515331203E-002   4.3812083762053880E-002
   5.1759776535667823E-002   1.1460203820963133E-002   4.4022111277192452E-002
   5.3256304097919649E-002   5.1499601990372471E-003   4.4662102947887548E-002
   5.4752831660171454E-002   4.0297164955345639E-004   4.5732058774138745E-002
   5.6249359222423308E-002  -2.7807618274881818E-003   4.7231978755946147E-002
   4.3294088117707956E-002   1.3920829397119847E-002   3.5716804227596238E-002
   4.4905671827657090E-002   9.5883817375243818E-003   3.9553525769692691E-002
   4.6517255537606175E-002   5.7834485314597929E-003   4.3190395451627485E-002
   4.8128839247555302E-002   2.5060297789258690E-003   4.6627413273400684E-002
   4.9740422957504374E-002  -2.4387452007719468E-004   4.9864579235012294E-002
   3.9221144533830077E-002   8.5079562789084906E-003   3.1680446037367027E-002
   4.0317968375758600E-002   7.7165596540856862E-003   3.8108120987509764E-002
   4.1414792217687152E-002   6.4169368638824914E-003   4.3706128061773181E-002
   4.2511616059615717E-002   4.6090879082984447E-003   4.8474467260156848E-002
   4.3608439901544255E-002   2.2930127873339035E-003   5.2413138582661223E-002
   7.0398091379137190E-002  -7.8545364423102115E-003   4.1714654403562423E-002
   6.7149741680551184E-002  -9.7746721719587371E-003   3.7441487245088473E-002
   6.3901391981965108E-002  -1.1067032004931462E-002   3.3915210344350549E-002
   6.0653042283379040E-002  -1.1731615941228801E-002   3.1135823701348458E-002
   5.7404692584793027E-002  -1.1768423980850262E-002   2.9103327316081895E-002
   6.3135248696300855E-002  -5.3176491348991828E-003   4.4515337145462908E-002
   6.0569145063006494E-002  -7.3388152448426724E-003   4.1165265651301436E-002
   5.8003041429712160E-002  -8.7661839558660082E-003   3.8432796029987434E-002
   5.5436937796417819E-002  -9.5997552679694328E-003   3.6317928281520841E-002
   5.2870834163123465E-002  -9.8395291811527175E-003   3.4820662405901814E-002
   5.6249359222423308E-002  -2.7807618274881818E-003   4.7231978755946147E-002
   5.4236213269532270E-002  -4.9029583177265940E-003   4.4771024428341424E-002
   5.2223067316641253E-002  -6.4653359068005054E-003   4.2798383588695678E-002
   5.0209921363750243E-002  -7.4678945947101779E-003   4.1314056237009275E-002
   4.8196775410859205E-002  -7.9106343814552560E-003   4.0318042373282043E-002
   4.9740422957504374E-002  -2.4387452007719468E-004   4.9864579235012294E-002
   4.8150946300128381E-002  -2.4671013906103559E-003   4.8258763576208688E-002
   4.6561469642752394E-002  -4.1644878577349158E-003   4.7011973020475765E-002
   4.4971992985376415E-002  -5.3360339214508111E-003   4.6124207567813678E-002
   4.3382516328000414E-002  -5.9817395817577251E-003   4.5595467218222614E-002
   4.3608439901544255E-002   2.2930127873339035E-003   5.2413138582661223E-002
   4.2313344154794943E-002  -3.1244463494478625E-005   5.1628483094903005E-002
   4.1018248408045604E-002  -1.8636398086695760E-003   5.1073564325327447E-002
   3.9723152661296265E-002  -3.2041732481915344E-003   5.0748382273934162E-002
   3.8428056914546926E-002  -4.0528447820601943E-003   5.0652936940723536E-002
   5.7404692584793027E-002  -1.1768423980850262E-002   2.9103327316081895E-002
   5.4852556025805160E-002  -1.1490749621529045E-002   2.8597785297112766E-002
   5.2300419466817294E-002  -1.1211886360997764E-002   2.8245572960474447E-002
   4.9748282907829428E-002  -1.0931834199256606E-002   2.8046690306166550E-002
   4.7196146348841506E-002  -1.0650593136305175E-002   2.8001137334189241E-002
   5.2870834163123465E-002  -9.8395291811527175E-003   3.4820662405901814E-002
   5.0484958900507790E-002  -9.7619749131030997E-003   3.4208875602757705E-002
   4.8099083637892129E-002  -9.6435616815076508E-003   3.3776281710027514E-002
   4.5713208375276461E-002  -9.4842894863665234E-003   3.3522880727711042E-002
   4.3327333112660821E-002  -9.2841583276792594E-003   3.3448672655808587E-002
   4.8196775410859205E-002  -7.9106343814552560E-003   4.0318042373282043E-002
   4.6003024672699046E-002  -8.0332002046774459E-003   3.9639680848298678E-002
   4.3809273934538873E-002  -8.0752370020178293E-003   3.9166375461812536E-002
   4.1615523196378713E-002  -8.0367447734766111E-003   3.8898126213823513E-002
   3.9421772458218540E-002  -7.9177235190535933E-003   3.8834933104331573E-002
   4.3382516328000414E-002  -5.9817395817577251E-003   4.5595467218222614E-002
   4.1406753342378963E-002  -6.3044254962515908E-003   4.4890201033735991E-002
   3.9430990356757595E-002  -6.5069123225279177E-003   4.4415854215829637E-002
   3.7455227371136150E-002  -6.5892000605866138E-003   4.4172426764504065E-002
   3.5479464385514775E-002  -6.5512887104278578E-003   4.4159918679758228E-002
   3.8428056914546926E-002  -4.0528447820601943E-003   5.0652936940723536E-002
   3.6696144909547562E-002  -4.5756507878257080E-003   4.9960436159069421E-002
   3.4964232904548170E-002  -4.9385876430378534E-003   4.9524717972078830E-002
   3.3232320899548778E-002  -5.1416553476967726E-003   4.9345782379751998E-002
   3.1500408894549414E-002  -5.1848539018020112E-003   4.9423629382088774E-002
   4.7196146348841506E-002  -1.0650593136305175E-002   2.8001137334189241E-002
   4.4815080179929828E-002  -1.0383706535352422E-002   2.7865609367834054E-002
   4.2434014011018123E-002  -1.0146717759607002E-002   2.7858456269514692E-002
   4.0052947842106418E-002  -9.9396268090685518E-003   2.7979678039232028E-002
   3.7671881673194685E-002  -9.7624336837370818E-003   2.8229274676985106E-002
   4.3327333112660821E-002  -9.2841583276792594E-003   3.3448672655808587E-002
   4.1084482459542188E-002  -9.0774931666520731E-003   3.3257393526912232E-002
   3.8841631806423638E-002  -8.8986189644903457E-003   3.3214170561566170E-002
   3.6598781153305032E-002  -8.7475357211942301E-003   3.3319003759769969E-002
   3.4355930500186455E-002  -8.6242434367634901E-003   3.3571893121523810E-002
   3.9421772458218540E-002  -7.9177235190535933E-003   3.8834933104331573E-002
   3.7336818616406885E-002  -7.7712797979518633E-003   3.8590009679236065E-002
   3.5251864774595340E-002  -7.6505201693740296E-003   3.8512823713204324E-002
   3.3166910932783740E-002  -7.5554446333200211E-003   3.8603375206236593E-002
   3.1081957090972140E-002  -7.4860531897901761E-003   3.8861664158332754E-002
   3.5479464385514775E-002  -6.5512887104278578E-003   4.4159918679758228E-002
   3.3572088650523975E-002  -6.4650664292515286E-003   4.3863457824804886E-002
   3.1664712915533272E-002  -6.4024213742574880E-003   4.3754415724429535E-002
   2.9757337180542534E-002  -6.3633535454460334E-003   4.3832792378631642E-002
   2.7849961445551762E-002  -6.3478629428167788E-003   4.4098587787411908E-002
   3.1500408894549414E-002  -5.1848539018020112E-003   4.9423629382088774E-002
   2.9790292561893417E-002  -5.1588530605511940E-003   4.9077737963619417E-002
   2.8080176229237391E-002  -5.1543225791411407E-003   4.8938946595241506E-002
   2.6370059896581394E-002  -5.1712624575716779E-003   4.9007255276955347E-002
   2.4659943563925341E-002  -5.2096726958433814E-003   4.9282664008760801E-002
   3.7671881673194685E-002  -9.7624336837370818E-003   2.8229274676985106E-002
   3.5294574114477506E-002  -9.5377340406750943E-003   2.7184937539059484E-002
   3.2917266555760383E-002  -9.1881235369450920E-003   2.6308424494840832E-002
   3.0539958997043176E-002  -8.7136021725471857E-003   2.5599735544329177E-002
   2.8162651438326025E-002  -8.1141699474812645E-003   2.5058870687523993E-002
   3.4355930500186455E-002  -8.6242434367634901E-003   3.3571893121523810E-002
   3.2145918295525128E-002  -8.4513241191684907E-003   3.2694982950672524E-002
   2.9935906090863731E-002  -8.1513597763790968E-003   3.1984839394225889E-002
   2.7725893886202370E-002  -7.7243504083949061E-003   3.1441462452183835E-002
   2.5515881681540981E-002  -7.1702960152167927E-003   3.1064852124546349E-002
   3.1081957090972140E-002  -7.4860531897901761E-003   3.8861664158332754E-002
   2.9038182761064429E-002  -7.3649141976618593E-003   3.8154315119081794E-002
   2.6994408431156691E-002  -7.1145960158127686E-003   3.7612675214933375E-002
   2.4950634101248960E-002  -6.7350986442429595E-003   3.7236744445887593E-002
   2.2906859771341243E-002  -6.2264220829522654E-003   3.7026522811944268E-002
   2.7849961445551762E-002  -6.3478629428167788E-003   4.4098587787411908E-002
   2.5971367511095543E-002  -6.2785042761553528E-003   4.3562934044287502E-002
   2.4092773576639272E-002  -6.0778322552464403E-003   4.3191931956963824E-002
   2.2214179642183036E-002  -5.7458468800908463E-003   4.2985581525440499E-002
   2.0335585707726776E-002  -5.2825481506877103E-003   4.2943882749717256E-002
   2.4659943563925341E-002  -5.2096726958433814E-003   4.9282664008760801E-002
   2.2945472545618434E-002  -5.1920943546486242E-003   4.8920839726289689E-002
   2.1231001527311485E-002  -5.0410684946803619E-003   4.8722609620316992E-002
   1.9516530509004544E-002  -4.7565951159386569E-003   4.8687973690842518E-002
   1.7802059490697575E-002  -4.3386742184233773E-003   4.8816931937866070E-002
   2.8162651438326025E-002  -8.1141699474812645E-003   2.5058870687523993E-002
   2.5787169144815381E-002  -7.4177470607373897E-003   2.4587634777193723E-002
   2.3411686851304792E-002  -6.6522537113062608E-003   2.4031601114626933E-002
   2.1036204557794147E-002  -5.8176898991881207E-003   2.3390769699823594E-002
   1.8660722264283558E-002  -4.9140556243826294E-003   2.2665140532783234E-002
   2.5515881681540981E-002  -7.1702960152167927E-003   3.1064852124546349E-002
   2.3098728407256741E-002  -6.5364319563580575E-003   3.0725313216690753E-002
   2.0681575132972488E-002  -5.8699935913342494E-003   3.0387230099524154E-002
   1.8264421858688193E-002  -5.1709809201437931E-003   3.0050602773047025E-002
   1.5847268584403940E-002  -4.4393939427884721E-003   2.9715431237259171E-002
   2.2906859771341243E-002  -6.2264220829522654E-003   3.7026522811944268E-002
   2.0534289059209121E-002  -5.6551168519791140E-003   3.6782184750041774E-002
   1.8161718347076972E-002  -5.0877334713616967E-003   3.6625556021754060E-002
   1.5789147634944878E-002  -4.5242719411001352E-003   3.6556636627081592E-002
   1.3416576922812687E-002  -3.9647322611943703E-003   3.6575426566023916E-002
   2.0335585707726776E-002  -5.2825481506877103E-003   4.2943882749717256E-002
   1.8093851100672520E-002  -4.7738017475998651E-003   4.2758249377246448E-002
   1.5852116493618319E-002  -4.3054733513894147E-003   4.2746578881316305E-002
   1.3610381886564129E-002  -3.8775629620561424E-003   4.2908871261926926E-002
   1.1368647279509862E-002  -3.4900705796000742E-003   4.3245126519078303E-002
   1.7802059490697575E-002  -4.3386742184233773E-003   4.8816931937866070E-002
   1.5777414531647022E-002  -3.8924866432208383E-003   4.8653507098305293E-002
   1.3752769572596468E-002  -3.5232132314170217E-003   4.8750298678211013E-002
   1.1728124613545915E-002  -3.2308539830121774E-003   4.9107306677583451E-002
   9.7034796544953617E-003  -3.0154088980061111E-003   4.9724531096422164E-002
   1.8660722264283558E-002  -4.9140556243826294E-003   2.2665140532783234E-002
   1.5642352051289443E-002  -4.1689589772571090E-003   2.3605231356550238E-002
   1.2623981838295356E-002  -3.8100080481793253E-003   2.4989642456996308E-002
   9.6056116253012136E-003  -3.8372028371489453E-003   2.6818373834121528E-002
   6.5872414123071543E-003  -4.2505433441656360E-003   2.9091425487925870E-002
   1.5847268584403940E-002  -4.4393939427884721E-003   2.9715431237259171E-002
   1.3257780120839974E-002  -3.9124359939540776E-003   3.0608856511437854E-002
   1.0668291657275938E-002  -3.8273104083270670E-003   3.1915725007797102E-002
   8.0788031937119378E-003  -4.1840171859076625E-003   3.3636036726337748E-002
   5.4893147301479372E-003  -4.9825563266958639E-003   3.5769791667059403E-002
   1.3416576922812687E-002  -3.9647322611943703E-003   3.6575426566023916E-002
   1.1225093154180688E-002  -3.6559130106503801E-003   3.7366499645454021E-002
   9.0336093855486813E-003  -3.8446127684744758E-003   3.8540138892567077E-002
   6.8421256169166889E-003  -4.5308315346667127E-003   4.0096344307362836E-002
   4.6506418482846756E-003  -5.7145693092267025E-003   4.2035115889841795E-002
   1.1368647279509862E-002  -3.4900705796000742E-003   4.3245126519078303E-002
   9.5442911513117928E-003  -3.3993900273469602E-003   4.3878160758599405E-002
   7.7199350231136089E-003  -3.8619151286218290E-003   4.4862884111305651E-002
   5.8955788949154389E-003  -4.8776458834254854E-003   4.6199296577196285E-002
   4.0712227667173556E-003  -6.4465822917574578E-003   4.7887398156271958E-002
   9.7034796544953617E-003  -3.0154088980061111E-003   4.9724531096422164E-002
   8.2153741122329982E-003  -3.1428670440437068E-003   5.0143839850874117E-002
   6.7272685699706902E-003  -3.8792174887696540E-003   5.0883960664012795E-002
   5.2391630277083406E-003  -5.2244602321847092E-003   5.1944893535838116E-002
   3.7510574854460188E-003  -7.1785952742878800E-003   5.3326638466350329E-002
   6.5872414123071543E-003  -4.2505433441656360E-003   2.9091425487925870E-002
   6.0668200385770032E-003  -6.2403758204639947E-003   3.3688000714770516E-002
   5.5463986648467967E-003  -1.0997046517278702E-002   3.8959887731325693E-002
   5.0259772911165485E-003  -1.8520555434608642E-002   4.4907086537591651E-002
   4.5055559173864390E-003  -2.8810902572454555E-002   5.1529597133567417E-002
   5.4893147301479372E-003  -4.9825563266958639E-003   3.5769791667059403E-002
   5.5412932705384277E-003  -7.1220768943602852E-003   3.8019224463080481E-002
   5.5932718109289598E-003  -1.1501727952568597E-002   4.0738145297632478E-002
   5.6452503513194849E-003  -1.8121509501320729E-002   4.3926554170714865E-002
   5.6972288917099823E-003  -2.6981421540616557E-002   4.7584451082328449E-002
   4.6506418482846756E-003  -5.7145693092267025E-003   4.2035115889841795E-002
   5.0691965516160981E-003  -8.0037779682568533E-003   4.2464113985010987E-002
   5.4877512549475205E-003  -1.2006409387858949E-002   4.3156776367530861E-002
   5.9063059582789047E-003  -1.7722463568032875E-002   4.4113103037402186E-002
   6.3248606616104208E-003  -2.5151940508778781E-002   4.5333093994624263E-002
   4.0712227667173556E-003  -6.4465822917574578E-003   4.7887398156271958E-002
   4.6505298818099519E-003  -8.8854790421537266E-003   4.7022669280561133E-002
   5.2298369969025708E-003  -1.2511090823149405E-002   4.6215780941021800E-002
   5.8091441119951870E-003  -1.7323417634745104E-002   4.5466733137653044E-002
   6.3884512270877825E-003  -2.3322459476940893E-002   4.4775525870456995E-002
   3.7510574854460188E-003  -7.1785952742878800E-003   5.3326638466350329E-002
   4.2852932611200378E-003  -9.7671801160498228E-003   5.1694890349732070E-002
   4.8195290367940569E-003  -1.3015772258439279E-002   4.9915159018104671E-002
   5.3537648124680898E-003  -1.6924371701457129E-002   4.7987444471469382E-002
   5.8880005881420949E-003  -2.1492978445103006E-002   4.5911746709825341E-002
   3.9221144533830077E-002   8.5079562789084906E-003   3.1680446037367027E-002
   4.0317968375758600E-002   7.7165596540856862E-003   3.8108120987509764E-002
   4.1414792217687152E-002   6.4169368638824914E-003   4.3706128061773181E-002
   4.2511616059615717E-002   4.6090879082984447E-003   4.8474467260156848E-002
   4.3608439901544255E-002   2.2930127873339035E-003   5.2413138582661223E-002
   3.6097705507221828E-002   8.7270350791526230E-003   3.5431829646035196E-002
   3.6509479770762437E-002   7.5127800380426213E-003   4.0618158130934223E-002
   3.6921254034303005E-002   6.0292379514241129E-003   4.5264055334936604E-002
   3.7333028297843553E-002   4.2764088192970111E-003   4.9369521258042628E-002
   3.7744802561384128E-002   2.2542926416612430E-003   5.2934555900252228E-002
   3.1977058323322927E-002   8.9461138793967554E-003   3.8640885278480183E-002
   3.1993019603458510E-002   7.3090004219995564E-003   4.2824806418007275E-002
   3.2008980883594121E-002   5.6415390389658801E-003   4.6757532871621106E-002
   3.2024942163729732E-002   3.9437297302954682E-003   5.0439064639321254E-002
   3.2040903443865329E-002   2.2155724959886103E-003   5.3869401721107990E-002
   2.6859202982133221E-002   9.1651926796408739E-003   4.1307612934702004E-002
   2.6768587873846915E-002   7.1052208059565886E-003   4.4728065848729417E-002
   2.6677972765560550E-002   5.2538401265076300E-003   4.8186560671826195E-002
   2.6587357657274199E-002   3.6110506412940632E-003   5.1683097403992621E-002
   2.6496742548987883E-002   2.1768523503159914E-003   5.5217676045228585E-002
   2.0744139483652807E-002   9.3842714798850202E-003   4.3432012614700644E-002
   2.0836184581927542E-002   6.9014411899134265E-003   4.6327936423100124E-002
   2.0928229680202262E-002   4.8661412140493243E-003   4.9551138735552169E-002
   2.1020274778477017E-002   3.2783715522925333E-003   5.3101619552056750E-002
   2.1112319876751745E-002   2.1381322046433171E-003   5.6979378872614117E-002
   4.3608439901544255E-002   2.2930127873339035E-003   5.2413138582661223E-002
   4.2313344154794943E-002  -3.1244463494478625E-005   5.1628483094903005E-002
   4.1018248408045604E-002  -1.8636398086695760E-003   5.1073564325327447E-002
   3.9723152661296265E-002  -3.2041732481915344E-003   5.0748382273934162E-002
   3.8428056914546926E-002  -4.0528447820601943E-003   5.0652936940723536E-002
   3.7744802561384128E-002   2.2542926416612430E-003   5.2934555900252228E-002
   3.6666021427562978E-002   2.9641041478054020E-004   5.2741024956216964E-002
   3.5587240293741829E-002  -1.2637168650816363E-003   5.2750386519855405E-002
   3.4508459159920672E-002  -2.4260891979251253E-003   5.2962640591167919E-002
   3.3429678026099544E-002  -3.1907065837500914E-003   5.3377787170154262E-002
   3.2040903443865329E-002   2.2155724959886103E-003   5.3869401721107990E-002
   3.1151592712463708E-002   6.2406529305540637E-004   5.4172888362161088E-002
   3.0262281981062053E-002  -6.6379392149380767E-004   5.4652423300379269E-002
   2.9372971249660425E-002  -1.6480051476588826E-003   5.5308006535762740E-002
   2.8483660518258777E-002  -2.3285683854400163E-003   5.6139638068311279E-002
   2.6496742548987883E-002   2.1768523503159914E-003   5.5217676045228585E-002
   2.5770058009497113E-002   9.5172017133037662E-004   5.5924073312735426E-002
   2.5043373470006340E-002  -6.3870977905867987E-005   5.6779674666898719E-002
   2.4316688930515550E-002  -8.6992109739264002E-004   5.7784480107718653E-002
   2.3590004391024794E-002  -1.4664301871298996E-003   5.8938489635194921E-002
   2.1112319876751745E-002   2.1381322046433171E-003   5.6979378872614117E-002
   2.0521417318663165E-002   1.2793750496052914E-003   5.7994579807940039E-002
   1.9930514760574600E-002   5.3605196568191904E-004   5.9132140619413881E-002
   1.9339612202486034E-002  -9.1837047126380050E-005   6.0392061307035547E-002
   1.8748709644397482E-002  -6.0429198881978285E-004   6.1774341870805272E-002
   3.8428056914546926E-002  -4.0528447820601943E-003   5.0652936940723536E-002
   3.6696144909547562E-002  -4.5756507878257080E-003   4.9960436159069421E-002
   3.4964232904548170E-002  -4.9385876430378534E-003   4.9524717972078830E-002
   3.3232320899548778E-002  -5.1416553476967726E-003   4.9345782379751998E-002
   3.1500408894549414E-002  -5.1848539018020112E-003   4.9423629382088774E-002
   3.3429678026099544E-002  -3.1907065837500914E-003   5.3377787170154262E-002
   3.1949466336658572E-002  -3.6857471918104456E-003   5.2883199369533479E-002
   3.0469254647217607E-002  -4.0393891913597380E-003   5.2635229605366166E-002
   2.8989042957776653E-002  -4.2516325823985027E-003   5.2633877877651981E-002
   2.7508831268335684E-002  -4.3224773649259696E-003   5.2879144186391058E-002
   2.8483660518258777E-002  -2.3285683854400163E-003   5.6139638068311279E-002
   2.7244984586165796E-002  -2.7958435957949751E-003   5.5824492706681716E-002
   2.6006308654072788E-002  -3.1401907396815601E-003   5.5745800823294882E-002
   2.4767632721979786E-002  -3.3616098170998424E-003   5.5903562418150712E-002
   2.3528956789886799E-002  -3.4601008280498169E-003   5.6297777491249257E-002
   2.3590004391024794E-002  -1.4664301871298996E-003   5.8938489635194921E-002
   2.2582699658069267E-002  -1.9059399997794976E-003   5.8784316170513877E-002
   2.1575394925113706E-002  -2.2409922880033024E-003   5.8856431625865256E-002
   2.0568090192158172E-002  -2.4715870518014884E-003   5.9154836001248420E-002
   1.9560785459202621E-002  -2.5977242911736642E-003   5.9679529296664167E-002
   1.8748709644397482E-002  -6.0429198881978285E-004   6.1774341870805272E-002
   1.7962611552368918E-002  -1.0160364037642144E-003   6.1762669761030176E-002
   1.7176513460340367E-002  -1.3417938363252530E-003   6.1967122013076859E-002
   1.6390415368311831E-002  -1.5815642865029088E-003   6.2387698626945362E-002
   1.5604317276283267E-002  -1.7353477542975115E-003   6.3024399602635617E-002
   3.1500408894549414E-002  -5.1848539018020112E-003   4.9423629382088774E-002
   2.9790292561893417E-002  -5.1588530605511940E-003   4.9077737963619417E-002
   2.8080176229237391E-002  -5.1543225791411407E-003   4.8938946595241506E-002
   2.6370059896581394E-002  -5.1712624575716779E-003   4.9007255276955347E-002
   2.4659943563925341E-002  -5.2096726958433814E-003   4.9282664008760801E-002
   2.7508831268335684E-002  -4.3224773649259696E-003   5.2879144186391058E-002
   2.6006781051687911E-002  -4.3296562737507316E-003   5.2528153371129843E-002
   2.4504730835040144E-002  -4.3509020436802714E-003   5.2386194737793629E-002
   2.3002680618392366E-002  -4.3862146747147834E-003   5.2453268286382193E-002
   2.1500630401744603E-002  -4.4355941668540178E-003   5.2729374016895370E-002
   2.3528956789886799E-002  -3.4601008280498169E-003   5.6297777491249257E-002
   2.2236904821080372E-002  -3.5004594869500472E-003   5.5949090777932670E-002
   2.0944852852273953E-002  -3.5474815082194161E-003   5.5811368378374041E-002
   1.9652800883467537E-002  -3.6011668918576149E-003   5.5884610292573210E-002
   1.8360748914661114E-002  -3.6615156378647096E-003   5.6168816520530546E-002
   1.9560785459202621E-002  -2.5977242911736642E-003   5.9679529296664167E-002
   1.8480663870070718E-002  -2.6712627001495848E-003   5.9340550184027910E-002
   1.7400542280938777E-002  -2.7440609727583318E-003   5.9214467516982658E-002
   1.6320420691806847E-002  -2.8161191090003614E-003   5.9301281295528578E-002
   1.5240299102674932E-002  -2.8874371088753736E-003   5.9600991519665268E-002
   1.5604317276283267E-002  -1.7353477542975115E-003   6.3024399602635617E-002
   1.4738058198658963E-002  -1.8420659133489559E-003   6.2702531589415522E-002
   1.3871799121034652E-002  -1.9406404372974695E-003   6.2595492153619703E-002
   1.3005540043410344E-002  -2.0310713261433855E-003   6.2703281295247965E-002
   1.2139280965786009E-002  -2.1133585798860377E-003   6.3025899014300557E-002
   2.4659943563925341E-002  -5.2096726958433814E-003   4.9282664008760801E-002
   2.2945472545618434E-002  -5.1920943546486242E-003   4.8920839726289689E-002
   2.1231001527311485E-002  -5.0410684946803619E-003   4.8722609620316992E-002
   1.9516530509004544E-002  -4.7565951159386569E-003   4.8687973690842518E-002
   1.7802059490697575E-002  -4.3386742184233773E-003   4.8816931937866070E-002
   2.1500630401744603E-002  -4.4355941668540178E-003   5.2729374016895370E-002
   1.9958411878098090E-002  -4.4341174426922314E-003   5.2520253133924222E-002
   1.8416193354451563E-002  -4.3168614248232373E-003   5.2492043063775612E-002
   1.6873974830805022E-002  -4.0838261132475906E-003   5.2644743806449706E-002
   1.5331756307158523E-002  -3.7350115079646251E-003   5.2978355361946394E-002
   1.8360748914661114E-002  -3.6615156378647096E-003   5.6168816520530546E-002
   1.7008099521999380E-002  -3.6761405307359496E-003   5.6094730811992538E-002
   1.5655450129337691E-002  -3.5926543549666540E-003   5.6218872552601648E-002
   1.4302800736675990E-002  -3.4110571105566319E-003   5.6541241742357799E-002
   1.2950151344014268E-002  -3.1313487975058174E-003   5.7061838381260832E-002
   1.5240299102674932E-002  -2.8874371088753736E-003   5.9600991519665268E-002
   1.4094535477322421E-002  -2.9181636187797233E-003   5.9644272760494527E-002
   1.2948771851969937E-002  -2.8684472851098555E-003   5.9903098086794962E-002
   1.1803008226617430E-002  -2.7382881078656749E-003   6.0377467498567004E-002
   1.0657244601264947E-002  -2.5276860870470930E-003   6.1067380995810328E-002
   1.2139280965786009E-002  -2.1133585798860377E-003   6.3025899014300557E-002
   1.1217719744067128E-002  -2.1601867068232750E-003   6.3168878979430243E-002
   1.0296158522348234E-002  -2.1442402152530293E-003   6.3544719666355720E-002
   9.3745973006293531E-003  -2.0655191051746832E-003   6.4153421075077044E-002
   8.4530360789104586E-003  -1.9240233765882575E-003   6.4994983205594048E-002
   1.7802059490697575E-002  -4.3386742184233773E-003   4.8816931937866070E-002
   1.5777414531647022E-002  -3.8924866432208383E-003   4.8653507098305293E-002
   1.3752769572596468E-002  -3.5232132314170217E-003   4.8750298678211013E-002
   1.1728124613545915E-002  -3.2308539830121774E-003   4.9107306677583451E-002
   9.7034796544953617E-003  -3.0154088980061111E-003   4.9724531096422164E-002
   1.5331756307158523E-002  -3.7350115079646251E-003   5.2978355361946394E-002
   1.3567198660954974E-002  -3.3678890396354744E-003   5.2825460770653809E-002
   1.1802641014751397E-002  -3.0799301389219103E-003   5.2932524385588764E-002
   1.0038083368547834E-002  -2.8711348058232042E-003   5.3299546206751203E-002
   8.2735257223442715E-003  -2.7415030403398211E-003   5.3926526234141015E-002
   1.2950151344014268E-002  -3.1313487975058174E-003   5.7061838381260832E-002
   1.1445422797418621E-002  -2.8432914360505546E-003   5.6917224634020464E-002
   9.9406942508229665E-003  -2.6366470464266878E-003   5.7032310879768400E-002
   8.4359657042273051E-003  -2.5114156286345640E-003   5.7407097118504571E-002
   6.9312371576316645E-003  -2.4675971826735310E-003   5.8041583350229214E-002
   1.0657244601264947E-002  -2.5276860870470930E-003   6.1067380995810328E-002
   9.4120869410381034E-003  -2.3186938324656348E-003   6.0928798688405374E-002
   8.1669292808112352E-003  -2.1933639539315208E-003   6.1049658160749934E-002
   6.9217716205843757E-003  -2.1516964514457573E-003   6.1429959412843703E-002
   5.6766139603575197E-003  -2.1936913250072965E-003   6.2069702444686521E-002
   8.4530360789104586E-003  -1.9240233765882575E-003   6.4994983205594048E-002
   7.4671910918132911E-003  -1.7940962288802709E-003   6.4860182933808463E-002
   6.4813461047161652E-003  -1.7500808614363816E-003   6.4984566228533269E-002
   5.4955011176190185E-003  -1.7919772742569021E-003   6.5368133089767966E-002
   4.5096561305218719E-003  -1.9197854673410619E-003   6.6010883517513164E-002
   9.7034796544953617E-003  -3.0154088980061111E-003   4.9724531096422164E-002
   8.2153741122329982E-003  -3.1428670440437068E-003   5.0143839850874117E-002
   6.7272685699706902E-003  -3.8792174887696540E-003   5.0883960664012795E-002
   5.2391630277083406E-003  -5.2244602321847092E-003   5.1944893535838116E-002
   3.7510574854460188E-003  -7.1785952742878800E-003   5.3326638466350329E-002
   8.2735257223442715E-003  -2.7415030403398211E-003   5.3926526234141015E-002
   7.0824477416375209E-003  -2.9087650195271375E-003   5.3847957748692832E-002
   5.8913697609307147E-003  -3.5906509204408910E-003   5.4042632327669066E-002
   4.7002917802239502E-003  -4.7871607430806165E-003   5.4510549971069397E-002
   3.5092137995171580E-003  -6.4982944874469872E-003   5.5251710678894672E-002
   6.9312371576316645E-003  -2.4675971826735310E-003   5.8041583350229214E-002
   5.9896177442180787E-003  -2.6746629950104295E-003   5.7559406001843061E-002
   5.0479983308045345E-003  -3.3020843521115589E-003   5.7302902723618945E-002
   4.1063789173909522E-003  -4.3498612539766314E-003   5.7272073515556791E-002
   3.1647595039774046E-003  -5.8179937006060389E-003   5.7466918377656745E-002
   5.6766139603575197E-003  -2.1936913250072965E-003   6.2069702444686521E-002
   4.9368841199748173E-003  -2.4405609704937908E-003   6.1278184610324478E-002
   4.1971542795921045E-003  -3.0135177837824559E-003   6.0664771851862684E-002
   3.4574244392094030E-003  -3.9125617648727035E-003   6.0229464169300098E-002
   2.7176945988266893E-003  -5.1376929137651184E-003   5.9972261562637429E-002
   4.5096561305218719E-003  -1.9197854673410619E-003   6.6010883517513164E-002
   3.9242468689076604E-003  -2.2064589459770967E-003   6.5004293574137728E-002
   3.3388376072934489E-003  -2.7249512154534916E-003   6.4128239712399948E-002
   2.7534283456792513E-003  -3.4752622757684495E-003   6.3382721932299407E-002
   2.1680190840650537E-003  -4.4573921269239758E-003   6.2767740233836022E-002
   3.7510574854460188E-003  -7.1785952742878800E-003   5.3326638466350329E-002
   4.2852932611200378E-003  -9.7671801160498228E-003   5.1694890349732070E-002
   4.8195290367940569E-003  -1.3015772258439279E-002   4.9915159018104671E-002
   5.3537648124680898E-003  -1.6924371701457129E-002   4.7987444471469382E-002
   5.8880005881420949E-003  -2.1492978445103006E-002   4.5911746709825341E-002
   3.5092137995171580E-003  -6.4982944874469872E-003   5.5251710678894672E-002
   3.9136786013117403E-003  -8.7661930630922313E-003   5.2906107673064029E-002
   4.3181434031062949E-003  -1.1632997379568966E-002   5.0448945934483846E-002
   4.7226082049008494E-003  -1.5098707436876677E-002   4.7880225463152681E-002
   5.1270730066954040E-003  -1.9163323235016128E-002   4.5199946259070867E-002
   3.1647595039774046E-003  -5.8179937006060389E-003   5.7466918377656745E-002
   3.4758778141505131E-003  -7.7652060101348064E-003   5.4468562042411600E-002
   3.7869961243236078E-003  -1.0250222500698222E-002   5.1395071456673810E-002
   4.0981144344967337E-003  -1.3273043172296283E-002   4.8246446620443799E-002
   4.4092327446698387E-003  -1.6833668024929027E-002   4.5022687533721295E-002
   2.7176945988266893E-003  -5.1376929137651184E-003   5.9972261562637429E-002
   2.9718908996363286E-003  -6.7642189571774092E-003   5.6382253457773840E-002
   3.2260872004459505E-003  -8.8674476218272499E-003   5.2753535584675812E-002
   3.4802835012555456E-003  -1.1447378907715749E-002   4.9086107943342776E-002
   3.7344798020652117E-003  -1.4504012814841927E-002   4.5379970533776431E-002
   2.1680190840650537E-003  -4.4573921269239758E-003   6.2767740233836022E-002
   2.4017178577691867E-003  -5.7632319042197899E-003   5.8647181919150748E-002
   2.6354166314733474E-003  -7.4846727429569437E-003   5.4524338318488907E-002
   2.8691154051774803E-003  -9.6217146431351597E-003   5.0399209431850667E-002
   3.1028141788816410E-003  -1.2174357604755048E-002   4.6271795259235748E-002
   2.0744139483652807E-002   9.3842714798850202E-003   4.3432012614700644E-002
   2.0836184581927542E-002   6.9014411899134265E-003   4.6327936423100124E-002
   2.0928229680202262E-002   4.8661412140493243E-003   4.9551138735552169E-002
   2.1020274778477017E-002   3.2783715522925333E-003   5.3101619552056750E-002
   2.1112319876751745E-002   2.1381322046433171E-003   5.6979378872614117E-002
   1.4487380083080148E-002   7.0382036099127521E-003   4.0383381465155521E-002
   1.4819131240752126E-002   5.1760808924330437E-003   4.4297138206850217E-002
   1.5150882398424097E-002   3.6496059105342732E-003   4.8363028563286753E-002
   1.5482633556096071E-002   2.4587786642164856E-003   5.2581052534465184E-002
   1.5814384713768045E-002   1.6035991534795735E-003   5.6951210120385509E-002
   8.9444370356138794E-003   4.6921357399404839E-003   3.8011399177365679E-002
   9.3407493633723623E-003   3.4507205949526054E-003   4.2831106273829009E-002
   9.7370616911308799E-003   2.4330706070192221E-003   4.7627802095723523E-002
   1.0133374018889385E-002   1.6391857761403270E-003   5.2401486643049153E-002
   1.0529686346647887E-002   1.0690661023158299E-003   5.7152159915806119E-002
   4.1153103412539301E-003   2.3460678699682436E-003   3.6316065751330770E-002
   4.4010389497882701E-003   1.7253602974721671E-003   4.1929840624036291E-002
   4.6867675583225970E-003   1.2165353035042265E-003   4.7345459332862355E-002
   4.9724961668569257E-003   8.1959288806408501E-004   5.2562921877808866E-002
   5.2582247753912587E-003   5.3453305115205851E-004   5.7582228258875975E-002
   3.7470027081099033E-016  -4.0523140398818214E-015   3.5297381187050891E-002
  -1.8041124150158794E-016  -8.2711615334574162E-015   4.1593341257472272E-002
  -7.3552275381416621E-016  -1.0866307853518720E-014   4.7516000274703402E-002
  -1.2836953722228372E-015  -1.1917550279960665E-014   5.3065358238744212E-002
  -1.8422763314873691E-015  -1.1657341758564144E-014   5.8241415149594855E-002
   2.1112319876751745E-002   2.1381322046433171E-003   5.6979378872614117E-002
   2.0521417318663165E-002   1.2793750496052914E-003   5.7994579807940039E-002
   1.9930514760574600E-002   5.3605196568191904E-004   5.9132140619413881E-002
   1.9339612202486034E-002  -9.1837047126380050E-005   6.0392061307035547E-002
   1.8748709644397482E-002  -6.0429198881978285E-004   6.1774341870805272E-002
   1.5814384713768045E-002   1.6035991534795735E-003   5.6951210120385509E-002
   1.5352183472670936E-002   9.5953128720131786E-004   5.8086994104644171E-002
   1.4889982231573826E-002   4.0203897425916679E-004   5.9357820846737852E-002
   1.4427780990476712E-002  -6.8877785346532772E-005   6.0763690346666552E-002
   1.3965579749379613E-002  -4.5321899161615553E-004   6.2304602604430243E-002
   1.0529686346647887E-002   1.0690661023158299E-003   5.7152159915806119E-002
   1.0208869304229408E-002   6.3968752479731661E-004   5.8379668431218723E-002
   9.8880522618109215E-003   2.6802598283640761E-004   5.9754902586153631E-002
   9.5672352193924455E-003  -4.5918523566853761E-005   6.1277862380610795E-002
   9.2464181769739626E-003  -3.0214599441266698E-004   6.2948547814589986E-002
   5.2582247753912587E-003   5.3453305115205851E-004   5.7582228258875975E-002
   5.0914748133385757E-003   3.1984376239349577E-004   5.8872602787663902E-002
   4.9247248512858891E-003   1.3401299141373516E-004   6.0323385837661274E-002
   4.7579748892332034E-003  -2.2959261787146128E-005   6.1934577408868006E-002
   4.5912249271805265E-003  -1.5107299720916456E-004   6.3706177501284128E-002
  -1.8422763314873691E-015  -1.1657341758564144E-014   5.8241415149594855E-002
  -1.5577816814271728E-015  -1.0574874309554616E-014   5.9565797173979584E-002
  -1.2750217548429532E-015  -9.1038288019262836E-015   6.1063270601260738E-002
  -9.8965974304476845E-016  -7.4662498406041777E-015   6.2733835431438512E-002
  -7.0776717819853729E-016  -5.5511151231257827E-015   6.4577491664512765E-002
   1.8748709644397482E-002  -6.0429198881978285E-004   6.1774341870805272E-002
   1.7962611552368918E-002  -1.0160364037642144E-003   6.1762669761030176E-002
   1.7176513460340367E-002  -1.3417938363252530E-003   6.1967122013076859E-002
   1.6390415368311831E-002  -1.5815642865029088E-003   6.2387698626945362E-002
   1.5604317276283267E-002  -1.7353477542975115E-003   6.3024399602635617E-002
   1.3965579749379613E-002  -4.5321899161615553E-004   6.2304602604430243E-002
   1.3390706059469182E-002  -7.6202730282415310E-004   6.2427237467149094E-002
   1.2815832369558747E-002  -1.0063453772447412E-003   6.2756196772282405E-002
   1.2240958679648308E-002  -1.1861732148781522E-003   6.3291480519830218E-002
   1.1666084989737868E-002  -1.3015108157240496E-003   6.4033088709792463E-002
   9.2464181769739626E-003  -3.0214599441266698E-004   6.2948547814589986E-002
   8.8729689697743669E-003  -5.0801820188410562E-004   6.3183992904206746E-002
   8.4995197625747712E-003  -6.7089691816418079E-004   6.3615962516830604E-002
   8.1260705553751755E-003  -7.9078214325311973E-004   6.4244456652461632E-002
   7.7526213481755833E-003  -8.6767387715064315E-004   6.5069475311099911E-002
   4.5912249271805265E-003  -1.5107299720916456E-004   6.3706177501284128E-002
   4.4094002832844974E-003  -2.5400910094407897E-004   6.4032936072202701E-002
   4.2275756393884726E-003  -3.3544845908367246E-004   6.4546419246721068E-002
   4.0457509954924462E-003  -3.9539107162800315E-004   6.5246627024839368E-002
   3.8639263515964266E-003  -4.3383693857720895E-004   6.6133559406557754E-002
  -7.0776717819853729E-016  -5.5511151231257827E-015   6.4577491664512765E-002
  -4.3368086899420177E-016  -4.0523140398818214E-015   6.4974066971137112E-002
  -1.5959455978986625E-016  -3.1641356201816961E-015   6.5547566961954185E-002
   1.1102230246251565E-016  -3.2890357104520263E-015   6.6297991636963843E-002
   3.8857805861880479E-016  -3.7747582837255322E-015   6.7225340996166172E-002
   1.5604317276283267E-002  -1.7353477542975115E-003   6.3024399602635617E-002
   1.4738058198658963E-002  -1.8420659133489559E-003   6.2702531589415522E-002
   1.3871799121034652E-002  -1.9406404372974695E-003   6.2595492153619703E-002
   1.3005540043410344E-002  -2.0310713261433855E-003   6.2703281295247965E-002
   1.2139280965786009E-002  -2.1133585798860377E-003   6.3025899014300557E-002
   1.1666084989737868E-002  -1.3015108157240496E-003   6.4033088709792463E-002
   1.1015088537533232E-002  -1.3815494350128965E-003   6.3743549070266137E-002
   1.0364092085328583E-002  -1.4554803279742123E-003   6.3669706104154983E-002
   9.7130956331239471E-003  -1.5233034946085106E-003   6.3811559811459098E-002
   9.0620991809192974E-003  -1.5850189349153609E-003   6.4169110192178413E-002
   7.7526213481755833E-003  -8.6767387715064315E-004   6.5069475311099911E-002
   7.3177556173815925E-003  -9.2103295667669838E-004   6.4810228136491677E-002
   6.8828898865876068E-003  -9.7032021865095519E-004   6.4767545731289622E-002
   6.4480241557936151E-003  -1.0155356630736911E-003   6.4941428095493747E-002
   6.0131584249996303E-003  -1.0566792899446842E-003   6.5331875229104136E-002
   3.8639263515964266E-003  -4.3383693857720895E-004   6.6133559406557754E-002
   3.6460594382040721E-003  -4.6051647834040310E-004   6.5902568788092170E-002
   3.4281925248117215E-003  -4.8516010932786457E-004   6.5889011035023620E-002
   3.2103256114193656E-003  -5.0776783153884397E-004   6.6092886147352245E-002
   2.9924586980270163E-003  -5.2833964497400743E-004   6.6514194125078002E-002
   3.8857805861880479E-016  -3.7747582837255322E-015   6.7225340996166172E-002
   6.4878658001532585E-016  -4.3298697960381105E-015   6.7020571025067532E-002
   9.1940344226770776E-016  -4.3853809472693683E-015   6.7034102015356867E-002
   1.1830814106161824E-015  -4.0939474033052647E-015   6.7265933967034286E-002
   1.4502288259166107E-015  -3.3306690738754696E-015   6.7716066880099901E-002
   1.2139280965786009E-002  -2.1133585798860377E-003   6.3025899014300557E-002
   1.1217719744067128E-002  -2.1601867068232750E-003   6.3168878979430243E-002
   1.0296158522348234E-002  -2.1442402152530293E-003   6.3544719666355720E-002
   9.3745973006293531E-003  -2.0655191051746832E-003   6.4153421075077044E-002
   8.4530360789104586E-003  -1.9240233765882575E-003   6.4994983205594048E-002
   9.0620991809192974E-003  -1.5850189349153609E-003   6.4169110192178413E-002
   8.3727810769046729E-003  -1.6201400301182889E-003   6.4394641373357764E-002
   7.6834629728900344E-003  -1.6081801614399316E-003   6.4851798068150002E-002
   6.9941448688754237E-003  -1.5491393288810662E-003   6.5540580276555044E-002
   6.3048267648607714E-003  -1.4430175324413597E-003   6.6460987998572862E-002
   6.0131584249996303E-003  -1.0566792899446842E-003   6.5331875229104136E-002
   5.5548482305061882E-003  -1.0800933534129697E-003   6.5624263971706509E-002
   5.0965380360127460E-003  -1.0721201076271808E-003   6.6147043019738519E-002
   4.6382278415192969E-003  -1.0327595525876747E-003   6.6900212373200207E-002
   4.1799176470258617E-003  -9.6201168829435080E-004   6.7883772032091533E-002
   2.9924586980270163E-003  -5.2833964497400743E-004   6.6514194125078002E-002
   2.7639212048716794E-003  -5.4004667670776163E-004   6.6857746774476284E-002
   2.5353837117163373E-003  -5.3606005381442307E-004   6.7430454521121161E-002
   2.3068462185610013E-003  -5.1637977629444796E-004   6.8232317365012465E-002
   2.0783087254056583E-003  -4.8100584414706438E-004   6.9263335306150337E-002
   1.4502288259166107E-015  -3.3306690738754696E-015   6.7716066880099901E-002
   1.1518563880485999E-015  -2.4424906541753444E-015   6.8095089781667006E-002
   8.3613671542082102E-016  -1.4432899320127035E-015   6.8702032572297678E-002
   5.3776427755281020E-016  -6.3837823915946501E-016   6.9536895251991943E-002
   2.2204460492503131E-016  -3.3306690738754696E-016   7.0599677820749607E-002
   8.4530360789104586E-003  -1.9240233765882575E-003   6.4994983205594048E-002
   7.4671910918132911E-003  -1.7940962288802709E-003   6.4860182933808463E-002
   6.4813461047161652E-003  -1.7500808614363816E-003   6.4984566228533269E-002
   5.4955011176190185E-003  -1.7919772742569021E-003   6.5368133089767966E-002
   4.5096561305218719E-003  -1.9197854673410619E-003   6.6010883517513164E-002
   6.3048267648607714E-003  -1.4430175324413597E-003   6.6460987998572862E-002
   5.5749847643398048E-003  -1.3455721716604252E-003   6.6271134535336951E-002
   4.8451427638188244E-003  -1.3125606460770711E-003   6.6334103478743356E-002
   4.1153007632978474E-003  -1.3439829556921232E-003   6.6649894828791884E-002
   3.3854587627768773E-003  -1.4398391005053801E-003   6.7218508585482561E-002
   4.1799176470258617E-003  -9.6201168829435080E-004   6.7883772032091533E-002
   3.6997174732130780E-003  -8.9704811444013544E-004   6.7660343322471478E-002
   3.2195172994002909E-003  -8.7504043071785775E-004   6.7683375859625292E-002
   2.7393171255875055E-003  -8.9598863712778490E-004   6.7952869643553626E-002
   2.2591169517747201E-003  -9.5989273366975381E-004   6.8468824674255940E-002
   2.0783087254056583E-003  -4.8100584414706438E-004   6.9263335306150337E-002
   1.8413892184331072E-003  -4.4852405721990118E-004   6.9027809295212100E-002
   1.6044697114605501E-003  -4.3752021535842928E-004   6.9032383371179812E-002
   1.3675502044879924E-003  -4.4799431856333734E-004   6.9277057534053610E-002
   1.1306306975154418E-003  -4.7994636683398872E-004   6.9761831783833717E-002
   2.2204460492503131E-016  -3.3306690738754696E-016   7.0599677820749607E-002
  -9.0205620750793969E-017   1.1102230246251565E-016   7.0373532453558596E-002
  -3.9551695252271202E-016   6.1062266354383610E-016   7.0381126013406070E-002
  -6.9909356081865326E-016   1.3183898417423734E-015   7.0622458500291974E-002
  -1.0130785099704553E-015   1.5543122344752192E-015   7.1097529914215918E-002
   4.5096561305218719E-003  -1.9197854673410619E-003   6.6010883517513164E-002
   3.9242468689076604E-003  -2.2064589459770967E-003   6.5004293574137728E-002
   3.3388376072934489E-003  -2.7249512154534916E-003   6.4128239712399948E-002
   2.7534283456792513E-003  -3.4752622757684495E-003   6.3382721932299407E-002
   2.1680190840650537E-003  -4.4573921269239758E-003   6.2767740233836022E-002
   3.3854587627768773E-003  -1.4398391005053801E-003   6.7218508585482561E-002
   2.9345396412415875E-003  -1.6548442094825311E-003   6.6010886815306979E-002
   2.4836205197063185E-003  -2.0437134115897371E-003   6.4941709243651863E-002
   2.0327013981710426E-003  -2.6064467068264499E-003   6.4010975870517420E-002
   1.5817822766357598E-003  -3.3430440951929263E-003   6.3218686695903470E-002
   2.2591169517747201E-003  -9.5989273366975381E-004   6.8468824674255940E-002
   1.9505960872015782E-003  -1.1032294729878822E-003   6.7118125774989962E-002
   1.6420752226284224E-003  -1.3624756077259687E-003   6.5913779191127661E-002
   1.3335543580552806E-003  -1.7376311378842248E-003   6.4855784922669274E-002
   1.0250334934821248E-003  -2.2286960634624320E-003   6.3944142969614426E-002
   1.1306306975154418E-003  -4.7994636683398872E-004   6.9761831783833717E-002
   9.7241620678761506E-004  -5.5161473649299742E-004   6.8326010453187008E-002
   8.1420171605979530E-004  -6.8123780386254024E-004   6.7044449554827218E-002
   6.5598722533197554E-004  -8.6881556894166830E-004   6.5917149088754207E-002
   4.9777273460414884E-004  -1.1143480317318821E-003   6.4944109054968169E-002
  -1.0130785099704553E-015   1.5543122344752192E-015   7.1097529914215918E-002
  -3.0531133177191805E-016   1.4432899320127035E-015   6.9634540849897952E-002
   4.0939474033052647E-016   1.5265566588595902E-015   6.8333720334750436E-002
   1.1154271950530870E-015   1.5959455978986625E-016   6.7195068368772898E-002
   1.8318679906315083E-015  -9.9920072216264089E-016   6.6218584951965753E-002
   2.1680190840650537E-003  -4.4573921269239758E-003   6.2767740233836022E-002
   2.4017178577691867E-003  -5.7632319042197899E-003   5.8647181919150748E-002
   2.6354166314733474E-003  -7.4846727429569437E-003   5.4524338318488907E-002
   2.8691154051774803E-003  -9.6217146431351597E-003   5.0399209431850667E-002
   3.1028141788816410E-003  -1.2174357604755048E-002   4.6271795259235748E-002
   1.5817822766357598E-003  -3.3430440951929263E-003   6.3218686695903470E-002
   1.7991609125009855E-003  -4.3224239281650090E-003   5.8749930624870494E-002
   2.0165395483662182E-003  -5.6135045572181519E-003   5.4250819564135688E-002
   2.2339181842314509E-003  -7.2162859823515363E-003   4.9721353513700106E-002
   2.4512968200966767E-003  -9.1307682035657312E-003   4.5161532473562582E-002
   1.0250334934821248E-003  -2.2286960634624320E-003   6.3944142969614426E-002
   1.1980222877835608E-003  -2.8816159521110052E-003   5.9231089407594056E-002
   1.3710110820849900E-003  -3.7423363714795821E-003   5.4459611152147286E-002
   1.5439998763864191E-003  -4.8108573215678019E-003   4.9629708203274864E-002
   1.7169886706878690E-003  -6.0871788023766360E-003   4.4741380560975208E-002
   4.9777273460414884E-004  -1.1143480317318821E-003   6.4944109054968169E-002
   5.9830198361692823E-004  -1.4408079760566128E-003   6.0090658267321351E-002
   6.9883123262969374E-004  -1.8711681857406792E-003   5.5150713082523367E-002
   7.9936048164246619E-004  -2.4054286607846781E-003   5.0124273500574010E-002
   8.9988973065526640E-004  -3.0435894011873188E-003   4.5011339521474292E-002
   1.8318679906315083E-015  -9.9920072216264089E-016   6.6218584951965753E-002
   1.0685896612017132E-015  -2.3314683517128287E-015   6.1328637204052794E-002
   3.0878077872387166E-016  -2.4147350785597155E-015   5.6324125355264043E-002
  -4.5796699765787707E-016  -7.1470607210244452E-016   5.1205049405599695E-002
  -1.2073675392798577E-015   1.7763568394002505E-015   4.5971409355058945E-002
   3.7470027081099033E-016  -4.0523140398818214E-015   3.5297381187050891E-002
  -1.8041124150158794E-016  -8.2711615334574162E-015   4.1593341257472272E-002
  -7.3552275381416621E-016  -1.0866307853518720E-014   4.7516000274703402E-002
  -1.2836953722228372E-015  -1.1917550279960665E-014   5.3065358238744212E-002
  -1.8422763314873691E-015  -1.1657341758564144E-014   5.8241415149594855E-002
  -4.1153103412536404E-003  -2.3460678699773752E-003   3.6316065751317461E-002
  -4.4010389497888755E-003  -1.7253602974882376E-003   4.1929840624025161E-002
  -4.6867675583240915E-003  -1.2165353035245019E-003   4.7345459332853723E-002
  -4.9724961668593101E-003  -8.1959288808612640E-004   5.2562921877803190E-002
  -5.2582247753945426E-003  -5.3453305117318051E-004   5.7582228258873519E-002
  -8.9444370356149428E-003  -4.6921357399507257E-003   3.8011399177340657E-002
  -9.3407493633736981E-003  -3.4507205949682318E-003   4.2831106273807845E-002
  -9.7370616911324499E-003  -2.4330706070380612E-003   4.7627802095706918E-002
  -1.0133374018891202E-002  -1.6391857761603092E-003   5.2401486643038162E-002
  -1.0529686346649955E-002  -1.0690661023348147E-003   5.7152159915801332E-002
  -1.4487380083083493E-002  -7.0382036099240625E-003   4.0383381465120813E-002
  -1.4819131240754662E-002  -5.1760808924482052E-003   4.4297138206820297E-002
  -1.5150882398425809E-002  -3.6496059105516586E-003   4.8363028563263209E-002
  -1.5482633556096945E-002  -2.4587786642343663E-003   5.2581052534449169E-002
  -1.5814384713768104E-002  -1.6035991534963101E-003   5.6951210120378237E-002
  -2.0744139483659337E-002  -9.3842714798973992E-003   4.3432012614657678E-002
  -2.0836184581931753E-002  -6.9014411899282480E-003   4.6327936423062877E-002
  -2.0928229680204146E-002  -4.8661412140652838E-003   4.9551138735522304E-002
  -2.1020274778476553E-002  -3.2783715523086523E-003   5.3101619552036100E-002
  -2.1112319876748963E-002  -2.1381322046579720E-003   5.6979378872604236E-002
  -1.8422763314873691E-015  -1.1657341758564144E-014   5.8241415149594855E-002
  -1.5577816814271728E-015  -1.0574874309554616E-014   5.9565797173979584E-002
  -1.2750217548429532E-015  -9.1038288019262836E-015   6.1063270601260738E-002
  -9.8965974304476845E-016  -7.4662498406041777E-015   6.2733835431438512E-002
  -7.0776717819853729E-016  -5.5511151231257827E-015   6.4577491664512765E-002
  -5.2582247753945426E-003  -5.3453305117318051E-004   5.7582228258873519E-002
  -5.0914748133413252E-003  -3.1984376241250834E-004   5.8872602787662570E-002
  -4.9247248512881234E-003  -1.3401299143014911E-004   6.0323385837660878E-002
  -4.7579748892349139E-003   2.2959261773099204E-005   6.1934577408868520E-002
  -4.5912249271817113E-003   1.5107299719774314E-004   6.3706177501285544E-002
  -1.0529686346649955E-002  -1.0690661023348147E-003   5.7152159915801332E-002
  -1.0208869304231077E-002  -6.3968752481437241E-004   5.8379668431215836E-002
  -9.8880522618122052E-003  -2.6802598285147194E-004   5.9754902586152361E-002
  -9.5672352193933406E-003   4.5918523553553636E-005   6.1277862380610976E-002
  -9.2464181769744622E-003   3.0214599440103740E-004   6.2948547814591471E-002
  -1.5814384713768104E-002  -1.6035991534963101E-003   5.6951210120378237E-002
  -1.5352183472670811E-002  -9.5953128721629893E-004   5.8086994104639252E-002
  -1.4889982231573536E-002  -4.0203897427271151E-004   5.9357820846734952E-002
  -1.4427780990476251E-002   6.8877785334230113E-005   6.0763690346665560E-002
  -1.3965579749378960E-002   4.5321899160435941E-004   6.2304602604430798E-002
  -2.1112319876748963E-002  -2.1381322046579720E-003   5.6979378872604236E-002
  -2.0521417318660515E-002  -1.2793750496181699E-003   5.7994579807932767E-002
  -1.9930514760572098E-002  -5.3605196569388169E-004   5.9132140619408885E-002
  -1.9339612202483668E-002   9.1837047114535358E-005   6.0392061307032466E-002
  -1.8748709644395234E-002   6.0429198880768142E-004   6.1774341870803551E-002
  -7.0776717819853729E-016  -5.5511151231257827E-015   6.4577491664512765E-002
  -4.3368086899420177E-016  -4.0523140398818214E-015   6.4974066971137112E-002
  -1.5959455978986625E-016  -3.1641356201816961E-015   6.5547566961954185E-002
   1.1102230246251565E-016  -3.2890357104520263E-015   6.6297991636963843E-002
   3.8857805861880479E-016  -3.7747582837255322E-015   6.7225340996166172E-002
  -4.5912249271817113E-003   1.5107299719774314E-004   6.3706177501285544E-002
  -4.4094002832851739E-003   2.5400910093487106E-004   6.4032936072203228E-002
  -4.2275756393886331E-003   3.3544845907597376E-004   6.4546419246720887E-002
  -4.0457509954920975E-003   3.9539107162076328E-004   6.5246627024838313E-002
  -3.8639263515955549E-003   4.3383693856940964E-004   6.6133559406555797E-002
  -9.2464181769744622E-003   3.0214599440103740E-004   6.2948547814591471E-002
  -8.8729689697744710E-003   5.0801820187393321E-004   6.3183992904207134E-002
  -8.4995197625744607E-003   6.7089691815500063E-004   6.3615962516829938E-002
  -8.1260705553744539E-003   7.9078214324459356E-004   6.4244456652459758E-002
  -7.7526213481744592E-003   8.6767387714237199E-004   6.5069475311096636E-002
  -1.3965579749378960E-002   4.5321899160435941E-004   6.2304602604430798E-002
  -1.3390706059468309E-002   7.6202730281281494E-004   6.2427237467149038E-002
  -1.2815832369557641E-002   1.0063453772340830E-003   6.2756196772281531E-002
  -1.2240958679646970E-002   1.1861732148684238E-003   6.3291480519828219E-002
  -1.1666084989736300E-002   1.3015108157153343E-003   6.4033088709789146E-002
  -1.8748709644395234E-002   6.0429198880768142E-004   6.1774341870803551E-002
  -1.7962611552366701E-002   1.0160364037519465E-003   6.1762669761028788E-002
  -1.7176513460338168E-002   1.3417938363131793E-003   6.1967122013075387E-002
  -1.6390415368309635E-002   1.5815642864923686E-003   6.2387698626943475E-002
  -1.5604317276281102E-002   1.7353477542884077E-003   6.3024399602633174E-002
   3.8857805861880479E-016  -3.7747582837255322E-015   6.7225340996166172E-002
   6.4878658001532585E-016  -4.3298697960381105E-015   6.7020571025067532E-002
   9.1940344226770776E-016  -4.3853809472693683E-015   6.7034102015356867E-002
   1.1830814106161824E-015  -4.0939474033052647E-015   6.7265933967034286E-002
   1.4502288259166107E-015  -3.3306690738754696E-015   6.7716066880099901E-002
  -3.8639263515955549E-003   4.3383693856940964E-004   6.6133559406555797E-002
  -3.6460594382027103E-003   4.6051647833220133E-004   6.5902568788090948E-002
  -3.4281925248098571E-003   4.8516010931946851E-004   6.5889011035023398E-002
  -3.2103256114170090E-003   5.0776783153162405E-004   6.6092886147352786E-002
  -2.9924586980241523E-003   5.2833964496790120E-004   6.6514194125079251E-002
  -7.7526213481744592E-003   8.6767387714237199E-004   6.5069475311096636E-002
  -7.3177556173800772E-003   9.2103295666873253E-004   6.4810228136489970E-002
  -6.8828898865856943E-003   9.7032021864365547E-004   6.4767545731289525E-002
  -6.4480241557913114E-003   1.0155356630672865E-003   6.4941428095495010E-002
  -6.0131584249969432E-003   1.0566792899393551E-003   6.5331875229106440E-002
  -1.1666084989736300E-002   1.3015108157153343E-003   6.4033088709789146E-002
  -1.1015088537531442E-002   1.3815494350052637E-003   6.3743549070264763E-002
  -1.0364092085326581E-002   1.4554803279677869E-003   6.3669706104155260E-002
  -9.7130956331217318E-003   1.5233034946029768E-003   6.3811559811460652E-002
  -9.0620991809168550E-003   1.5850189349105870E-003   6.4169110192181147E-002
  -1.5604317276281102E-002   1.7353477542884077E-003   6.3024399602633174E-002
  -1.4738058198656825E-002   1.8420659133417394E-003   6.2702531589414801E-002
  -1.3871799121032528E-002   1.9406404372917518E-003   6.2595492153620536E-002
  -1.3005540043408238E-002   2.0310713261387364E-003   6.2703281295250046E-002
  -1.2139280965783955E-002   2.1133585798820409E-003   6.3025899014303444E-002
   1.4502288259166107E-015  -3.3306690738754696E-015   6.7716066880099901E-002
   1.1518563880485999E-015  -2.4424906541753444E-015   6.8095089781667006E-002
   8.3613671542082102E-016  -1.4432899320127035E-015   6.8702032572297678E-002
   5.3776427755281020E-016  -6.3837823915946501E-016   6.9536895251991943E-002
   2.2204460492503131E-016  -3.3306690738754696E-016   7.0599677820749607E-002
  -2.9924586980241523E-003   5.2833964496790120E-004   6.6514194125079251E-002
  -2.7639212048694364E-003   5.4004667670354278E-004   6.6857746774477145E-002
  -2.5353837117147136E-003   5.3606005381132138E-004   6.7430454521121647E-002
  -2.3068462185599891E-003   5.1637977629259008E-004   6.8232317365012701E-002
  -2.0783087254052611E-003   4.8100584414656478E-004   6.9263335306150531E-002
  -6.0131584249969432E-003   1.0566792899393551E-003   6.5331875229106440E-002
  -5.5548482305040926E-003   1.0800933534088619E-003   6.5624263971708202E-002
  -5.0965380360112429E-003   1.0721201076241971E-003   6.6147043019739615E-002
  -4.6382278415183992E-003   1.0327595525857630E-003   6.6900212373200776E-002
  -4.1799176470255425E-003   9.6201168829340711E-004   6.7883772032091561E-002
  -9.0620991809168550E-003   1.5850189349105870E-003   6.4169110192181147E-002
  -8.3727810769028167E-003   1.6201400301141811E-003   6.4394641373359818E-002
  -7.6834629728887776E-003   1.6081801614370728E-003   6.4851798068151334E-002
  -6.9941448688747316E-003   1.5491393288790747E-003   6.5540580276555599E-002
  -6.3048267648607003E-003   1.4430175324401107E-003   6.6460987998572460E-002
  -1.2139280965783955E-002   2.1133585798820409E-003   6.3025899014303444E-002
  -1.1217719744065616E-002   2.1601867068201108E-003   6.3168878979432352E-002
  -1.0296158522347290E-002   2.1442402152497542E-003   6.3544719666356997E-002
  -9.3745973006289542E-003   2.0655191051724767E-003   6.4153421075077405E-002
  -8.4530360789106251E-003   1.9240233765870363E-003   6.4994983205593715E-002
   2.2204460492503131E-016  -3.3306690738754696E-016   7.0599677820749607E-002
  -9.0205620750793969E-017   1.1102230246251565E-016   7.0373532453558596E-002
  -3.9551695252271202E-016   6.1062266354383610E-016   7.0381126013406070E-002
  -6.9909356081865326E-016   1.3183898417423734E-015   7.0622458500291974E-002
  -1.0130785099704553E-015   1.5543122344752192E-015   7.1097529914215918E-002
  -2.0783087254052611E-003   4.8100584414656478E-004   6.9263335306150531E-002
  -1.8413892184332495E-003   4.4852405722017874E-004   6.9027809295211850E-002
  -1.6044697114612465E-003   4.3752021535964358E-004   6.9032383371179618E-002
  -1.3675502044892393E-003   4.4799431856511196E-004   6.9277057534053860E-002
  -1.1306306975172320E-003   4.7994636683634795E-004   6.9761831783834105E-002
  -4.1799176470255425E-003   9.6201168829340711E-004   6.7883772032091561E-002
  -3.6997174732131309E-003   8.9704811443996890E-004   6.7660343322471062E-002
  -3.2195172994006977E-003   8.7504043071826021E-004   6.7683375859625056E-002
  -2.7393171255882718E-003   8.9598863712869042E-004   6.7952869643553612E-002
  -2.2591169517758389E-003   9.5989273367091954E-004   6.8468824674256773E-002
  -6.3048267648607003E-003   1.4430175324401107E-003   6.6460987998572460E-002
  -5.5749847643397233E-003   1.3455721716596758E-003   6.6271134535336340E-002
  -4.8451427638187723E-003   1.3125606460773626E-003   6.6334103478742468E-002
  -4.1153007632977979E-003   1.3439829556924875E-003   6.6649894828791564E-002
  -3.3854587627768448E-003   1.4398391005056022E-003   6.7218508585482895E-002
  -8.4530360789106251E-003   1.9240233765870363E-003   6.4994983205593715E-002
  -7.4671910918130274E-003   1.7940962288797713E-003   6.4860182933807575E-002
  -6.4813461047154332E-003   1.7500808614359931E-003   6.4984566228531881E-002
  -5.4955011176178424E-003   1.7919772742565274E-003   6.5368133089767105E-002
  -4.5096561305202412E-003   1.9197854673402848E-003   6.6010883517512831E-002
  -1.0130785099704553E-015   1.5543122344752192E-015   7.1097529914215918E-002
  -3.0531133177191805E-016   1.4432899320127035E-015   6.9634540849897952E-002
   4.0939474033052647E-016   1.5265566588595902E-015   6.8333720334750436E-002
   1.1154271950530870E-015   1.5959455978986625E-016   6.7195068368772898E-002
   1.8318679906315083E-015  -9.9920072216264089E-016   6.6218584951965753E-002
  -1.1306306975172320E-003   4.7994636683634795E-004   6.9761831783834105E-002
  -9.7241620678809038E-004   5.5161473649517623E-004   6.8326010453186981E-002
  -8.1420171605894702E-004   6.8123780386455945E-004   6.7044449554826524E-002
  -6.5598722532979672E-004   8.6881556894258943E-004   6.5917149088752708E-002
  -4.9777273460066204E-004   1.1143480317307164E-003   6.4944109054965504E-002
  -2.2591169517758389E-003   9.5989273367091954E-004   6.8468824674256773E-002
  -1.9505960872016614E-003   1.1032294729890757E-003   6.7118125774990045E-002
  -1.6420752226274978E-003   1.3624756077272732E-003   6.5913779191126773E-002
  -1.3335543580533138E-003   1.7376311378852448E-003   6.4855784922666693E-002
  -1.0250334934791567E-003   2.2286960634629316E-003   6.3944142969610179E-002
  -3.3854587627768448E-003   1.4398391005056022E-003   6.7218508585482895E-002
  -2.9345396412410376E-003   1.6548442094827809E-003   6.6010886815307174E-002
  -2.4836205197052235E-003   2.0437134115902575E-003   6.4941709243651474E-002
  -2.0327013981694163E-003   2.6064467068275653E-003   6.4010975870515782E-002
  -1.5817822766336022E-003   3.3430440951952300E-003   6.3218686695900028E-002
  -4.5096561305202412E-003   1.9197854673402848E-003   6.6010883517512831E-002
  -3.9242468689062032E-003   2.2064589459765971E-003   6.5004293574138505E-002
  -3.3388376072921583E-003   2.7249512154529087E-003   6.4128239712400503E-002
  -2.7534283456781203E-003   3.4752622757702467E-003   6.3382721932299158E-002
  -2.1680190840640753E-003   4.4573921269270844E-003   6.2767740233834246E-002
   1.8318679906315083E-015  -9.9920072216264089E-016   6.6218584951965753E-002
   1.0685896612017132E-015  -2.3314683517128287E-015   6.1328637204052794E-002
   3.0878077872387166E-016  -2.4147350785597155E-015   5.6324125355264043E-002
  -4.5796699765787707E-016  -7.1470607210244452E-016   5.1205049405599695E-002
  -1.2073675392798577E-015   1.7763568394002505E-015   4.5971409355058945E-002
  -4.9777273460066204E-004   1.1143480317307164E-003   6.4944109054965504E-002
  -5.9830198361489340E-004   1.4408079760545589E-003   6.0090658267320352E-002
  -6.9883123262914383E-004   1.8711681857383755E-003   5.5150713082524006E-002
  -7.9936048164338039E-004   2.4054286607832973E-003   5.0124273500577077E-002
  -8.9988973065761174E-004   3.0435894011886511E-003   4.5011339521478400E-002
  -1.0250334934791567E-003   2.2286960634629316E-003   6.3944142969610179E-002
  -1.1980222877818938E-003   2.8816159521109497E-003   5.9231089407592113E-002
  -1.3710110820846300E-003   3.7423363714793739E-003   5.4459611152147716E-002
  -1.5439998763873940E-003   4.8108573215673613E-003   4.9629708203277341E-002
  -1.7169886706901033E-003   6.0871788023759699E-003   4.4741380560981425E-002
  -1.5817822766336022E-003   3.3430440951952300E-003   6.3218686695900028E-002
  -1.7991609124999061E-003   4.3224239281677013E-003   5.8749930624867726E-002
  -2.0165395483661749E-003   5.6135045572198242E-003   5.4250819564134897E-002
  -2.2339181842324718E-003   7.2162859823518433E-003   4.9721353513701175E-002
  -2.4512968200987618E-003   9.1307682035629556E-003   4.5161532473565441E-002
  -2.1680190840640753E-003   4.4573921269270844E-003   6.2767740233834246E-002
  -2.4017178577689161E-003   5.7632319042243418E-003   5.8647181919147973E-002
  -2.6354166314737672E-003   7.4846727429611071E-003   5.4524338318486243E-002
  -2.8691154051786408E-003   9.6217146431357564E-003   5.0399209431847947E-002
  -3.1028141788834590E-003   1.2174357604750163E-002   4.6271795259233528E-002
  -2.0744139483659337E-002  -9.3842714798973992E-003   4.3432012614657678E-002
  -2.0836184581931753E-002  -6.9014411899282480E-003   4.6327936423062877E-002
  -2.0928229680204146E-002  -4.8661412140652838E-003   4.9551138735522304E-002
  -2.1020274778476553E-002  -3.2783715523086523E-003   5.3101619552036100E-002
  -2.1112319876748963E-002  -2.1381322046579720E-003   5.6979378872604236E-002
  -2.6859202982142179E-002  -9.1651926796563199E-003   4.1307612934654792E-002
  -2.6768587873852095E-002  -7.1052208059743105E-003   4.4728065848691295E-002
  -2.6677972765562080E-002  -5.2538401265267154E-003   4.8186560671798356E-002
  -2.6587357657272010E-002  -3.6110506413131946E-003   5.1683097403975989E-002
  -2.6496742548981957E-002  -2.1768523503337689E-003   5.5217676045224207E-002
  -3.1977058323331767E-002  -8.9461138794151573E-003   3.8640885278428710E-002
  -3.1993019603462874E-002  -7.3090004220205673E-003   4.2824806417968514E-002
  -3.2008980883594128E-002  -5.6415390389881331E-003   4.6757532871595106E-002
  -3.2024942163725319E-002  -3.9437297303177889E-003   5.0439064639308619E-002
  -3.2040903443856517E-002  -2.2155724960096213E-003   5.3869401721109059E-002
  -3.6097705507227934E-002  -8.7270350791740225E-003   3.5431829645979414E-002
  -3.6509479770764075E-002  -7.5127800380667548E-003   4.0618158130894415E-002
  -3.6921254034300285E-002  -6.0292379514495578E-003   4.5264055334912609E-002
  -3.7333028297836461E-002  -4.2764088193224959E-003   4.9369521258034017E-002
  -3.7744802561372658E-002  -2.2542926416854459E-003   5.2934555900258570E-002
  -3.9221144533830854E-002  -8.5079562789329155E-003   3.1680446037306575E-002
  -4.0317968375755742E-002  -7.7165596541129422E-003   3.8108120987468908E-002
  -4.1414792217680602E-002  -6.4169368639109270E-003   4.3706128061750893E-002
  -4.2511616059605475E-002  -4.6090879083270225E-003   4.8474467260152254E-002
  -4.3608439901530321E-002  -2.2930127873613260E-003   5.2413138582673047E-002
  -2.1112319876748963E-002  -2.1381322046579720E-003   5.6979378872604236E-002
  -2.0521417318660515E-002  -1.2793750496181699E-003   5.7994579807932767E-002
  -1.9930514760572098E-002  -5.3605196569388169E-004   5.9132140619408885E-002
  -1.9339612202483668E-002   9.1837047114535358E-005   6.0392061307032466E-002
  -1.8748709644395234E-002   6.0429198880768142E-004   6.1774341870803551E-002
  -2.6496742548981957E-002  -2.1768523503337689E-003   5.5217676045224207E-002
  -2.5770058009491774E-002  -9.5172017134638465E-004   5.5924073312732817E-002
  -2.5043373470001545E-002   6.3870977891344882E-005   5.6779674666897428E-002
  -2.4316688930511345E-002   8.6992109737904499E-004   5.7784480107718070E-002
  -2.3590004391021137E-002   1.4664301871172292E-003   5.8938489635194796E-002
  -3.2040903443856517E-002  -2.2155724960096213E-003   5.3869401721109059E-002
  -3.1151592712456024E-002  -6.2406529307446057E-004   5.4172888362163371E-002
  -3.0262281981055524E-002   6.6379392147662003E-004   5.4652423300382287E-002
  -2.9372971249655024E-002   1.6480051476437194E-003   5.5308006535765675E-002
  -2.8483660518254527E-002   2.3285683854266381E-003   5.6139638068313666E-002
  -3.7744802561372658E-002  -2.2542926416854459E-003   5.2934555900258570E-002
  -3.6666021427553347E-002  -2.9641041480266139E-004   5.2741024956224541E-002
  -3.5587240293734043E-002   1.2637168650619264E-003   5.2750386519863558E-002
  -3.4508459159914746E-002   2.4260891979081449E-003   5.2962640591175503E-002
  -3.3429678026095436E-002   3.1907065837361442E-003   5.3377787170160729E-002
  -4.3608439901530321E-002  -2.2930127873613260E-003   5.2413138582673047E-002
  -4.2313344154783716E-002   3.1244463469221051E-005   5.1628483094916244E-002
  -4.1018248408037097E-002   1.8636398086471218E-003   5.1073564325340937E-002
  -3.9723152661290471E-002   3.2041732481727647E-003   5.0748382273947415E-002
  -3.8428056914543859E-002   4.0528447820455393E-003   5.0652936940735360E-002
  -1.8748709644395234E-002   6.0429198880768142E-004   6.1774341870803551E-002
  -1.7962611552366701E-002   1.0160364037519465E-003   6.1762669761028788E-002
  -1.7176513460338168E-002   1.3417938363131793E-003   6.1967122013075387E-002
  -1.6390415368309635E-002   1.5815642864923686E-003   6.2387698626943475E-002
  -1.5604317276281102E-002   1.7353477542884077E-003   6.3024399602633174E-002
  -2.3590004391021137E-002   1.4664301871172292E-003   5.8938489635194796E-002
  -2.2582699658065829E-002   1.9059399997676807E-003   5.8784316170513690E-002
  -2.1575394925110538E-002   2.2409922879924743E-003   5.8856431625864639E-002
  -2.0568090192155247E-002   2.4715870517918771E-003   5.9154836001247706E-002
  -1.9560785459199929E-002   2.5977242911657261E-003   5.9679529296662703E-002
  -2.8483660518254527E-002   2.3285683854266381E-003   5.6139638068313666E-002
  -2.7244984586161859E-002   2.7958435957834565E-003   5.5824492706683451E-002
  -2.6006308654069221E-002   3.1401907396717624E-003   5.5745800823295839E-002
  -2.4767632721976567E-002   3.3616098170916060E-003   5.5903562418150934E-002
  -2.3528956789883912E-002   3.4601008280429890E-003   5.6297777491248480E-002
  -3.3429678026095436E-002   3.1907065837361442E-003   5.3377787170160729E-002
  -3.1949466336654839E-002   3.6857471917992393E-003   5.2883199369538253E-002
  -3.0469254647214221E-002   4.0393891913510539E-003   5.2635229605368955E-002
  -2.8989042957773610E-002   4.2516325823914467E-003   5.2633877877653057E-002
  -2.7508831268332975E-002   4.3224773649202797E-003   5.2879144186390281E-002
  -3.8428056914543859E-002   4.0528447820455393E-003   5.0652936940735360E-002
  -3.6696144909544690E-002   4.5756507878150221E-003   4.9960436159077803E-002
  -3.4964232904545541E-002   4.9385876430303316E-003   4.9524717972084159E-002
  -3.3232320899546391E-002   5.1416553476909231E-003   4.9345782379754219E-002
  -3.1500408894547222E-002   5.1848539017975703E-003   4.9423629382088330E-002
  -1.5604317276281102E-002   1.7353477542884077E-003   6.3024399602633174E-002
  -1.4738058198656825E-002   1.8420659133417394E-003   6.2702531589414801E-002
  -1.3871799121032528E-002   1.9406404372917518E-003   6.2595492153620536E-002
  -1.3005540043408238E-002   2.0310713261387364E-003   6.2703281295250046E-002
  -1.2139280965783955E-002   2.1133585798820409E-003   6.3025899014303444E-002
  -1.9560785459199929E-002   2.5977242911657261E-003   5.9679529296662703E-002
  -1.8480663870068248E-002   2.6712627001430900E-003   5.9340550184027591E-002
  -1.7400542280936550E-002   2.7440609727532456E-003   5.9214467516983282E-002
  -1.6320420691804859E-002   2.8161191089962033E-003   5.9301281295530098E-002
  -1.5240299102673147E-002   2.8874371088717377E-003   5.9600991519667634E-002
  -2.3528956789883912E-002   3.4601008280429890E-003   5.6297777491248480E-002
  -2.2236904821077794E-002   3.5004594869445238E-003   5.5949090777932461E-002
  -2.0944852852271663E-002   3.5474815082147393E-003   5.5811368378374276E-002
  -1.9652800883465538E-002   3.6011668918536702E-003   5.5884610292574216E-002
  -1.8360748914659442E-002   3.6615156378614344E-003   5.6168816520531684E-002
  -2.7508831268332975E-002   4.3224773649202797E-003   5.2879144186390281E-002
  -2.6006781051685454E-002   4.3296562737459715E-003   5.2528153371129399E-002
  -2.4504730835037909E-002   4.3509020436761775E-003   5.2386194737793372E-002
  -2.3002680618390361E-002   4.3862146747114146E-003   5.2453268286382262E-002
  -2.1500630401742812E-002   4.4355941668510201E-003   5.2729374016896154E-002
  -3.1500408894547222E-002   5.1848539017975703E-003   4.9423629382088330E-002
  -2.9790292561891238E-002   5.1588530605474192E-003   4.9077737963618417E-002
  -2.8080176229235240E-002   5.1543225791376157E-003   4.8938946595240507E-002
  -2.6370059896579243E-002   5.1712624575686872E-003   4.9007255276954598E-002
  -2.4659943563923259E-002   5.2096726958408279E-003   4.9282664008760690E-002
  -1.2139280965783955E-002   2.1133585798820409E-003   6.3025899014303444E-002
  -1.1217719744065616E-002   2.1601867068201108E-003   6.3168878979432352E-002
  -1.0296158522347290E-002   2.1442402152497542E-003   6.3544719666356997E-002
  -9.3745973006289542E-003   2.0655191051724767E-003   6.4153421075077405E-002
  -8.4530360789106251E-003   1.9240233765870363E-003   6.4994983205593715E-002
  -1.5240299102673147E-002   2.8874371088717377E-003   5.9600991519667634E-002
  -1.4094535477321136E-002   2.9181636187763926E-003   5.9644272760496109E-002
  -1.2948771851969156E-002   2.8684472851069898E-003   5.9903098086796336E-002
  -1.1803008226617144E-002   2.7382881078634874E-003   6.0377467498567913E-002
  -1.0657244601265166E-002   2.5276860870456774E-003   6.1067380995811049E-002
  -1.8360748914659442E-002   3.6615156378614344E-003   5.6168816520531684E-002
  -1.7008099521998114E-002   3.6761405307332573E-003   5.6094730811993621E-002
  -1.5655450129336772E-002   3.5926543549642115E-003   5.6218872552602869E-002
  -1.4302800736675454E-002   3.4110571105547167E-003   5.6541241742359270E-002
  -1.2950151344014123E-002   3.1313487975045962E-003   5.7061838381262775E-002
  -2.1500630401742812E-002   4.4355941668510201E-003   5.2729374016896154E-002
  -1.9958411878096452E-002   4.4341174426897195E-003   5.2520253133924999E-002
  -1.8416193354450106E-002   4.3168614248213291E-003   5.2492043063776722E-002
  -1.6873974830803763E-002   4.0838261132458368E-003   5.2644743806451420E-002
  -1.5331756307157402E-002   3.7350115079632651E-003   5.2978355361948899E-002
  -2.4659943563923259E-002   5.2096726958408279E-003   4.9282664008760690E-002
  -2.2945472545616227E-002   5.1920943546464038E-003   4.8920839726290022E-002
  -2.1231001527309182E-002   5.0410684946783357E-003   4.8722609620317936E-002
  -1.9516530509002136E-002   4.7565951159372066E-003   4.8687973690844294E-002
  -1.7802059490695105E-002   4.3386742184221561E-003   4.8816931937869290E-002
  -8.4530360789106251E-003   1.9240233765870363E-003   6.4994983205593715E-002
  -7.4671910918130274E-003   1.7940962288797713E-003   6.4860182933807575E-002
  -6.4813461047154332E-003   1.7500808614359931E-003   6.4984566228531881E-002
  -5.4955011176178424E-003   1.7919772742565274E-003   6.5368133089767105E-002
  -4.5096561305202412E-003   1.9197854673402848E-003   6.6010883517512831E-002
  -1.0657244601265166E-002   2.5276860870456774E-003   6.1067380995811049E-002
  -9.4120869410374980E-003   2.3186938324649131E-003   6.0928798688405506E-002
  -8.1669292808098197E-003   2.1933639539311600E-003   6.1049658160749282E-002
  -6.9217716205821622E-003   2.1516964514453202E-003   6.1429959412842697E-002
  -5.6766139603545047E-003   2.1936913250065748E-003   6.2069702444685571E-002
  -1.2950151344014123E-002   3.1313487975045962E-003   5.7061838381262775E-002
  -1.1445422797417577E-002   2.8432914360498607E-003   5.6917224634021407E-002
  -9.9406942508210600E-003   2.6366470464263408E-003   5.7032310879768691E-002
  -8.4359657042245399E-003   2.5114156286338944E-003   5.7407097118503995E-002
  -6.9312371576279973E-003   2.4675971826729759E-003   5.8041583350227632E-002
  -1.5331756307157402E-002   3.7350115079632651E-003   5.2978355361948899E-002
  -1.3567198660953243E-002   3.3678890396349054E-003   5.2825460770655641E-002
  -1.1802641014749100E-002   3.0799301389213482E-003   5.2932524385589694E-002
  -1.0038083368544949E-002   2.8711348058229110E-003   5.3299546206750766E-002
  -8.2735257223408021E-003   2.7415030403393215E-003   5.3926526234138808E-002
  -1.7802059490695105E-002   4.3386742184221561E-003   4.8816931937869290E-002
  -1.5777414531644551E-002   3.8924866432200056E-003   4.8653507098308069E-002
  -1.3752769572593998E-002   3.5232132314167441E-003   4.8750298678212733E-002
  -1.1728124613543452E-002   3.2308539830116639E-003   4.9107306677583062E-002
  -9.7034796544928914E-003   3.0154088980056670E-003   4.9724531096419278E-002
  -4.5096561305202412E-003   1.9197854673402848E-003   6.6010883517512831E-002
  -3.9242468689062032E-003   2.2064589459765971E-003   6.5004293574138505E-002
  -3.3388376072921583E-003   2.7249512154529087E-003   6.4128239712400503E-002
  -2.7534283456781203E-003   3.4752622757702467E-003   6.3382721932299158E-002
  -2.1680190840640753E-003   4.4573921269270844E-003   6.2767740233834246E-002
  -5.6766139603545047E-003   2.1936913250065748E-003   6.2069702444685571E-002
  -4.9368841199725413E-003   2.4405609704932218E-003   6.1278184610324526E-002
  -4.1971542795905901E-003   3.0135177837824212E-003   6.0664771851862920E-002
  -3.4574244392086379E-003   3.9125617648737496E-003   6.0229464169300612E-002
  -2.7176945988266754E-003   5.1376929137679772E-003   5.9972261562637574E-002
  -6.9312371576279973E-003   2.4675971826729759E-003   5.8041583350227632E-002
  -5.9896177442153864E-003   2.6746629950100131E-003   5.7559406001842145E-002
  -5.0479983308027755E-003   3.3020843521114895E-003   5.7302902723619015E-002
  -4.1063789173901525E-003   4.3498612539778075E-003   5.7272073515557867E-002
  -3.1647595039775555E-003   5.8179937006085369E-003   5.7466918377658716E-002
  -8.2735257223408021E-003   2.7415030403393215E-003   5.3926526234138808E-002
  -7.0824477416347800E-003   2.9087650195263881E-003   5.3847957748691132E-002
  -5.8913697609287718E-003   3.5906509204405579E-003   5.4042632327668594E-002
  -4.7002917802227654E-003   4.7871607430816990E-003   5.4510549971070875E-002
  -3.5092137995167447E-003   6.4982944874493742E-003   5.5251710678897809E-002
  -9.7034796544928914E-003   3.0154088980056670E-003   4.9724531096419278E-002
  -8.2153741122307361E-003   3.1428670440433737E-003   5.0143839850871896E-002
  -6.7272685699685253E-003   3.8792174887699038E-003   5.0883960664011796E-002
  -5.2391630277063284E-003   5.2244602321854378E-003   5.1944893535839365E-002
  -3.7510574854441592E-003   7.1785952742897674E-003   5.3326638466354437E-002
  -2.1680190840640753E-003   4.4573921269270844E-003   6.2767740233834246E-002
  -2.4017178577689161E-003   5.7632319042243418E-003   5.8647181919147973E-002
  -2.6354166314737672E-003   7.4846727429611071E-003   5.4524338318486243E-002
  -2.8691154051786408E-003   9.6217146431357564E-003   5.0399209431847947E-002
  -3.1028141788834590E-003   1.2174357604750163E-002   4.6271795259233528E-002
  -2.7176945988266754E-003   5.1376929137679772E-003   5.9972261562637574E-002
  -2.9718908996367102E-003   6.7642189571815448E-003   5.6382253457771814E-002
  -3.2260872004467468E-003   8.8674476218315035E-003   5.2753535584671940E-002
  -3.4802835012567807E-003   1.1447378907718339E-002   4.9086107943337898E-002
  -3.7344798020668285E-003   1.4504012814841261E-002   4.5379970533768965E-002
  -3.1647595039775555E-003   5.8179937006085369E-003   5.7466918377658716E-002
  -3.4758778141510092E-003   7.7652060101388032E-003   5.4468562042410879E-002
  -3.7869961243244639E-003   1.0250222500702816E-002   5.1395071456670327E-002
  -4.0981144344979219E-003   1.3273043172300873E-002   4.8246446620437547E-002
  -4.4092327446713757E-003   1.6833668024932580E-002   4.5022687533711747E-002
  -3.5092137995167447E-003   6.4982944874493742E-003   5.5251710678897809E-002
  -3.9136786013118227E-003   8.7661930630960339E-003   5.2906107673064945E-002
  -4.3181434031069289E-003   1.1632997379573892E-002   5.0448945934481758E-002
  -4.7226082049020637E-003   1.5098707436882988E-002   4.7880225463147644E-002
  -5.1270730066971127E-003   1.9163323235023788E-002   4.5199946259062485E-002
  -3.7510574854441592E-003   7.1785952742897674E-003   5.3326638466354437E-002
  -4.2852932611191358E-003   9.7671801160531535E-003   5.1694890349734512E-002
  -4.8195290367940985E-003   1.3015772258444691E-002   4.9915159018105393E-002
  -5.3537648124690682E-003   1.6924371701465921E-002   4.7987444471467133E-002
  -5.8880005881440378E-003   2.1492978445114996E-002   4.5911746709820456E-002
  -3.9221144533830854E-002  -8.5079562789329155E-003   3.1680446037306575E-002
  -4.0317968375755742E-002  -7.7165596541129422E-003   3.8108120987468908E-002
  -4.1414792217680602E-002  -6.4169368639109270E-003   4.3706128061750893E-002
  -4.2511616059605475E-002  -4.6090879083270225E-003   4.8474467260152254E-002
  -4.3608439901530321E-002  -2.2930127873613260E-003   5.2413138582673047E-002
  -4.3294088117702606E-002  -1.3920829397170376E-002   3.5716804227551469E-002
  -4.4905671827649568E-002  -9.5883817375654323E-003   3.9553525769666142E-002
  -4.6517255537596378E-002  -5.7834485314931655E-003   4.3190395451617264E-002
  -4.8128839247543236E-002  -2.5060297789534537E-003   4.6627413273404986E-002
  -4.9740422957490101E-002   2.4387452005353305E-004   4.9864579235029322E-002
  -5.0263248973405422E-002  -1.9333702515407891E-002   4.3812083762038739E-002
  -5.1759776535657206E-002  -1.1460203821017936E-002   4.4022111277190870E-002
  -5.3256304097908970E-002  -5.1499601990751820E-003   4.4662102947896770E-002
  -5.4752831660160706E-002  -4.0297164957969062E-004   4.5732058774156245E-002
  -5.6249359222412497E-002   2.7807618274684753E-003   4.7231978755969420E-002
  -6.0128627100939205E-002  -2.4746575633645379E-002   5.5966284640768249E-002
  -6.0880282499778782E-002  -1.3332025904470420E-002   5.1513877510043438E-002
  -6.1631937898618330E-002  -4.5164718666572540E-003   4.8121250550589433E-002
  -6.2383593297457865E-002   1.7000864797939753E-003   4.5788403762406144E-002
  -6.3135248696297455E-002   5.3176491348833760E-003   4.4515337145493446E-002
  -7.2890222500303969E-002  -3.0159448751882867E-002   7.2179406863740192E-002
  -7.2267189720014224E-002  -1.5203847987922930E-002   6.2028824468223664E-002
  -7.1644156939724507E-002  -3.8829835342393954E-003   5.3567838259695161E-002
  -7.1021124159434790E-002   3.8031446091676933E-003   4.6796448238154389E-002
  -7.0398091379145045E-002   7.8545364422982766E-003   4.1714654403601503E-002
  -4.3608439901530321E-002  -2.2930127873613260E-003   5.2413138582673047E-002
  -4.2313344154783716E-002   3.1244463469221051E-005   5.1628483094916244E-002
  -4.1018248408037097E-002   1.8636398086471218E-003   5.1073564325340937E-002
  -3.9723152661290471E-002   3.2041732481727647E-003   5.0748382273947415E-002
  -3.8428056914543859E-002   4.0528447820455393E-003   5.0652936940735360E-002
  -4.9740422957490101E-002   2.4387452005353305E-004   4.9864579235029322E-002
  -4.8150946300117174E-002   2.4671013905898931E-003   4.8258763576223995E-002
  -4.6561469642744185E-002   4.1644878577171973E-003   4.7011973020489747E-002
  -4.4971992985371245E-002   5.3360339214358690E-003   4.6124207567826585E-002
  -4.3382516327998291E-002   5.9817395817455821E-003   4.5595467218234542E-002
  -5.6249359222412497E-002   2.7807618274684753E-003   4.7231978755969420E-002
  -5.4236213269523686E-002   4.9029583177104680E-003   4.4771024428359313E-002
  -5.2223067316634911E-002   6.4653359067873284E-003   4.2798383588709743E-002
  -5.0209921363746100E-002   7.4678945946990843E-003   4.1314056237020891E-002
  -4.8196775410857304E-002   7.9106343814455971E-003   4.0318042373292576E-002
  -6.3135248696297455E-002   5.3176491348833760E-003   4.4515337145493446E-002
  -6.0569145063003357E-002   7.3388152448311747E-003   4.1165265651322246E-002
  -5.8003041429709190E-002   8.7661839558573762E-003   3.8432796030001028E-002
  -5.5436937796415037E-002   9.5997552679621609E-003   3.6317928281530021E-002
  -5.2870834163120863E-002   9.8395291811455704E-003   3.4820662405909017E-002
  -7.0398091379145045E-002   7.8545364422982766E-003   4.1714654403601503E-002
  -6.7149741680556055E-002   9.7746721719516871E-003   3.7441487245112648E-002
  -6.3901391981967065E-002   1.1067032004927577E-002   3.3915210344363650E-002
  -6.0653042283378034E-002   1.1731615941225525E-002   3.1135823701354176E-002
  -5.7404692584789058E-002   1.1768423980845599E-002   2.9103327316084171E-002
  -3.8428056914543859E-002   4.0528447820455393E-003   5.0652936940735360E-002
  -3.6696144909544690E-002   4.5756507878150221E-003   4.9960436159077803E-002
  -3.4964232904545541E-002   4.9385876430303316E-003   4.9524717972084159E-002
  -3.3232320899546391E-002   5.1416553476909231E-003   4.9345782379754219E-002
  -3.1500408894547222E-002   5.1848539017975703E-003   4.9423629382088330E-002
  -4.3382516327998291E-002   5.9817395817455821E-003   4.5595467218234542E-002
  -4.1406753342376978E-002   6.3044254962418556E-003   4.4890201033744609E-002
  -3.9430990356755638E-002   6.5069123225204445E-003   4.4415854215835271E-002
  -3.7455227371134318E-002   6.5892000605806723E-003   4.4172426764506334E-002
  -3.5479464385512985E-002   6.5512887104230977E-003   4.4159918679757881E-002
  -4.8196775410857304E-002   7.9106343814455971E-003   4.0318042373292576E-002
  -4.6003024672697138E-002   8.0332002046687168E-003   3.9639680848306519E-002
  -4.3809273934537027E-002   8.0752370020103978E-003   3.9166375461817664E-002
  -4.1615523196376861E-002   8.0367447734702013E-003   3.8898126213826004E-002
  -3.9421772458216750E-002   7.9177235190487361E-003   3.8834933104331421E-002
  -5.2870834163120863E-002   9.8395291811455704E-003   3.4820662405909017E-002
  -5.0484958900505299E-002   9.7619749130955086E-003   3.4208875602763422E-002
  -4.8099083637889631E-002   9.6435616815004309E-003   3.3776281710031608E-002
  -4.5713208375274011E-002   9.4842894863597857E-003   3.3522880727713554E-002
  -4.3327333112658392E-002   9.2841583276743189E-003   3.3448672655809433E-002
  -5.7404692584789058E-002   1.1768423980845599E-002   2.9103327316084171E-002
  -5.4852556025801275E-002   1.1490749621522439E-002   2.8597785297115208E-002
  -5.2300419466813505E-002   1.1211886360990422E-002   2.8245572960476806E-002
  -4.9748282907825729E-002   1.0931834199249358E-002   2.8046690306168756E-002
  -4.7196146348838008E-002   1.0650593136299902E-002   2.8001137334191184E-002
  -3.1500408894547222E-002   5.1848539017975703E-003   4.9423629382088330E-002
  -2.9790292561891238E-002   5.1588530605474192E-003   4.9077737963618417E-002
  -2.8080176229235240E-002   5.1543225791376157E-003   4.8938946595240507E-002
  -2.6370059896579243E-002   5.1712624575686872E-003   4.9007255276954598E-002
  -2.4659943563923259E-002   5.2096726958408279E-003   4.9282664008760690E-002
  -3.5479464385512985E-002   6.5512887104230977E-003   4.4159918679757881E-002
  -3.3572088650522053E-002   6.4650664292476567E-003   4.3863457824804525E-002
  -3.1664712915531114E-002   6.4024213742543135E-003   4.3754415724429147E-002
  -2.9757337180540158E-002   6.3633535454431581E-003   4.3832792378631580E-002
  -2.7849961445549243E-002   6.3478629428143085E-003   4.4098587787412213E-002
  -3.9421772458216750E-002   7.9177235190487361E-003   3.8834933104331421E-002
  -3.7336818616404810E-002   7.7712797979481718E-003   3.8590009679236065E-002
  -3.5251864774592946E-002   7.6505201693710112E-003   3.8512823713204636E-002
  -3.3166910932781027E-002   7.5554446333175179E-003   3.8603375206237023E-002
  -3.1081957090969142E-002   7.4860531897875671E-003   3.8861664158333586E-002
  -4.3327333112658392E-002   9.2841583276743189E-003   3.3448672655809433E-002
  -4.1084482459539585E-002   9.0774931666484371E-003   3.3257393526913294E-002
  -3.8841631806420723E-002   8.8986189644877645E-003   3.3214170561567100E-002
  -3.6598781153301889E-002   8.7475357211917112E-003   3.3319003759770802E-002
  -3.4355930500183061E-002   8.6242434367611587E-003   3.3571893121524671E-002
  -4.7196146348838008E-002   1.0650593136299902E-002   2.8001137334191184E-002
  -4.4815080179926248E-002   1.0383706535348980E-002   2.7865609367835886E-002
  -4.2434014011014459E-002   1.0146717759604490E-002   2.7858456269516607E-002
  -4.0052947842102671E-002   9.9396268090662585E-003   2.7979678039233041E-002
  -3.7671881673190938E-002   9.7624336837344172E-003   2.8229274676985550E-002
  -2.4659943563923259E-002   5.2096726958408279E-003   4.9282664008760690E-002
  -2.2945472545616227E-002   5.1920943546464038E-003   4.8920839726290022E-002
  -2.1231001527309182E-002   5.0410684946783357E-003   4.8722609620317936E-002
  -1.9516530509002136E-002   4.7565951159372066E-003   4.8687973690844294E-002
  -1.7802059490695105E-002   4.3386742184221561E-003   4.8816931937869290E-002
  -2.7849961445549243E-002   6.3478629428143085E-003   4.4098587787412213E-002
  -2.5971367511092629E-002   6.2785042761526189E-003   4.3562934044288459E-002
  -2.4092773576636028E-002   6.0778322552441366E-003   4.3191931956965107E-002
  -2.2214179642179400E-002   5.7458468800884663E-003   4.2985581525442462E-002
  -2.0335585707722870E-002   5.2825481506859617E-003   4.2943882749720552E-002
  -3.1081957090969142E-002   7.4860531897875671E-003   3.8861664158333586E-002
  -2.9038182761060932E-002   7.3649141976590560E-003   3.8154315119082877E-002
  -2.6994408431152653E-002   7.1145960158100485E-003   3.7612675214934957E-002
  -2.4950634101244443E-002   6.7350986442400590E-003   3.7236744445889577E-002
  -2.2906859771336115E-002   6.2264220829495454E-003   3.7026522811947071E-002
  -3.4355930500183061E-002   8.6242434367611587E-003   3.3571893121524671E-002
  -3.2145918295521096E-002   8.4513241191653266E-003   3.2694982950673468E-002
  -2.9935906090859138E-002   8.1513597763755719E-003   3.1984839394227332E-002
  -2.7725893886197155E-002   7.7243504083915407E-003   3.1441462452185633E-002
  -2.5515881681535207E-002   7.1702960152130180E-003   3.1064852124548945E-002
  -3.7671881673190938E-002   9.7624336837344172E-003   2.8229274676985550E-002
  -3.5294574114473204E-002   9.5377340406718192E-003   2.7184937539060428E-002
  -3.2917266555755373E-002   9.1881235369417891E-003   2.6308424494842164E-002
  -3.0539958997037590E-002   8.7136021725429738E-003   2.5599735544330676E-002
  -2.8162651438319808E-002   8.1141699474769347E-003   2.5058870687526102E-002
  -1.7802059490695105E-002   4.3386742184221561E-003   4.8816931937869290E-002
  -1.5777414531644551E-002   3.8924866432200056E-003   4.8653507098308069E-002
  -1.3752769572593998E-002   3.5232132314167441E-003   4.8750298678212733E-002
  -1.1728124613543452E-002   3.2308539830116639E-003   4.9107306677583062E-002
  -9.7034796544928914E-003   3.0154088980056670E-003   4.9724531096419278E-002
  -2.0335585707722870E-002   5.2825481506859617E-003   4.2943882749720552E-002
  -1.8093851100669245E-002   4.7738017475983385E-003   4.2758249377249147E-002
  -1.5852116493615696E-002   4.3054733513878674E-003   4.2746578881317776E-002
  -1.3610381886562099E-002   3.8775629620554641E-003   4.2908871261926454E-002
  -1.1368647279508523E-002   3.4900705796006015E-003   4.3245126519075916E-002
  -2.2906859771336115E-002   6.2264220829495454E-003   3.7026522811947071E-002
  -2.0534289059205131E-002   5.6551168519767547E-003   3.6782184750043967E-002
  -1.8161718347074089E-002   5.0877334713600730E-003   3.6625556021755545E-002
  -1.5789147634943053E-002   4.5242719410995905E-003   3.6556636627081765E-002
  -1.3416576922812069E-002   3.9647322611953140E-003   3.6575426566022751E-002
  -2.5515881681535207E-002   7.1702960152130180E-003   3.1064852124548945E-002
  -2.3098728407252234E-002   6.5364319563550183E-003   3.0725313216693070E-002
  -2.0681575132969310E-002   5.8699935913320150E-003   3.0387230099526055E-002
  -1.8264421858686309E-002   5.1709809201434427E-003   3.0050602773048340E-002
  -1.5847268584403357E-002   4.4393939427900264E-003   2.9715431237259712E-002
  -2.8162651438319808E-002   8.1141699474769347E-003   2.5058870687526102E-002
  -2.5787169144810523E-002   7.4177470607334484E-003   2.4587634777196277E-002
  -2.3411686851301183E-002   6.6522537113034019E-003   2.4031601114629431E-002
  -2.1036204557791899E-002   5.8176898991876835E-003   2.3390769699826675E-002
  -1.8660722264282559E-002   4.9140556243849609E-003   2.2665140532787342E-002
  -9.7034796544928914E-003   3.0154088980056670E-003   4.9724531096419278E-002
  -8.2153741122307361E-003   3.1428670440433737E-003   5.0143839850871896E-002
  -6.7272685699685253E-003   3.8792174887699038E-003   5.0883960664011796E-002
  -5.2391630277063284E-003   5.2244602321854378E-003   5.1944893535839365E-002
  -3.7510574854441592E-003   7.1785952742897674E-003   5.3326638466354437E-002
  -1.1368647279508523E-002   3.4900705796006015E-003   4.3245126519075916E-002
  -9.5442911513099471E-003   3.3993900273481259E-003   4.3878160758597962E-002
  -7.7199350231112740E-003   3.8619151286236608E-003   4.4862884111305262E-002
  -5.8955788949126842E-003   4.8776458834279279E-003   4.6199296577197999E-002
  -4.0712227667140249E-003   6.4465822917598725E-003   4.7887398156276295E-002
  -1.3416576922812069E-002   3.9647322611953140E-003   3.6575426566022751E-002
  -1.1225093154179154E-002   3.6559130106529059E-003   3.7366499645453743E-002
  -9.0336093855462873E-003   3.8446127684777232E-003   3.8540138892567605E-002
  -6.8421256169133964E-003   4.5308315346699671E-003   4.0096344307364806E-002
  -4.6506418482805054E-003   5.7145693092296446E-003   4.2035115889845265E-002
  -1.5847268584403357E-002   4.4393939427900264E-003   2.9715431237259712E-002
  -1.3257780120838411E-002   3.9124359939575609E-003   3.0608856511438742E-002
  -1.0668291657273461E-002   3.8273104083314663E-003   3.1915725007798608E-002
  -8.0788031937085256E-003   4.1840171859122317E-003   3.3636036726339510E-002
  -5.4893147301435085E-003   4.9825563266993611E-003   3.5769791667061443E-002
  -1.8660722264282559E-002   4.9140556243849609E-003   2.2665140532787342E-002
  -1.5642352051287722E-002   4.1689589772622160E-003   2.3605231356553569E-002
  -1.2623981838292886E-002   3.8100080481854315E-003   2.4989642456998529E-002
  -9.6056116252980078E-003   3.8372028371544686E-003   2.6818373834122333E-002
  -6.5872414123032130E-003   4.2505433441692997E-003   2.9091425487924871E-002
  -3.7510574854441592E-003   7.1785952742897674E-003   5.3326638466354437E-002
  -4.2852932611191358E-003   9.7671801160531535E-003   5.1694890349734512E-002
  -4.8195290367940985E-003   1.3015772258444691E-002   4.9915159018105393E-002
  -5.3537648124690682E-003   1.6924371701465921E-002   4.7987444471467133E-002
  -5.8880005881440378E-003   2.1492978445114996E-002   4.5911746709820456E-002
  -4.0712227667140249E-003   6.4465822917598725E-003   4.7887398156276295E-002
  -4.6505298818079605E-003   8.8854790421564744E-003   4.7022669280564533E-002
  -5.2298369969018058E-003   1.2511090823153936E-002   4.6215780941023632E-002
  -5.8091441119956615E-003   1.7323417634752120E-002   4.5466733137654120E-002
  -6.3884512270895866E-003   2.3322459476951440E-002   4.4775525870455635E-002
  -4.6506418482805054E-003   5.7145693092296446E-003   4.2035115889845265E-002
  -5.0691965516133225E-003   8.0037779682595178E-003   4.2464113985013874E-002
  -5.4877512549460807E-003   1.2006409387862543E-002   4.3156776367533761E-002
  -5.9063059582788718E-003   1.7722463568038603E-002   4.4113103037405163E-002
  -6.3248606616116559E-003   2.5151940508787884E-002   4.5333093994627038E-002
  -5.4893147301435085E-003   4.9825563266993611E-003   3.5769791667061443E-002
  -5.5412932705350988E-003   7.1220768943625890E-003   3.8019224463082882E-002
  -5.5932718109266361E-003   1.1501727952571136E-002   4.0738145297635441E-002
  -5.6452503513181734E-003   1.8121509501325055E-002   4.3926554170719237E-002
  -5.6972288917097637E-003   2.6981421540624440E-002   4.7584451082334389E-002
  -6.5872414123032130E-003   4.2505433441692997E-003   2.9091425487924871E-002
  -6.0668200385734505E-003   6.2403758204659932E-003   3.3688000714770960E-002
  -5.5463986648437158E-003   1.0997046517280062E-002   3.8959887731328635E-002
  -5.0259772911139255E-003   1.8520555434611369E-002   4.4907086537597618E-002
  -4.5055559173842186E-003   2.8810902572460773E-002   5.1529597133577631E-002
  -7.2890222500303969E-002  -3.0159448751882867E-002   7.2179406863740192E-002
  -7.2267189720014224E-002  -1.5203847987922930E-002   6.2028824468223664E-002
  -7.1644156939724507E-002  -3.8829835342393954E-003   5.3567838259695161E-002
  -7.1021124159434790E-002   3.8031446091676933E-003   4.6796448238154389E-002
  -7.0398091379145045E-002   7.8545364422982766E-003   4.1714654403601503E-002
  -8.2836124984434351E-002  -2.2309095982914917E-002   4.9179757332979634E-002
  -8.1199382993612151E-002  -8.2806254753667319E-003   4.3262330787895292E-002
  -7.9562641002789966E-002   2.1454607916332330E-003   3.7682726476887946E-002
  -7.7925899011967753E-002   8.9691628180849185E-003   3.2440944399957761E-002
  -7.6289157021145595E-002   1.2190480603988418E-002   2.7536984557104488E-002
  -8.4254424366264929E-002  -1.4458743213946995E-002   2.5236801510943221E-002
  -8.2955747117821083E-002  -1.3574029628106166E-003   2.3584882886019176E-002
  -8.1657069869377208E-002   8.1739051175057850E-003   2.0919012542261438E-002
  -8.0358392620933305E-002   1.4135181027002145E-002   1.7239190479669705E-002
  -7.9059715372489500E-002   1.6526424765678671E-002   1.2545416698244508E-002
  -7.7145120645795762E-002  -6.6083904449789760E-003   3.5053939763094247E-004
  -7.7536282092641073E-002   5.5658195497454432E-003   2.9964807625954513E-003
  -7.7927443539486260E-002   1.4202349443378445E-002   3.2766964558153932E-003
  -7.8318604986331530E-002   1.9301199235919234E-002   1.1911864772905260E-003
  -7.8709766433176828E-002   2.0862368927368813E-002  -3.2600491729783271E-003
  -6.1508213823026736E-002   1.2419623239888766E-003  -2.5479029006957310E-002
  -6.4940987918071902E-002   1.2489042062301781E-002  -1.8502875582376177E-002
  -6.8373762013117068E-002   2.0230793769250965E-002  -1.5244221782449968E-002
  -7.1806536108162178E-002   2.4467217444836681E-002  -1.5703067607179481E-002
  -7.5239310203207399E-002   2.5198313089058955E-002  -1.9879413056564432E-002
  -7.0398091379145045E-002   7.8545364422982766E-003   4.1714654403601503E-002
  -6.7149741680556055E-002   9.7746721719516871E-003   3.7441487245112648E-002
  -6.3901391981967065E-002   1.1067032004927577E-002   3.3915210344363650E-002
  -6.0653042283378034E-002   1.1731615941225525E-002   3.1135823701354176E-002
  -5.7404692584789058E-002   1.1768423980845599E-002   2.9103327316084171E-002
  -7.6289157021145595E-002   1.2190480603988418E-002   2.7536984557104488E-002
  -7.2612880497104210E-002   1.3385461338765017E-002   2.5526328377793575E-002
  -6.8936603973062754E-002   1.4130152211836139E-002   2.3624635591647972E-002
  -6.5260327449021313E-002   1.4424553223201526E-002   2.1831906198667594E-002
  -6.1584050924979858E-002   1.4268664372861450E-002   2.0148140198852499E-002
  -7.9059715372489500E-002   1.6526424765678671E-002   1.2545416698244508E-002
  -7.5593438887569947E-002   1.6996250505578167E-002   1.2974757533083567E-002
  -7.2127162402650435E-002   1.7193272418744653E-002   1.2875134896513679E-002
  -6.8660885917730854E-002   1.7117490505177642E-002   1.2246548788534619E-002
  -6.5194609432811357E-002   1.6768904764877329E-002   1.1088999209146549E-002
  -7.8709766433176828E-002   2.0862368927368813E-002  -3.2600491729783271E-003
  -7.6091416851953503E-002   2.0607039672391435E-002  -2.1322528901702130E-004
  -7.3473067270730191E-002   2.0256392625653524E-002   1.6667082589608574E-003
  -7.0854717689506866E-002   1.9810427787153754E-002   2.3797514709553158E-003
  -6.8236368108283554E-002   1.9269145156893194E-002   1.9259043469664790E-003
  -7.5239310203207399E-002   2.5198313089058955E-002  -1.9879413056564432E-002
  -7.4106814390254627E-002   2.4217828839204703E-002  -1.4037620088508618E-002
  -7.2974318577301966E-002   2.3319512832561923E-002  -1.0000644321010319E-002
  -7.1841822764349195E-002   2.2503365069129776E-002  -7.7684857540703499E-003
  -7.0709326951396534E-002   2.1769385548908948E-002  -7.3411443876879590E-003
  -5.7404692584789058E-002   1.1768423980845599E-002   2.9103327316084171E-002
  -5.4852556025801275E-002   1.1490749621522439E-002   2.8597785297115208E-002
  -5.2300419466813505E-002   1.1211886360990422E-002   2.8245572960476806E-002
  -4.9748282907825729E-002   1.0931834199249358E-002   2.8046690306168756E-002
  -4.7196146348838008E-002   1.0650593136299902E-002   2.8001137334191184E-002
  -6.1584050924979858E-002   1.4268664372861450E-002   2.0148140198852499E-002
  -5.8936304648076157E-002   1.3880988717363013E-002   2.0146441722918268E-002
  -5.6288558371172352E-002   1.3480029313253400E-002   2.0182633000485575E-002
  -5.3640812094268672E-002   1.3065786160532659E-002   2.0256714031554192E-002
  -5.0993065817364860E-002   1.2638259259200479E-002   2.0368684816124583E-002
  -6.5194609432811357E-002   1.6768904764877329E-002   1.1088999209146549E-002
  -6.2566693366820650E-002   1.6271227813203684E-002   1.1579049428844773E-002
  -5.9938777300829957E-002   1.5748172265516037E-002   1.1991549473215520E-002
  -5.7310861234839229E-002   1.5199738121815793E-002   1.2326499342258743E-002
  -5.4682945168848543E-002   1.4625925382101279E-002   1.2583899035974372E-002
  -6.8236368108283554E-002   1.9269145156893194E-002   1.9259043469664790E-003
  -6.5743722182034850E-002   1.8661466909044085E-002   2.8956084148949179E-003
  -6.3251076255786187E-002   1.8016315217779123E-002   3.6723223786664823E-003
  -6.0758430329537538E-002   1.7333690083098454E-002   4.2560462382821287E-003
  -5.8265784403288806E-002   1.6613591505001746E-002   4.6467799937409196E-003
  -7.0709326951396534E-002   2.1769385548908948E-002  -7.3411443876879590E-003
  -6.8467391093718910E-002   2.1051706004884874E-002  -5.9038813189318251E-003
  -6.6225455236041175E-002   2.0284458170041958E-002  -4.7750482831608876E-003
  -6.3983519378363496E-002   1.9467642044381804E-002  -3.9546452803758403E-003
  -6.1741583520685817E-002   1.8601257627902545E-002  -3.4426723105761559E-003
  -4.7196146348838008E-002   1.0650593136299902E-002   2.8001137334191184E-002
  -4.4815080179926248E-002   1.0383706535348980E-002   2.7865609367835886E-002
  -4.2434014011014459E-002   1.0146717759604490E-002   2.7858456269516607E-002
  -4.0052947842102671E-002   9.9396268090662585E-003   2.7979678039233041E-002
  -3.7671881673190938E-002   9.7624336837344172E-003   2.8229274676985550E-002
  -5.0993065817364860E-002   1.2638259259200479E-002   2.0368684816124583E-002
  -4.8459995804496184E-002   1.2215120667660562E-002   2.0389805039434383E-002
  -4.5926925791627472E-002   1.1814042444315775E-002   2.0586558082622136E-002
  -4.3393855778758789E-002   1.1435024589166384E-002   2.0958943945687966E-002
  -4.0860785765890084E-002   1.1078067102212263E-002   2.1506962628631610E-002
  -5.4682945168848543E-002   1.4625925382101279E-002   1.2583899035974372E-002
  -5.1950613360180919E-002   1.4046534799972005E-002   1.2753829991938304E-002
  -4.9218281551513150E-002   1.3481367129027186E-002   1.3146651719622135E-002
  -4.6485949742845395E-002   1.2930422369266514E-002   1.3762364219026005E-002
  -4.3753617934177751E-002   1.2393700520690054E-002   1.4600967490149858E-002
  -5.8265784403288806E-002   1.6613591505001746E-002   4.6467799937409196E-003
  -5.5286932846980129E-002   1.5877948932283573E-002   4.9576842253477652E-003
  -5.2308081290671431E-002   1.5148691813738645E-002   5.5387371805163330E-003
  -4.9329229734362705E-002   1.4425820149366308E-002   6.3899388592471278E-003
  -4.6350378178054055E-002   1.3709333939167651E-002   7.5112892615400578E-003
  -6.1741583520685817E-002   1.8601257627902545E-002  -3.4426723105761559E-003
  -5.8468954264894180E-002   1.7709363064595585E-002  -2.9986322603376414E-003
  -5.5196325009102321E-002   1.6816016498450298E-002  -2.2371855346954572E-003
  -5.1923695753310517E-002   1.5921217929467150E-002  -1.1583321336483612E-003
  -4.8651066497518825E-002   1.5024967357645469E-002   2.3792794280230734E-004
  -3.7671881673190938E-002   9.7624336837344172E-003   2.8229274676985550E-002
  -3.5294574114473204E-002   9.5377340406718192E-003   2.7184937539060428E-002
  -3.2917266555755373E-002   9.1881235369417891E-003   2.6308424494842164E-002
  -3.0539958997037590E-002   8.7136021725429738E-003   2.5599735544330676E-002
  -2.8162651438319808E-002   8.1141699474769347E-003   2.5058870687526102E-002
  -4.0860785765890084E-002   1.1078067102212263E-002   2.1506962628631610E-002
  -3.8341649304530420E-002   1.0686773757908608E-002   2.0624880752272090E-002
  -3.5822512843170742E-002   1.0204748330710806E-002   1.9858632587489350E-002
  -3.3303376381811009E-002   9.6319908206188784E-003   1.9208218134283583E-002
  -3.0784239920451345E-002   8.9685012276329301E-003   1.8673637392654707E-002
  -4.3753617934177751E-002   1.2393700520690054E-002   1.4600967490149858E-002
  -4.1144642952306056E-002   1.1835813475145118E-002   1.3915319653129504E-002
  -3.8535667970434367E-002   1.1221373124480252E-002   1.3293515145556253E-002
  -3.5926692988562686E-002   1.0550379468694557E-002   1.2735553967429925E-002
  -3.3317718006690963E-002   9.8228325077889256E-003   1.2241436118750698E-002
  -4.6350378178054055E-002   1.3709333939167651E-002   7.5112892615400578E-003
  -4.3703555057800207E-002   1.2984853192382434E-002   7.0562542416327048E-003
  -4.1056731937546422E-002   1.2237997918249595E-002   6.6130721690423923E-003
  -3.8409908817292615E-002   1.1468768116770849E-002   6.1817430437694134E-003
  -3.5763085697038788E-002   1.0677163787945254E-002   5.7622668658136728E-003
  -4.8651066497518825E-002   1.5024967357645469E-002   2.3792794280230734E-004
  -4.6018385621012792E-002   1.4133892909618639E-002   4.7684517781809710E-005
  -4.3385704744506759E-002   1.3254622712018882E-002  -1.8269634205153595E-004
  -4.0753023868000726E-002   1.2387156764845850E-002  -4.5321463669757700E-004
  -3.8120342991494693E-002   1.1531495068101139E-002  -7.6387036615632731E-004
  -2.8162651438319808E-002   8.1141699474769347E-003   2.5058870687526102E-002
  -2.5787169144810523E-002   7.4177470607334484E-003   2.4587634777196277E-002
  -2.3411686851301183E-002   6.6522537113034019E-003   2.4031601114629431E-002
  -2.1036204557791899E-002   5.8176898991876835E-003   2.3390769699826675E-002
  -1.8660722264282559E-002   4.9140556243849609E-003   2.2665140532787342E-002
  -3.0784239920451345E-002   8.9685012276329301E-003   1.8673637392654707E-002
  -2.8489663857190400E-002   8.2535598803749610E-003   1.8253782456036538E-002
  -2.6195087793929428E-002   7.5264471074668049E-003   1.7756912811157849E-002
  -2.3900511730668469E-002   6.7871629089091973E-003   1.7183028458019015E-002
  -2.1605935667407511E-002   6.0357072847014859E-003   1.6532129396619744E-002
  -3.3317718006690963E-002   9.8228325077889256E-003   1.2241436118750698E-002
  -3.1096265129702316E-002   9.0893727000160573E-003   1.1929861192880586E-002
  -2.8874812252713572E-002   8.4006405036300968E-003   1.1549054602726289E-002
  -2.6653359375724849E-002   7.7566359186306000E-003   1.1099016348287888E-002
  -2.4431906498736125E-002   7.1573589450176778E-003   1.0579746429565134E-002
  -3.5763085697038788E-002   1.0677163787945254E-002   5.7622668658136728E-003
  -3.3606972962346257E-002   9.9251855196573618E-003   5.6158709877284357E-003
  -3.1450860227653650E-002   9.2748338997934443E-003   5.4080264893348606E-003
  -2.9294747492961071E-002   8.7261089283521692E-003   5.1387333706334401E-003
  -2.7138634758268516E-002   8.2790106053336476E-003   4.8079916316235288E-003
  -3.8120342991494693E-002   1.1531495068101139E-002  -7.6387036615632731E-004
  -3.6021787355122181E-002   1.0760998339298888E-002  -6.8818815942062184E-004
  -3.3923231718749614E-002   1.0149027295956736E-002  -6.6617152901651822E-004
  -3.1824676082377101E-002   9.6955819380738356E-003  -6.9782047494485605E-004
  -2.9726120446004534E-002   9.4006622656503946E-003  -7.8313499720494839E-004
  -1.8660722264282559E-002   4.9140556243849609E-003   2.2665140532787342E-002
  -1.5642352051287722E-002   4.1689589772622160E-003   2.3605231356553569E-002
  -1.2623981838292886E-002   3.8100080481854315E-003   2.4989642456998529E-002
  -9.6056116252980078E-003   3.8372028371544686E-003   2.6818373834122333E-002
  -6.5872414123032130E-003   4.2505433441692997E-003   2.9091425487924871E-002
  -2.1605935667407511E-002   6.0357072847014859E-003   1.6532129396619744E-002
  -1.8410822058986642E-002   5.3713078144665416E-003   1.7610100636750281E-002
  -1.5215708450565787E-002   4.8931920778269300E-003   1.8597238391053872E-002
  -1.2020594842144926E-002   4.6013600747828245E-003   1.9493542659531043E-002
  -8.8254812337240640E-003   4.4958118053340934E-003   2.0299013442181102E-002
  -2.4431906498736125E-002   7.1573589450176778E-003   1.0579746429565134E-002
  -2.1595203257394738E-002   6.5736566516704231E-003   1.1595736101609605E-002
  -1.8758500016053392E-002   5.9763761074682065E-003   1.1985738525321560E-002
  -1.5921796774711911E-002   5.3655173124109584E-003   1.1749753700701360E-002
  -1.3085093533370548E-002   4.7410802664987761E-003   1.0887781627748727E-002
  -2.7138634758268516E-002   8.2790106053336476E-003   4.8079916316235288E-003
  -2.5195495646512137E-002   7.7760054888750263E-003   5.5621377511311521E-003
  -2.3252356534755617E-002   7.0595601371093719E-003   5.1551428598012178E-003
  -2.1309217422999190E-002   6.1296745500393143E-003   3.5870069576331917E-003
  -1.9366078311242721E-002   4.9863487276635143E-003   8.5773004462769142E-004
  -2.9726120446004534E-002   9.4006622656503946E-003  -7.8313499720494839E-004
  -2.9211699226338594E-002   8.9783543260790744E-003  -4.9069441468407859E-004
  -2.8697278006672655E-002   8.1427441667513145E-003  -1.8945486055073901E-003
  -2.8182856787006660E-002   6.8938317876676980E-003  -4.9946975696731552E-003
  -2.7668435567340777E-002   5.2316171888280305E-003  -9.7911413071822828E-003
  -6.5872414123032130E-003   4.2505433441692997E-003   2.9091425487924871E-002
  -6.0668200385734505E-003   6.2403758204659932E-003   3.3688000714770960E-002
  -5.5463986648437158E-003   1.0997046517280062E-002   3.8959887731328635E-002
  -5.0259772911139255E-003   1.8520555434611369E-002   4.4907086537597618E-002
  -4.5055559173842186E-003   2.8810902572460773E-002   5.1529597133577631E-002
  -8.8254812337240640E-003   4.4958118053340934E-003   2.0299013442181102E-002
  -7.5568646836819270E-003   5.7229402879985236E-003   2.5570053572976925E-002
  -6.2882481336398732E-003   9.4291385412945961E-003   3.1662172266686162E-002
  -5.0196315835976529E-003   1.5614406565221069E-002   3.8575369523308756E-002
  -3.7510150335555714E-003   2.4278744359778726E-002   4.6309645342844430E-002
  -1.3085093533370548E-002   4.7410802664987761E-003   1.0887781627748727E-002
  -1.0922515033814043E-002   5.2055047555315537E-003   1.6545518212607579E-002
  -8.7599365342575855E-003   7.8612305653092407E-003   2.3170100133582006E-002
  -6.5973580347010174E-003   1.2708257695830658E-002   3.0761527390671728E-002
  -4.4347795351445118E-003   1.9746586147096901E-002   3.9319799983876913E-002
  -1.9366078311242721E-002   4.9863487276635143E-003   8.5773004462769142E-004
  -1.6163771088969815E-002   4.6880692230642229E-003   6.6143946336633605E-003
  -1.2961463866696853E-002   6.2933225893229416E-003   1.3483671332016271E-002
  -9.7591566444239775E-003   9.8021088264396358E-003   2.1465560139686236E-002
  -6.5568494221509913E-003   1.5214427934415076E-002   3.0560061056674720E-002
  -2.7668435567340777E-002   5.2316171888280305E-003  -9.7911413071822828E-003
  -2.3280632849149274E-002   4.1706336905973362E-003  -4.2233171638563216E-003
  -1.8892830130957938E-002   4.7254146133384745E-003   2.6028858619885631E-003
  -1.4505027412766353E-002   6.8959599570495161E-003   1.0687467770353544E-002
  -1.0117224694575100E-002   1.0682269721733029E-002   2.0030428561237601E-002
 </DataArray>
 </PointData>
 </Piece>
 </UnstructuredGrid>
 </VTKFile>
