 <VTKFile type="UnstructuredGrid"  version="0.1"   >
 <UnstructuredGrid>
 <Piece  NumberOfPoints="          1600 "  NumberOfCells="         1024 ">
 <Points>
 <DataArray  type="Float64" NumberOfComponents="3"  format="ascii" >
   0.0000000000000000        0.0000000000000000        0.0000000000000000     
   3.1250000000000000E-002   0.0000000000000000        0.0000000000000000     
   6.2500000000000000E-002   0.0000000000000000        0.0000000000000000     
   9.3750000000000000E-002   0.0000000000000000        0.0000000000000000     
  0.12500000000000000        0.0000000000000000        0.0000000000000000     
   0.0000000000000000        3.1250000000000000E-002   0.0000000000000000     
   3.1250000000000000E-002   3.1250000000000000E-002   0.0000000000000000     
   6.2500000000000000E-002   3.1250000000000000E-002   0.0000000000000000     
   9.3750000000000000E-002   3.1250000000000000E-002   0.0000000000000000     
  0.12500000000000000        3.1250000000000000E-002   0.0000000000000000     
   0.0000000000000000        6.2500000000000000E-002   0.0000000000000000     
   3.1250000000000000E-002   6.2500000000000000E-002   0.0000000000000000     
   6.2500000000000000E-002   6.2500000000000000E-002   0.0000000000000000     
   9.3750000000000000E-002   6.2500000000000000E-002   0.0000000000000000     
  0.12500000000000000        6.2500000000000000E-002   0.0000000000000000     
   0.0000000000000000        9.3750000000000000E-002   0.0000000000000000     
   3.1250000000000000E-002   9.3750000000000000E-002   0.0000000000000000     
   6.2500000000000000E-002   9.3750000000000000E-002   0.0000000000000000     
   9.3750000000000000E-002   9.3750000000000000E-002   0.0000000000000000     
  0.12500000000000000        9.3750000000000000E-002   0.0000000000000000     
   0.0000000000000000       0.12500000000000000        0.0000000000000000     
   3.1250000000000000E-002  0.12500000000000000        0.0000000000000000     
   6.2500000000000000E-002  0.12500000000000000        0.0000000000000000     
   9.3750000000000000E-002  0.12500000000000000        0.0000000000000000     
  0.12500000000000000       0.12500000000000000        0.0000000000000000     
  0.12500000000000000        0.0000000000000000        0.0000000000000000     
  0.15625000000000000        0.0000000000000000        0.0000000000000000     
  0.18750000000000000        0.0000000000000000        0.0000000000000000     
  0.21875000000000000        0.0000000000000000        0.0000000000000000     
  0.25000000000000000        0.0000000000000000        0.0000000000000000     
  0.12500000000000000        3.1250000000000000E-002   0.0000000000000000     
  0.15625000000000000        3.1250000000000000E-002   0.0000000000000000     
  0.18750000000000000        3.1250000000000000E-002   0.0000000000000000     
  0.21875000000000000        3.1250000000000000E-002   0.0000000000000000     
  0.25000000000000000        3.1250000000000000E-002   0.0000000000000000     
  0.12500000000000000        6.2500000000000000E-002   0.0000000000000000     
  0.15625000000000000        6.2500000000000000E-002   0.0000000000000000     
  0.18750000000000000        6.2500000000000000E-002   0.0000000000000000     
  0.21875000000000000        6.2500000000000000E-002   0.0000000000000000     
  0.25000000000000000        6.2500000000000000E-002   0.0000000000000000     
  0.12500000000000000        9.3750000000000000E-002   0.0000000000000000     
  0.15625000000000000        9.3750000000000000E-002   0.0000000000000000     
  0.18750000000000000        9.3750000000000000E-002   0.0000000000000000     
  0.21875000000000000        9.3750000000000000E-002   0.0000000000000000     
  0.25000000000000000        9.3750000000000000E-002   0.0000000000000000     
  0.12500000000000000       0.12500000000000000        0.0000000000000000     
  0.15625000000000000       0.12500000000000000        0.0000000000000000     
  0.18750000000000000       0.12500000000000000        0.0000000000000000     
  0.21875000000000000       0.12500000000000000        0.0000000000000000     
  0.25000000000000000       0.12500000000000000        0.0000000000000000     
  0.25000000000000000        0.0000000000000000        0.0000000000000000     
  0.28125000000000000        0.0000000000000000        0.0000000000000000     
  0.31250000000000000        0.0000000000000000        0.0000000000000000     
  0.34375000000000000        0.0000000000000000        0.0000000000000000     
  0.37500000000000000        0.0000000000000000        0.0000000000000000     
  0.25000000000000000        3.1250000000000000E-002   0.0000000000000000     
  0.28125000000000000        3.1250000000000000E-002   0.0000000000000000     
  0.31250000000000000        3.1250000000000000E-002   0.0000000000000000     
  0.34375000000000000        3.1250000000000000E-002   0.0000000000000000     
  0.37500000000000000        3.1250000000000000E-002   0.0000000000000000     
  0.25000000000000000        6.2500000000000000E-002   0.0000000000000000     
  0.28125000000000000        6.2500000000000000E-002   0.0000000000000000     
  0.31250000000000000        6.2500000000000000E-002   0.0000000000000000     
  0.34375000000000000        6.2500000000000000E-002   0.0000000000000000     
  0.37500000000000000        6.2500000000000000E-002   0.0000000000000000     
  0.25000000000000000        9.3750000000000000E-002   0.0000000000000000     
  0.28125000000000000        9.3750000000000000E-002   0.0000000000000000     
  0.31250000000000000        9.3750000000000000E-002   0.0000000000000000     
  0.34375000000000000        9.3750000000000000E-002   0.0000000000000000     
  0.37500000000000000        9.3750000000000000E-002   0.0000000000000000     
  0.25000000000000000       0.12500000000000000        0.0000000000000000     
  0.28125000000000000       0.12500000000000000        0.0000000000000000     
  0.31250000000000000       0.12500000000000000        0.0000000000000000     
  0.34375000000000000       0.12500000000000000        0.0000000000000000     
  0.37500000000000000       0.12500000000000000        0.0000000000000000     
  0.37500000000000000        0.0000000000000000        0.0000000000000000     
  0.40625000000000000        0.0000000000000000        0.0000000000000000     
  0.43750000000000000        0.0000000000000000        0.0000000000000000     
  0.46875000000000000        0.0000000000000000        0.0000000000000000     
  0.50000000000000000        0.0000000000000000        0.0000000000000000     
  0.37500000000000000        3.1250000000000000E-002   0.0000000000000000     
  0.40625000000000000        3.1250000000000000E-002   0.0000000000000000     
  0.43750000000000000        3.1250000000000000E-002   0.0000000000000000     
  0.46875000000000000        3.1250000000000000E-002   0.0000000000000000     
  0.50000000000000000        3.1250000000000000E-002   0.0000000000000000     
  0.37500000000000000        6.2500000000000000E-002   0.0000000000000000     
  0.40625000000000000        6.2500000000000000E-002   0.0000000000000000     
  0.43750000000000000        6.2500000000000000E-002   0.0000000000000000     
  0.46875000000000000        6.2500000000000000E-002   0.0000000000000000     
  0.50000000000000000        6.2500000000000000E-002   0.0000000000000000     
  0.37500000000000000        9.3750000000000000E-002   0.0000000000000000     
  0.40625000000000000        9.3750000000000000E-002   0.0000000000000000     
  0.43750000000000000        9.3750000000000000E-002   0.0000000000000000     
  0.46875000000000000        9.3750000000000000E-002   0.0000000000000000     
  0.50000000000000000        9.3750000000000000E-002   0.0000000000000000     
  0.37500000000000000       0.12500000000000000        0.0000000000000000     
  0.40625000000000000       0.12500000000000000        0.0000000000000000     
  0.43750000000000000       0.12500000000000000        0.0000000000000000     
  0.46875000000000000       0.12500000000000000        0.0000000000000000     
  0.50000000000000000       0.12500000000000000        0.0000000000000000     
  0.50000000000000000        0.0000000000000000        0.0000000000000000     
  0.53125000000000000        0.0000000000000000        0.0000000000000000     
  0.56250000000000000        0.0000000000000000        0.0000000000000000     
  0.59375000000000000        0.0000000000000000        0.0000000000000000     
  0.62500000000000000        0.0000000000000000        0.0000000000000000     
  0.50000000000000000        3.1250000000000000E-002   0.0000000000000000     
  0.53125000000000000        3.1250000000000000E-002   0.0000000000000000     
  0.56250000000000000        3.1250000000000000E-002   0.0000000000000000     
  0.59375000000000000        3.1250000000000000E-002   0.0000000000000000     
  0.62500000000000000        3.1250000000000000E-002   0.0000000000000000     
  0.50000000000000000        6.2500000000000000E-002   0.0000000000000000     
  0.53125000000000000        6.2500000000000000E-002   0.0000000000000000     
  0.56250000000000000        6.2500000000000000E-002   0.0000000000000000     
  0.59375000000000000        6.2500000000000000E-002   0.0000000000000000     
  0.62500000000000000        6.2500000000000000E-002   0.0000000000000000     
  0.50000000000000000        9.3750000000000000E-002   0.0000000000000000     
  0.53125000000000000        9.3750000000000000E-002   0.0000000000000000     
  0.56250000000000000        9.3750000000000000E-002   0.0000000000000000     
  0.59375000000000000        9.3750000000000000E-002   0.0000000000000000     
  0.62500000000000000        9.3750000000000000E-002   0.0000000000000000     
  0.50000000000000000       0.12500000000000000        0.0000000000000000     
  0.53125000000000000       0.12500000000000000        0.0000000000000000     
  0.56250000000000000       0.12500000000000000        0.0000000000000000     
  0.59375000000000000       0.12500000000000000        0.0000000000000000     
  0.62500000000000000       0.12500000000000000        0.0000000000000000     
  0.62500000000000000        0.0000000000000000        0.0000000000000000     
  0.65625000000000000        0.0000000000000000        0.0000000000000000     
  0.68750000000000000        0.0000000000000000        0.0000000000000000     
  0.71875000000000000        0.0000000000000000        0.0000000000000000     
  0.75000000000000000        0.0000000000000000        0.0000000000000000     
  0.62500000000000000        3.1250000000000000E-002   0.0000000000000000     
  0.65625000000000000        3.1250000000000000E-002   0.0000000000000000     
  0.68750000000000000        3.1250000000000000E-002   0.0000000000000000     
  0.71875000000000000        3.1250000000000000E-002   0.0000000000000000     
  0.75000000000000000        3.1250000000000000E-002   0.0000000000000000     
  0.62500000000000000        6.2500000000000000E-002   0.0000000000000000     
  0.65625000000000000        6.2500000000000000E-002   0.0000000000000000     
  0.68750000000000000        6.2500000000000000E-002   0.0000000000000000     
  0.71875000000000000        6.2500000000000000E-002   0.0000000000000000     
  0.75000000000000000        6.2500000000000000E-002   0.0000000000000000     
  0.62500000000000000        9.3750000000000000E-002   0.0000000000000000     
  0.65625000000000000        9.3750000000000000E-002   0.0000000000000000     
  0.68750000000000000        9.3750000000000000E-002   0.0000000000000000     
  0.71875000000000000        9.3750000000000000E-002   0.0000000000000000     
  0.75000000000000000        9.3750000000000000E-002   0.0000000000000000     
  0.62500000000000000       0.12500000000000000        0.0000000000000000     
  0.65625000000000000       0.12500000000000000        0.0000000000000000     
  0.68750000000000000       0.12500000000000000        0.0000000000000000     
  0.71875000000000000       0.12500000000000000        0.0000000000000000     
  0.75000000000000000       0.12500000000000000        0.0000000000000000     
  0.75000000000000000        0.0000000000000000        0.0000000000000000     
  0.78125000000000000        0.0000000000000000        0.0000000000000000     
  0.81250000000000000        0.0000000000000000        0.0000000000000000     
  0.84375000000000000        0.0000000000000000        0.0000000000000000     
  0.87500000000000000        0.0000000000000000        0.0000000000000000     
  0.75000000000000000        3.1250000000000000E-002   0.0000000000000000     
  0.78125000000000000        3.1250000000000000E-002   0.0000000000000000     
  0.81250000000000000        3.1250000000000000E-002   0.0000000000000000     
  0.84375000000000000        3.1250000000000000E-002   0.0000000000000000     
  0.87500000000000000        3.1250000000000000E-002   0.0000000000000000     
  0.75000000000000000        6.2500000000000000E-002   0.0000000000000000     
  0.78125000000000000        6.2500000000000000E-002   0.0000000000000000     
  0.81250000000000000        6.2500000000000000E-002   0.0000000000000000     
  0.84375000000000000        6.2500000000000000E-002   0.0000000000000000     
  0.87500000000000000        6.2500000000000000E-002   0.0000000000000000     
  0.75000000000000000        9.3750000000000000E-002   0.0000000000000000     
  0.78125000000000000        9.3750000000000000E-002   0.0000000000000000     
  0.81250000000000000        9.3750000000000000E-002   0.0000000000000000     
  0.84375000000000000        9.3750000000000000E-002   0.0000000000000000     
  0.87500000000000000        9.3750000000000000E-002   0.0000000000000000     
  0.75000000000000000       0.12500000000000000        0.0000000000000000     
  0.78125000000000000       0.12500000000000000        0.0000000000000000     
  0.81250000000000000       0.12500000000000000        0.0000000000000000     
  0.84375000000000000       0.12500000000000000        0.0000000000000000     
  0.87500000000000000       0.12500000000000000        0.0000000000000000     
  0.87500000000000000        0.0000000000000000        0.0000000000000000     
  0.90625000000000000        0.0000000000000000        0.0000000000000000     
  0.93750000000000000        0.0000000000000000        0.0000000000000000     
  0.96875000000000000        0.0000000000000000        0.0000000000000000     
   1.0000000000000000        0.0000000000000000        0.0000000000000000     
  0.87500000000000000        3.1250000000000000E-002   0.0000000000000000     
  0.90625000000000000        3.1250000000000000E-002   0.0000000000000000     
  0.93750000000000000        3.1250000000000000E-002   0.0000000000000000     
  0.96875000000000000        3.1250000000000000E-002   0.0000000000000000     
   1.0000000000000000        3.1250000000000000E-002   0.0000000000000000     
  0.87500000000000000        6.2500000000000000E-002   0.0000000000000000     
  0.90625000000000000        6.2500000000000000E-002   0.0000000000000000     
  0.93750000000000000        6.2500000000000000E-002   0.0000000000000000     
  0.96875000000000000        6.2500000000000000E-002   0.0000000000000000     
   1.0000000000000000        6.2500000000000000E-002   0.0000000000000000     
  0.87500000000000000        9.3750000000000000E-002   0.0000000000000000     
  0.90625000000000000        9.3750000000000000E-002   0.0000000000000000     
  0.93750000000000000        9.3750000000000000E-002   0.0000000000000000     
  0.96875000000000000        9.3750000000000000E-002   0.0000000000000000     
   1.0000000000000000        9.3750000000000000E-002   0.0000000000000000     
  0.87500000000000000       0.12500000000000000        0.0000000000000000     
  0.90625000000000000       0.12500000000000000        0.0000000000000000     
  0.93750000000000000       0.12500000000000000        0.0000000000000000     
  0.96875000000000000       0.12500000000000000        0.0000000000000000     
   1.0000000000000000       0.12500000000000000        0.0000000000000000     
   0.0000000000000000       0.12500000000000000        0.0000000000000000     
   3.1250000000000000E-002  0.12500000000000000        0.0000000000000000     
   6.2500000000000000E-002  0.12500000000000000        0.0000000000000000     
   9.3750000000000000E-002  0.12500000000000000        0.0000000000000000     
  0.12500000000000000       0.12500000000000000        0.0000000000000000     
   0.0000000000000000       0.15625000000000000        0.0000000000000000     
   3.1250000000000000E-002  0.15625000000000000        0.0000000000000000     
   6.2500000000000000E-002  0.15625000000000000        0.0000000000000000     
   9.3750000000000000E-002  0.15625000000000000        0.0000000000000000     
  0.12500000000000000       0.15625000000000000        0.0000000000000000     
   0.0000000000000000       0.18750000000000000        0.0000000000000000     
   3.1250000000000000E-002  0.18750000000000000        0.0000000000000000     
   6.2500000000000000E-002  0.18750000000000000        0.0000000000000000     
   9.3750000000000000E-002  0.18750000000000000        0.0000000000000000     
  0.12500000000000000       0.18750000000000000        0.0000000000000000     
   0.0000000000000000       0.21875000000000000        0.0000000000000000     
   3.1250000000000000E-002  0.21875000000000000        0.0000000000000000     
   6.2500000000000000E-002  0.21875000000000000        0.0000000000000000     
   9.3750000000000000E-002  0.21875000000000000        0.0000000000000000     
  0.12500000000000000       0.21875000000000000        0.0000000000000000     
   0.0000000000000000       0.25000000000000000        0.0000000000000000     
   3.1250000000000000E-002  0.25000000000000000        0.0000000000000000     
   6.2500000000000000E-002  0.25000000000000000        0.0000000000000000     
   9.3750000000000000E-002  0.25000000000000000        0.0000000000000000     
  0.12500000000000000       0.25000000000000000        0.0000000000000000     
  0.12500000000000000       0.12500000000000000        0.0000000000000000     
  0.15625000000000000       0.12500000000000000        0.0000000000000000     
  0.18750000000000000       0.12500000000000000        0.0000000000000000     
  0.21875000000000000       0.12500000000000000        0.0000000000000000     
  0.25000000000000000       0.12500000000000000        0.0000000000000000     
  0.12500000000000000       0.15625000000000000        0.0000000000000000     
  0.15625000000000000       0.15625000000000000        0.0000000000000000     
  0.18750000000000000       0.15625000000000000        0.0000000000000000     
  0.21875000000000000       0.15625000000000000        0.0000000000000000     
  0.25000000000000000       0.15625000000000000        0.0000000000000000     
  0.12500000000000000       0.18750000000000000        0.0000000000000000     
  0.15625000000000000       0.18750000000000000        0.0000000000000000     
  0.18750000000000000       0.18750000000000000        0.0000000000000000     
  0.21875000000000000       0.18750000000000000        0.0000000000000000     
  0.25000000000000000       0.18750000000000000        0.0000000000000000     
  0.12500000000000000       0.21875000000000000        0.0000000000000000     
  0.15625000000000000       0.21875000000000000        0.0000000000000000     
  0.18750000000000000       0.21875000000000000        0.0000000000000000     
  0.21875000000000000       0.21875000000000000        0.0000000000000000     
  0.25000000000000000       0.21875000000000000        0.0000000000000000     
  0.12500000000000000       0.25000000000000000        0.0000000000000000     
  0.15625000000000000       0.25000000000000000        0.0000000000000000     
  0.18750000000000000       0.25000000000000000        0.0000000000000000     
  0.21875000000000000       0.25000000000000000        0.0000000000000000     
  0.25000000000000000       0.25000000000000000        0.0000000000000000     
  0.25000000000000000       0.12500000000000000        0.0000000000000000     
  0.28125000000000000       0.12500000000000000        0.0000000000000000     
  0.31250000000000000       0.12500000000000000        0.0000000000000000     
  0.34375000000000000       0.12500000000000000        0.0000000000000000     
  0.37500000000000000       0.12500000000000000        0.0000000000000000     
  0.25000000000000000       0.15625000000000000        0.0000000000000000     
  0.28125000000000000       0.15625000000000000        0.0000000000000000     
  0.31250000000000000       0.15625000000000000        0.0000000000000000     
  0.34375000000000000       0.15625000000000000        0.0000000000000000     
  0.37500000000000000       0.15625000000000000        0.0000000000000000     
  0.25000000000000000       0.18750000000000000        0.0000000000000000     
  0.28125000000000000       0.18750000000000000        0.0000000000000000     
  0.31250000000000000       0.18750000000000000        0.0000000000000000     
  0.34375000000000000       0.18750000000000000        0.0000000000000000     
  0.37500000000000000       0.18750000000000000        0.0000000000000000     
  0.25000000000000000       0.21875000000000000        0.0000000000000000     
  0.28125000000000000       0.21875000000000000        0.0000000000000000     
  0.31250000000000000       0.21875000000000000        0.0000000000000000     
  0.34375000000000000       0.21875000000000000        0.0000000000000000     
  0.37500000000000000       0.21875000000000000        0.0000000000000000     
  0.25000000000000000       0.25000000000000000        0.0000000000000000     
  0.28125000000000000       0.25000000000000000        0.0000000000000000     
  0.31250000000000000       0.25000000000000000        0.0000000000000000     
  0.34375000000000000       0.25000000000000000        0.0000000000000000     
  0.37500000000000000       0.25000000000000000        0.0000000000000000     
  0.37500000000000000       0.12500000000000000        0.0000000000000000     
  0.40625000000000000       0.12500000000000000        0.0000000000000000     
  0.43750000000000000       0.12500000000000000        0.0000000000000000     
  0.46875000000000000       0.12500000000000000        0.0000000000000000     
  0.50000000000000000       0.12500000000000000        0.0000000000000000     
  0.37500000000000000       0.15625000000000000        0.0000000000000000     
  0.40625000000000000       0.15625000000000000        0.0000000000000000     
  0.43750000000000000       0.15625000000000000        0.0000000000000000     
  0.46875000000000000       0.15625000000000000        0.0000000000000000     
  0.50000000000000000       0.15625000000000000        0.0000000000000000     
  0.37500000000000000       0.18750000000000000        0.0000000000000000     
  0.40625000000000000       0.18750000000000000        0.0000000000000000     
  0.43750000000000000       0.18750000000000000        0.0000000000000000     
  0.46875000000000000       0.18750000000000000        0.0000000000000000     
  0.50000000000000000       0.18750000000000000        0.0000000000000000     
  0.37500000000000000       0.21875000000000000        0.0000000000000000     
  0.40625000000000000       0.21875000000000000        0.0000000000000000     
  0.43750000000000000       0.21875000000000000        0.0000000000000000     
  0.46875000000000000       0.21875000000000000        0.0000000000000000     
  0.50000000000000000       0.21875000000000000        0.0000000000000000     
  0.37500000000000000       0.25000000000000000        0.0000000000000000     
  0.40625000000000000       0.25000000000000000        0.0000000000000000     
  0.43750000000000000       0.25000000000000000        0.0000000000000000     
  0.46875000000000000       0.25000000000000000        0.0000000000000000     
  0.50000000000000000       0.25000000000000000        0.0000000000000000     
  0.50000000000000000       0.12500000000000000        0.0000000000000000     
  0.53125000000000000       0.12500000000000000        0.0000000000000000     
  0.56250000000000000       0.12500000000000000        0.0000000000000000     
  0.59375000000000000       0.12500000000000000        0.0000000000000000     
  0.62500000000000000       0.12500000000000000        0.0000000000000000     
  0.50000000000000000       0.15625000000000000        0.0000000000000000     
  0.53125000000000000       0.15625000000000000        0.0000000000000000     
  0.56250000000000000       0.15625000000000000        0.0000000000000000     
  0.59375000000000000       0.15625000000000000        0.0000000000000000     
  0.62500000000000000       0.15625000000000000        0.0000000000000000     
  0.50000000000000000       0.18750000000000000        0.0000000000000000     
  0.53125000000000000       0.18750000000000000        0.0000000000000000     
  0.56250000000000000       0.18750000000000000        0.0000000000000000     
  0.59375000000000000       0.18750000000000000        0.0000000000000000     
  0.62500000000000000       0.18750000000000000        0.0000000000000000     
  0.50000000000000000       0.21875000000000000        0.0000000000000000     
  0.53125000000000000       0.21875000000000000        0.0000000000000000     
  0.56250000000000000       0.21875000000000000        0.0000000000000000     
  0.59375000000000000       0.21875000000000000        0.0000000000000000     
  0.62500000000000000       0.21875000000000000        0.0000000000000000     
  0.50000000000000000       0.25000000000000000        0.0000000000000000     
  0.53125000000000000       0.25000000000000000        0.0000000000000000     
  0.56250000000000000       0.25000000000000000        0.0000000000000000     
  0.59375000000000000       0.25000000000000000        0.0000000000000000     
  0.62500000000000000       0.25000000000000000        0.0000000000000000     
  0.62500000000000000       0.12500000000000000        0.0000000000000000     
  0.65625000000000000       0.12500000000000000        0.0000000000000000     
  0.68750000000000000       0.12500000000000000        0.0000000000000000     
  0.71875000000000000       0.12500000000000000        0.0000000000000000     
  0.75000000000000000       0.12500000000000000        0.0000000000000000     
  0.62500000000000000       0.15625000000000000        0.0000000000000000     
  0.65625000000000000       0.15625000000000000        0.0000000000000000     
  0.68750000000000000       0.15625000000000000        0.0000000000000000     
  0.71875000000000000       0.15625000000000000        0.0000000000000000     
  0.75000000000000000       0.15625000000000000        0.0000000000000000     
  0.62500000000000000       0.18750000000000000        0.0000000000000000     
  0.65625000000000000       0.18750000000000000        0.0000000000000000     
  0.68750000000000000       0.18750000000000000        0.0000000000000000     
  0.71875000000000000       0.18750000000000000        0.0000000000000000     
  0.75000000000000000       0.18750000000000000        0.0000000000000000     
  0.62500000000000000       0.21875000000000000        0.0000000000000000     
  0.65625000000000000       0.21875000000000000        0.0000000000000000     
  0.68750000000000000       0.21875000000000000        0.0000000000000000     
  0.71875000000000000       0.21875000000000000        0.0000000000000000     
  0.75000000000000000       0.21875000000000000        0.0000000000000000     
  0.62500000000000000       0.25000000000000000        0.0000000000000000     
  0.65625000000000000       0.25000000000000000        0.0000000000000000     
  0.68750000000000000       0.25000000000000000        0.0000000000000000     
  0.71875000000000000       0.25000000000000000        0.0000000000000000     
  0.75000000000000000       0.25000000000000000        0.0000000000000000     
  0.75000000000000000       0.12500000000000000        0.0000000000000000     
  0.78125000000000000       0.12500000000000000        0.0000000000000000     
  0.81250000000000000       0.12500000000000000        0.0000000000000000     
  0.84375000000000000       0.12500000000000000        0.0000000000000000     
  0.87500000000000000       0.12500000000000000        0.0000000000000000     
  0.75000000000000000       0.15625000000000000        0.0000000000000000     
  0.78125000000000000       0.15625000000000000        0.0000000000000000     
  0.81250000000000000       0.15625000000000000        0.0000000000000000     
  0.84375000000000000       0.15625000000000000        0.0000000000000000     
  0.87500000000000000       0.15625000000000000        0.0000000000000000     
  0.75000000000000000       0.18750000000000000        0.0000000000000000     
  0.78125000000000000       0.18750000000000000        0.0000000000000000     
  0.81250000000000000       0.18750000000000000        0.0000000000000000     
  0.84375000000000000       0.18750000000000000        0.0000000000000000     
  0.87500000000000000       0.18750000000000000        0.0000000000000000     
  0.75000000000000000       0.21875000000000000        0.0000000000000000     
  0.78125000000000000       0.21875000000000000        0.0000000000000000     
  0.81250000000000000       0.21875000000000000        0.0000000000000000     
  0.84375000000000000       0.21875000000000000        0.0000000000000000     
  0.87500000000000000       0.21875000000000000        0.0000000000000000     
  0.75000000000000000       0.25000000000000000        0.0000000000000000     
  0.78125000000000000       0.25000000000000000        0.0000000000000000     
  0.81250000000000000       0.25000000000000000        0.0000000000000000     
  0.84375000000000000       0.25000000000000000        0.0000000000000000     
  0.87500000000000000       0.25000000000000000        0.0000000000000000     
  0.87500000000000000       0.12500000000000000        0.0000000000000000     
  0.90625000000000000       0.12500000000000000        0.0000000000000000     
  0.93750000000000000       0.12500000000000000        0.0000000000000000     
  0.96875000000000000       0.12500000000000000        0.0000000000000000     
   1.0000000000000000       0.12500000000000000        0.0000000000000000     
  0.87500000000000000       0.15625000000000000        0.0000000000000000     
  0.90625000000000000       0.15625000000000000        0.0000000000000000     
  0.93750000000000000       0.15625000000000000        0.0000000000000000     
  0.96875000000000000       0.15625000000000000        0.0000000000000000     
   1.0000000000000000       0.15625000000000000        0.0000000000000000     
  0.87500000000000000       0.18750000000000000        0.0000000000000000     
  0.90625000000000000       0.18750000000000000        0.0000000000000000     
  0.93750000000000000       0.18750000000000000        0.0000000000000000     
  0.96875000000000000       0.18750000000000000        0.0000000000000000     
   1.0000000000000000       0.18750000000000000        0.0000000000000000     
  0.87500000000000000       0.21875000000000000        0.0000000000000000     
  0.90625000000000000       0.21875000000000000        0.0000000000000000     
  0.93750000000000000       0.21875000000000000        0.0000000000000000     
  0.96875000000000000       0.21875000000000000        0.0000000000000000     
   1.0000000000000000       0.21875000000000000        0.0000000000000000     
  0.87500000000000000       0.25000000000000000        0.0000000000000000     
  0.90625000000000000       0.25000000000000000        0.0000000000000000     
  0.93750000000000000       0.25000000000000000        0.0000000000000000     
  0.96875000000000000       0.25000000000000000        0.0000000000000000     
   1.0000000000000000       0.25000000000000000        0.0000000000000000     
   0.0000000000000000       0.25000000000000000        0.0000000000000000     
   3.1250000000000000E-002  0.25000000000000000        0.0000000000000000     
   6.2500000000000000E-002  0.25000000000000000        0.0000000000000000     
   9.3750000000000000E-002  0.25000000000000000        0.0000000000000000     
  0.12500000000000000       0.25000000000000000        0.0000000000000000     
   0.0000000000000000       0.28125000000000000        0.0000000000000000     
   3.1250000000000000E-002  0.28125000000000000        0.0000000000000000     
   6.2500000000000000E-002  0.28125000000000000        0.0000000000000000     
   9.3750000000000000E-002  0.28125000000000000        0.0000000000000000     
  0.12500000000000000       0.28125000000000000        0.0000000000000000     
   0.0000000000000000       0.31250000000000000        0.0000000000000000     
   3.1250000000000000E-002  0.31250000000000000        0.0000000000000000     
   6.2500000000000000E-002  0.31250000000000000        0.0000000000000000     
   9.3750000000000000E-002  0.31250000000000000        0.0000000000000000     
  0.12500000000000000       0.31250000000000000        0.0000000000000000     
   0.0000000000000000       0.34375000000000000        0.0000000000000000     
   3.1250000000000000E-002  0.34375000000000000        0.0000000000000000     
   6.2500000000000000E-002  0.34375000000000000        0.0000000000000000     
   9.3750000000000000E-002  0.34375000000000000        0.0000000000000000     
  0.12500000000000000       0.34375000000000000        0.0000000000000000     
   0.0000000000000000       0.37500000000000000        0.0000000000000000     
   3.1250000000000000E-002  0.37500000000000000        0.0000000000000000     
   6.2500000000000000E-002  0.37500000000000000        0.0000000000000000     
   9.3750000000000000E-002  0.37500000000000000        0.0000000000000000     
  0.12500000000000000       0.37500000000000000        0.0000000000000000     
  0.12500000000000000       0.25000000000000000        0.0000000000000000     
  0.15625000000000000       0.25000000000000000        0.0000000000000000     
  0.18750000000000000       0.25000000000000000        0.0000000000000000     
  0.21875000000000000       0.25000000000000000        0.0000000000000000     
  0.25000000000000000       0.25000000000000000        0.0000000000000000     
  0.12500000000000000       0.28125000000000000        0.0000000000000000     
  0.15625000000000000       0.28125000000000000        0.0000000000000000     
  0.18750000000000000       0.28125000000000000        0.0000000000000000     
  0.21875000000000000       0.28125000000000000        0.0000000000000000     
  0.25000000000000000       0.28125000000000000        0.0000000000000000     
  0.12500000000000000       0.31250000000000000        0.0000000000000000     
  0.15625000000000000       0.31250000000000000        0.0000000000000000     
  0.18750000000000000       0.31250000000000000        0.0000000000000000     
  0.21875000000000000       0.31250000000000000        0.0000000000000000     
  0.25000000000000000       0.31250000000000000        0.0000000000000000     
  0.12500000000000000       0.34375000000000000        0.0000000000000000     
  0.15625000000000000       0.34375000000000000        0.0000000000000000     
  0.18750000000000000       0.34375000000000000        0.0000000000000000     
  0.21875000000000000       0.34375000000000000        0.0000000000000000     
  0.25000000000000000       0.34375000000000000        0.0000000000000000     
  0.12500000000000000       0.37500000000000000        0.0000000000000000     
  0.15625000000000000       0.37500000000000000        0.0000000000000000     
  0.18750000000000000       0.37500000000000000        0.0000000000000000     
  0.21875000000000000       0.37500000000000000        0.0000000000000000     
  0.25000000000000000       0.37500000000000000        0.0000000000000000     
  0.25000000000000000       0.25000000000000000        0.0000000000000000     
  0.28125000000000000       0.25000000000000000        0.0000000000000000     
  0.31250000000000000       0.25000000000000000        0.0000000000000000     
  0.34375000000000000       0.25000000000000000        0.0000000000000000     
  0.37500000000000000       0.25000000000000000        0.0000000000000000     
  0.25000000000000000       0.28125000000000000        0.0000000000000000     
  0.28125000000000000       0.28125000000000000        0.0000000000000000     
  0.31250000000000000       0.28125000000000000        0.0000000000000000     
  0.34375000000000000       0.28125000000000000        0.0000000000000000     
  0.37500000000000000       0.28125000000000000        0.0000000000000000     
  0.25000000000000000       0.31250000000000000        0.0000000000000000     
  0.28125000000000000       0.31250000000000000        0.0000000000000000     
  0.31250000000000000       0.31250000000000000        0.0000000000000000     
  0.34375000000000000       0.31250000000000000        0.0000000000000000     
  0.37500000000000000       0.31250000000000000        0.0000000000000000     
  0.25000000000000000       0.34375000000000000        0.0000000000000000     
  0.28125000000000000       0.34375000000000000        0.0000000000000000     
  0.31250000000000000       0.34375000000000000        0.0000000000000000     
  0.34375000000000000       0.34375000000000000        0.0000000000000000     
  0.37500000000000000       0.34375000000000000        0.0000000000000000     
  0.25000000000000000       0.37500000000000000        0.0000000000000000     
  0.28125000000000000       0.37500000000000000        0.0000000000000000     
  0.31250000000000000       0.37500000000000000        0.0000000000000000     
  0.34375000000000000       0.37500000000000000        0.0000000000000000     
  0.37500000000000000       0.37500000000000000        0.0000000000000000     
  0.37500000000000000       0.25000000000000000        0.0000000000000000     
  0.40625000000000000       0.25000000000000000        0.0000000000000000     
  0.43750000000000000       0.25000000000000000        0.0000000000000000     
  0.46875000000000000       0.25000000000000000        0.0000000000000000     
  0.50000000000000000       0.25000000000000000        0.0000000000000000     
  0.37500000000000000       0.28125000000000000        0.0000000000000000     
  0.40625000000000000       0.28125000000000000        0.0000000000000000     
  0.43750000000000000       0.28125000000000000        0.0000000000000000     
  0.46875000000000000       0.28125000000000000        0.0000000000000000     
  0.50000000000000000       0.28125000000000000        0.0000000000000000     
  0.37500000000000000       0.31250000000000000        0.0000000000000000     
  0.40625000000000000       0.31250000000000000        0.0000000000000000     
  0.43750000000000000       0.31250000000000000        0.0000000000000000     
  0.46875000000000000       0.31250000000000000        0.0000000000000000     
  0.50000000000000000       0.31250000000000000        0.0000000000000000     
  0.37500000000000000       0.34375000000000000        0.0000000000000000     
  0.40625000000000000       0.34375000000000000        0.0000000000000000     
  0.43750000000000000       0.34375000000000000        0.0000000000000000     
  0.46875000000000000       0.34375000000000000        0.0000000000000000     
  0.50000000000000000       0.34375000000000000        0.0000000000000000     
  0.37500000000000000       0.37500000000000000        0.0000000000000000     
  0.40625000000000000       0.37500000000000000        0.0000000000000000     
  0.43750000000000000       0.37500000000000000        0.0000000000000000     
  0.46875000000000000       0.37500000000000000        0.0000000000000000     
  0.50000000000000000       0.37500000000000000        0.0000000000000000     
  0.50000000000000000       0.25000000000000000        0.0000000000000000     
  0.53125000000000000       0.25000000000000000        0.0000000000000000     
  0.56250000000000000       0.25000000000000000        0.0000000000000000     
  0.59375000000000000       0.25000000000000000        0.0000000000000000     
  0.62500000000000000       0.25000000000000000        0.0000000000000000     
  0.50000000000000000       0.28125000000000000        0.0000000000000000     
  0.53125000000000000       0.28125000000000000        0.0000000000000000     
  0.56250000000000000       0.28125000000000000        0.0000000000000000     
  0.59375000000000000       0.28125000000000000        0.0000000000000000     
  0.62500000000000000       0.28125000000000000        0.0000000000000000     
  0.50000000000000000       0.31250000000000000        0.0000000000000000     
  0.53125000000000000       0.31250000000000000        0.0000000000000000     
  0.56250000000000000       0.31250000000000000        0.0000000000000000     
  0.59375000000000000       0.31250000000000000        0.0000000000000000     
  0.62500000000000000       0.31250000000000000        0.0000000000000000     
  0.50000000000000000       0.34375000000000000        0.0000000000000000     
  0.53125000000000000       0.34375000000000000        0.0000000000000000     
  0.56250000000000000       0.34375000000000000        0.0000000000000000     
  0.59375000000000000       0.34375000000000000        0.0000000000000000     
  0.62500000000000000       0.34375000000000000        0.0000000000000000     
  0.50000000000000000       0.37500000000000000        0.0000000000000000     
  0.53125000000000000       0.37500000000000000        0.0000000000000000     
  0.56250000000000000       0.37500000000000000        0.0000000000000000     
  0.59375000000000000       0.37500000000000000        0.0000000000000000     
  0.62500000000000000       0.37500000000000000        0.0000000000000000     
  0.62500000000000000       0.25000000000000000        0.0000000000000000     
  0.65625000000000000       0.25000000000000000        0.0000000000000000     
  0.68750000000000000       0.25000000000000000        0.0000000000000000     
  0.71875000000000000       0.25000000000000000        0.0000000000000000     
  0.75000000000000000       0.25000000000000000        0.0000000000000000     
  0.62500000000000000       0.28125000000000000        0.0000000000000000     
  0.65625000000000000       0.28125000000000000        0.0000000000000000     
  0.68750000000000000       0.28125000000000000        0.0000000000000000     
  0.71875000000000000       0.28125000000000000        0.0000000000000000     
  0.75000000000000000       0.28125000000000000        0.0000000000000000     
  0.62500000000000000       0.31250000000000000        0.0000000000000000     
  0.65625000000000000       0.31250000000000000        0.0000000000000000     
  0.68750000000000000       0.31250000000000000        0.0000000000000000     
  0.71875000000000000       0.31250000000000000        0.0000000000000000     
  0.75000000000000000       0.31250000000000000        0.0000000000000000     
  0.62500000000000000       0.34375000000000000        0.0000000000000000     
  0.65625000000000000       0.34375000000000000        0.0000000000000000     
  0.68750000000000000       0.34375000000000000        0.0000000000000000     
  0.71875000000000000       0.34375000000000000        0.0000000000000000     
  0.75000000000000000       0.34375000000000000        0.0000000000000000     
  0.62500000000000000       0.37500000000000000        0.0000000000000000     
  0.65625000000000000       0.37500000000000000        0.0000000000000000     
  0.68750000000000000       0.37500000000000000        0.0000000000000000     
  0.71875000000000000       0.37500000000000000        0.0000000000000000     
  0.75000000000000000       0.37500000000000000        0.0000000000000000     
  0.75000000000000000       0.25000000000000000        0.0000000000000000     
  0.78125000000000000       0.25000000000000000        0.0000000000000000     
  0.81250000000000000       0.25000000000000000        0.0000000000000000     
  0.84375000000000000       0.25000000000000000        0.0000000000000000     
  0.87500000000000000       0.25000000000000000        0.0000000000000000     
  0.75000000000000000       0.28125000000000000        0.0000000000000000     
  0.78125000000000000       0.28125000000000000        0.0000000000000000     
  0.81250000000000000       0.28125000000000000        0.0000000000000000     
  0.84375000000000000       0.28125000000000000        0.0000000000000000     
  0.87500000000000000       0.28125000000000000        0.0000000000000000     
  0.75000000000000000       0.31250000000000000        0.0000000000000000     
  0.78125000000000000       0.31250000000000000        0.0000000000000000     
  0.81250000000000000       0.31250000000000000        0.0000000000000000     
  0.84375000000000000       0.31250000000000000        0.0000000000000000     
  0.87500000000000000       0.31250000000000000        0.0000000000000000     
  0.75000000000000000       0.34375000000000000        0.0000000000000000     
  0.78125000000000000       0.34375000000000000        0.0000000000000000     
  0.81250000000000000       0.34375000000000000        0.0000000000000000     
  0.84375000000000000       0.34375000000000000        0.0000000000000000     
  0.87500000000000000       0.34375000000000000        0.0000000000000000     
  0.75000000000000000       0.37500000000000000        0.0000000000000000     
  0.78125000000000000       0.37500000000000000        0.0000000000000000     
  0.81250000000000000       0.37500000000000000        0.0000000000000000     
  0.84375000000000000       0.37500000000000000        0.0000000000000000     
  0.87500000000000000       0.37500000000000000        0.0000000000000000     
  0.87500000000000000       0.25000000000000000        0.0000000000000000     
  0.90625000000000000       0.25000000000000000        0.0000000000000000     
  0.93750000000000000       0.25000000000000000        0.0000000000000000     
  0.96875000000000000       0.25000000000000000        0.0000000000000000     
   1.0000000000000000       0.25000000000000000        0.0000000000000000     
  0.87500000000000000       0.28125000000000000        0.0000000000000000     
  0.90625000000000000       0.28125000000000000        0.0000000000000000     
  0.93750000000000000       0.28125000000000000        0.0000000000000000     
  0.96875000000000000       0.28125000000000000        0.0000000000000000     
   1.0000000000000000       0.28125000000000000        0.0000000000000000     
  0.87500000000000000       0.31250000000000000        0.0000000000000000     
  0.90625000000000000       0.31250000000000000        0.0000000000000000     
  0.93750000000000000       0.31250000000000000        0.0000000000000000     
  0.96875000000000000       0.31250000000000000        0.0000000000000000     
   1.0000000000000000       0.31250000000000000        0.0000000000000000     
  0.87500000000000000       0.34375000000000000        0.0000000000000000     
  0.90625000000000000       0.34375000000000000        0.0000000000000000     
  0.93750000000000000       0.34375000000000000        0.0000000000000000     
  0.96875000000000000       0.34375000000000000        0.0000000000000000     
   1.0000000000000000       0.34375000000000000        0.0000000000000000     
  0.87500000000000000       0.37500000000000000        0.0000000000000000     
  0.90625000000000000       0.37500000000000000        0.0000000000000000     
  0.93750000000000000       0.37500000000000000        0.0000000000000000     
  0.96875000000000000       0.37500000000000000        0.0000000000000000     
   1.0000000000000000       0.37500000000000000        0.0000000000000000     
   0.0000000000000000       0.37500000000000000        0.0000000000000000     
   3.1250000000000000E-002  0.37500000000000000        0.0000000000000000     
   6.2500000000000000E-002  0.37500000000000000        0.0000000000000000     
   9.3750000000000000E-002  0.37500000000000000        0.0000000000000000     
  0.12500000000000000       0.37500000000000000        0.0000000000000000     
   0.0000000000000000       0.40625000000000000        0.0000000000000000     
   3.1250000000000000E-002  0.40625000000000000        0.0000000000000000     
   6.2500000000000000E-002  0.40625000000000000        0.0000000000000000     
   9.3750000000000000E-002  0.40625000000000000        0.0000000000000000     
  0.12500000000000000       0.40625000000000000        0.0000000000000000     
   0.0000000000000000       0.43750000000000000        0.0000000000000000     
   3.1250000000000000E-002  0.43750000000000000        0.0000000000000000     
   6.2500000000000000E-002  0.43750000000000000        0.0000000000000000     
   9.3750000000000000E-002  0.43750000000000000        0.0000000000000000     
  0.12500000000000000       0.43750000000000000        0.0000000000000000     
   0.0000000000000000       0.46875000000000000        0.0000000000000000     
   3.1250000000000000E-002  0.46875000000000000        0.0000000000000000     
   6.2500000000000000E-002  0.46875000000000000        0.0000000000000000     
   9.3750000000000000E-002  0.46875000000000000        0.0000000000000000     
  0.12500000000000000       0.46875000000000000        0.0000000000000000     
   0.0000000000000000       0.50000000000000000        0.0000000000000000     
   3.1250000000000000E-002  0.50000000000000000        0.0000000000000000     
   6.2500000000000000E-002  0.50000000000000000        0.0000000000000000     
   9.3750000000000000E-002  0.50000000000000000        0.0000000000000000     
  0.12500000000000000       0.50000000000000000        0.0000000000000000     
  0.12500000000000000       0.37500000000000000        0.0000000000000000     
  0.15625000000000000       0.37500000000000000        0.0000000000000000     
  0.18750000000000000       0.37500000000000000        0.0000000000000000     
  0.21875000000000000       0.37500000000000000        0.0000000000000000     
  0.25000000000000000       0.37500000000000000        0.0000000000000000     
  0.12500000000000000       0.40625000000000000        0.0000000000000000     
  0.15625000000000000       0.40625000000000000        0.0000000000000000     
  0.18750000000000000       0.40625000000000000        0.0000000000000000     
  0.21875000000000000       0.40625000000000000        0.0000000000000000     
  0.25000000000000000       0.40625000000000000        0.0000000000000000     
  0.12500000000000000       0.43750000000000000        0.0000000000000000     
  0.15625000000000000       0.43750000000000000        0.0000000000000000     
  0.18750000000000000       0.43750000000000000        0.0000000000000000     
  0.21875000000000000       0.43750000000000000        0.0000000000000000     
  0.25000000000000000       0.43750000000000000        0.0000000000000000     
  0.12500000000000000       0.46875000000000000        0.0000000000000000     
  0.15625000000000000       0.46875000000000000        0.0000000000000000     
  0.18750000000000000       0.46875000000000000        0.0000000000000000     
  0.21875000000000000       0.46875000000000000        0.0000000000000000     
  0.25000000000000000       0.46875000000000000        0.0000000000000000     
  0.12500000000000000       0.50000000000000000        0.0000000000000000     
  0.15625000000000000       0.50000000000000000        0.0000000000000000     
  0.18750000000000000       0.50000000000000000        0.0000000000000000     
  0.21875000000000000       0.50000000000000000        0.0000000000000000     
  0.25000000000000000       0.50000000000000000        0.0000000000000000     
  0.25000000000000000       0.37500000000000000        0.0000000000000000     
  0.28125000000000000       0.37500000000000000        0.0000000000000000     
  0.31250000000000000       0.37500000000000000        0.0000000000000000     
  0.34375000000000000       0.37500000000000000        0.0000000000000000     
  0.37500000000000000       0.37500000000000000        0.0000000000000000     
  0.25000000000000000       0.40625000000000000        0.0000000000000000     
  0.28125000000000000       0.40625000000000000        0.0000000000000000     
  0.31250000000000000       0.40625000000000000        0.0000000000000000     
  0.34375000000000000       0.40625000000000000        0.0000000000000000     
  0.37500000000000000       0.40625000000000000        0.0000000000000000     
  0.25000000000000000       0.43750000000000000        0.0000000000000000     
  0.28125000000000000       0.43750000000000000        0.0000000000000000     
  0.31250000000000000       0.43750000000000000        0.0000000000000000     
  0.34375000000000000       0.43750000000000000        0.0000000000000000     
  0.37500000000000000       0.43750000000000000        0.0000000000000000     
  0.25000000000000000       0.46875000000000000        0.0000000000000000     
  0.28125000000000000       0.46875000000000000        0.0000000000000000     
  0.31250000000000000       0.46875000000000000        0.0000000000000000     
  0.34375000000000000       0.46875000000000000        0.0000000000000000     
  0.37500000000000000       0.46875000000000000        0.0000000000000000     
  0.25000000000000000       0.50000000000000000        0.0000000000000000     
  0.28125000000000000       0.50000000000000000        0.0000000000000000     
  0.31250000000000000       0.50000000000000000        0.0000000000000000     
  0.34375000000000000       0.50000000000000000        0.0000000000000000     
  0.37500000000000000       0.50000000000000000        0.0000000000000000     
  0.37500000000000000       0.37500000000000000        0.0000000000000000     
  0.40625000000000000       0.37500000000000000        0.0000000000000000     
  0.43750000000000000       0.37500000000000000        0.0000000000000000     
  0.46875000000000000       0.37500000000000000        0.0000000000000000     
  0.50000000000000000       0.37500000000000000        0.0000000000000000     
  0.37500000000000000       0.40625000000000000        0.0000000000000000     
  0.40625000000000000       0.40625000000000000        0.0000000000000000     
  0.43750000000000000       0.40625000000000000        0.0000000000000000     
  0.46875000000000000       0.40625000000000000        0.0000000000000000     
  0.50000000000000000       0.40625000000000000        0.0000000000000000     
  0.37500000000000000       0.43750000000000000        0.0000000000000000     
  0.40625000000000000       0.43750000000000000        0.0000000000000000     
  0.43750000000000000       0.43750000000000000        0.0000000000000000     
  0.46875000000000000       0.43750000000000000        0.0000000000000000     
  0.50000000000000000       0.43750000000000000        0.0000000000000000     
  0.37500000000000000       0.46875000000000000        0.0000000000000000     
  0.40625000000000000       0.46875000000000000        0.0000000000000000     
  0.43750000000000000       0.46875000000000000        0.0000000000000000     
  0.46875000000000000       0.46875000000000000        0.0000000000000000     
  0.50000000000000000       0.46875000000000000        0.0000000000000000     
  0.37500000000000000       0.50000000000000000        0.0000000000000000     
  0.40625000000000000       0.50000000000000000        0.0000000000000000     
  0.43750000000000000       0.50000000000000000        0.0000000000000000     
  0.46875000000000000       0.50000000000000000        0.0000000000000000     
  0.50000000000000000       0.50000000000000000        0.0000000000000000     
  0.50000000000000000       0.37500000000000000        0.0000000000000000     
  0.53125000000000000       0.37500000000000000        0.0000000000000000     
  0.56250000000000000       0.37500000000000000        0.0000000000000000     
  0.59375000000000000       0.37500000000000000        0.0000000000000000     
  0.62500000000000000       0.37500000000000000        0.0000000000000000     
  0.50000000000000000       0.40625000000000000        0.0000000000000000     
  0.53125000000000000       0.40625000000000000        0.0000000000000000     
  0.56250000000000000       0.40625000000000000        0.0000000000000000     
  0.59375000000000000       0.40625000000000000        0.0000000000000000     
  0.62500000000000000       0.40625000000000000        0.0000000000000000     
  0.50000000000000000       0.43750000000000000        0.0000000000000000     
  0.53125000000000000       0.43750000000000000        0.0000000000000000     
  0.56250000000000000       0.43750000000000000        0.0000000000000000     
  0.59375000000000000       0.43750000000000000        0.0000000000000000     
  0.62500000000000000       0.43750000000000000        0.0000000000000000     
  0.50000000000000000       0.46875000000000000        0.0000000000000000     
  0.53125000000000000       0.46875000000000000        0.0000000000000000     
  0.56250000000000000       0.46875000000000000        0.0000000000000000     
  0.59375000000000000       0.46875000000000000        0.0000000000000000     
  0.62500000000000000       0.46875000000000000        0.0000000000000000     
  0.50000000000000000       0.50000000000000000        0.0000000000000000     
  0.53125000000000000       0.50000000000000000        0.0000000000000000     
  0.56250000000000000       0.50000000000000000        0.0000000000000000     
  0.59375000000000000       0.50000000000000000        0.0000000000000000     
  0.62500000000000000       0.50000000000000000        0.0000000000000000     
  0.62500000000000000       0.37500000000000000        0.0000000000000000     
  0.65625000000000000       0.37500000000000000        0.0000000000000000     
  0.68750000000000000       0.37500000000000000        0.0000000000000000     
  0.71875000000000000       0.37500000000000000        0.0000000000000000     
  0.75000000000000000       0.37500000000000000        0.0000000000000000     
  0.62500000000000000       0.40625000000000000        0.0000000000000000     
  0.65625000000000000       0.40625000000000000        0.0000000000000000     
  0.68750000000000000       0.40625000000000000        0.0000000000000000     
  0.71875000000000000       0.40625000000000000        0.0000000000000000     
  0.75000000000000000       0.40625000000000000        0.0000000000000000     
  0.62500000000000000       0.43750000000000000        0.0000000000000000     
  0.65625000000000000       0.43750000000000000        0.0000000000000000     
  0.68750000000000000       0.43750000000000000        0.0000000000000000     
  0.71875000000000000       0.43750000000000000        0.0000000000000000     
  0.75000000000000000       0.43750000000000000        0.0000000000000000     
  0.62500000000000000       0.46875000000000000        0.0000000000000000     
  0.65625000000000000       0.46875000000000000        0.0000000000000000     
  0.68750000000000000       0.46875000000000000        0.0000000000000000     
  0.71875000000000000       0.46875000000000000        0.0000000000000000     
  0.75000000000000000       0.46875000000000000        0.0000000000000000     
  0.62500000000000000       0.50000000000000000        0.0000000000000000     
  0.65625000000000000       0.50000000000000000        0.0000000000000000     
  0.68750000000000000       0.50000000000000000        0.0000000000000000     
  0.71875000000000000       0.50000000000000000        0.0000000000000000     
  0.75000000000000000       0.50000000000000000        0.0000000000000000     
  0.75000000000000000       0.37500000000000000        0.0000000000000000     
  0.78125000000000000       0.37500000000000000        0.0000000000000000     
  0.81250000000000000       0.37500000000000000        0.0000000000000000     
  0.84375000000000000       0.37500000000000000        0.0000000000000000     
  0.87500000000000000       0.37500000000000000        0.0000000000000000     
  0.75000000000000000       0.40625000000000000        0.0000000000000000     
  0.78125000000000000       0.40625000000000000        0.0000000000000000     
  0.81250000000000000       0.40625000000000000        0.0000000000000000     
  0.84375000000000000       0.40625000000000000        0.0000000000000000     
  0.87500000000000000       0.40625000000000000        0.0000000000000000     
  0.75000000000000000       0.43750000000000000        0.0000000000000000     
  0.78125000000000000       0.43750000000000000        0.0000000000000000     
  0.81250000000000000       0.43750000000000000        0.0000000000000000     
  0.84375000000000000       0.43750000000000000        0.0000000000000000     
  0.87500000000000000       0.43750000000000000        0.0000000000000000     
  0.75000000000000000       0.46875000000000000        0.0000000000000000     
  0.78125000000000000       0.46875000000000000        0.0000000000000000     
  0.81250000000000000       0.46875000000000000        0.0000000000000000     
  0.84375000000000000       0.46875000000000000        0.0000000000000000     
  0.87500000000000000       0.46875000000000000        0.0000000000000000     
  0.75000000000000000       0.50000000000000000        0.0000000000000000     
  0.78125000000000000       0.50000000000000000        0.0000000000000000     
  0.81250000000000000       0.50000000000000000        0.0000000000000000     
  0.84375000000000000       0.50000000000000000        0.0000000000000000     
  0.87500000000000000       0.50000000000000000        0.0000000000000000     
  0.87500000000000000       0.37500000000000000        0.0000000000000000     
  0.90625000000000000       0.37500000000000000        0.0000000000000000     
  0.93750000000000000       0.37500000000000000        0.0000000000000000     
  0.96875000000000000       0.37500000000000000        0.0000000000000000     
   1.0000000000000000       0.37500000000000000        0.0000000000000000     
  0.87500000000000000       0.40625000000000000        0.0000000000000000     
  0.90625000000000000       0.40625000000000000        0.0000000000000000     
  0.93750000000000000       0.40625000000000000        0.0000000000000000     
  0.96875000000000000       0.40625000000000000        0.0000000000000000     
   1.0000000000000000       0.40625000000000000        0.0000000000000000     
  0.87500000000000000       0.43750000000000000        0.0000000000000000     
  0.90625000000000000       0.43750000000000000        0.0000000000000000     
  0.93750000000000000       0.43750000000000000        0.0000000000000000     
  0.96875000000000000       0.43750000000000000        0.0000000000000000     
   1.0000000000000000       0.43750000000000000        0.0000000000000000     
  0.87500000000000000       0.46875000000000000        0.0000000000000000     
  0.90625000000000000       0.46875000000000000        0.0000000000000000     
  0.93750000000000000       0.46875000000000000        0.0000000000000000     
  0.96875000000000000       0.46875000000000000        0.0000000000000000     
   1.0000000000000000       0.46875000000000000        0.0000000000000000     
  0.87500000000000000       0.50000000000000000        0.0000000000000000     
  0.90625000000000000       0.50000000000000000        0.0000000000000000     
  0.93750000000000000       0.50000000000000000        0.0000000000000000     
  0.96875000000000000       0.50000000000000000        0.0000000000000000     
   1.0000000000000000       0.50000000000000000        0.0000000000000000     
   0.0000000000000000       0.50000000000000000        0.0000000000000000     
   3.1250000000000000E-002  0.50000000000000000        0.0000000000000000     
   6.2500000000000000E-002  0.50000000000000000        0.0000000000000000     
   9.3750000000000000E-002  0.50000000000000000        0.0000000000000000     
  0.12500000000000000       0.50000000000000000        0.0000000000000000     
   0.0000000000000000       0.53125000000000000        0.0000000000000000     
   3.1250000000000000E-002  0.53125000000000000        0.0000000000000000     
   6.2500000000000000E-002  0.53125000000000000        0.0000000000000000     
   9.3750000000000000E-002  0.53125000000000000        0.0000000000000000     
  0.12500000000000000       0.53125000000000000        0.0000000000000000     
   0.0000000000000000       0.56250000000000000        0.0000000000000000     
   3.1250000000000000E-002  0.56250000000000000        0.0000000000000000     
   6.2500000000000000E-002  0.56250000000000000        0.0000000000000000     
   9.3750000000000000E-002  0.56250000000000000        0.0000000000000000     
  0.12500000000000000       0.56250000000000000        0.0000000000000000     
   0.0000000000000000       0.59375000000000000        0.0000000000000000     
   3.1250000000000000E-002  0.59375000000000000        0.0000000000000000     
   6.2500000000000000E-002  0.59375000000000000        0.0000000000000000     
   9.3750000000000000E-002  0.59375000000000000        0.0000000000000000     
  0.12500000000000000       0.59375000000000000        0.0000000000000000     
   0.0000000000000000       0.62500000000000000        0.0000000000000000     
   3.1250000000000000E-002  0.62500000000000000        0.0000000000000000     
   6.2500000000000000E-002  0.62500000000000000        0.0000000000000000     
   9.3750000000000000E-002  0.62500000000000000        0.0000000000000000     
  0.12500000000000000       0.62500000000000000        0.0000000000000000     
  0.12500000000000000       0.50000000000000000        0.0000000000000000     
  0.15625000000000000       0.50000000000000000        0.0000000000000000     
  0.18750000000000000       0.50000000000000000        0.0000000000000000     
  0.21875000000000000       0.50000000000000000        0.0000000000000000     
  0.25000000000000000       0.50000000000000000        0.0000000000000000     
  0.12500000000000000       0.53125000000000000        0.0000000000000000     
  0.15625000000000000       0.53125000000000000        0.0000000000000000     
  0.18750000000000000       0.53125000000000000        0.0000000000000000     
  0.21875000000000000       0.53125000000000000        0.0000000000000000     
  0.25000000000000000       0.53125000000000000        0.0000000000000000     
  0.12500000000000000       0.56250000000000000        0.0000000000000000     
  0.15625000000000000       0.56250000000000000        0.0000000000000000     
  0.18750000000000000       0.56250000000000000        0.0000000000000000     
  0.21875000000000000       0.56250000000000000        0.0000000000000000     
  0.25000000000000000       0.56250000000000000        0.0000000000000000     
  0.12500000000000000       0.59375000000000000        0.0000000000000000     
  0.15625000000000000       0.59375000000000000        0.0000000000000000     
  0.18750000000000000       0.59375000000000000        0.0000000000000000     
  0.21875000000000000       0.59375000000000000        0.0000000000000000     
  0.25000000000000000       0.59375000000000000        0.0000000000000000     
  0.12500000000000000       0.62500000000000000        0.0000000000000000     
  0.15625000000000000       0.62500000000000000        0.0000000000000000     
  0.18750000000000000       0.62500000000000000        0.0000000000000000     
  0.21875000000000000       0.62500000000000000        0.0000000000000000     
  0.25000000000000000       0.62500000000000000        0.0000000000000000     
  0.25000000000000000       0.50000000000000000        0.0000000000000000     
  0.28125000000000000       0.50000000000000000        0.0000000000000000     
  0.31250000000000000       0.50000000000000000        0.0000000000000000     
  0.34375000000000000       0.50000000000000000        0.0000000000000000     
  0.37500000000000000       0.50000000000000000        0.0000000000000000     
  0.25000000000000000       0.53125000000000000        0.0000000000000000     
  0.28125000000000000       0.53125000000000000        0.0000000000000000     
  0.31250000000000000       0.53125000000000000        0.0000000000000000     
  0.34375000000000000       0.53125000000000000        0.0000000000000000     
  0.37500000000000000       0.53125000000000000        0.0000000000000000     
  0.25000000000000000       0.56250000000000000        0.0000000000000000     
  0.28125000000000000       0.56250000000000000        0.0000000000000000     
  0.31250000000000000       0.56250000000000000        0.0000000000000000     
  0.34375000000000000       0.56250000000000000        0.0000000000000000     
  0.37500000000000000       0.56250000000000000        0.0000000000000000     
  0.25000000000000000       0.59375000000000000        0.0000000000000000     
  0.28125000000000000       0.59375000000000000        0.0000000000000000     
  0.31250000000000000       0.59375000000000000        0.0000000000000000     
  0.34375000000000000       0.59375000000000000        0.0000000000000000     
  0.37500000000000000       0.59375000000000000        0.0000000000000000     
  0.25000000000000000       0.62500000000000000        0.0000000000000000     
  0.28125000000000000       0.62500000000000000        0.0000000000000000     
  0.31250000000000000       0.62500000000000000        0.0000000000000000     
  0.34375000000000000       0.62500000000000000        0.0000000000000000     
  0.37500000000000000       0.62500000000000000        0.0000000000000000     
  0.37500000000000000       0.50000000000000000        0.0000000000000000     
  0.40625000000000000       0.50000000000000000        0.0000000000000000     
  0.43750000000000000       0.50000000000000000        0.0000000000000000     
  0.46875000000000000       0.50000000000000000        0.0000000000000000     
  0.50000000000000000       0.50000000000000000        0.0000000000000000     
  0.37500000000000000       0.53125000000000000        0.0000000000000000     
  0.40625000000000000       0.53125000000000000        0.0000000000000000     
  0.43750000000000000       0.53125000000000000        0.0000000000000000     
  0.46875000000000000       0.53125000000000000        0.0000000000000000     
  0.50000000000000000       0.53125000000000000        0.0000000000000000     
  0.37500000000000000       0.56250000000000000        0.0000000000000000     
  0.40625000000000000       0.56250000000000000        0.0000000000000000     
  0.43750000000000000       0.56250000000000000        0.0000000000000000     
  0.46875000000000000       0.56250000000000000        0.0000000000000000     
  0.50000000000000000       0.56250000000000000        0.0000000000000000     
  0.37500000000000000       0.59375000000000000        0.0000000000000000     
  0.40625000000000000       0.59375000000000000        0.0000000000000000     
  0.43750000000000000       0.59375000000000000        0.0000000000000000     
  0.46875000000000000       0.59375000000000000        0.0000000000000000     
  0.50000000000000000       0.59375000000000000        0.0000000000000000     
  0.37500000000000000       0.62500000000000000        0.0000000000000000     
  0.40625000000000000       0.62500000000000000        0.0000000000000000     
  0.43750000000000000       0.62500000000000000        0.0000000000000000     
  0.46875000000000000       0.62500000000000000        0.0000000000000000     
  0.50000000000000000       0.62500000000000000        0.0000000000000000     
  0.50000000000000000       0.50000000000000000        0.0000000000000000     
  0.53125000000000000       0.50000000000000000        0.0000000000000000     
  0.56250000000000000       0.50000000000000000        0.0000000000000000     
  0.59375000000000000       0.50000000000000000        0.0000000000000000     
  0.62500000000000000       0.50000000000000000        0.0000000000000000     
  0.50000000000000000       0.53125000000000000        0.0000000000000000     
  0.53125000000000000       0.53125000000000000        0.0000000000000000     
  0.56250000000000000       0.53125000000000000        0.0000000000000000     
  0.59375000000000000       0.53125000000000000        0.0000000000000000     
  0.62500000000000000       0.53125000000000000        0.0000000000000000     
  0.50000000000000000       0.56250000000000000        0.0000000000000000     
  0.53125000000000000       0.56250000000000000        0.0000000000000000     
  0.56250000000000000       0.56250000000000000        0.0000000000000000     
  0.59375000000000000       0.56250000000000000        0.0000000000000000     
  0.62500000000000000       0.56250000000000000        0.0000000000000000     
  0.50000000000000000       0.59375000000000000        0.0000000000000000     
  0.53125000000000000       0.59375000000000000        0.0000000000000000     
  0.56250000000000000       0.59375000000000000        0.0000000000000000     
  0.59375000000000000       0.59375000000000000        0.0000000000000000     
  0.62500000000000000       0.59375000000000000        0.0000000000000000     
  0.50000000000000000       0.62500000000000000        0.0000000000000000     
  0.53125000000000000       0.62500000000000000        0.0000000000000000     
  0.56250000000000000       0.62500000000000000        0.0000000000000000     
  0.59375000000000000       0.62500000000000000        0.0000000000000000     
  0.62500000000000000       0.62500000000000000        0.0000000000000000     
  0.62500000000000000       0.50000000000000000        0.0000000000000000     
  0.65625000000000000       0.50000000000000000        0.0000000000000000     
  0.68750000000000000       0.50000000000000000        0.0000000000000000     
  0.71875000000000000       0.50000000000000000        0.0000000000000000     
  0.75000000000000000       0.50000000000000000        0.0000000000000000     
  0.62500000000000000       0.53125000000000000        0.0000000000000000     
  0.65625000000000000       0.53125000000000000        0.0000000000000000     
  0.68750000000000000       0.53125000000000000        0.0000000000000000     
  0.71875000000000000       0.53125000000000000        0.0000000000000000     
  0.75000000000000000       0.53125000000000000        0.0000000000000000     
  0.62500000000000000       0.56250000000000000        0.0000000000000000     
  0.65625000000000000       0.56250000000000000        0.0000000000000000     
  0.68750000000000000       0.56250000000000000        0.0000000000000000     
  0.71875000000000000       0.56250000000000000        0.0000000000000000     
  0.75000000000000000       0.56250000000000000        0.0000000000000000     
  0.62500000000000000       0.59375000000000000        0.0000000000000000     
  0.65625000000000000       0.59375000000000000        0.0000000000000000     
  0.68750000000000000       0.59375000000000000        0.0000000000000000     
  0.71875000000000000       0.59375000000000000        0.0000000000000000     
  0.75000000000000000       0.59375000000000000        0.0000000000000000     
  0.62500000000000000       0.62500000000000000        0.0000000000000000     
  0.65625000000000000       0.62500000000000000        0.0000000000000000     
  0.68750000000000000       0.62500000000000000        0.0000000000000000     
  0.71875000000000000       0.62500000000000000        0.0000000000000000     
  0.75000000000000000       0.62500000000000000        0.0000000000000000     
  0.75000000000000000       0.50000000000000000        0.0000000000000000     
  0.78125000000000000       0.50000000000000000        0.0000000000000000     
  0.81250000000000000       0.50000000000000000        0.0000000000000000     
  0.84375000000000000       0.50000000000000000        0.0000000000000000     
  0.87500000000000000       0.50000000000000000        0.0000000000000000     
  0.75000000000000000       0.53125000000000000        0.0000000000000000     
  0.78125000000000000       0.53125000000000000        0.0000000000000000     
  0.81250000000000000       0.53125000000000000        0.0000000000000000     
  0.84375000000000000       0.53125000000000000        0.0000000000000000     
  0.87500000000000000       0.53125000000000000        0.0000000000000000     
  0.75000000000000000       0.56250000000000000        0.0000000000000000     
  0.78125000000000000       0.56250000000000000        0.0000000000000000     
  0.81250000000000000       0.56250000000000000        0.0000000000000000     
  0.84375000000000000       0.56250000000000000        0.0000000000000000     
  0.87500000000000000       0.56250000000000000        0.0000000000000000     
  0.75000000000000000       0.59375000000000000        0.0000000000000000     
  0.78125000000000000       0.59375000000000000        0.0000000000000000     
  0.81250000000000000       0.59375000000000000        0.0000000000000000     
  0.84375000000000000       0.59375000000000000        0.0000000000000000     
  0.87500000000000000       0.59375000000000000        0.0000000000000000     
  0.75000000000000000       0.62500000000000000        0.0000000000000000     
  0.78125000000000000       0.62500000000000000        0.0000000000000000     
  0.81250000000000000       0.62500000000000000        0.0000000000000000     
  0.84375000000000000       0.62500000000000000        0.0000000000000000     
  0.87500000000000000       0.62500000000000000        0.0000000000000000     
  0.87500000000000000       0.50000000000000000        0.0000000000000000     
  0.90625000000000000       0.50000000000000000        0.0000000000000000     
  0.93750000000000000       0.50000000000000000        0.0000000000000000     
  0.96875000000000000       0.50000000000000000        0.0000000000000000     
   1.0000000000000000       0.50000000000000000        0.0000000000000000     
  0.87500000000000000       0.53125000000000000        0.0000000000000000     
  0.90625000000000000       0.53125000000000000        0.0000000000000000     
  0.93750000000000000       0.53125000000000000        0.0000000000000000     
  0.96875000000000000       0.53125000000000000        0.0000000000000000     
   1.0000000000000000       0.53125000000000000        0.0000000000000000     
  0.87500000000000000       0.56250000000000000        0.0000000000000000     
  0.90625000000000000       0.56250000000000000        0.0000000000000000     
  0.93750000000000000       0.56250000000000000        0.0000000000000000     
  0.96875000000000000       0.56250000000000000        0.0000000000000000     
   1.0000000000000000       0.56250000000000000        0.0000000000000000     
  0.87500000000000000       0.59375000000000000        0.0000000000000000     
  0.90625000000000000       0.59375000000000000        0.0000000000000000     
  0.93750000000000000       0.59375000000000000        0.0000000000000000     
  0.96875000000000000       0.59375000000000000        0.0000000000000000     
   1.0000000000000000       0.59375000000000000        0.0000000000000000     
  0.87500000000000000       0.62500000000000000        0.0000000000000000     
  0.90625000000000000       0.62500000000000000        0.0000000000000000     
  0.93750000000000000       0.62500000000000000        0.0000000000000000     
  0.96875000000000000       0.62500000000000000        0.0000000000000000     
   1.0000000000000000       0.62500000000000000        0.0000000000000000     
   0.0000000000000000       0.62500000000000000        0.0000000000000000     
   3.1250000000000000E-002  0.62500000000000000        0.0000000000000000     
   6.2500000000000000E-002  0.62500000000000000        0.0000000000000000     
   9.3750000000000000E-002  0.62500000000000000        0.0000000000000000     
  0.12500000000000000       0.62500000000000000        0.0000000000000000     
   0.0000000000000000       0.65625000000000000        0.0000000000000000     
   3.1250000000000000E-002  0.65625000000000000        0.0000000000000000     
   6.2500000000000000E-002  0.65625000000000000        0.0000000000000000     
   9.3750000000000000E-002  0.65625000000000000        0.0000000000000000     
  0.12500000000000000       0.65625000000000000        0.0000000000000000     
   0.0000000000000000       0.68750000000000000        0.0000000000000000     
   3.1250000000000000E-002  0.68750000000000000        0.0000000000000000     
   6.2500000000000000E-002  0.68750000000000000        0.0000000000000000     
   9.3750000000000000E-002  0.68750000000000000        0.0000000000000000     
  0.12500000000000000       0.68750000000000000        0.0000000000000000     
   0.0000000000000000       0.71875000000000000        0.0000000000000000     
   3.1250000000000000E-002  0.71875000000000000        0.0000000000000000     
   6.2500000000000000E-002  0.71875000000000000        0.0000000000000000     
   9.3750000000000000E-002  0.71875000000000000        0.0000000000000000     
  0.12500000000000000       0.71875000000000000        0.0000000000000000     
   0.0000000000000000       0.75000000000000000        0.0000000000000000     
   3.1250000000000000E-002  0.75000000000000000        0.0000000000000000     
   6.2500000000000000E-002  0.75000000000000000        0.0000000000000000     
   9.3750000000000000E-002  0.75000000000000000        0.0000000000000000     
  0.12500000000000000       0.75000000000000000        0.0000000000000000     
  0.12500000000000000       0.62500000000000000        0.0000000000000000     
  0.15625000000000000       0.62500000000000000        0.0000000000000000     
  0.18750000000000000       0.62500000000000000        0.0000000000000000     
  0.21875000000000000       0.62500000000000000        0.0000000000000000     
  0.25000000000000000       0.62500000000000000        0.0000000000000000     
  0.12500000000000000       0.65625000000000000        0.0000000000000000     
  0.15625000000000000       0.65625000000000000        0.0000000000000000     
  0.18750000000000000       0.65625000000000000        0.0000000000000000     
  0.21875000000000000       0.65625000000000000        0.0000000000000000     
  0.25000000000000000       0.65625000000000000        0.0000000000000000     
  0.12500000000000000       0.68750000000000000        0.0000000000000000     
  0.15625000000000000       0.68750000000000000        0.0000000000000000     
  0.18750000000000000       0.68750000000000000        0.0000000000000000     
  0.21875000000000000       0.68750000000000000        0.0000000000000000     
  0.25000000000000000       0.68750000000000000        0.0000000000000000     
  0.12500000000000000       0.71875000000000000        0.0000000000000000     
  0.15625000000000000       0.71875000000000000        0.0000000000000000     
  0.18750000000000000       0.71875000000000000        0.0000000000000000     
  0.21875000000000000       0.71875000000000000        0.0000000000000000     
  0.25000000000000000       0.71875000000000000        0.0000000000000000     
  0.12500000000000000       0.75000000000000000        0.0000000000000000     
  0.15625000000000000       0.75000000000000000        0.0000000000000000     
  0.18750000000000000       0.75000000000000000        0.0000000000000000     
  0.21875000000000000       0.75000000000000000        0.0000000000000000     
  0.25000000000000000       0.75000000000000000        0.0000000000000000     
  0.25000000000000000       0.62500000000000000        0.0000000000000000     
  0.28125000000000000       0.62500000000000000        0.0000000000000000     
  0.31250000000000000       0.62500000000000000        0.0000000000000000     
  0.34375000000000000       0.62500000000000000        0.0000000000000000     
  0.37500000000000000       0.62500000000000000        0.0000000000000000     
  0.25000000000000000       0.65625000000000000        0.0000000000000000     
  0.28125000000000000       0.65625000000000000        0.0000000000000000     
  0.31250000000000000       0.65625000000000000        0.0000000000000000     
  0.34375000000000000       0.65625000000000000        0.0000000000000000     
  0.37500000000000000       0.65625000000000000        0.0000000000000000     
  0.25000000000000000       0.68750000000000000        0.0000000000000000     
  0.28125000000000000       0.68750000000000000        0.0000000000000000     
  0.31250000000000000       0.68750000000000000        0.0000000000000000     
  0.34375000000000000       0.68750000000000000        0.0000000000000000     
  0.37500000000000000       0.68750000000000000        0.0000000000000000     
  0.25000000000000000       0.71875000000000000        0.0000000000000000     
  0.28125000000000000       0.71875000000000000        0.0000000000000000     
  0.31250000000000000       0.71875000000000000        0.0000000000000000     
  0.34375000000000000       0.71875000000000000        0.0000000000000000     
  0.37500000000000000       0.71875000000000000        0.0000000000000000     
  0.25000000000000000       0.75000000000000000        0.0000000000000000     
  0.28125000000000000       0.75000000000000000        0.0000000000000000     
  0.31250000000000000       0.75000000000000000        0.0000000000000000     
  0.34375000000000000       0.75000000000000000        0.0000000000000000     
  0.37500000000000000       0.75000000000000000        0.0000000000000000     
  0.37500000000000000       0.62500000000000000        0.0000000000000000     
  0.40625000000000000       0.62500000000000000        0.0000000000000000     
  0.43750000000000000       0.62500000000000000        0.0000000000000000     
  0.46875000000000000       0.62500000000000000        0.0000000000000000     
  0.50000000000000000       0.62500000000000000        0.0000000000000000     
  0.37500000000000000       0.65625000000000000        0.0000000000000000     
  0.40625000000000000       0.65625000000000000        0.0000000000000000     
  0.43750000000000000       0.65625000000000000        0.0000000000000000     
  0.46875000000000000       0.65625000000000000        0.0000000000000000     
  0.50000000000000000       0.65625000000000000        0.0000000000000000     
  0.37500000000000000       0.68750000000000000        0.0000000000000000     
  0.40625000000000000       0.68750000000000000        0.0000000000000000     
  0.43750000000000000       0.68750000000000000        0.0000000000000000     
  0.46875000000000000       0.68750000000000000        0.0000000000000000     
  0.50000000000000000       0.68750000000000000        0.0000000000000000     
  0.37500000000000000       0.71875000000000000        0.0000000000000000     
  0.40625000000000000       0.71875000000000000        0.0000000000000000     
  0.43750000000000000       0.71875000000000000        0.0000000000000000     
  0.46875000000000000       0.71875000000000000        0.0000000000000000     
  0.50000000000000000       0.71875000000000000        0.0000000000000000     
  0.37500000000000000       0.75000000000000000        0.0000000000000000     
  0.40625000000000000       0.75000000000000000        0.0000000000000000     
  0.43750000000000000       0.75000000000000000        0.0000000000000000     
  0.46875000000000000       0.75000000000000000        0.0000000000000000     
  0.50000000000000000       0.75000000000000000        0.0000000000000000     
  0.50000000000000000       0.62500000000000000        0.0000000000000000     
  0.53125000000000000       0.62500000000000000        0.0000000000000000     
  0.56250000000000000       0.62500000000000000        0.0000000000000000     
  0.59375000000000000       0.62500000000000000        0.0000000000000000     
  0.62500000000000000       0.62500000000000000        0.0000000000000000     
  0.50000000000000000       0.65625000000000000        0.0000000000000000     
  0.53125000000000000       0.65625000000000000        0.0000000000000000     
  0.56250000000000000       0.65625000000000000        0.0000000000000000     
  0.59375000000000000       0.65625000000000000        0.0000000000000000     
  0.62500000000000000       0.65625000000000000        0.0000000000000000     
  0.50000000000000000       0.68750000000000000        0.0000000000000000     
  0.53125000000000000       0.68750000000000000        0.0000000000000000     
  0.56250000000000000       0.68750000000000000        0.0000000000000000     
  0.59375000000000000       0.68750000000000000        0.0000000000000000     
  0.62500000000000000       0.68750000000000000        0.0000000000000000     
  0.50000000000000000       0.71875000000000000        0.0000000000000000     
  0.53125000000000000       0.71875000000000000        0.0000000000000000     
  0.56250000000000000       0.71875000000000000        0.0000000000000000     
  0.59375000000000000       0.71875000000000000        0.0000000000000000     
  0.62500000000000000       0.71875000000000000        0.0000000000000000     
  0.50000000000000000       0.75000000000000000        0.0000000000000000     
  0.53125000000000000       0.75000000000000000        0.0000000000000000     
  0.56250000000000000       0.75000000000000000        0.0000000000000000     
  0.59375000000000000       0.75000000000000000        0.0000000000000000     
  0.62500000000000000       0.75000000000000000        0.0000000000000000     
  0.62500000000000000       0.62500000000000000        0.0000000000000000     
  0.65625000000000000       0.62500000000000000        0.0000000000000000     
  0.68750000000000000       0.62500000000000000        0.0000000000000000     
  0.71875000000000000       0.62500000000000000        0.0000000000000000     
  0.75000000000000000       0.62500000000000000        0.0000000000000000     
  0.62500000000000000       0.65625000000000000        0.0000000000000000     
  0.65625000000000000       0.65625000000000000        0.0000000000000000     
  0.68750000000000000       0.65625000000000000        0.0000000000000000     
  0.71875000000000000       0.65625000000000000        0.0000000000000000     
  0.75000000000000000       0.65625000000000000        0.0000000000000000     
  0.62500000000000000       0.68750000000000000        0.0000000000000000     
  0.65625000000000000       0.68750000000000000        0.0000000000000000     
  0.68750000000000000       0.68750000000000000        0.0000000000000000     
  0.71875000000000000       0.68750000000000000        0.0000000000000000     
  0.75000000000000000       0.68750000000000000        0.0000000000000000     
  0.62500000000000000       0.71875000000000000        0.0000000000000000     
  0.65625000000000000       0.71875000000000000        0.0000000000000000     
  0.68750000000000000       0.71875000000000000        0.0000000000000000     
  0.71875000000000000       0.71875000000000000        0.0000000000000000     
  0.75000000000000000       0.71875000000000000        0.0000000000000000     
  0.62500000000000000       0.75000000000000000        0.0000000000000000     
  0.65625000000000000       0.75000000000000000        0.0000000000000000     
  0.68750000000000000       0.75000000000000000        0.0000000000000000     
  0.71875000000000000       0.75000000000000000        0.0000000000000000     
  0.75000000000000000       0.75000000000000000        0.0000000000000000     
  0.75000000000000000       0.62500000000000000        0.0000000000000000     
  0.78125000000000000       0.62500000000000000        0.0000000000000000     
  0.81250000000000000       0.62500000000000000        0.0000000000000000     
  0.84375000000000000       0.62500000000000000        0.0000000000000000     
  0.87500000000000000       0.62500000000000000        0.0000000000000000     
  0.75000000000000000       0.65625000000000000        0.0000000000000000     
  0.78125000000000000       0.65625000000000000        0.0000000000000000     
  0.81250000000000000       0.65625000000000000        0.0000000000000000     
  0.84375000000000000       0.65625000000000000        0.0000000000000000     
  0.87500000000000000       0.65625000000000000        0.0000000000000000     
  0.75000000000000000       0.68750000000000000        0.0000000000000000     
  0.78125000000000000       0.68750000000000000        0.0000000000000000     
  0.81250000000000000       0.68750000000000000        0.0000000000000000     
  0.84375000000000000       0.68750000000000000        0.0000000000000000     
  0.87500000000000000       0.68750000000000000        0.0000000000000000     
  0.75000000000000000       0.71875000000000000        0.0000000000000000     
  0.78125000000000000       0.71875000000000000        0.0000000000000000     
  0.81250000000000000       0.71875000000000000        0.0000000000000000     
  0.84375000000000000       0.71875000000000000        0.0000000000000000     
  0.87500000000000000       0.71875000000000000        0.0000000000000000     
  0.75000000000000000       0.75000000000000000        0.0000000000000000     
  0.78125000000000000       0.75000000000000000        0.0000000000000000     
  0.81250000000000000       0.75000000000000000        0.0000000000000000     
  0.84375000000000000       0.75000000000000000        0.0000000000000000     
  0.87500000000000000       0.75000000000000000        0.0000000000000000     
  0.87500000000000000       0.62500000000000000        0.0000000000000000     
  0.90625000000000000       0.62500000000000000        0.0000000000000000     
  0.93750000000000000       0.62500000000000000        0.0000000000000000     
  0.96875000000000000       0.62500000000000000        0.0000000000000000     
   1.0000000000000000       0.62500000000000000        0.0000000000000000     
  0.87500000000000000       0.65625000000000000        0.0000000000000000     
  0.90625000000000000       0.65625000000000000        0.0000000000000000     
  0.93750000000000000       0.65625000000000000        0.0000000000000000     
  0.96875000000000000       0.65625000000000000        0.0000000000000000     
   1.0000000000000000       0.65625000000000000        0.0000000000000000     
  0.87500000000000000       0.68750000000000000        0.0000000000000000     
  0.90625000000000000       0.68750000000000000        0.0000000000000000     
  0.93750000000000000       0.68750000000000000        0.0000000000000000     
  0.96875000000000000       0.68750000000000000        0.0000000000000000     
   1.0000000000000000       0.68750000000000000        0.0000000000000000     
  0.87500000000000000       0.71875000000000000        0.0000000000000000     
  0.90625000000000000       0.71875000000000000        0.0000000000000000     
  0.93750000000000000       0.71875000000000000        0.0000000000000000     
  0.96875000000000000       0.71875000000000000        0.0000000000000000     
   1.0000000000000000       0.71875000000000000        0.0000000000000000     
  0.87500000000000000       0.75000000000000000        0.0000000000000000     
  0.90625000000000000       0.75000000000000000        0.0000000000000000     
  0.93750000000000000       0.75000000000000000        0.0000000000000000     
  0.96875000000000000       0.75000000000000000        0.0000000000000000     
   1.0000000000000000       0.75000000000000000        0.0000000000000000     
   0.0000000000000000       0.75000000000000000        0.0000000000000000     
   3.1250000000000000E-002  0.75000000000000000        0.0000000000000000     
   6.2500000000000000E-002  0.75000000000000000        0.0000000000000000     
   9.3750000000000000E-002  0.75000000000000000        0.0000000000000000     
  0.12500000000000000       0.75000000000000000        0.0000000000000000     
   0.0000000000000000       0.78125000000000000        0.0000000000000000     
   3.1250000000000000E-002  0.78125000000000000        0.0000000000000000     
   6.2500000000000000E-002  0.78125000000000000        0.0000000000000000     
   9.3750000000000000E-002  0.78125000000000000        0.0000000000000000     
  0.12500000000000000       0.78125000000000000        0.0000000000000000     
   0.0000000000000000       0.81250000000000000        0.0000000000000000     
   3.1250000000000000E-002  0.81250000000000000        0.0000000000000000     
   6.2500000000000000E-002  0.81250000000000000        0.0000000000000000     
   9.3750000000000000E-002  0.81250000000000000        0.0000000000000000     
  0.12500000000000000       0.81250000000000000        0.0000000000000000     
   0.0000000000000000       0.84375000000000000        0.0000000000000000     
   3.1250000000000000E-002  0.84375000000000000        0.0000000000000000     
   6.2500000000000000E-002  0.84375000000000000        0.0000000000000000     
   9.3750000000000000E-002  0.84375000000000000        0.0000000000000000     
  0.12500000000000000       0.84375000000000000        0.0000000000000000     
   0.0000000000000000       0.87500000000000000        0.0000000000000000     
   3.1250000000000000E-002  0.87500000000000000        0.0000000000000000     
   6.2500000000000000E-002  0.87500000000000000        0.0000000000000000     
   9.3750000000000000E-002  0.87500000000000000        0.0000000000000000     
  0.12500000000000000       0.87500000000000000        0.0000000000000000     
  0.12500000000000000       0.75000000000000000        0.0000000000000000     
  0.15625000000000000       0.75000000000000000        0.0000000000000000     
  0.18750000000000000       0.75000000000000000        0.0000000000000000     
  0.21875000000000000       0.75000000000000000        0.0000000000000000     
  0.25000000000000000       0.75000000000000000        0.0000000000000000     
  0.12500000000000000       0.78125000000000000        0.0000000000000000     
  0.15625000000000000       0.78125000000000000        0.0000000000000000     
  0.18750000000000000       0.78125000000000000        0.0000000000000000     
  0.21875000000000000       0.78125000000000000        0.0000000000000000     
  0.25000000000000000       0.78125000000000000        0.0000000000000000     
  0.12500000000000000       0.81250000000000000        0.0000000000000000     
  0.15625000000000000       0.81250000000000000        0.0000000000000000     
  0.18750000000000000       0.81250000000000000        0.0000000000000000     
  0.21875000000000000       0.81250000000000000        0.0000000000000000     
  0.25000000000000000       0.81250000000000000        0.0000000000000000     
  0.12500000000000000       0.84375000000000000        0.0000000000000000     
  0.15625000000000000       0.84375000000000000        0.0000000000000000     
  0.18750000000000000       0.84375000000000000        0.0000000000000000     
  0.21875000000000000       0.84375000000000000        0.0000000000000000     
  0.25000000000000000       0.84375000000000000        0.0000000000000000     
  0.12500000000000000       0.87500000000000000        0.0000000000000000     
  0.15625000000000000       0.87500000000000000        0.0000000000000000     
  0.18750000000000000       0.87500000000000000        0.0000000000000000     
  0.21875000000000000       0.87500000000000000        0.0000000000000000     
  0.25000000000000000       0.87500000000000000        0.0000000000000000     
  0.25000000000000000       0.75000000000000000        0.0000000000000000     
  0.28125000000000000       0.75000000000000000        0.0000000000000000     
  0.31250000000000000       0.75000000000000000        0.0000000000000000     
  0.34375000000000000       0.75000000000000000        0.0000000000000000     
  0.37500000000000000       0.75000000000000000        0.0000000000000000     
  0.25000000000000000       0.78125000000000000        0.0000000000000000     
  0.28125000000000000       0.78125000000000000        0.0000000000000000     
  0.31250000000000000       0.78125000000000000        0.0000000000000000     
  0.34375000000000000       0.78125000000000000        0.0000000000000000     
  0.37500000000000000       0.78125000000000000        0.0000000000000000     
  0.25000000000000000       0.81250000000000000        0.0000000000000000     
  0.28125000000000000       0.81250000000000000        0.0000000000000000     
  0.31250000000000000       0.81250000000000000        0.0000000000000000     
  0.34375000000000000       0.81250000000000000        0.0000000000000000     
  0.37500000000000000       0.81250000000000000        0.0000000000000000     
  0.25000000000000000       0.84375000000000000        0.0000000000000000     
  0.28125000000000000       0.84375000000000000        0.0000000000000000     
  0.31250000000000000       0.84375000000000000        0.0000000000000000     
  0.34375000000000000       0.84375000000000000        0.0000000000000000     
  0.37500000000000000       0.84375000000000000        0.0000000000000000     
  0.25000000000000000       0.87500000000000000        0.0000000000000000     
  0.28125000000000000       0.87500000000000000        0.0000000000000000     
  0.31250000000000000       0.87500000000000000        0.0000000000000000     
  0.34375000000000000       0.87500000000000000        0.0000000000000000     
  0.37500000000000000       0.87500000000000000        0.0000000000000000     
  0.37500000000000000       0.75000000000000000        0.0000000000000000     
  0.40625000000000000       0.75000000000000000        0.0000000000000000     
  0.43750000000000000       0.75000000000000000        0.0000000000000000     
  0.46875000000000000       0.75000000000000000        0.0000000000000000     
  0.50000000000000000       0.75000000000000000        0.0000000000000000     
  0.37500000000000000       0.78125000000000000        0.0000000000000000     
  0.40625000000000000       0.78125000000000000        0.0000000000000000     
  0.43750000000000000       0.78125000000000000        0.0000000000000000     
  0.46875000000000000       0.78125000000000000        0.0000000000000000     
  0.50000000000000000       0.78125000000000000        0.0000000000000000     
  0.37500000000000000       0.81250000000000000        0.0000000000000000     
  0.40625000000000000       0.81250000000000000        0.0000000000000000     
  0.43750000000000000       0.81250000000000000        0.0000000000000000     
  0.46875000000000000       0.81250000000000000        0.0000000000000000     
  0.50000000000000000       0.81250000000000000        0.0000000000000000     
  0.37500000000000000       0.84375000000000000        0.0000000000000000     
  0.40625000000000000       0.84375000000000000        0.0000000000000000     
  0.43750000000000000       0.84375000000000000        0.0000000000000000     
  0.46875000000000000       0.84375000000000000        0.0000000000000000     
  0.50000000000000000       0.84375000000000000        0.0000000000000000     
  0.37500000000000000       0.87500000000000000        0.0000000000000000     
  0.40625000000000000       0.87500000000000000        0.0000000000000000     
  0.43750000000000000       0.87500000000000000        0.0000000000000000     
  0.46875000000000000       0.87500000000000000        0.0000000000000000     
  0.50000000000000000       0.87500000000000000        0.0000000000000000     
  0.50000000000000000       0.75000000000000000        0.0000000000000000     
  0.53125000000000000       0.75000000000000000        0.0000000000000000     
  0.56250000000000000       0.75000000000000000        0.0000000000000000     
  0.59375000000000000       0.75000000000000000        0.0000000000000000     
  0.62500000000000000       0.75000000000000000        0.0000000000000000     
  0.50000000000000000       0.78125000000000000        0.0000000000000000     
  0.53125000000000000       0.78125000000000000        0.0000000000000000     
  0.56250000000000000       0.78125000000000000        0.0000000000000000     
  0.59375000000000000       0.78125000000000000        0.0000000000000000     
  0.62500000000000000       0.78125000000000000        0.0000000000000000     
  0.50000000000000000       0.81250000000000000        0.0000000000000000     
  0.53125000000000000       0.81250000000000000        0.0000000000000000     
  0.56250000000000000       0.81250000000000000        0.0000000000000000     
  0.59375000000000000       0.81250000000000000        0.0000000000000000     
  0.62500000000000000       0.81250000000000000        0.0000000000000000     
  0.50000000000000000       0.84375000000000000        0.0000000000000000     
  0.53125000000000000       0.84375000000000000        0.0000000000000000     
  0.56250000000000000       0.84375000000000000        0.0000000000000000     
  0.59375000000000000       0.84375000000000000        0.0000000000000000     
  0.62500000000000000       0.84375000000000000        0.0000000000000000     
  0.50000000000000000       0.87500000000000000        0.0000000000000000     
  0.53125000000000000       0.87500000000000000        0.0000000000000000     
  0.56250000000000000       0.87500000000000000        0.0000000000000000     
  0.59375000000000000       0.87500000000000000        0.0000000000000000     
  0.62500000000000000       0.87500000000000000        0.0000000000000000     
  0.62500000000000000       0.75000000000000000        0.0000000000000000     
  0.65625000000000000       0.75000000000000000        0.0000000000000000     
  0.68750000000000000       0.75000000000000000        0.0000000000000000     
  0.71875000000000000       0.75000000000000000        0.0000000000000000     
  0.75000000000000000       0.75000000000000000        0.0000000000000000     
  0.62500000000000000       0.78125000000000000        0.0000000000000000     
  0.65625000000000000       0.78125000000000000        0.0000000000000000     
  0.68750000000000000       0.78125000000000000        0.0000000000000000     
  0.71875000000000000       0.78125000000000000        0.0000000000000000     
  0.75000000000000000       0.78125000000000000        0.0000000000000000     
  0.62500000000000000       0.81250000000000000        0.0000000000000000     
  0.65625000000000000       0.81250000000000000        0.0000000000000000     
  0.68750000000000000       0.81250000000000000        0.0000000000000000     
  0.71875000000000000       0.81250000000000000        0.0000000000000000     
  0.75000000000000000       0.81250000000000000        0.0000000000000000     
  0.62500000000000000       0.84375000000000000        0.0000000000000000     
  0.65625000000000000       0.84375000000000000        0.0000000000000000     
  0.68750000000000000       0.84375000000000000        0.0000000000000000     
  0.71875000000000000       0.84375000000000000        0.0000000000000000     
  0.75000000000000000       0.84375000000000000        0.0000000000000000     
  0.62500000000000000       0.87500000000000000        0.0000000000000000     
  0.65625000000000000       0.87500000000000000        0.0000000000000000     
  0.68750000000000000       0.87500000000000000        0.0000000000000000     
  0.71875000000000000       0.87500000000000000        0.0000000000000000     
  0.75000000000000000       0.87500000000000000        0.0000000000000000     
  0.75000000000000000       0.75000000000000000        0.0000000000000000     
  0.78125000000000000       0.75000000000000000        0.0000000000000000     
  0.81250000000000000       0.75000000000000000        0.0000000000000000     
  0.84375000000000000       0.75000000000000000        0.0000000000000000     
  0.87500000000000000       0.75000000000000000        0.0000000000000000     
  0.75000000000000000       0.78125000000000000        0.0000000000000000     
  0.78125000000000000       0.78125000000000000        0.0000000000000000     
  0.81250000000000000       0.78125000000000000        0.0000000000000000     
  0.84375000000000000       0.78125000000000000        0.0000000000000000     
  0.87500000000000000       0.78125000000000000        0.0000000000000000     
  0.75000000000000000       0.81250000000000000        0.0000000000000000     
  0.78125000000000000       0.81250000000000000        0.0000000000000000     
  0.81250000000000000       0.81250000000000000        0.0000000000000000     
  0.84375000000000000       0.81250000000000000        0.0000000000000000     
  0.87500000000000000       0.81250000000000000        0.0000000000000000     
  0.75000000000000000       0.84375000000000000        0.0000000000000000     
  0.78125000000000000       0.84375000000000000        0.0000000000000000     
  0.81250000000000000       0.84375000000000000        0.0000000000000000     
  0.84375000000000000       0.84375000000000000        0.0000000000000000     
  0.87500000000000000       0.84375000000000000        0.0000000000000000     
  0.75000000000000000       0.87500000000000000        0.0000000000000000     
  0.78125000000000000       0.87500000000000000        0.0000000000000000     
  0.81250000000000000       0.87500000000000000        0.0000000000000000     
  0.84375000000000000       0.87500000000000000        0.0000000000000000     
  0.87500000000000000       0.87500000000000000        0.0000000000000000     
  0.87500000000000000       0.75000000000000000        0.0000000000000000     
  0.90625000000000000       0.75000000000000000        0.0000000000000000     
  0.93750000000000000       0.75000000000000000        0.0000000000000000     
  0.96875000000000000       0.75000000000000000        0.0000000000000000     
   1.0000000000000000       0.75000000000000000        0.0000000000000000     
  0.87500000000000000       0.78125000000000000        0.0000000000000000     
  0.90625000000000000       0.78125000000000000        0.0000000000000000     
  0.93750000000000000       0.78125000000000000        0.0000000000000000     
  0.96875000000000000       0.78125000000000000        0.0000000000000000     
   1.0000000000000000       0.78125000000000000        0.0000000000000000     
  0.87500000000000000       0.81250000000000000        0.0000000000000000     
  0.90625000000000000       0.81250000000000000        0.0000000000000000     
  0.93750000000000000       0.81250000000000000        0.0000000000000000     
  0.96875000000000000       0.81250000000000000        0.0000000000000000     
   1.0000000000000000       0.81250000000000000        0.0000000000000000     
  0.87500000000000000       0.84375000000000000        0.0000000000000000     
  0.90625000000000000       0.84375000000000000        0.0000000000000000     
  0.93750000000000000       0.84375000000000000        0.0000000000000000     
  0.96875000000000000       0.84375000000000000        0.0000000000000000     
   1.0000000000000000       0.84375000000000000        0.0000000000000000     
  0.87500000000000000       0.87500000000000000        0.0000000000000000     
  0.90625000000000000       0.87500000000000000        0.0000000000000000     
  0.93750000000000000       0.87500000000000000        0.0000000000000000     
  0.96875000000000000       0.87500000000000000        0.0000000000000000     
   1.0000000000000000       0.87500000000000000        0.0000000000000000     
   0.0000000000000000       0.87500000000000000        0.0000000000000000     
   3.1250000000000000E-002  0.87500000000000000        0.0000000000000000     
   6.2500000000000000E-002  0.87500000000000000        0.0000000000000000     
   9.3750000000000000E-002  0.87500000000000000        0.0000000000000000     
  0.12500000000000000       0.87500000000000000        0.0000000000000000     
   0.0000000000000000       0.90625000000000000        0.0000000000000000     
   3.1250000000000000E-002  0.90625000000000000        0.0000000000000000     
   6.2500000000000000E-002  0.90625000000000000        0.0000000000000000     
   9.3750000000000000E-002  0.90625000000000000        0.0000000000000000     
  0.12500000000000000       0.90625000000000000        0.0000000000000000     
   0.0000000000000000       0.93750000000000000        0.0000000000000000     
   3.1250000000000000E-002  0.93750000000000000        0.0000000000000000     
   6.2500000000000000E-002  0.93750000000000000        0.0000000000000000     
   9.3750000000000000E-002  0.93750000000000000        0.0000000000000000     
  0.12500000000000000       0.93750000000000000        0.0000000000000000     
   0.0000000000000000       0.96875000000000000        0.0000000000000000     
   3.1250000000000000E-002  0.96875000000000000        0.0000000000000000     
   6.2500000000000000E-002  0.96875000000000000        0.0000000000000000     
   9.3750000000000000E-002  0.96875000000000000        0.0000000000000000     
  0.12500000000000000       0.96875000000000000        0.0000000000000000     
   0.0000000000000000        1.0000000000000000        0.0000000000000000     
   3.1250000000000000E-002   1.0000000000000000        0.0000000000000000     
   6.2500000000000000E-002   1.0000000000000000        0.0000000000000000     
   9.3750000000000000E-002   1.0000000000000000        0.0000000000000000     
  0.12500000000000000        1.0000000000000000        0.0000000000000000     
  0.12500000000000000       0.87500000000000000        0.0000000000000000     
  0.15625000000000000       0.87500000000000000        0.0000000000000000     
  0.18750000000000000       0.87500000000000000        0.0000000000000000     
  0.21875000000000000       0.87500000000000000        0.0000000000000000     
  0.25000000000000000       0.87500000000000000        0.0000000000000000     
  0.12500000000000000       0.90625000000000000        0.0000000000000000     
  0.15625000000000000       0.90625000000000000        0.0000000000000000     
  0.18750000000000000       0.90625000000000000        0.0000000000000000     
  0.21875000000000000       0.90625000000000000        0.0000000000000000     
  0.25000000000000000       0.90625000000000000        0.0000000000000000     
  0.12500000000000000       0.93750000000000000        0.0000000000000000     
  0.15625000000000000       0.93750000000000000        0.0000000000000000     
  0.18750000000000000       0.93750000000000000        0.0000000000000000     
  0.21875000000000000       0.93750000000000000        0.0000000000000000     
  0.25000000000000000       0.93750000000000000        0.0000000000000000     
  0.12500000000000000       0.96875000000000000        0.0000000000000000     
  0.15625000000000000       0.96875000000000000        0.0000000000000000     
  0.18750000000000000       0.96875000000000000        0.0000000000000000     
  0.21875000000000000       0.96875000000000000        0.0000000000000000     
  0.25000000000000000       0.96875000000000000        0.0000000000000000     
  0.12500000000000000        1.0000000000000000        0.0000000000000000     
  0.15625000000000000        1.0000000000000000        0.0000000000000000     
  0.18750000000000000        1.0000000000000000        0.0000000000000000     
  0.21875000000000000        1.0000000000000000        0.0000000000000000     
  0.25000000000000000        1.0000000000000000        0.0000000000000000     
  0.25000000000000000       0.87500000000000000        0.0000000000000000     
  0.28125000000000000       0.87500000000000000        0.0000000000000000     
  0.31250000000000000       0.87500000000000000        0.0000000000000000     
  0.34375000000000000       0.87500000000000000        0.0000000000000000     
  0.37500000000000000       0.87500000000000000        0.0000000000000000     
  0.25000000000000000       0.90625000000000000        0.0000000000000000     
  0.28125000000000000       0.90625000000000000        0.0000000000000000     
  0.31250000000000000       0.90625000000000000        0.0000000000000000     
  0.34375000000000000       0.90625000000000000        0.0000000000000000     
  0.37500000000000000       0.90625000000000000        0.0000000000000000     
  0.25000000000000000       0.93750000000000000        0.0000000000000000     
  0.28125000000000000       0.93750000000000000        0.0000000000000000     
  0.31250000000000000       0.93750000000000000        0.0000000000000000     
  0.34375000000000000       0.93750000000000000        0.0000000000000000     
  0.37500000000000000       0.93750000000000000        0.0000000000000000     
  0.25000000000000000       0.96875000000000000        0.0000000000000000     
  0.28125000000000000       0.96875000000000000        0.0000000000000000     
  0.31250000000000000       0.96875000000000000        0.0000000000000000     
  0.34375000000000000       0.96875000000000000        0.0000000000000000     
  0.37500000000000000       0.96875000000000000        0.0000000000000000     
  0.25000000000000000        1.0000000000000000        0.0000000000000000     
  0.28125000000000000        1.0000000000000000        0.0000000000000000     
  0.31250000000000000        1.0000000000000000        0.0000000000000000     
  0.34375000000000000        1.0000000000000000        0.0000000000000000     
  0.37500000000000000        1.0000000000000000        0.0000000000000000     
  0.37500000000000000       0.87500000000000000        0.0000000000000000     
  0.40625000000000000       0.87500000000000000        0.0000000000000000     
  0.43750000000000000       0.87500000000000000        0.0000000000000000     
  0.46875000000000000       0.87500000000000000        0.0000000000000000     
  0.50000000000000000       0.87500000000000000        0.0000000000000000     
  0.37500000000000000       0.90625000000000000        0.0000000000000000     
  0.40625000000000000       0.90625000000000000        0.0000000000000000     
  0.43750000000000000       0.90625000000000000        0.0000000000000000     
  0.46875000000000000       0.90625000000000000        0.0000000000000000     
  0.50000000000000000       0.90625000000000000        0.0000000000000000     
  0.37500000000000000       0.93750000000000000        0.0000000000000000     
  0.40625000000000000       0.93750000000000000        0.0000000000000000     
  0.43750000000000000       0.93750000000000000        0.0000000000000000     
  0.46875000000000000       0.93750000000000000        0.0000000000000000     
  0.50000000000000000       0.93750000000000000        0.0000000000000000     
  0.37500000000000000       0.96875000000000000        0.0000000000000000     
  0.40625000000000000       0.96875000000000000        0.0000000000000000     
  0.43750000000000000       0.96875000000000000        0.0000000000000000     
  0.46875000000000000       0.96875000000000000        0.0000000000000000     
  0.50000000000000000       0.96875000000000000        0.0000000000000000     
  0.37500000000000000        1.0000000000000000        0.0000000000000000     
  0.40625000000000000        1.0000000000000000        0.0000000000000000     
  0.43750000000000000        1.0000000000000000        0.0000000000000000     
  0.46875000000000000        1.0000000000000000        0.0000000000000000     
  0.50000000000000000        1.0000000000000000        0.0000000000000000     
  0.50000000000000000       0.87500000000000000        0.0000000000000000     
  0.53125000000000000       0.87500000000000000        0.0000000000000000     
  0.56250000000000000       0.87500000000000000        0.0000000000000000     
  0.59375000000000000       0.87500000000000000        0.0000000000000000     
  0.62500000000000000       0.87500000000000000        0.0000000000000000     
  0.50000000000000000       0.90625000000000000        0.0000000000000000     
  0.53125000000000000       0.90625000000000000        0.0000000000000000     
  0.56250000000000000       0.90625000000000000        0.0000000000000000     
  0.59375000000000000       0.90625000000000000        0.0000000000000000     
  0.62500000000000000       0.90625000000000000        0.0000000000000000     
  0.50000000000000000       0.93750000000000000        0.0000000000000000     
  0.53125000000000000       0.93750000000000000        0.0000000000000000     
  0.56250000000000000       0.93750000000000000        0.0000000000000000     
  0.59375000000000000       0.93750000000000000        0.0000000000000000     
  0.62500000000000000       0.93750000000000000        0.0000000000000000     
  0.50000000000000000       0.96875000000000000        0.0000000000000000     
  0.53125000000000000       0.96875000000000000        0.0000000000000000     
  0.56250000000000000       0.96875000000000000        0.0000000000000000     
  0.59375000000000000       0.96875000000000000        0.0000000000000000     
  0.62500000000000000       0.96875000000000000        0.0000000000000000     
  0.50000000000000000        1.0000000000000000        0.0000000000000000     
  0.53125000000000000        1.0000000000000000        0.0000000000000000     
  0.56250000000000000        1.0000000000000000        0.0000000000000000     
  0.59375000000000000        1.0000000000000000        0.0000000000000000     
  0.62500000000000000        1.0000000000000000        0.0000000000000000     
  0.62500000000000000       0.87500000000000000        0.0000000000000000     
  0.65625000000000000       0.87500000000000000        0.0000000000000000     
  0.68750000000000000       0.87500000000000000        0.0000000000000000     
  0.71875000000000000       0.87500000000000000        0.0000000000000000     
  0.75000000000000000       0.87500000000000000        0.0000000000000000     
  0.62500000000000000       0.90625000000000000        0.0000000000000000     
  0.65625000000000000       0.90625000000000000        0.0000000000000000     
  0.68750000000000000       0.90625000000000000        0.0000000000000000     
  0.71875000000000000       0.90625000000000000        0.0000000000000000     
  0.75000000000000000       0.90625000000000000        0.0000000000000000     
  0.62500000000000000       0.93750000000000000        0.0000000000000000     
  0.65625000000000000       0.93750000000000000        0.0000000000000000     
  0.68750000000000000       0.93750000000000000        0.0000000000000000     
  0.71875000000000000       0.93750000000000000        0.0000000000000000     
  0.75000000000000000       0.93750000000000000        0.0000000000000000     
  0.62500000000000000       0.96875000000000000        0.0000000000000000     
  0.65625000000000000       0.96875000000000000        0.0000000000000000     
  0.68750000000000000       0.96875000000000000        0.0000000000000000     
  0.71875000000000000       0.96875000000000000        0.0000000000000000     
  0.75000000000000000       0.96875000000000000        0.0000000000000000     
  0.62500000000000000        1.0000000000000000        0.0000000000000000     
  0.65625000000000000        1.0000000000000000        0.0000000000000000     
  0.68750000000000000        1.0000000000000000        0.0000000000000000     
  0.71875000000000000        1.0000000000000000        0.0000000000000000     
  0.75000000000000000        1.0000000000000000        0.0000000000000000     
  0.75000000000000000       0.87500000000000000        0.0000000000000000     
  0.78125000000000000       0.87500000000000000        0.0000000000000000     
  0.81250000000000000       0.87500000000000000        0.0000000000000000     
  0.84375000000000000       0.87500000000000000        0.0000000000000000     
  0.87500000000000000       0.87500000000000000        0.0000000000000000     
  0.75000000000000000       0.90625000000000000        0.0000000000000000     
  0.78125000000000000       0.90625000000000000        0.0000000000000000     
  0.81250000000000000       0.90625000000000000        0.0000000000000000     
  0.84375000000000000       0.90625000000000000        0.0000000000000000     
  0.87500000000000000       0.90625000000000000        0.0000000000000000     
  0.75000000000000000       0.93750000000000000        0.0000000000000000     
  0.78125000000000000       0.93750000000000000        0.0000000000000000     
  0.81250000000000000       0.93750000000000000        0.0000000000000000     
  0.84375000000000000       0.93750000000000000        0.0000000000000000     
  0.87500000000000000       0.93750000000000000        0.0000000000000000     
  0.75000000000000000       0.96875000000000000        0.0000000000000000     
  0.78125000000000000       0.96875000000000000        0.0000000000000000     
  0.81250000000000000       0.96875000000000000        0.0000000000000000     
  0.84375000000000000       0.96875000000000000        0.0000000000000000     
  0.87500000000000000       0.96875000000000000        0.0000000000000000     
  0.75000000000000000        1.0000000000000000        0.0000000000000000     
  0.78125000000000000        1.0000000000000000        0.0000000000000000     
  0.81250000000000000        1.0000000000000000        0.0000000000000000     
  0.84375000000000000        1.0000000000000000        0.0000000000000000     
  0.87500000000000000        1.0000000000000000        0.0000000000000000     
  0.87500000000000000       0.87500000000000000        0.0000000000000000     
  0.90625000000000000       0.87500000000000000        0.0000000000000000     
  0.93750000000000000       0.87500000000000000        0.0000000000000000     
  0.96875000000000000       0.87500000000000000        0.0000000000000000     
   1.0000000000000000       0.87500000000000000        0.0000000000000000     
  0.87500000000000000       0.90625000000000000        0.0000000000000000     
  0.90625000000000000       0.90625000000000000        0.0000000000000000     
  0.93750000000000000       0.90625000000000000        0.0000000000000000     
  0.96875000000000000       0.90625000000000000        0.0000000000000000     
   1.0000000000000000       0.90625000000000000        0.0000000000000000     
  0.87500000000000000       0.93750000000000000        0.0000000000000000     
  0.90625000000000000       0.93750000000000000        0.0000000000000000     
  0.93750000000000000       0.93750000000000000        0.0000000000000000     
  0.96875000000000000       0.93750000000000000        0.0000000000000000     
   1.0000000000000000       0.93750000000000000        0.0000000000000000     
  0.87500000000000000       0.96875000000000000        0.0000000000000000     
  0.90625000000000000       0.96875000000000000        0.0000000000000000     
  0.93750000000000000       0.96875000000000000        0.0000000000000000     
  0.96875000000000000       0.96875000000000000        0.0000000000000000     
   1.0000000000000000       0.96875000000000000        0.0000000000000000     
  0.87500000000000000        1.0000000000000000        0.0000000000000000     
  0.90625000000000000        1.0000000000000000        0.0000000000000000     
  0.93750000000000000        1.0000000000000000        0.0000000000000000     
  0.96875000000000000        1.0000000000000000        0.0000000000000000     
   1.0000000000000000        1.0000000000000000        0.0000000000000000     
 </DataArray>
 </Points>
 <Cells>
 <DataArray  type="Int32"  Name="connectivity"  format="ascii">
           0           1           6           5
           1           2           7           6
           2           3           8           7
           3           4           9           8
           5           6          11          10
           6           7          12          11
           7           8          13          12
           8           9          14          13
          10          11          16          15
          11          12          17          16
          12          13          18          17
          13          14          19          18
          15          16          21          20
          16          17          22          21
          17          18          23          22
          18          19          24          23
          25          26          31          30
          26          27          32          31
          27          28          33          32
          28          29          34          33
          30          31          36          35
          31          32          37          36
          32          33          38          37
          33          34          39          38
          35          36          41          40
          36          37          42          41
          37          38          43          42
          38          39          44          43
          40          41          46          45
          41          42          47          46
          42          43          48          47
          43          44          49          48
          50          51          56          55
          51          52          57          56
          52          53          58          57
          53          54          59          58
          55          56          61          60
          56          57          62          61
          57          58          63          62
          58          59          64          63
          60          61          66          65
          61          62          67          66
          62          63          68          67
          63          64          69          68
          65          66          71          70
          66          67          72          71
          67          68          73          72
          68          69          74          73
          75          76          81          80
          76          77          82          81
          77          78          83          82
          78          79          84          83
          80          81          86          85
          81          82          87          86
          82          83          88          87
          83          84          89          88
          85          86          91          90
          86          87          92          91
          87          88          93          92
          88          89          94          93
          90          91          96          95
          91          92          97          96
          92          93          98          97
          93          94          99          98
         100         101         106         105
         101         102         107         106
         102         103         108         107
         103         104         109         108
         105         106         111         110
         106         107         112         111
         107         108         113         112
         108         109         114         113
         110         111         116         115
         111         112         117         116
         112         113         118         117
         113         114         119         118
         115         116         121         120
         116         117         122         121
         117         118         123         122
         118         119         124         123
         125         126         131         130
         126         127         132         131
         127         128         133         132
         128         129         134         133
         130         131         136         135
         131         132         137         136
         132         133         138         137
         133         134         139         138
         135         136         141         140
         136         137         142         141
         137         138         143         142
         138         139         144         143
         140         141         146         145
         141         142         147         146
         142         143         148         147
         143         144         149         148
         150         151         156         155
         151         152         157         156
         152         153         158         157
         153         154         159         158
         155         156         161         160
         156         157         162         161
         157         158         163         162
         158         159         164         163
         160         161         166         165
         161         162         167         166
         162         163         168         167
         163         164         169         168
         165         166         171         170
         166         167         172         171
         167         168         173         172
         168         169         174         173
         175         176         181         180
         176         177         182         181
         177         178         183         182
         178         179         184         183
         180         181         186         185
         181         182         187         186
         182         183         188         187
         183         184         189         188
         185         186         191         190
         186         187         192         191
         187         188         193         192
         188         189         194         193
         190         191         196         195
         191         192         197         196
         192         193         198         197
         193         194         199         198
         200         201         206         205
         201         202         207         206
         202         203         208         207
         203         204         209         208
         205         206         211         210
         206         207         212         211
         207         208         213         212
         208         209         214         213
         210         211         216         215
         211         212         217         216
         212         213         218         217
         213         214         219         218
         215         216         221         220
         216         217         222         221
         217         218         223         222
         218         219         224         223
         225         226         231         230
         226         227         232         231
         227         228         233         232
         228         229         234         233
         230         231         236         235
         231         232         237         236
         232         233         238         237
         233         234         239         238
         235         236         241         240
         236         237         242         241
         237         238         243         242
         238         239         244         243
         240         241         246         245
         241         242         247         246
         242         243         248         247
         243         244         249         248
         250         251         256         255
         251         252         257         256
         252         253         258         257
         253         254         259         258
         255         256         261         260
         256         257         262         261
         257         258         263         262
         258         259         264         263
         260         261         266         265
         261         262         267         266
         262         263         268         267
         263         264         269         268
         265         266         271         270
         266         267         272         271
         267         268         273         272
         268         269         274         273
         275         276         281         280
         276         277         282         281
         277         278         283         282
         278         279         284         283
         280         281         286         285
         281         282         287         286
         282         283         288         287
         283         284         289         288
         285         286         291         290
         286         287         292         291
         287         288         293         292
         288         289         294         293
         290         291         296         295
         291         292         297         296
         292         293         298         297
         293         294         299         298
         300         301         306         305
         301         302         307         306
         302         303         308         307
         303         304         309         308
         305         306         311         310
         306         307         312         311
         307         308         313         312
         308         309         314         313
         310         311         316         315
         311         312         317         316
         312         313         318         317
         313         314         319         318
         315         316         321         320
         316         317         322         321
         317         318         323         322
         318         319         324         323
         325         326         331         330
         326         327         332         331
         327         328         333         332
         328         329         334         333
         330         331         336         335
         331         332         337         336
         332         333         338         337
         333         334         339         338
         335         336         341         340
         336         337         342         341
         337         338         343         342
         338         339         344         343
         340         341         346         345
         341         342         347         346
         342         343         348         347
         343         344         349         348
         350         351         356         355
         351         352         357         356
         352         353         358         357
         353         354         359         358
         355         356         361         360
         356         357         362         361
         357         358         363         362
         358         359         364         363
         360         361         366         365
         361         362         367         366
         362         363         368         367
         363         364         369         368
         365         366         371         370
         366         367         372         371
         367         368         373         372
         368         369         374         373
         375         376         381         380
         376         377         382         381
         377         378         383         382
         378         379         384         383
         380         381         386         385
         381         382         387         386
         382         383         388         387
         383         384         389         388
         385         386         391         390
         386         387         392         391
         387         388         393         392
         388         389         394         393
         390         391         396         395
         391         392         397         396
         392         393         398         397
         393         394         399         398
         400         401         406         405
         401         402         407         406
         402         403         408         407
         403         404         409         408
         405         406         411         410
         406         407         412         411
         407         408         413         412
         408         409         414         413
         410         411         416         415
         411         412         417         416
         412         413         418         417
         413         414         419         418
         415         416         421         420
         416         417         422         421
         417         418         423         422
         418         419         424         423
         425         426         431         430
         426         427         432         431
         427         428         433         432
         428         429         434         433
         430         431         436         435
         431         432         437         436
         432         433         438         437
         433         434         439         438
         435         436         441         440
         436         437         442         441
         437         438         443         442
         438         439         444         443
         440         441         446         445
         441         442         447         446
         442         443         448         447
         443         444         449         448
         450         451         456         455
         451         452         457         456
         452         453         458         457
         453         454         459         458
         455         456         461         460
         456         457         462         461
         457         458         463         462
         458         459         464         463
         460         461         466         465
         461         462         467         466
         462         463         468         467
         463         464         469         468
         465         466         471         470
         466         467         472         471
         467         468         473         472
         468         469         474         473
         475         476         481         480
         476         477         482         481
         477         478         483         482
         478         479         484         483
         480         481         486         485
         481         482         487         486
         482         483         488         487
         483         484         489         488
         485         486         491         490
         486         487         492         491
         487         488         493         492
         488         489         494         493
         490         491         496         495
         491         492         497         496
         492         493         498         497
         493         494         499         498
         500         501         506         505
         501         502         507         506
         502         503         508         507
         503         504         509         508
         505         506         511         510
         506         507         512         511
         507         508         513         512
         508         509         514         513
         510         511         516         515
         511         512         517         516
         512         513         518         517
         513         514         519         518
         515         516         521         520
         516         517         522         521
         517         518         523         522
         518         519         524         523
         525         526         531         530
         526         527         532         531
         527         528         533         532
         528         529         534         533
         530         531         536         535
         531         532         537         536
         532         533         538         537
         533         534         539         538
         535         536         541         540
         536         537         542         541
         537         538         543         542
         538         539         544         543
         540         541         546         545
         541         542         547         546
         542         543         548         547
         543         544         549         548
         550         551         556         555
         551         552         557         556
         552         553         558         557
         553         554         559         558
         555         556         561         560
         556         557         562         561
         557         558         563         562
         558         559         564         563
         560         561         566         565
         561         562         567         566
         562         563         568         567
         563         564         569         568
         565         566         571         570
         566         567         572         571
         567         568         573         572
         568         569         574         573
         575         576         581         580
         576         577         582         581
         577         578         583         582
         578         579         584         583
         580         581         586         585
         581         582         587         586
         582         583         588         587
         583         584         589         588
         585         586         591         590
         586         587         592         591
         587         588         593         592
         588         589         594         593
         590         591         596         595
         591         592         597         596
         592         593         598         597
         593         594         599         598
         600         601         606         605
         601         602         607         606
         602         603         608         607
         603         604         609         608
         605         606         611         610
         606         607         612         611
         607         608         613         612
         608         609         614         613
         610         611         616         615
         611         612         617         616
         612         613         618         617
         613         614         619         618
         615         616         621         620
         616         617         622         621
         617         618         623         622
         618         619         624         623
         625         626         631         630
         626         627         632         631
         627         628         633         632
         628         629         634         633
         630         631         636         635
         631         632         637         636
         632         633         638         637
         633         634         639         638
         635         636         641         640
         636         637         642         641
         637         638         643         642
         638         639         644         643
         640         641         646         645
         641         642         647         646
         642         643         648         647
         643         644         649         648
         650         651         656         655
         651         652         657         656
         652         653         658         657
         653         654         659         658
         655         656         661         660
         656         657         662         661
         657         658         663         662
         658         659         664         663
         660         661         666         665
         661         662         667         666
         662         663         668         667
         663         664         669         668
         665         666         671         670
         666         667         672         671
         667         668         673         672
         668         669         674         673
         675         676         681         680
         676         677         682         681
         677         678         683         682
         678         679         684         683
         680         681         686         685
         681         682         687         686
         682         683         688         687
         683         684         689         688
         685         686         691         690
         686         687         692         691
         687         688         693         692
         688         689         694         693
         690         691         696         695
         691         692         697         696
         692         693         698         697
         693         694         699         698
         700         701         706         705
         701         702         707         706
         702         703         708         707
         703         704         709         708
         705         706         711         710
         706         707         712         711
         707         708         713         712
         708         709         714         713
         710         711         716         715
         711         712         717         716
         712         713         718         717
         713         714         719         718
         715         716         721         720
         716         717         722         721
         717         718         723         722
         718         719         724         723
         725         726         731         730
         726         727         732         731
         727         728         733         732
         728         729         734         733
         730         731         736         735
         731         732         737         736
         732         733         738         737
         733         734         739         738
         735         736         741         740
         736         737         742         741
         737         738         743         742
         738         739         744         743
         740         741         746         745
         741         742         747         746
         742         743         748         747
         743         744         749         748
         750         751         756         755
         751         752         757         756
         752         753         758         757
         753         754         759         758
         755         756         761         760
         756         757         762         761
         757         758         763         762
         758         759         764         763
         760         761         766         765
         761         762         767         766
         762         763         768         767
         763         764         769         768
         765         766         771         770
         766         767         772         771
         767         768         773         772
         768         769         774         773
         775         776         781         780
         776         777         782         781
         777         778         783         782
         778         779         784         783
         780         781         786         785
         781         782         787         786
         782         783         788         787
         783         784         789         788
         785         786         791         790
         786         787         792         791
         787         788         793         792
         788         789         794         793
         790         791         796         795
         791         792         797         796
         792         793         798         797
         793         794         799         798
         800         801         806         805
         801         802         807         806
         802         803         808         807
         803         804         809         808
         805         806         811         810
         806         807         812         811
         807         808         813         812
         808         809         814         813
         810         811         816         815
         811         812         817         816
         812         813         818         817
         813         814         819         818
         815         816         821         820
         816         817         822         821
         817         818         823         822
         818         819         824         823
         825         826         831         830
         826         827         832         831
         827         828         833         832
         828         829         834         833
         830         831         836         835
         831         832         837         836
         832         833         838         837
         833         834         839         838
         835         836         841         840
         836         837         842         841
         837         838         843         842
         838         839         844         843
         840         841         846         845
         841         842         847         846
         842         843         848         847
         843         844         849         848
         850         851         856         855
         851         852         857         856
         852         853         858         857
         853         854         859         858
         855         856         861         860
         856         857         862         861
         857         858         863         862
         858         859         864         863
         860         861         866         865
         861         862         867         866
         862         863         868         867
         863         864         869         868
         865         866         871         870
         866         867         872         871
         867         868         873         872
         868         869         874         873
         875         876         881         880
         876         877         882         881
         877         878         883         882
         878         879         884         883
         880         881         886         885
         881         882         887         886
         882         883         888         887
         883         884         889         888
         885         886         891         890
         886         887         892         891
         887         888         893         892
         888         889         894         893
         890         891         896         895
         891         892         897         896
         892         893         898         897
         893         894         899         898
         900         901         906         905
         901         902         907         906
         902         903         908         907
         903         904         909         908
         905         906         911         910
         906         907         912         911
         907         908         913         912
         908         909         914         913
         910         911         916         915
         911         912         917         916
         912         913         918         917
         913         914         919         918
         915         916         921         920
         916         917         922         921
         917         918         923         922
         918         919         924         923
         925         926         931         930
         926         927         932         931
         927         928         933         932
         928         929         934         933
         930         931         936         935
         931         932         937         936
         932         933         938         937
         933         934         939         938
         935         936         941         940
         936         937         942         941
         937         938         943         942
         938         939         944         943
         940         941         946         945
         941         942         947         946
         942         943         948         947
         943         944         949         948
         950         951         956         955
         951         952         957         956
         952         953         958         957
         953         954         959         958
         955         956         961         960
         956         957         962         961
         957         958         963         962
         958         959         964         963
         960         961         966         965
         961         962         967         966
         962         963         968         967
         963         964         969         968
         965         966         971         970
         966         967         972         971
         967         968         973         972
         968         969         974         973
         975         976         981         980
         976         977         982         981
         977         978         983         982
         978         979         984         983
         980         981         986         985
         981         982         987         986
         982         983         988         987
         983         984         989         988
         985         986         991         990
         986         987         992         991
         987         988         993         992
         988         989         994         993
         990         991         996         995
         991         992         997         996
         992         993         998         997
         993         994         999         998
        1000        1001        1006        1005
        1001        1002        1007        1006
        1002        1003        1008        1007
        1003        1004        1009        1008
        1005        1006        1011        1010
        1006        1007        1012        1011
        1007        1008        1013        1012
        1008        1009        1014        1013
        1010        1011        1016        1015
        1011        1012        1017        1016
        1012        1013        1018        1017
        1013        1014        1019        1018
        1015        1016        1021        1020
        1016        1017        1022        1021
        1017        1018        1023        1022
        1018        1019        1024        1023
        1025        1026        1031        1030
        1026        1027        1032        1031
        1027        1028        1033        1032
        1028        1029        1034        1033
        1030        1031        1036        1035
        1031        1032        1037        1036
        1032        1033        1038        1037
        1033        1034        1039        1038
        1035        1036        1041        1040
        1036        1037        1042        1041
        1037        1038        1043        1042
        1038        1039        1044        1043
        1040        1041        1046        1045
        1041        1042        1047        1046
        1042        1043        1048        1047
        1043        1044        1049        1048
        1050        1051        1056        1055
        1051        1052        1057        1056
        1052        1053        1058        1057
        1053        1054        1059        1058
        1055        1056        1061        1060
        1056        1057        1062        1061
        1057        1058        1063        1062
        1058        1059        1064        1063
        1060        1061        1066        1065
        1061        1062        1067        1066
        1062        1063        1068        1067
        1063        1064        1069        1068
        1065        1066        1071        1070
        1066        1067        1072        1071
        1067        1068        1073        1072
        1068        1069        1074        1073
        1075        1076        1081        1080
        1076        1077        1082        1081
        1077        1078        1083        1082
        1078        1079        1084        1083
        1080        1081        1086        1085
        1081        1082        1087        1086
        1082        1083        1088        1087
        1083        1084        1089        1088
        1085        1086        1091        1090
        1086        1087        1092        1091
        1087        1088        1093        1092
        1088        1089        1094        1093
        1090        1091        1096        1095
        1091        1092        1097        1096
        1092        1093        1098        1097
        1093        1094        1099        1098
        1100        1101        1106        1105
        1101        1102        1107        1106
        1102        1103        1108        1107
        1103        1104        1109        1108
        1105        1106        1111        1110
        1106        1107        1112        1111
        1107        1108        1113        1112
        1108        1109        1114        1113
        1110        1111        1116        1115
        1111        1112        1117        1116
        1112        1113        1118        1117
        1113        1114        1119        1118
        1115        1116        1121        1120
        1116        1117        1122        1121
        1117        1118        1123        1122
        1118        1119        1124        1123
        1125        1126        1131        1130
        1126        1127        1132        1131
        1127        1128        1133        1132
        1128        1129        1134        1133
        1130        1131        1136        1135
        1131        1132        1137        1136
        1132        1133        1138        1137
        1133        1134        1139        1138
        1135        1136        1141        1140
        1136        1137        1142        1141
        1137        1138        1143        1142
        1138        1139        1144        1143
        1140        1141        1146        1145
        1141        1142        1147        1146
        1142        1143        1148        1147
        1143        1144        1149        1148
        1150        1151        1156        1155
        1151        1152        1157        1156
        1152        1153        1158        1157
        1153        1154        1159        1158
        1155        1156        1161        1160
        1156        1157        1162        1161
        1157        1158        1163        1162
        1158        1159        1164        1163
        1160        1161        1166        1165
        1161        1162        1167        1166
        1162        1163        1168        1167
        1163        1164        1169        1168
        1165        1166        1171        1170
        1166        1167        1172        1171
        1167        1168        1173        1172
        1168        1169        1174        1173
        1175        1176        1181        1180
        1176        1177        1182        1181
        1177        1178        1183        1182
        1178        1179        1184        1183
        1180        1181        1186        1185
        1181        1182        1187        1186
        1182        1183        1188        1187
        1183        1184        1189        1188
        1185        1186        1191        1190
        1186        1187        1192        1191
        1187        1188        1193        1192
        1188        1189        1194        1193
        1190        1191        1196        1195
        1191        1192        1197        1196
        1192        1193        1198        1197
        1193        1194        1199        1198
        1200        1201        1206        1205
        1201        1202        1207        1206
        1202        1203        1208        1207
        1203        1204        1209        1208
        1205        1206        1211        1210
        1206        1207        1212        1211
        1207        1208        1213        1212
        1208        1209        1214        1213
        1210        1211        1216        1215
        1211        1212        1217        1216
        1212        1213        1218        1217
        1213        1214        1219        1218
        1215        1216        1221        1220
        1216        1217        1222        1221
        1217        1218        1223        1222
        1218        1219        1224        1223
        1225        1226        1231        1230
        1226        1227        1232        1231
        1227        1228        1233        1232
        1228        1229        1234        1233
        1230        1231        1236        1235
        1231        1232        1237        1236
        1232        1233        1238        1237
        1233        1234        1239        1238
        1235        1236        1241        1240
        1236        1237        1242        1241
        1237        1238        1243        1242
        1238        1239        1244        1243
        1240        1241        1246        1245
        1241        1242        1247        1246
        1242        1243        1248        1247
        1243        1244        1249        1248
        1250        1251        1256        1255
        1251        1252        1257        1256
        1252        1253        1258        1257
        1253        1254        1259        1258
        1255        1256        1261        1260
        1256        1257        1262        1261
        1257        1258        1263        1262
        1258        1259        1264        1263
        1260        1261        1266        1265
        1261        1262        1267        1266
        1262        1263        1268        1267
        1263        1264        1269        1268
        1265        1266        1271        1270
        1266        1267        1272        1271
        1267        1268        1273        1272
        1268        1269        1274        1273
        1275        1276        1281        1280
        1276        1277        1282        1281
        1277        1278        1283        1282
        1278        1279        1284        1283
        1280        1281        1286        1285
        1281        1282        1287        1286
        1282        1283        1288        1287
        1283        1284        1289        1288
        1285        1286        1291        1290
        1286        1287        1292        1291
        1287        1288        1293        1292
        1288        1289        1294        1293
        1290        1291        1296        1295
        1291        1292        1297        1296
        1292        1293        1298        1297
        1293        1294        1299        1298
        1300        1301        1306        1305
        1301        1302        1307        1306
        1302        1303        1308        1307
        1303        1304        1309        1308
        1305        1306        1311        1310
        1306        1307        1312        1311
        1307        1308        1313        1312
        1308        1309        1314        1313
        1310        1311        1316        1315
        1311        1312        1317        1316
        1312        1313        1318        1317
        1313        1314        1319        1318
        1315        1316        1321        1320
        1316        1317        1322        1321
        1317        1318        1323        1322
        1318        1319        1324        1323
        1325        1326        1331        1330
        1326        1327        1332        1331
        1327        1328        1333        1332
        1328        1329        1334        1333
        1330        1331        1336        1335
        1331        1332        1337        1336
        1332        1333        1338        1337
        1333        1334        1339        1338
        1335        1336        1341        1340
        1336        1337        1342        1341
        1337        1338        1343        1342
        1338        1339        1344        1343
        1340        1341        1346        1345
        1341        1342        1347        1346
        1342        1343        1348        1347
        1343        1344        1349        1348
        1350        1351        1356        1355
        1351        1352        1357        1356
        1352        1353        1358        1357
        1353        1354        1359        1358
        1355        1356        1361        1360
        1356        1357        1362        1361
        1357        1358        1363        1362
        1358        1359        1364        1363
        1360        1361        1366        1365
        1361        1362        1367        1366
        1362        1363        1368        1367
        1363        1364        1369        1368
        1365        1366        1371        1370
        1366        1367        1372        1371
        1367        1368        1373        1372
        1368        1369        1374        1373
        1375        1376        1381        1380
        1376        1377        1382        1381
        1377        1378        1383        1382
        1378        1379        1384        1383
        1380        1381        1386        1385
        1381        1382        1387        1386
        1382        1383        1388        1387
        1383        1384        1389        1388
        1385        1386        1391        1390
        1386        1387        1392        1391
        1387        1388        1393        1392
        1388        1389        1394        1393
        1390        1391        1396        1395
        1391        1392        1397        1396
        1392        1393        1398        1397
        1393        1394        1399        1398
        1400        1401        1406        1405
        1401        1402        1407        1406
        1402        1403        1408        1407
        1403        1404        1409        1408
        1405        1406        1411        1410
        1406        1407        1412        1411
        1407        1408        1413        1412
        1408        1409        1414        1413
        1410        1411        1416        1415
        1411        1412        1417        1416
        1412        1413        1418        1417
        1413        1414        1419        1418
        1415        1416        1421        1420
        1416        1417        1422        1421
        1417        1418        1423        1422
        1418        1419        1424        1423
        1425        1426        1431        1430
        1426        1427        1432        1431
        1427        1428        1433        1432
        1428        1429        1434        1433
        1430        1431        1436        1435
        1431        1432        1437        1436
        1432        1433        1438        1437
        1433        1434        1439        1438
        1435        1436        1441        1440
        1436        1437        1442        1441
        1437        1438        1443        1442
        1438        1439        1444        1443
        1440        1441        1446        1445
        1441        1442        1447        1446
        1442        1443        1448        1447
        1443        1444        1449        1448
        1450        1451        1456        1455
        1451        1452        1457        1456
        1452        1453        1458        1457
        1453        1454        1459        1458
        1455        1456        1461        1460
        1456        1457        1462        1461
        1457        1458        1463        1462
        1458        1459        1464        1463
        1460        1461        1466        1465
        1461        1462        1467        1466
        1462        1463        1468        1467
        1463        1464        1469        1468
        1465        1466        1471        1470
        1466        1467        1472        1471
        1467        1468        1473        1472
        1468        1469        1474        1473
        1475        1476        1481        1480
        1476        1477        1482        1481
        1477        1478        1483        1482
        1478        1479        1484        1483
        1480        1481        1486        1485
        1481        1482        1487        1486
        1482        1483        1488        1487
        1483        1484        1489        1488
        1485        1486        1491        1490
        1486        1487        1492        1491
        1487        1488        1493        1492
        1488        1489        1494        1493
        1490        1491        1496        1495
        1491        1492        1497        1496
        1492        1493        1498        1497
        1493        1494        1499        1498
        1500        1501        1506        1505
        1501        1502        1507        1506
        1502        1503        1508        1507
        1503        1504        1509        1508
        1505        1506        1511        1510
        1506        1507        1512        1511
        1507        1508        1513        1512
        1508        1509        1514        1513
        1510        1511        1516        1515
        1511        1512        1517        1516
        1512        1513        1518        1517
        1513        1514        1519        1518
        1515        1516        1521        1520
        1516        1517        1522        1521
        1517        1518        1523        1522
        1518        1519        1524        1523
        1525        1526        1531        1530
        1526        1527        1532        1531
        1527        1528        1533        1532
        1528        1529        1534        1533
        1530        1531        1536        1535
        1531        1532        1537        1536
        1532        1533        1538        1537
        1533        1534        1539        1538
        1535        1536        1541        1540
        1536        1537        1542        1541
        1537        1538        1543        1542
        1538        1539        1544        1543
        1540        1541        1546        1545
        1541        1542        1547        1546
        1542        1543        1548        1547
        1543        1544        1549        1548
        1550        1551        1556        1555
        1551        1552        1557        1556
        1552        1553        1558        1557
        1553        1554        1559        1558
        1555        1556        1561        1560
        1556        1557        1562        1561
        1557        1558        1563        1562
        1558        1559        1564        1563
        1560        1561        1566        1565
        1561        1562        1567        1566
        1562        1563        1568        1567
        1563        1564        1569        1568
        1565        1566        1571        1570
        1566        1567        1572        1571
        1567        1568        1573        1572
        1568        1569        1574        1573
        1575        1576        1581        1580
        1576        1577        1582        1581
        1577        1578        1583        1582
        1578        1579        1584        1583
        1580        1581        1586        1585
        1581        1582        1587        1586
        1582        1583        1588        1587
        1583        1584        1589        1588
        1585        1586        1591        1590
        1586        1587        1592        1591
        1587        1588        1593        1592
        1588        1589        1594        1593
        1590        1591        1596        1595
        1591        1592        1597        1596
        1592        1593        1598        1597
        1593        1594        1599        1598
 </DataArray>
 <DataArray  type="Int32"  Name="offsets"  format="ascii"> 
           4
           8
          12
          16
          20
          24
          28
          32
          36
          40
          44
          48
          52
          56
          60
          64
          68
          72
          76
          80
          84
          88
          92
          96
         100
         104
         108
         112
         116
         120
         124
         128
         132
         136
         140
         144
         148
         152
         156
         160
         164
         168
         172
         176
         180
         184
         188
         192
         196
         200
         204
         208
         212
         216
         220
         224
         228
         232
         236
         240
         244
         248
         252
         256
         260
         264
         268
         272
         276
         280
         284
         288
         292
         296
         300
         304
         308
         312
         316
         320
         324
         328
         332
         336
         340
         344
         348
         352
         356
         360
         364
         368
         372
         376
         380
         384
         388
         392
         396
         400
         404
         408
         412
         416
         420
         424
         428
         432
         436
         440
         444
         448
         452
         456
         460
         464
         468
         472
         476
         480
         484
         488
         492
         496
         500
         504
         508
         512
         516
         520
         524
         528
         532
         536
         540
         544
         548
         552
         556
         560
         564
         568
         572
         576
         580
         584
         588
         592
         596
         600
         604
         608
         612
         616
         620
         624
         628
         632
         636
         640
         644
         648
         652
         656
         660
         664
         668
         672
         676
         680
         684
         688
         692
         696
         700
         704
         708
         712
         716
         720
         724
         728
         732
         736
         740
         744
         748
         752
         756
         760
         764
         768
         772
         776
         780
         784
         788
         792
         796
         800
         804
         808
         812
         816
         820
         824
         828
         832
         836
         840
         844
         848
         852
         856
         860
         864
         868
         872
         876
         880
         884
         888
         892
         896
         900
         904
         908
         912
         916
         920
         924
         928
         932
         936
         940
         944
         948
         952
         956
         960
         964
         968
         972
         976
         980
         984
         988
         992
         996
        1000
        1004
        1008
        1012
        1016
        1020
        1024
        1028
        1032
        1036
        1040
        1044
        1048
        1052
        1056
        1060
        1064
        1068
        1072
        1076
        1080
        1084
        1088
        1092
        1096
        1100
        1104
        1108
        1112
        1116
        1120
        1124
        1128
        1132
        1136
        1140
        1144
        1148
        1152
        1156
        1160
        1164
        1168
        1172
        1176
        1180
        1184
        1188
        1192
        1196
        1200
        1204
        1208
        1212
        1216
        1220
        1224
        1228
        1232
        1236
        1240
        1244
        1248
        1252
        1256
        1260
        1264
        1268
        1272
        1276
        1280
        1284
        1288
        1292
        1296
        1300
        1304
        1308
        1312
        1316
        1320
        1324
        1328
        1332
        1336
        1340
        1344
        1348
        1352
        1356
        1360
        1364
        1368
        1372
        1376
        1380
        1384
        1388
        1392
        1396
        1400
        1404
        1408
        1412
        1416
        1420
        1424
        1428
        1432
        1436
        1440
        1444
        1448
        1452
        1456
        1460
        1464
        1468
        1472
        1476
        1480
        1484
        1488
        1492
        1496
        1500
        1504
        1508
        1512
        1516
        1520
        1524
        1528
        1532
        1536
        1540
        1544
        1548
        1552
        1556
        1560
        1564
        1568
        1572
        1576
        1580
        1584
        1588
        1592
        1596
        1600
        1604
        1608
        1612
        1616
        1620
        1624
        1628
        1632
        1636
        1640
        1644
        1648
        1652
        1656
        1660
        1664
        1668
        1672
        1676
        1680
        1684
        1688
        1692
        1696
        1700
        1704
        1708
        1712
        1716
        1720
        1724
        1728
        1732
        1736
        1740
        1744
        1748
        1752
        1756
        1760
        1764
        1768
        1772
        1776
        1780
        1784
        1788
        1792
        1796
        1800
        1804
        1808
        1812
        1816
        1820
        1824
        1828
        1832
        1836
        1840
        1844
        1848
        1852
        1856
        1860
        1864
        1868
        1872
        1876
        1880
        1884
        1888
        1892
        1896
        1900
        1904
        1908
        1912
        1916
        1920
        1924
        1928
        1932
        1936
        1940
        1944
        1948
        1952
        1956
        1960
        1964
        1968
        1972
        1976
        1980
        1984
        1988
        1992
        1996
        2000
        2004
        2008
        2012
        2016
        2020
        2024
        2028
        2032
        2036
        2040
        2044
        2048
        2052
        2056
        2060
        2064
        2068
        2072
        2076
        2080
        2084
        2088
        2092
        2096
        2100
        2104
        2108
        2112
        2116
        2120
        2124
        2128
        2132
        2136
        2140
        2144
        2148
        2152
        2156
        2160
        2164
        2168
        2172
        2176
        2180
        2184
        2188
        2192
        2196
        2200
        2204
        2208
        2212
        2216
        2220
        2224
        2228
        2232
        2236
        2240
        2244
        2248
        2252
        2256
        2260
        2264
        2268
        2272
        2276
        2280
        2284
        2288
        2292
        2296
        2300
        2304
        2308
        2312
        2316
        2320
        2324
        2328
        2332
        2336
        2340
        2344
        2348
        2352
        2356
        2360
        2364
        2368
        2372
        2376
        2380
        2384
        2388
        2392
        2396
        2400
        2404
        2408
        2412
        2416
        2420
        2424
        2428
        2432
        2436
        2440
        2444
        2448
        2452
        2456
        2460
        2464
        2468
        2472
        2476
        2480
        2484
        2488
        2492
        2496
        2500
        2504
        2508
        2512
        2516
        2520
        2524
        2528
        2532
        2536
        2540
        2544
        2548
        2552
        2556
        2560
        2564
        2568
        2572
        2576
        2580
        2584
        2588
        2592
        2596
        2600
        2604
        2608
        2612
        2616
        2620
        2624
        2628
        2632
        2636
        2640
        2644
        2648
        2652
        2656
        2660
        2664
        2668
        2672
        2676
        2680
        2684
        2688
        2692
        2696
        2700
        2704
        2708
        2712
        2716
        2720
        2724
        2728
        2732
        2736
        2740
        2744
        2748
        2752
        2756
        2760
        2764
        2768
        2772
        2776
        2780
        2784
        2788
        2792
        2796
        2800
        2804
        2808
        2812
        2816
        2820
        2824
        2828
        2832
        2836
        2840
        2844
        2848
        2852
        2856
        2860
        2864
        2868
        2872
        2876
        2880
        2884
        2888
        2892
        2896
        2900
        2904
        2908
        2912
        2916
        2920
        2924
        2928
        2932
        2936
        2940
        2944
        2948
        2952
        2956
        2960
        2964
        2968
        2972
        2976
        2980
        2984
        2988
        2992
        2996
        3000
        3004
        3008
        3012
        3016
        3020
        3024
        3028
        3032
        3036
        3040
        3044
        3048
        3052
        3056
        3060
        3064
        3068
        3072
        3076
        3080
        3084
        3088
        3092
        3096
        3100
        3104
        3108
        3112
        3116
        3120
        3124
        3128
        3132
        3136
        3140
        3144
        3148
        3152
        3156
        3160
        3164
        3168
        3172
        3176
        3180
        3184
        3188
        3192
        3196
        3200
        3204
        3208
        3212
        3216
        3220
        3224
        3228
        3232
        3236
        3240
        3244
        3248
        3252
        3256
        3260
        3264
        3268
        3272
        3276
        3280
        3284
        3288
        3292
        3296
        3300
        3304
        3308
        3312
        3316
        3320
        3324
        3328
        3332
        3336
        3340
        3344
        3348
        3352
        3356
        3360
        3364
        3368
        3372
        3376
        3380
        3384
        3388
        3392
        3396
        3400
        3404
        3408
        3412
        3416
        3420
        3424
        3428
        3432
        3436
        3440
        3444
        3448
        3452
        3456
        3460
        3464
        3468
        3472
        3476
        3480
        3484
        3488
        3492
        3496
        3500
        3504
        3508
        3512
        3516
        3520
        3524
        3528
        3532
        3536
        3540
        3544
        3548
        3552
        3556
        3560
        3564
        3568
        3572
        3576
        3580
        3584
        3588
        3592
        3596
        3600
        3604
        3608
        3612
        3616
        3620
        3624
        3628
        3632
        3636
        3640
        3644
        3648
        3652
        3656
        3660
        3664
        3668
        3672
        3676
        3680
        3684
        3688
        3692
        3696
        3700
        3704
        3708
        3712
        3716
        3720
        3724
        3728
        3732
        3736
        3740
        3744
        3748
        3752
        3756
        3760
        3764
        3768
        3772
        3776
        3780
        3784
        3788
        3792
        3796
        3800
        3804
        3808
        3812
        3816
        3820
        3824
        3828
        3832
        3836
        3840
        3844
        3848
        3852
        3856
        3860
        3864
        3868
        3872
        3876
        3880
        3884
        3888
        3892
        3896
        3900
        3904
        3908
        3912
        3916
        3920
        3924
        3928
        3932
        3936
        3940
        3944
        3948
        3952
        3956
        3960
        3964
        3968
        3972
        3976
        3980
        3984
        3988
        3992
        3996
        4000
        4004
        4008
        4012
        4016
        4020
        4024
        4028
        4032
        4036
        4040
        4044
        4048
        4052
        4056
        4060
        4064
        4068
        4072
        4076
        4080
        4084
        4088
        4092
        4096
 </DataArray>
 <DataArray  type="UInt8"  Name="types"  format="ascii">
 9
 9
 9
 9
 9
 9
 9
 9
 9
 9
 9
 9
 9
 9
 9
 9
 9
 9
 9
 9
 9
 9
 9
 9
 9
 9
 9
 9
 9
 9
 9
 9
 9
 9
 9
 9
 9
 9
 9
 9
 9
 9
 9
 9
 9
 9
 9
 9
 9
 9
 9
 9
 9
 9
 9
 9
 9
 9
 9
 9
 9
 9
 9
 9
 9
 9
 9
 9
 9
 9
 9
 9
 9
 9
 9
 9
 9
 9
 9
 9
 9
 9
 9
 9
 9
 9
 9
 9
 9
 9
 9
 9
 9
 9
 9
 9
 9
 9
 9
 9
 9
 9
 9
 9
 9
 9
 9
 9
 9
 9
 9
 9
 9
 9
 9
 9
 9
 9
 9
 9
 9
 9
 9
 9
 9
 9
 9
 9
 9
 9
 9
 9
 9
 9
 9
 9
 9
 9
 9
 9
 9
 9
 9
 9
 9
 9
 9
 9
 9
 9
 9
 9
 9
 9
 9
 9
 9
 9
 9
 9
 9
 9
 9
 9
 9
 9
 9
 9
 9
 9
 9
 9
 9
 9
 9
 9
 9
 9
 9
 9
 9
 9
 9
 9
 9
 9
 9
 9
 9
 9
 9
 9
 9
 9
 9
 9
 9
 9
 9
 9
 9
 9
 9
 9
 9
 9
 9
 9
 9
 9
 9
 9
 9
 9
 9
 9
 9
 9
 9
 9
 9
 9
 9
 9
 9
 9
 9
 9
 9
 9
 9
 9
 9
 9
 9
 9
 9
 9
 9
 9
 9
 9
 9
 9
 9
 9
 9
 9
 9
 9
 9
 9
 9
 9
 9
 9
 9
 9
 9
 9
 9
 9
 9
 9
 9
 9
 9
 9
 9
 9
 9
 9
 9
 9
 9
 9
 9
 9
 9
 9
 9
 9
 9
 9
 9
 9
 9
 9
 9
 9
 9
 9
 9
 9
 9
 9
 9
 9
 9
 9
 9
 9
 9
 9
 9
 9
 9
 9
 9
 9
 9
 9
 9
 9
 9
 9
 9
 9
 9
 9
 9
 9
 9
 9
 9
 9
 9
 9
 9
 9
 9
 9
 9
 9
 9
 9
 9
 9
 9
 9
 9
 9
 9
 9
 9
 9
 9
 9
 9
 9
 9
 9
 9
 9
 9
 9
 9
 9
 9
 9
 9
 9
 9
 9
 9
 9
 9
 9
 9
 9
 9
 9
 9
 9
 9
 9
 9
 9
 9
 9
 9
 9
 9
 9
 9
 9
 9
 9
 9
 9
 9
 9
 9
 9
 9
 9
 9
 9
 9
 9
 9
 9
 9
 9
 9
 9
 9
 9
 9
 9
 9
 9
 9
 9
 9
 9
 9
 9
 9
 9
 9
 9
 9
 9
 9
 9
 9
 9
 9
 9
 9
 9
 9
 9
 9
 9
 9
 9
 9
 9
 9
 9
 9
 9
 9
 9
 9
 9
 9
 9
 9
 9
 9
 9
 9
 9
 9
 9
 9
 9
 9
 9
 9
 9
 9
 9
 9
 9
 9
 9
 9
 9
 9
 9
 9
 9
 9
 9
 9
 9
 9
 9
 9
 9
 9
 9
 9
 9
 9
 9
 9
 9
 9
 9
 9
 9
 9
 9
 9
 9
 9
 9
 9
 9
 9
 9
 9
 9
 9
 9
 9
 9
 9
 9
 9
 9
 9
 9
 9
 9
 9
 9
 9
 9
 9
 9
 9
 9
 9
 9
 9
 9
 9
 9
 9
 9
 9
 9
 9
 9
 9
 9
 9
 9
 9
 9
 9
 9
 9
 9
 9
 9
 9
 9
 9
 9
 9
 9
 9
 9
 9
 9
 9
 9
 9
 9
 9
 9
 9
 9
 9
 9
 9
 9
 9
 9
 9
 9
 9
 9
 9
 9
 9
 9
 9
 9
 9
 9
 9
 9
 9
 9
 9
 9
 9
 9
 9
 9
 9
 9
 9
 9
 9
 9
 9
 9
 9
 9
 9
 9
 9
 9
 9
 9
 9
 9
 9
 9
 9
 9
 9
 9
 9
 9
 9
 9
 9
 9
 9
 9
 9
 9
 9
 9
 9
 9
 9
 9
 9
 9
 9
 9
 9
 9
 9
 9
 9
 9
 9
 9
 9
 9
 9
 9
 9
 9
 9
 9
 9
 9
 9
 9
 9
 9
 9
 9
 9
 9
 9
 9
 9
 9
 9
 9
 9
 9
 9
 9
 9
 9
 9
 9
 9
 9
 9
 9
 9
 9
 9
 9
 9
 9
 9
 9
 9
 9
 9
 9
 9
 9
 9
 9
 9
 9
 9
 9
 9
 9
 9
 9
 9
 9
 9
 9
 9
 9
 9
 9
 9
 9
 9
 9
 9
 9
 9
 9
 9
 9
 9
 9
 9
 9
 9
 9
 9
 9
 9
 9
 9
 9
 9
 9
 9
 9
 9
 9
 9
 9
 9
 9
 9
 9
 9
 9
 9
 9
 9
 9
 9
 9
 9
 9
 9
 9
 9
 9
 9
 9
 9
 9
 9
 9
 9
 9
 9
 9
 9
 9
 9
 9
 9
 9
 9
 9
 9
 9
 9
 9
 9
 9
 9
 9
 9
 9
 9
 9
 9
 9
 9
 9
 9
 9
 9
 9
 9
 9
 9
 9
 9
 9
 9
 9
 9
 9
 9
 9
 9
 9
 9
 9
 9
 9
 9
 9
 9
 9
 9
 9
 9
 9
 9
 9
 9
 9
 9
 9
 9
 9
 9
 9
 9
 9
 9
 9
 9
 9
 9
 9
 9
 9
 9
 9
 9
 9
 9
 9
 9
 9
 9
 9
 9
 9
 9
 9
 9
 9
 9
 9
 9
 9
 9
 9
 9
 9
 9
 9
 9
 9
 9
 9
 9
 9
 9
 9
 9
 9
 9
 9
 9
 9
 9
 9
 9
 9
 9
 9
 9
 9
 9
 9
 9
 9
 9
 9
 9
 9
 9
 9
 9
 9
 9
 9
 9
 9
 9
 9
 9
 9
 9
 9
 9
 9
 9
 9
 9
 9
 9
 9
 9
 9
 9
 9
 9
 9
 9
 9
 9
 9
 9
 9
 9
 9
 9
 9
 9
 9
 9
 9
 9
 9
 9
 9
 9
 9
 9
 9
 9
 9
 9
 9
 9
 9
 9
 9
 9
 9
 9
 9
 9
 9
 9
 9
 9
 9
 9
 9
 9
 9
 9
 9
 9
 9
 9
 9
 9
 9
 9
 9
 9
 9
 9
 9
 9
 9
 9
 9
 9
 9
 9
 9
 9
 9
 9
 9
 9
 9
 9
 9
 9
 9
 9
 9
 9
 9
 9
 9
 9
 9
 9
 9
 9
 9
 9
 9
 </DataArray>
 </Cells> 
 <PointData>
 <DataArray  type="Float64" Name="disp" NumberOfComponents="3" format="ascii">
   0.0000000000000000        0.0000000000000000        0.0000000000000000     
   6.0958448543847717E-003   3.7904780946495633E-003   0.0000000000000000     
   1.1665815452025328E-002   7.3238636596491217E-003   0.0000000000000000     
   1.6709911792921670E-002   1.0600156694998674E-002   0.0000000000000000     
   2.1228133877073795E-002   1.3619357200698224E-002   0.0000000000000000     
   0.0000000000000000        0.0000000000000000        0.0000000000000000     
   4.8911330838365685E-003   3.0221534613985063E-003   0.0000000000000000     
   9.5735682258470695E-003   6.0605222858710010E-003   0.0000000000000000     
   1.4047305426031505E-002   9.1151064734174836E-003   0.0000000000000000     
   1.8312344684389872E-002   1.2185906024037955E-002   0.0000000000000000     
   0.0000000000000000        0.0000000000000000        0.0000000000000000     
   3.9536052607430025E-003   2.4251016327978747E-003   0.0000000000000000     
   7.9106279772754723E-003   5.0628673856808531E-003   0.0000000000000000     
   1.1871068149597409E-002   7.9132972586489353E-003   0.0000000000000000     
   1.5834925777708814E-002   1.0976391251702121E-002   0.0000000000000000     
   0.0000000000000000        0.0000000000000000        0.0000000000000000     
   3.2832613851040762E-003   1.9993226088476689E-003   0.0000000000000000     
   6.6769947063105382E-003   4.3308989590786781E-003   0.0000000000000000     
   1.0181199963619386E-002   6.9947290506930278E-003   0.0000000000000000     
   1.3795877157030623E-002   9.9908128836907160E-003   0.0000000000000000     
   0.0000000000000000        0.0000000000000000        0.0000000000000000     
   2.8801014569197871E-003   1.7448163895478885E-003   0.0000000000000000     
   5.8726684129522654E-003   3.8646170060644761E-003   0.0000000000000000     
   8.9777008680974324E-003   6.3594018495497610E-003   0.0000000000000000     
   1.2195198822355292E-002   9.2291709200037469E-003   0.0000000000000000     
   2.1228133877073795E-002   1.3619357200698224E-002   0.0000000000000000     
   2.5433273390582205E-002   1.6612192741924693E-002   0.0000000000000000     
   2.9538122019547402E-002   1.9809390883855017E-002   0.0000000000000000     
   3.3542679763969373E-002   2.3210951626489194E-002   0.0000000000000000     
   3.7446946623848135E-002   2.6816874969827223E-002   0.0000000000000000     
   1.8312344684389872E-002   1.2185906024037955E-002   0.0000000000000000     
   2.2406936429978260E-002   1.5341312809536571E-002   0.0000000000000000     
   2.6369331091852747E-002   1.8649718701717485E-002   0.0000000000000000     
   3.0199528670013336E-002   2.2111123700580698E-002   0.0000000000000000     
   3.3897529164460025E-002   2.5725527806126216E-002   0.0000000000000000     
   1.5834925777708814E-002   1.0976391251702121E-002   0.0000000000000000     
   1.9730525494602968E-002   1.4210949358078415E-002   0.0000000000000000     
   2.3486191933273146E-002   1.7575771571015829E-002   0.0000000000000000     
   2.7101925093719354E-002   2.1070857890514362E-002   0.0000000000000000     
   3.0577724975941585E-002   2.4696208316574007E-002   0.0000000000000000     
   1.3795877157030623E-002   9.9908128836907160E-003   0.0000000000000000     
   1.7404040584456330E-002   1.3221102387550230E-002   0.0000000000000000     
   2.0888704543808600E-002   1.6587549491750050E-002   0.0000000000000000     
   2.4249869035087433E-002   2.0090154196290171E-002   0.0000000000000000     
   2.7487534058292830E-002   2.3728916501170604E-002   0.0000000000000000     
   1.2195198822355292E-002   9.2291709200037469E-003   0.0000000000000000     
   1.5427481699538347E-002   1.2371771897952013E-002   0.0000000000000000     
   1.8576868923459108E-002   1.5685052463920143E-002   0.0000000000000000     
   2.1643360494117577E-002   1.9169012617908137E-002   0.0000000000000000     
   2.4626956411513749E-002   2.2823652359915996E-002   0.0000000000000000     
   3.7446946623848135E-002   2.6816874969827223E-002   0.0000000000000000     
   4.1255448944825558E-002   3.0622098266133657E-002   0.0000000000000000     
   4.4972713072543524E-002   3.4621558867673055E-002   0.0000000000000000     
   4.8598739007002019E-002   3.8815256774445417E-002   0.0000000000000000     
   5.2133526748201070E-002   4.3203191986450742E-002   0.0000000000000000     
   3.3897529164460025E-002   2.5725527806126216E-002   0.0000000000000000     
   3.7486413309012860E-002   2.9521576651558388E-002   0.0000000000000000     
   4.0989261837491901E-002   3.3527915870081575E-002   0.0000000000000000     
   4.4406074749897134E-002   3.7744545461695776E-002   0.0000000000000000     
   4.7736852046228573E-002   4.2171465426400982E-002   0.0000000000000000     
   3.0577724975941585E-002   2.4696208316574007E-002   0.0000000000000000     
   3.3942777094952900E-002   2.8496373846205292E-002   0.0000000000000000     
   3.7226266965766357E-002   3.2515905476418736E-002   0.0000000000000000     
   4.0428194588381962E-002   3.6754803207214345E-002   0.0000000000000000     
   4.3548559962799695E-002   4.1213067038592101E-002   0.0000000000000000     
   2.7487534058292830E-002   2.3728916501170604E-002   0.0000000000000000     
   3.0624540302645685E-002   2.7546489850074379E-002   0.0000000000000000     
   3.3683728457366904E-002   3.1585527686684559E-002   0.0000000000000000     
   3.6665098522456488E-002   3.5846030011001132E-002   0.0000000000000000     
   3.9568650497914422E-002   4.0327996823024105E-002   0.0000000000000000     
   2.4626956411513749E-002   2.2823652359915996E-002   0.0000000000000000     
   2.7531702932091204E-002   2.6671924663165650E-002   0.0000000000000000     
   3.0361646312293530E-002   3.0736782500879033E-002   0.0000000000000000     
   3.3116786552120719E-002   3.5018225873056141E-002   0.0000000000000000     
   3.5797123651572768E-002   3.9516254779696988E-002   0.0000000000000000     
   5.2133526748201070E-002   4.3203191986450742E-002   0.0000000000000000     
   5.5574191627477135E-002   4.7791211426753730E-002   0.0000000000000000     
   5.8917848976166705E-002   5.2585162018419070E-002   0.0000000000000000     
   6.2164498794269787E-002   5.7585043761446769E-002   0.0000000000000000     
   6.5314141081786375E-002   6.2790856655836808E-002   0.0000000000000000     
   4.7736852046228573E-002   4.2171465426400982E-002   0.0000000000000000     
   5.0977811165336048E-002   4.6802989449286132E-002   0.0000000000000000     
   5.4125169546069385E-002   5.1633431215440125E-002   0.0000000000000000     
   5.7178927188428583E-002   5.6662790724862980E-002   0.0000000000000000     
   6.0139084092413655E-002   6.1891067977554663E-002   0.0000000000000000     
   4.3548559962799695E-002   4.1213067038592101E-002   0.0000000000000000     
   4.6583746678597986E-002   4.5878521751563636E-002   0.0000000000000000     
   4.9530138325355265E-002   5.0738992127140517E-002   0.0000000000000000     
   5.2387734903071491E-002   5.5794478165322778E-002   0.0000000000000000     
   5.5156536411746705E-002   6.1044979866110384E-002   0.0000000000000000     
   3.9568650497914422E-002   4.0327996823024105E-002   0.0000000000000000     
   4.2391998167262961E-002   4.5017808333586221E-002   0.0000000000000000     
   4.5132755314024331E-002   4.9901844753520254E-002   0.0000000000000000     
   4.7790921938198519E-002   5.4980106082826156E-002   0.0000000000000000     
   5.0366498039785532E-002   6.0252592321503977E-002   0.0000000000000000     
   3.5797123651572768E-002   3.9516254779696988E-002   0.0000000000000000     
   3.8402565631330973E-002   4.4220849195353913E-002   0.0000000000000000     
   4.0933020512076590E-002   4.9121989094579294E-002   0.0000000000000000     
   4.3388488293809660E-002   5.4219674477373150E-002   0.0000000000000000     
   4.5768968976530135E-002   5.9513905343735449E-002   0.0000000000000000     
   6.5314141081786375E-002   6.2790856655836808E-002   0.0000000000000000     
   6.8369948700624281E-002   6.8187455098684596E-002   0.0000000000000000     
   7.1335094512691308E-002   7.3759693487085526E-002   0.0000000000000000     
   7.4209578517987457E-002   7.9507571821039569E-002   0.0000000000000000     
   7.6993400716512728E-002   8.5431090100546753E-002   0.0000000000000000     
   6.0139084092413655E-002   6.1891067977554663E-002   0.0000000000000000     
   6.3009857217447771E-002   6.7308425681549572E-002   0.0000000000000000     
   6.5795463522954109E-002   7.2905026544882068E-002   0.0000000000000000     
   6.8495903008932657E-002   7.8680870567552130E-002   0.0000000000000000     
   7.1111175675383442E-002   8.4635957749559815E-002   0.0000000000000000     
   5.5156536411746705E-002   6.1044979866110384E-002   0.0000000000000000     
   5.7840944562349422E-002   6.6483768336868934E-002   0.0000000000000000     
   6.0445361065848177E-002   7.2104114684963930E-002   0.0000000000000000     
   6.2969785922242963E-002   7.7906018910395419E-002   0.0000000000000000     
   6.5414219131533821E-002   8.3889481013163375E-002   0.0000000000000000     
   5.0366498039785532E-002   6.0252592321503977E-002   0.0000000000000000     
   5.2863210735329257E-002   6.5713483064642655E-002   0.0000000000000000     
   5.5284787141373547E-002   7.1356957907331126E-002   0.0000000000000000     
   5.7631227257918409E-002   7.7183016849569380E-002   0.0000000000000000     
   5.9902531084963843E-002   8.3191659891357461E-002   0.0000000000000000     
   4.5768968976530135E-002   5.9513905343735449E-002   0.0000000000000000     
   4.8076655736387246E-002   6.4997569864870763E-002   0.0000000000000000     
   5.0313741749530190E-002   7.0663556211983627E-002   0.0000000000000000     
   5.2480227015958947E-002   7.6511864385074069E-002   0.0000000000000000     
   5.4576111535673537E-002   8.2542494384142059E-002   0.0000000000000000     
   7.6993400716512728E-002   8.5431090100546753E-002   0.0000000000000000     
   7.9678559650627312E-002   9.1520169836835225E-002   0.0000000000000000     
   8.2257053862691401E-002   9.7764732541133131E-002   0.0000000000000000     
   8.4728883352705009E-002  0.10416477821344047        0.0000000000000000     
   8.7094048120668108E-002  0.11072030685375724        0.0000000000000000     
   7.1111175675383442E-002   8.4635957749559815E-002   0.0000000000000000     
   7.3633349408108617E-002   9.0758583904675810E-002   0.0000000000000000     
   7.6054492092910389E-002   9.7037044846670945E-002   0.0000000000000000     
   7.8374603729788717E-002  0.10347134057554523        0.0000000000000000     
   8.0593684318743627E-002  0.11006147109129864        0.0000000000000000     
   6.5414219131533821E-002   8.3889481013163375E-002   0.0000000000000000     
   6.7771263128218295E-002   9.0041837613289127E-002   0.0000000000000000     
   7.0033520346794054E-002   9.6350425330794048E-002   0.0000000000000000     
   7.2200990787261055E-002  0.10281524416567812        0.0000000000000000     
   7.4273674449619312E-002  0.10943629411794138        0.0000000000000000     
   5.9902531084963843E-002   8.3191659891357461E-002   0.0000000000000000     
   6.2092300810956347E-002   8.9369930962675176E-002   0.0000000000000000     
   6.4194138624342395E-002   9.5704873993502415E-002   0.0000000000000000     
   6.6208044525121995E-002  0.10219648898383919        0.0000000000000000     
   6.8134018513295147E-002  0.10884477593368547        0.0000000000000000     
   5.4576111535673537E-002   8.2542494384142059E-002   0.0000000000000000     
   5.6596462456322758E-002   8.8742863952833942E-002   0.0000000000000000     
   5.8536346925555427E-002   9.5100390834796045E-002   0.0000000000000000     
   6.0395764943371552E-002  0.10161507503002835        0.0000000000000000     
   6.2174716509771140E-002  0.10828691653853091        0.0000000000000000     
   8.7094048120668108E-002  0.11072030685375724        0.0000000000000000     
   8.9367991815123657E-002  0.11743010521727289        0.0000000000000000     
   9.1566158084614546E-002  0.12429296005917691        0.0000000000000000     
   9.3688546929140831E-002  0.13130887137946923        0.0000000000000000     
   9.5735158348702470E-002  0.13847783917814990        0.0000000000000000     
   8.0593684318743627E-002  0.11006147109129864        0.0000000000000000     
   8.2726220421794963E-002  0.11680107769197889        0.0000000000000000     
   8.4786698600962523E-002  0.12368380167563371        0.0000000000000000     
   8.6775118856246281E-002  0.13070964304226312        0.0000000000000000     
   8.8691481187646304E-002  0.13787860179186712        0.0000000000000000     
   7.4273674449619312E-002  0.10943629411794138        0.0000000000000000     
   7.6264574843305219E-002  0.11620327548033969        0.0000000000000000     
   7.8186695477755086E-002  0.12310588854562901        0.0000000000000000     
   8.0040036352968996E-002  0.13014413331380931        0.0000000000000000     
   8.1824597468946852E-002  0.13731800978488062        0.0000000000000000     
   6.8134018513295147E-002  0.10884477593368547        0.0000000000000000     
   6.9983055079654397E-002  0.11563669858235531        0.0000000000000000     
   7.1766148714992317E-002  0.12255922066916275        0.0000000000000000     
   7.3483299419308881E-002  0.12961234219410780        0.0000000000000000     
   7.5134507192604089E-002  0.13679606315719045        0.0000000000000000     
   6.2174716509771140E-002  0.10828691653853091        0.0000000000000000     
   6.3881661130842551E-002  0.11510134699802574        0.0000000000000000     
   6.5525058312674175E-002  0.12204379804623494        0.0000000000000000     
   6.7104908055265991E-002  0.12911426968315862        0.0000000000000000     
   6.8621210358618026E-002  0.13631276190879657        0.0000000000000000     
   9.5735158348702470E-002  0.13847783917814990        0.0000000000000000     
   9.7679737368012498E-002  0.14574106522521221        0.0000000000000000     
   9.9496029011783921E-002  0.15303975129064942        0.0000000000000000     
  0.10118403328001675       0.16037389737446159        0.0000000000000000     
  0.10274375017271099       0.16774350347664865        0.0000000000000000     
   8.8691481187646304E-002  0.13787860179186712        0.0000000000000000     
   9.0516733444035533E-002  0.14516242065576582        0.0000000000000000     
   9.2231823474286961E-002  0.15253284236527942        0.0000000000000000     
   9.3836751278400576E-002  0.15998986692040784        0.0000000000000000     
   9.5331516856376391E-002  0.16753349432115117        0.0000000000000000     
   8.1824597468946852E-002  0.13731800978488062        0.0000000000000000     
   8.3526774343757548E-002  0.14461917208820715        0.0000000000000000     
   8.5132962495469908E-002  0.15203927435315309        0.0000000000000000     
   8.6643161924083903E-002  0.15957831657971844        0.0000000000000000     
   8.8057372629599562E-002  0.16723629876790322        0.0000000000000000     
   7.5134507192604089E-002  0.13679606315719045        0.0000000000000000     
   7.6709860067178517E-002  0.14411131952253617        0.0000000000000000     
   7.8199446075332732E-002  0.15155904725427047        0.0000000000000000     
   7.9603265217066732E-002  0.15913924635239335        0.0000000000000000     
   8.0921317492380504E-002  0.16685191681690481        0.0000000000000000     
   6.8621210358618026E-002  0.13631276190879657        0.0000000000000000     
   7.0065990614298454E-002  0.14363886295875292        0.0000000000000000     
   7.1431274213875448E-002  0.15109216106863158        0.0000000000000000     
   7.2717061157349022E-002  0.15867265623843260        0.0000000000000000     
   7.3923351444719176E-002  0.16638034846815594        0.0000000000000000     
   0.0000000000000000        0.0000000000000000        0.0000000000000000     
   2.8801014569197871E-003   1.7448163895478885E-003   0.0000000000000000     
   5.8726684129522654E-003   3.8646170060644761E-003   0.0000000000000000     
   8.9777008680974324E-003   6.3594018495497610E-003   0.0000000000000000     
   1.2195198822355292E-002   9.2291709200037469E-003   0.0000000000000000     
   0.0000000000000000        0.0000000000000000        0.0000000000000000     
   2.6103140144771277E-003   1.5889161623232370E-003   0.0000000000000000     
   5.2897067371692735E-003   3.5566982090466655E-003   0.0000000000000000     
   8.0381781680764382E-003   5.9033461401702863E-003   0.0000000000000000     
   1.0855728307198623E-002   8.6288599556940977E-003   0.0000000000000000     
   0.0000000000000000        0.0000000000000000        0.0000000000000000     
   2.3400875960630872E-003   1.4589551145984176E-003   0.0000000000000000     
   4.7201673189301843E-003   3.2998192504336676E-003   0.0000000000000000     
   7.1402391686012923E-003   5.5225924075057494E-003   0.0000000000000000     
   9.6003031450764085E-003   8.1272745858146627E-003   0.0000000000000000     
   0.0000000000000000        0.0000000000000000        0.0000000000000000     
   2.0694222016776646E-003   1.3549332463734308E-003   0.0000000000000000     
   4.1640501582349962E-003   3.0939801302254807E-003   0.0000000000000000     
   6.2838838696719903E-003   5.2171406515561514E-003   0.0000000000000000     
   8.4289233359886532E-003   7.7244148103654394E-003   0.0000000000000000     
   0.0000000000000000        0.0000000000000000        0.0000000000000000     
   1.7983178313208624E-003   1.2768505576482760E-003   0.0000000000000000     
   3.6213552550837086E-003   2.9391808484221064E-003   0.0000000000000000     
   5.4691122712885376E-003   4.9869908723214913E-003   0.0000000000000000     
   7.3415888799353516E-003   7.4202806293464296E-003   0.0000000000000000     
   1.2195198822355292E-002   9.2291709200037469E-003   0.0000000000000000     
   1.5427481699538347E-002   1.2371771897952013E-002   0.0000000000000000     
   1.8576868923459108E-002   1.5685052463920143E-002   0.0000000000000000     
   2.1643360494117577E-002   1.9169012617908137E-002   0.0000000000000000     
   2.4626956411513749E-002   2.2823652359915996E-002   0.0000000000000000     
   1.0855728307198623E-002   8.6288599556940977E-003   0.0000000000000000     
   1.3689008992804808E-002   1.1650896311130357E-002   0.0000000000000000     
   1.6484672063163983E-002   1.4887111861991318E-002   0.0000000000000000     
   1.9242717518276147E-002   1.8337506608276981E-002   0.0000000000000000     
   2.1963145358141294E-002   2.2002080549987348E-002   0.0000000000000000     
   9.6003031450764085E-003   8.1272745858146627E-003   0.0000000000000000     
   1.2076782617211502E-002   1.1046414048931854E-002   0.0000000000000000     
   1.4546100953862530E-002   1.4212559060428783E-002   0.0000000000000000     
   1.7008258155029498E-002   1.7625709620305432E-002   0.0000000000000000     
   1.9463254220712399E-002   2.1285865728561816E-002   0.0000000000000000     
   8.4289233359886532E-003   7.7244148103654394E-003   0.0000000000000000     
   1.0590802572758422E-002   1.0558325111356511E-002   0.0000000000000000     
   1.2761155595554753E-002   1.3661394059232529E-002   0.0000000000000000     
   1.4939982404377638E-002   1.7033621653993494E-002   0.0000000000000000     
   1.7127282999227077E-002   2.0675007895639402E-002   0.0000000000000000     
   7.3415888799353516E-003   7.4202806293464296E-003   0.0000000000000000     
   9.2310688594455775E-003   1.0186629498404320E-002   0.0000000000000000     
   1.1129835988240647E-002   1.3233616858402564E-002   0.0000000000000000     
   1.3037890266320563E-002   1.6561242709341159E-002   0.0000000000000000     
   1.4955231693685320E-002   2.0169507051220101E-002   0.0000000000000000     
   2.4626956411513749E-002   2.2823652359915996E-002   0.0000000000000000     
   2.7531702932091204E-002   2.6671924663165650E-002   0.0000000000000000     
   3.0361646312293530E-002   3.0736782500879033E-002   0.0000000000000000     
   3.3116786552120719E-002   3.5018225873056141E-002   0.0000000000000000     
   3.5797123651572768E-002   3.9516254779696988E-002   0.0000000000000000     
   2.1963145358141294E-002   2.2002080549987348E-002   0.0000000000000000     
   2.4629407597328411E-002   2.5879119550804873E-002   0.0000000000000000     
   2.7224956250406478E-002   2.9966909474412023E-002   0.0000000000000000     
   2.9749791317375509E-002   3.4265450320808799E-002   0.0000000000000000     
   3.2203912798235486E-002   3.8774742089995186E-002   0.0000000000000000     
   1.9463254220712399E-002   2.1285865728561816E-002   0.0000000000000000     
   2.1882796912396238E-002   2.5174515778317839E-002   0.0000000000000000     
   2.4238593991566013E-002   2.9273148162693403E-002   0.0000000000000000     
   2.6530645458221713E-002   3.3581762881688515E-002   0.0000000000000000     
   2.8758951312363345E-002   3.8100359935303169E-002   0.0000000000000000     
   1.7127282999227077E-002   2.0675007895639402E-002   0.0000000000000000     
   1.9291870877294698E-002   2.4558113345704530E-002   0.0000000000000000     
   2.1402559535772116E-002   2.8655498565723171E-002   0.0000000000000000     
   2.3459348974659330E-002   3.2967163555695310E-002   0.0000000000000000     
   2.5462239193956345E-002   3.7493108315620943E-002   0.0000000000000000     
   1.4955231693685320E-002   2.0169507051220101E-002   0.0000000000000000     
   1.6856629492023781E-002   2.4029912252964969E-002   0.0000000000000000     
   1.8716852883024795E-002   2.8113960683501322E-002   0.0000000000000000     
   2.0535901866688362E-002   3.2421652342829170E-002   0.0000000000000000     
   2.2313776443014483E-002   3.6952987230948503E-002   0.0000000000000000     
   3.5797123651572768E-002   3.9516254779696988E-002   0.0000000000000000     
   3.8402565631330973E-002   4.4220849195353913E-002   0.0000000000000000     
   4.0933020512076590E-002   4.9121989094579294E-002   0.0000000000000000     
   4.3388488293809660E-002   5.4219674477373150E-002   0.0000000000000000     
   4.5768968976530135E-002   5.9513905343735449E-002   0.0000000000000000     
   3.2203912798235486E-002   3.8774742089995186E-002   0.0000000000000000     
   3.4589167047006035E-002   4.3489422434351749E-002   0.0000000000000000     
   3.6907400417706772E-002   4.8404129006259018E-002   0.0000000000000000     
   3.9158612910337683E-002   5.3518861805717022E-002   0.0000000000000000     
   4.1342804524898781E-002   5.8833620832725725E-002   0.0000000000000000     
   2.8758951312363345E-002   3.8100359935303169E-002   0.0000000000000000     
   3.0925520390492196E-002   4.2825306148064783E-002   0.0000000000000000     
   3.3032361529109544E-002   4.7752968344500761E-002   0.0000000000000000     
   3.5079474728215383E-002   5.2883346524611088E-002   0.0000000000000000     
   3.7066859987809724E-002   5.8216440688395779E-002   0.0000000000000000     
   2.5462239193956345E-002   3.7493108315620943E-002   0.0000000000000000     
   2.7411625661789445E-002   4.2228500336493030E-002   0.0000000000000000     
   2.9307903846284920E-002   4.7168507109304501E-002   0.0000000000000000     
   3.1151073747442758E-002   5.2313128634055357E-002   0.0000000000000000     
   3.2941135365262969E-002   5.7662364910745605E-002   0.0000000000000000     
   2.2313776443014483E-002   3.6952987230948503E-002   0.0000000000000000     
   2.4047482860897793E-002   4.1699004999636483E-002   0.0000000000000000     
   2.5734027369232897E-002   4.6650745300670253E-002   0.0000000000000000     
   2.7373409968019808E-002   5.1808208134049814E-002   0.0000000000000000     
   2.8965630657258525E-002   5.7171393499775180E-002   0.0000000000000000     
   4.5768968976530135E-002   5.9513905343735449E-002   0.0000000000000000     
   4.8076655736387246E-002   6.4997569864870763E-002   0.0000000000000000     
   5.0313741749530190E-002   7.0663556211983627E-002   0.0000000000000000     
   5.2480227015958947E-002   7.6511864385074069E-002   0.0000000000000000     
   5.4576111535673537E-002   8.2542494384142059E-002   0.0000000000000000     
   4.1342804524898781E-002   5.8833620832725725E-002   0.0000000000000000     
   4.3460523060142510E-002   6.4339196921916197E-002   0.0000000000000000     
   4.5512316314821326E-002   7.0026380907919447E-002   0.0000000000000000     
   4.7498184288935222E-002   7.5895172790735502E-002   0.0000000000000000     
   4.9418126982484198E-002   8.1945572570364347E-002   0.0000000000000000     
   3.7066859987809724E-002   5.8216440688395779E-002   0.0000000000000000     
   3.8994056201214128E-002   6.3741532420141911E-002   0.0000000000000000     
   4.0860602261750173E-002   6.9447903304136568E-002   0.0000000000000000     
   4.2666498169417852E-002   7.5335553340379738E-002   0.0000000000000000     
   4.4411743924217165E-002   8.1404482528871447E-002   0.0000000000000000     
   3.2941135365262969E-002   5.7662364910745605E-002   0.0000000000000000     
   3.4677255159602113E-002   6.3204576359547904E-002   0.0000000000000000     
   3.6358599590316738E-002   6.8928123400634964E-002   0.0000000000000000     
   3.7985168657406851E-002   7.4833006034006805E-002   0.0000000000000000     
   3.9556962360872430E-002   8.0919224259663386E-002   0.0000000000000000     
   2.8965630657258525E-002   5.7171393499775180E-002   0.0000000000000000     
   3.0510119935306453E-002   6.2728328740134176E-002   0.0000000000000000     
   3.2006308300521008E-002   6.8467041197414688E-002   0.0000000000000000     
   3.3454195752902191E-002   7.4387530871616675E-002   0.0000000000000000     
   3.4853782292450002E-002   8.0489797762740165E-002   0.0000000000000000     
   5.4576111535673537E-002   8.2542494384142059E-002   0.0000000000000000     
   5.6596462456322758E-002   8.8742863952833942E-002   0.0000000000000000     
   5.8536346925555427E-002   9.5100390834796045E-002   0.0000000000000000     
   6.0395764943371552E-002  0.10161507503002835        0.0000000000000000     
   6.2174716509771140E-002  0.10828691653853091        0.0000000000000000     
   4.9418126982484198E-002   8.1945572570364347E-002   0.0000000000000000     
   5.1268610492823392E-002   8.8165565053500469E-002   0.0000000000000000     
   5.3046100917307951E-002   9.4543135046838395E-002   0.0000000000000000     
   5.4750598255937859E-002  0.10107828255037812        0.0000000000000000     
   5.6382102508713144E-002  0.10777100756411964        0.0000000000000000     
   4.4411743924217165E-002   8.1404482528871447E-002   0.0000000000000000     
   4.6093607348964123E-002   8.7642962734409802E-002   0.0000000000000000     
   4.7709356266474753E-002   9.4039265821792978E-002   0.0000000000000000     
   4.9258990676749048E-002  0.10059339179102092        0.0000000000000000     
   5.0742510579787015E-002  0.10730534064209367        0.0000000000000000     
   3.9556962360872430E-002   8.0919224259663386E-002   0.0000000000000000     
   4.1071453024744943E-002   8.7175056995561967E-002   0.0000000000000000     
   4.2526112973055835E-002   9.3588783159659739E-002   0.0000000000000000     
   4.3920942205805107E-002  0.10016040275195674        0.0000000000000000     
   4.5255940722992757E-002  0.10688991577245299        0.0000000000000000     
   3.4853782292450002E-002   8.0489797762740165E-002   0.0000000000000000     
   3.6202147520165873E-002   8.6761847836956923E-002   0.0000000000000000     
   3.7496371037051217E-002   9.3191687060438747E-002   0.0000000000000000     
   3.8736452843106048E-002   9.9779315433185647E-002   0.0000000000000000     
   3.9922392938330366E-002  0.10652473295519757        0.0000000000000000     
   6.2174716509771140E-002  0.10828691653853091        0.0000000000000000     
   6.3881661130842551E-002  0.11510134699802574        0.0000000000000000     
   6.5525058312674175E-002  0.12204379804623494        0.0000000000000000     
   6.7104908055265991E-002  0.12911426968315862        0.0000000000000000     
   6.8621210358618026E-002  0.13631276190879657        0.0000000000000000     
   5.6382102508713144E-002  0.10777100756411964        0.0000000000000000     
   5.7946761774697826E-002  0.11460620377697653        0.0000000000000000     
   5.9450724152955943E-002  0.12156876487786236        0.0000000000000000     
   6.0893989643487495E-002  0.12865869086677709        0.0000000000000000     
   6.2276558246292496E-002  0.13587598174372076        0.0000000000000000     
   5.0742510579787015E-002  0.10730534064209367        0.0000000000000000     
   5.2164725789048384E-002  0.11416025196883323        0.0000000000000000     
   5.3530446117992889E-002  0.12114326536506159        0.0000000000000000     
   5.4839671566620542E-002  0.12825438083077881        0.0000000000000000     
   5.6092402134931330E-002  0.13549359836598476        0.0000000000000000     
   4.5255940722992757E-002  0.10688991577245299        0.0000000000000000     
   4.6535553173894240E-002  0.11376349157359583        0.0000000000000000     
   4.7764224207785026E-002  0.12076729950783274        0.0000000000000000     
   4.8941953824665117E-002  0.12790133957516367        0.0000000000000000     
   5.0068742024534527E-002  0.13516561177558867        0.0000000000000000     
   3.9922392938330366E-002  0.10652473295519757        0.0000000000000000     
   4.1059243929235385E-002  0.11341592259126436        0.0000000000000000     
   4.2152058422332349E-002  0.12044086730617573        0.0000000000000000     
   4.3200836417621243E-002  0.12759956709993175        0.0000000000000000     
   4.4205577915102073E-002  0.13489202197253236        0.0000000000000000     
   6.8621210358618026E-002  0.13631276190879657        0.0000000000000000     
   7.0065990614298454E-002  0.14363886295875292        0.0000000000000000     
   7.1431274213875448E-002  0.15109216106863158        0.0000000000000000     
   7.2717061157349022E-002  0.15867265623843260        0.0000000000000000     
   7.3923351444719176E-002  0.16638034846815594        0.0000000000000000     
   6.2276558246292496E-002  0.13587598174372076        0.0000000000000000     
   6.3591196969289332E-002  0.14321458079810226        0.0000000000000000     
   6.4830672820396396E-002  0.15066843131933041        0.0000000000000000     
   6.5994985799613673E-002  0.15823753330740525        0.0000000000000000     
   6.7084135906941178E-002  0.16592188676232678        0.0000000000000000     
   5.6092402134931330E-002  0.13549359836598476        0.0000000000000000     
   5.7281510116323139E-002  0.14285125144182900        0.0000000000000000     
   5.8399867804193879E-002  0.15031767352946088        0.0000000000000000     
   5.9447475198543508E-002  0.15789286462888039        0.0000000000000000     
   6.0424332299372045E-002  0.16557682474008750        0.0000000000000000     
   5.0068742024534527E-002  0.13516561177558867        0.0000000000000000     
   5.1136930055399897E-002  0.14254887488993326        0.0000000000000000     
   5.2138859165267885E-002  0.15003988769902304        0.0000000000000000     
   5.3074529354138512E-002  0.15763865020285803        0.0000000000000000     
   5.3943940622011764E-002  0.16534516240143815        0.0000000000000000     
   4.4205577915102073E-002  0.13489202197253236        0.0000000000000000     
   4.5157456786519563E-002  0.14230745114241497        0.0000000000000000     
   4.6047646903618442E-002  0.14983507382801689        0.0000000000000000     
   4.6876148266398701E-002  0.15747489002933809        0.0000000000000000     
   4.7642960874860349E-002  0.16522689974637866        0.0000000000000000     
   0.0000000000000000        0.0000000000000000        0.0000000000000000     
   1.7983178313208624E-003   1.2768505576482760E-003   0.0000000000000000     
   3.6213552550837086E-003   2.9391808484221064E-003   0.0000000000000000     
   5.4691122712885376E-003   4.9869908723214913E-003   0.0000000000000000     
   7.3415888799353516E-003   7.4202806293464296E-003   0.0000000000000000     
   0.0000000000000000        0.0000000000000000        0.0000000000000000     
   1.5350367593716294E-003   1.2175870544110451E-003   0.0000000000000000     
   3.0994195889181507E-003   2.8209055502821994E-003   0.0000000000000000     
   4.6931484886395631E-003   4.8099554876134629E-003   0.0000000000000000     
   6.3162234585358683E-003   7.1847368664048365E-003   0.0000000000000000     
   0.0000000000000000        0.0000000000000000        0.0000000000000000     
   1.2878412602089172E-003   1.1700227426498292E-003   0.0000000000000000     
   2.6055801391801506E-003   2.7246383810644163E-003   0.0000000000000000     
   3.9532166369137013E-003   4.6638469152437611E-003   0.0000000000000000     
   5.3307507534095687E-003   6.9876483451878626E-003   0.0000000000000000     
   0.0000000000000000        0.0000000000000000        0.0000000000000000     
   1.0567313338327253E-003   1.1341576223646286E-003   0.0000000000000000     
   2.1398369058697091E-003   2.6503793407687565E-003   0.0000000000000000     
   3.2493167161109504E-003   4.5486651552123841E-003   0.0000000000000000     
   4.3851707645564501E-003   6.8290150656955088E-003   0.0000000000000000     
   0.0000000000000000        0.0000000000000000        0.0000000000000000     
   8.4170698024305449E-004   1.1099916935554434E-003   0.0000000000000000     
   1.7021898889868251E-003   2.5981284293952207E-003   0.0000000000000000     
   2.5814487262313117E-003   4.4644102075193327E-003   0.0000000000000000     
   3.4794834919765149E-003   6.7088370279277786E-003   0.0000000000000000     
   7.3415888799353516E-003   7.4202806293464296E-003   0.0000000000000000     
   9.2310688594455775E-003   1.0186629498404320E-002   0.0000000000000000     
   1.1129835988240647E-002   1.3233616858402564E-002   0.0000000000000000     
   1.3037890266320563E-002   1.6561242709341159E-002   0.0000000000000000     
   1.4955231693685320E-002   2.0169507051220101E-002   0.0000000000000000     
   6.3162234585358683E-003   7.1847368664048365E-003   0.0000000000000000     
   7.9559224332347318E-003   9.8957225389157254E-003   0.0000000000000000     
   9.5995233473638222E-003   1.2893385357405541E-002   0.0000000000000000     
   1.1247026200923136E-002   1.6177725321874281E-002   0.0000000000000000     
   1.2898430993912680E-002   1.9748742432321945E-002   0.0000000000000000     
   5.3307507534095687E-003   6.9876483451878626E-003   0.0000000000000000     
   6.7237042500876577E-003   9.6499995617311662E-003   0.0000000000000000     
   8.1175988883678760E-003   1.2604857455708118E-002   0.0000000000000000     
   9.5124346682502227E-003   1.5852222027118716E-002   0.0000000000000000     
   1.0908211589734700E-002   1.9392093275962956E-002   0.0000000000000000     
   4.3851707645564501E-003   6.8290150656955088E-003   0.0000000000000000     
   5.5344143100043552E-003   9.4494605668506461E-003   0.0000000000000000     
   6.6840626112528116E-003   1.2368033153310292E-002   0.0000000000000000     
   7.8341156683018210E-003   1.5584732825074459E-002   0.0000000000000000     
   8.9845734811513818E-003   1.9099559582143138E-002   0.0000000000000000     
   3.4794834919765149E-003   6.7088370279277786E-003   0.0000000000000000     
   4.3880526129848243E-003   9.2941055542741548E-003   0.0000000000000000     
   5.2989145160186289E-003   1.2182912450212066E-002   0.0000000000000000     
   6.2120692010779301E-003   1.5375257715741511E-002   0.0000000000000000     
   7.1275166681627287E-003   1.8871141350862489E-002   0.0000000000000000     
   1.4955231693685320E-002   2.0169507051220101E-002   0.0000000000000000     
   1.6856629492023781E-002   2.4029912252964969E-002   0.0000000000000000     
   1.8716852883024795E-002   2.8113960683501322E-002   0.0000000000000000     
   2.0535901866688362E-002   3.2421652342829170E-002   0.0000000000000000     
   2.2313776443014483E-002   3.6952987230948503E-002   0.0000000000000000     
   1.2898430993912680E-002   1.9748742432321945E-002   0.0000000000000000     
   1.4537460300716714E-002   2.3580253457777374E-002   0.0000000000000000     
   1.6147836695719515E-002   2.7646075167269388E-002   0.0000000000000000     
   1.7729560178921078E-002   3.1946207560797989E-002   0.0000000000000000     
   1.9282630750321401E-002   3.6480650638363192E-002   0.0000000000000000     
   1.0908211589734700E-002   1.9392093275962956E-002   0.0000000000000000     
   1.2294750847506728E-002   2.3199477917819976E-002   0.0000000000000000     
   1.3661873636251740E-002   2.7249382668268877E-002   0.0000000000000000     
   1.5009579955969734E-002   3.1541807527309666E-002   0.0000000000000000     
   1.6337869806660708E-002   3.6076752494942355E-002   0.0000000000000000     
   8.9845734811513818E-003   1.9099559582143138E-002   0.0000000000000000     
   1.0128501132393825E-002   2.2887585633092771E-002   0.0000000000000000     
   1.1258963704621481E-002   2.6923883186499797E-002   0.0000000000000000     
   1.2375961197834344E-002   3.1208452242364203E-002   0.0000000000000000     
   1.3479493612032418E-002   3.5741292800685998E-002   0.0000000000000000     
   7.1275166681627287E-003   1.8871141350862489E-002   0.0000000000000000     
   8.0387111553780009E-003   2.2644576603595777E-002   0.0000000000000000     
   8.9391069008287246E-003   2.6669576721962140E-002   0.0000000000000000     
   9.8287039045149033E-003   3.0946141705961591E-002   0.0000000000000000     
   1.0707502166436532E-002   3.5474271555594128E-002   0.0000000000000000     
   2.2313776443014483E-002   3.6952987230948503E-002   0.0000000000000000     
   2.4047482860897793E-002   4.1699004999636483E-002   0.0000000000000000     
   2.5734027369232897E-002   4.6650745300670253E-002   0.0000000000000000     
   2.7373409968019808E-002   5.1808208134049814E-002   0.0000000000000000     
   2.8965630657258525E-002   5.7171393499775180E-002   0.0000000000000000     
   1.9282630750321401E-002   3.6480650638363192E-002   0.0000000000000000     
   2.0800677062445906E-002   4.1235572382949434E-002   0.0000000000000000     
   2.2277327767820022E-002   4.6197140777541189E-002   0.0000000000000000     
   2.3712582866443746E-002   5.1365355822138442E-002   0.0000000000000000     
   2.5106442358317070E-002   5.6740217516741187E-002   0.0000000000000000     
   1.6337869806660708E-002   3.6076752494942355E-002   0.0000000000000000     
   1.7638793341062470E-002   4.0836954731886199E-002   0.0000000000000000     
   1.8904400711912822E-002   4.5805151398860482E-002   0.0000000000000000     
   2.0134691919211765E-002   5.0981342495865181E-002   0.0000000000000000     
   2.1329666962959300E-002   5.6365528022900319E-002   0.0000000000000000     
   1.3479493612032418E-002   3.5741292800685998E-002   0.0000000000000000     
   1.4561831696747482E-002   4.0503152046446785E-002   0.0000000000000000     
   1.5615246201511303E-002   4.5474777164628132E-002   0.0000000000000000     
   1.6639737126323884E-002   5.0656168155230066E-002   0.0000000000000000     
   1.7635304471185217E-002   5.6047325018252554E-002   0.0000000000000000     
   1.0707502166436532E-002   3.5474271555594128E-002   0.0000000000000000     
   1.1569792129500942E-002   4.0234164326631176E-002   0.0000000000000000     
   1.2409864236615461E-002   4.5206018074844159E-002   0.0000000000000000     
   1.3227718487780090E-002   5.0389832800233049E-002   0.0000000000000000     
   1.4023354882994825E-002   5.5785608502797887E-002   0.0000000000000000     
   2.8965630657258525E-002   5.7171393499775180E-002   0.0000000000000000     
   3.0510119935306453E-002   6.2728328740134176E-002   0.0000000000000000     
   3.2006308300521008E-002   6.8467041197414688E-002   0.0000000000000000     
   3.3454195752902191E-002   7.4387530871616675E-002   0.0000000000000000     
   3.4853782292450002E-002   8.0489797762740165E-002   0.0000000000000000     
   2.5106442358317070E-002   5.6740217516741187E-002   0.0000000000000000     
   2.6458778576370329E-002   6.2309614813481087E-002   0.0000000000000000     
   2.7769463853533839E-002   6.8061436664489772E-002   0.0000000000000000     
   2.9038498189807607E-002   7.3995683069767212E-002   0.0000000000000000     
   3.0265881585191636E-002   8.0112354029313410E-002   0.0000000000000000     
   2.1329666962959300E-002   5.6365528022900319E-002   0.0000000000000000     
   2.2489359130836915E-002   6.1945259831168983E-002   0.0000000000000000     
   2.3613801710526083E-002   6.7708089771874300E-002   0.0000000000000000     
   2.4702994702026811E-002   7.3654017845016226E-002   0.0000000000000000     
   2.5756938105339106E-002   7.9783044050594817E-002   0.0000000000000000     
   1.7635304471185217E-002   5.6047325018252554E-002   0.0000000000000000     
   1.8601861598706210E-002   6.1635263793197878E-002   0.0000000000000000     
   1.9539321871497730E-002   6.7407000519568286E-002   0.0000000000000000     
   2.0447685289559796E-002   7.3362535197363785E-002   0.0000000000000000     
   2.1326951852892403E-002   7.9501867826584388E-002   0.0000000000000000     
   1.4023354882994825E-002   5.5785608502797887E-002   0.0000000000000000     
   1.4796285979978211E-002   6.1379626699567758E-002   0.0000000000000000     
   1.5546024336448791E-002   6.7158168907571744E-002   0.0000000000000000     
   1.6272569952406564E-002   7.3121235126809847E-002   0.0000000000000000     
   1.6975922827851535E-002   7.9268825357282094E-002   0.0000000000000000     
   3.4853782292450002E-002   8.0489797762740165E-002   0.0000000000000000     
   3.6202147520165873E-002   8.6761847836956923E-002   0.0000000000000000     
   3.7496371037051217E-002   9.3191687060438747E-002   0.0000000000000000     
   3.8736452843106048E-002   9.9779315433185647E-002   0.0000000000000000     
   3.9922392938330366E-002  0.10652473295519757        0.0000000000000000     
   3.0265881585191636E-002   8.0112354029313410E-002   0.0000000000000000     
   3.1448188021055624E-002   8.6399076392110627E-002   0.0000000000000000     
   3.2581991478769300E-002   9.2843477007141059E-002   0.0000000000000000     
   3.3667291958332644E-002   9.9445555874404706E-002   0.0000000000000000     
   3.4704089459745673E-002  0.10620531299390155        0.0000000000000000     
   2.5756938105339106E-002   7.9783044050594817E-002   0.0000000000000000     
   2.6772071713242997E-002   8.6082483794539005E-002   0.0000000000000000     
   2.7744835318518526E-002   9.2539652482777776E-002   0.0000000000000000     
   2.8675228921165707E-002   9.9154550115311157E-002   0.0000000000000000     
   2.9563252521184517E-002  0.10592717669213907        0.0000000000000000     
   2.1326951852892403E-002   7.9501867826584388E-002   0.0000000000000000     
   2.2173798596727971E-002   8.5812070044242100E-002   0.0000000000000000     
   2.2984902556298908E-002   9.2280213487348953E-002   0.0000000000000000     
   2.3760263731605207E-002   9.8906298155904959E-002   0.0000000000000000     
   2.4499882122646897E-002  0.10569032404991008        0.0000000000000000     
   1.6975922827851535E-002   7.9268825357282094E-002   0.0000000000000000     
   1.7653368671510541E-002   8.5587835141219856E-002   0.0000000000000000     
   1.8302193192110419E-002   9.2065160020854533E-002   0.0000000000000000     
   1.8922396389651170E-002   9.8700799996186112E-002   0.0000000000000000     
   1.9513978264132797E-002  0.10549475506721463        0.0000000000000000     
   3.9922392938330366E-002  0.10652473295519757        0.0000000000000000     
   4.1059243929235385E-002  0.11341592259126436        0.0000000000000000     
   4.2152058422332349E-002  0.12044086730617573        0.0000000000000000     
   4.3200836417621243E-002  0.12759956709993175        0.0000000000000000     
   4.4205577915102073E-002  0.13489202197253236        0.0000000000000000     
   3.4704089459745673E-002  0.10620531299390155        0.0000000000000000     
   3.5698138970098887E-002  0.11311254841710840        0.0000000000000000     
   3.6655195476482778E-002  0.12015706219550197        0.0000000000000000     
   3.7575258978897359E-002  0.12733885432908226        0.0000000000000000     
   3.8458329477342644E-002  0.13465792481784930        0.0000000000000000     
   2.9563252521184517E-002  0.10592717669213907        0.0000000000000000     
   3.0414579211511764E-002  0.11284837244639760        0.0000000000000000     
   3.1234882085084240E-002  0.11990897761122271        0.0000000000000000     
   3.2024161141901937E-002  0.12710899218661442        0.0000000000000000     
   3.2782416381964864E-002  0.13444841617257275        0.0000000000000000     
   2.4499882122646897E-002  0.10569032404991008        0.0000000000000000     
   2.5208564653474035E-002  0.11262339467913192        0.0000000000000000     
   2.5891118248136721E-002  0.11969661355333798        0.0000000000000000     
   2.6547542906634965E-002  0.12690998067252826        0.0000000000000000     
   2.7177838628968755E-002  0.13426349603670279        0.0000000000000000     
   1.9513978264132797E-002  0.10549475506721463        0.0000000000000000     
   2.0080095295985690E-002  0.11243761511531139        0.0000000000000000     
   2.0623903965640233E-002  0.11951997002184778        0.0000000000000000     
   2.1145404273096437E-002  0.12674181978682375        0.0000000000000000     
   2.1644596218354295E-002  0.13410316441023937        0.0000000000000000     
   4.4205577915102073E-002  0.13489202197253236        0.0000000000000000     
   4.5157456786519563E-002  0.14230745114241497        0.0000000000000000     
   4.6047646903618442E-002  0.14983507382801689        0.0000000000000000     
   4.6876148266398701E-002  0.15747489002933809        0.0000000000000000     
   4.7642960874860349E-002  0.16522689974637866        0.0000000000000000     
   3.8458329477342644E-002  0.13465792481784930        0.0000000000000000     
   3.9294780318110838E-002  0.14210424701846941        0.0000000000000000     
   4.0074984847494187E-002  0.14966779428760912        0.0000000000000000     
   4.0798943065492685E-002  0.15734856662526828        0.0000000000000000     
   4.1466654972106345E-002  0.16514656403144695        0.0000000000000000     
   3.2782416381964864E-002  0.13444841617257275        0.0000000000000000     
   3.3500590658602364E-002  0.14191652933729199        0.0000000000000000     
   3.4169626825143774E-002  0.14950261144896645        0.0000000000000000     
   3.4789524881589089E-002  0.15720666250759613        0.0000000000000000     
   3.5360284827938328E-002  0.16502868251318101        0.0000000000000000     
   2.7177838628968755E-002  0.13426349603670279        0.0000000000000000     
   2.7774887807994149E-002  0.14174429809888262        0.0000000000000000     
   2.8331572836567197E-002  0.14933952531208891        0.0000000000000000     
   2.8847893714687912E-002  0.15704917767632165        0.0000000000000000     
   2.9323850442356289E-002  0.16487325519158072        0.0000000000000000     
   2.1644596218354295E-002  0.13410316441023937        0.0000000000000000     
   2.2117671766286179E-002  0.14158755330324135        0.0000000000000000     
   2.2560822881764461E-002  0.14917853587697646        0.0000000000000000     
   2.2974049564789146E-002  0.15687611213144476        0.0000000000000000     
   2.3357351815360229E-002  0.16468028206664617        0.0000000000000000     
   0.0000000000000000        0.0000000000000000        0.0000000000000000     
   8.4170698024305449E-004   1.1099916935554434E-003   0.0000000000000000     
   1.7021898889868251E-003   2.5981284293952207E-003   0.0000000000000000     
   2.5814487262313117E-003   4.4644102075193327E-003   0.0000000000000000     
   3.4794834919765149E-003   6.7088370279277786E-003   0.0000000000000000     
   0.0000000000000000        0.0000000000000000        0.0000000000000000     
   6.3386548196311097E-004   1.0939656483700288E-003   0.0000000000000000     
   1.2781055608956753E-003   2.5620391948400147E-003   0.0000000000000000     
   1.9327202367976923E-003   4.4042206394099585E-003   0.0000000000000000     
   2.5977095096691633E-003   6.6205099820798603E-003   0.0000000000000000     
   0.0000000000000000        0.0000000000000000        0.0000000000000000     
   4.2430412151610157E-004   1.0825201789561407E-003   0.0000000000000000     
   8.5305039396043497E-004   2.5362651849993455E-003   0.0000000000000000     
   1.2862388173330004E-003   4.3612350181296156E-003   0.0000000000000000     
   1.7238693916337975E-003   6.5574296783469498E-003   0.0000000000000000     
   0.0000000000000000        0.0000000000000000        0.0000000000000000     
   2.1302289890202624E-004   1.0756552853137791E-003   0.0000000000000000     
   4.2702438818110469E-004   2.5208063998732131E-003   0.0000000000000000     
   6.4200446783723526E-004   4.3354533436783032E-003   0.0000000000000000     
   8.5796313787041810E-004   6.5195961167290482E-003   0.0000000000000000     
   0.0000000000000000        0.0000000000000000        0.0000000000000000     
   2.1814120885078198E-008   1.0733709674429438E-003   0.0000000000000000     
   2.7543557684151562E-008   2.5156628394616175E-003   0.0000000000000000     
   1.7188310397220092E-008   4.3268756160560213E-003   0.0000000000000000     
  -9.2516209754722658E-009   6.5070092972261536E-003   0.0000000000000000     
   3.4794834919765149E-003   6.7088370279277786E-003   0.0000000000000000     
   4.3880526129848243E-003   9.2941055542741548E-003   0.0000000000000000     
   5.2989145160186289E-003   1.2182912450212066E-002   0.0000000000000000     
   6.2120692010779301E-003   1.5375257715741511E-002   0.0000000000000000     
   7.1275166681627287E-003   1.8871141350862489E-002   0.0000000000000000     
   2.5977095096691633E-003   6.6205099820798603E-003   0.0000000000000000     
   3.2701238583711587E-003   9.1779437489248623E-003   0.0000000000000000     
   3.9470137617647521E-003   1.2043558466020109E-002   0.0000000000000000     
   4.6283792198499422E-003   1.5217354133365599E-002   0.0000000000000000     
   5.3142202326267292E-003   1.8699330750961335E-002   0.0000000000000000     
   1.7238693916337975E-003   6.5574296783469498E-003   0.0000000000000000     
   2.1661327455054563E-003   9.0949843757259161E-003   0.0000000000000000     
   2.6132195075906058E-003   1.1944034320341084E-002   0.0000000000000000     
   3.0651296778892454E-003   1.5104579512192450E-002   0.0000000000000000     
   3.5218632564013768E-003   1.8576619951280016E-002   0.0000000000000000     
   8.5796313787041810E-004   6.5195961167290482E-003   0.0000000000000000     
   1.0760792743877156E-003   9.0452274346773196E-003   0.0000000000000000     
   1.2975317534961908E-003   1.1884340013174989E-002   0.0000000000000000     
   1.5223205751958425E-003   1.5036933852222059E-002   0.0000000000000000     
   1.7504457394866722E-003   1.8503008951818528E-002   0.0000000000000000     
  -9.2516209754722658E-009   6.5070092972261536E-003   0.0000000000000000     
  -3.6554982062894062E-008   9.0286729257790712E-003   0.0000000000000000     
  -4.9500518493736021E-008   1.1864475544521830E-002   0.0000000000000000     
  -4.8088230267894803E-008   1.5014417153454432E-002   0.0000000000000000     
  -3.2318117385477137E-008   1.8478497752576872E-002   0.0000000000000000     
   7.1275166681627287E-003   1.8871141350862489E-002   0.0000000000000000     
   8.0387111553780009E-003   2.2644576603595777E-002   0.0000000000000000     
   8.9391069008287246E-003   2.6669576721962140E-002   0.0000000000000000     
   9.8287039045149033E-003   3.0946141705961591E-002   0.0000000000000000     
   1.0707502166436532E-002   3.5474271555594128E-002   0.0000000000000000     
   5.3142202326267292E-003   1.8699330750961335E-002   0.0000000000000000     
   5.9976175443121268E-003   2.2462087840917085E-002   0.0000000000000000     
   6.6716518991231490E-003   2.6478224925342617E-002   0.0000000000000000     
   7.3363232970597965E-003   3.0747742004237938E-002   0.0000000000000000     
   7.9916317381220677E-003   3.5270639077603035E-002   0.0000000000000000     
   3.5218632564013768E-003   1.8576619951280016E-002   0.0000000000000000     
   3.9774569270490763E-003   2.2331756356644826E-002   0.0000000000000000     
   4.4259473737544219E-003   2.6341589447327927E-002   0.0000000000000000     
   4.8673345965174145E-003   3.0606119223329325E-002   0.0000000000000000     
   5.3016185953380524E-003   3.5125345684649006E-002   0.0000000000000000     
   1.7504457394866722E-003   1.8503008951818528E-002   0.0000000000000000     
   1.9782293035888491E-003   2.2253582150778998E-002   0.0000000000000000     
   2.2019933247225437E-003   2.6259670287918074E-002   0.0000000000000000     
   2.4217378028877556E-003   3.0521273363235752E-002   0.0000000000000000     
   2.6374627380844856E-003   3.5038391376732043E-002   0.0000000000000000     
  -3.2318117385477137E-008   1.8478497752576872E-002   0.0000000000000000     
  -6.5326068555233638E-008   2.2227565223319597E-002   0.0000000000000000     
  -2.1024797248724307E-007   2.6232467447113050E-002   0.0000000000000000     
  -4.6708382917975039E-007   3.0493204423957233E-002   0.0000000000000000     
  -8.3583363863406340E-007   3.5009776153852146E-002   0.0000000000000000     
   1.0707502166436532E-002   3.5474271555594128E-002   0.0000000000000000     
   1.1569792129500942E-002   4.0234164326631176E-002   0.0000000000000000     
   1.2409864236615461E-002   4.5206018074844159E-002   0.0000000000000000     
   1.3227718487780090E-002   5.0389832800233049E-002   0.0000000000000000     
   1.4023354882994825E-002   5.5785608502797887E-002   0.0000000000000000     
   7.9916317381220677E-003   3.5270639077603035E-002   0.0000000000000000     
   8.6344132452893033E-003   4.0027252689126207E-002   0.0000000000000000     
   9.2615038415408447E-003   4.4997919382495782E-002   0.0000000000000000     
   9.8729035268766922E-003   5.0182639157711734E-002   0.0000000000000000     
   1.0468612301296842E-002   5.5581412014774068E-002   0.0000000000000000     
   5.3016185953380524E-003   3.5125345684649006E-002   0.0000000000000000     
   5.7274336500790207E-003   3.9879678250618736E-002   0.0000000000000000     
   6.1434140406030017E-003   4.4849526340570274E-002   0.0000000000000000     
   6.5495597669099955E-003   5.0034889954503635E-002   0.0000000000000000     
   6.9458708290000021E-003   5.5435769092418812E-002   0.0000000000000000     
   2.6374627380844856E-003   3.5038391376732043E-002   0.0000000000000000     
   2.8488533438700901E-003   3.9791441011108736E-002   0.0000000000000000     
   3.0555948338019277E-003   4.4760838949067641E-002   0.0000000000000000     
   3.2576872078799975E-003   4.9946585190608767E-002   0.0000000000000000     
   3.4551304661043017E-003   5.5348679735732098E-002   0.0000000000000000     
  -8.3583363863406340E-007   3.5009776153852146E-002   0.0000000000000000     
  -1.3276733374872982E-006   3.9762540970596220E-002   0.0000000000000000     
  -1.9537788623758120E-006   4.4731857207987884E-002   0.0000000000000000     
  -2.7141502132992524E-006   4.9917724866027129E-002   0.0000000000000000     
  -3.6087873902588934E-006   5.5320143944713962E-002   0.0000000000000000     
   1.4023354882994825E-002   5.5785608502797887E-002   0.0000000000000000     
   1.4796285979978211E-002   6.1379626699567758E-002   0.0000000000000000     
   1.5546024336448791E-002   6.7158168907571744E-002   0.0000000000000000     
   1.6272569952406564E-002   7.3121235126809847E-002   0.0000000000000000     
   1.6975922827851535E-002   7.9268825357282094E-002   0.0000000000000000     
   1.0468612301296842E-002   5.5581412014774068E-002   0.0000000000000000     
   1.1047779189130757E-002   6.1179789430828725E-002   0.0000000000000000     
   1.1609553214707895E-002   6.6963322883021648E-002   0.0000000000000000     
   1.2153934378028258E-002   7.2932012371352786E-002   0.0000000000000000     
   1.2680922679091843E-002   7.9085857895822217E-002   0.0000000000000000     
   6.9458708290000021E-003   5.5435769092418812E-002   0.0000000000000000     
   7.3314881406416786E-003   6.1037192867530878E-002   0.0000000000000000     
   7.7055526156036801E-003   6.6824190393054941E-002   0.0000000000000000     
   8.0680642538860110E-003   7.2796761668990989E-002   0.0000000000000000     
   8.4190230554886669E-003   7.8954906695339042E-002   0.0000000000000000     
   3.4551304661043017E-003   5.5348679735732098E-002   0.0000000000000000     
   3.6474128345109725E-003   6.0951837009674208E-002   0.0000000000000000     
   3.8340225391361479E-003   6.6740771437671667E-002   0.0000000000000000     
   4.0149595799798266E-003   7.2715483019724428E-002   0.0000000000000000     
   4.1902239570420080E-003   7.8875971755832552E-002   0.0000000000000000     
  -3.6087873902588934E-006   5.5320143944713962E-002   0.0000000000000000     
  -4.4467292613582961E-006   6.0923721857258729E-002   0.0000000000000000     
  -5.0370146947041660E-006   6.6713066016871769E-002   0.0000000000000000     
  -5.3796436902946870E-006   7.2688176423553116E-002   0.0000000000000000     
  -5.4746162481320547E-006   7.8849053077302736E-002   0.0000000000000000     
   1.6975922827851535E-002   7.9268825357282094E-002   0.0000000000000000     
   1.7653368671510541E-002   8.5587835141219856E-002   0.0000000000000000     
   1.8302193192110419E-002   9.2065160020854533E-002   0.0000000000000000     
   1.8922396389651170E-002   9.8700799996186112E-002   0.0000000000000000     
   1.9513978264132797E-002  0.10549475506721463        0.0000000000000000     
   1.2680922679091843E-002   7.9085857895822217E-002   0.0000000000000000     
   1.3188551563470634E-002   8.5411660185571933E-002   0.0000000000000000     
   1.3674854476736617E-002   9.1896219969743995E-002   0.0000000000000000     
   1.4139831418889793E-002   9.8539537248338360E-002   0.0000000000000000     
   1.4583482389930158E-002  0.10534161202135509        0.0000000000000000     
   8.4190230554886669E-003   7.8954906695339042E-002   0.0000000000000000     
   8.7571168984881716E-003   8.5285426277398005E-002   0.0000000000000000     
   9.0810336609610433E-003   9.1775121220466799E-002   0.0000000000000000     
   9.3907733429072857E-003   9.8423991524545451E-002   0.0000000000000000     
   9.6863359443268935E-003  0.10523203718963388        0.0000000000000000     
   4.1902239570420080E-003   7.8875971755832552E-002   0.0000000000000000     
   4.3590646765631460E-003   8.5209133416698044E-002   0.0000000000000000     
   4.5207307447836928E-003   9.1701863773022960E-002   0.0000000000000000     
   4.6752221617036476E-003   9.8354162824807287E-002   0.0000000000000000     
   4.8225389273230104E-003  0.10516603057205105        0.0000000000000000     
  -5.4746162481320547E-006   7.8849053077302736E-002   0.0000000000000000     
  -5.6051023044371637E-006   8.5182781603472049E-002   0.0000000000000000     
  -6.0542717954322096E-006   9.1676447627412450E-002   0.0000000000000000     
  -6.8221247211188189E-006   9.8330051149123965E-002   0.0000000000000000     
  -7.9086610814942809E-006  0.10514359216860654        0.0000000000000000     
   1.9513978264132797E-002  0.10549475506721463        0.0000000000000000     
   2.0080095295985690E-002  0.11243761511531139        0.0000000000000000     
   2.0623903965640233E-002  0.11951997002184778        0.0000000000000000     
   2.1145404273096437E-002  0.12674181978682375        0.0000000000000000     
   2.1644596218354295E-002  0.13410316441023937        0.0000000000000000     
   1.4583482389930158E-002  0.10534161202135509        0.0000000000000000     
   1.5007246492430779E-002  0.11229213143530663        0.0000000000000000     
   1.5412562828964726E-002  0.11938078263670550        0.0000000000000000     
   1.5799431399532000E-002  0.12660756562555170        0.0000000000000000     
   1.6167852204132596E-002  0.13397248040184526        0.0000000000000000     
   9.6863359443268935E-003  0.10523203718963388        0.0000000000000000     
   9.9680935961933559E-003  0.11218804131948827        0.0000000000000000     
   1.0236418429480153E-002  0.11928078701786460        0.0000000000000000     
   1.0491310444187283E-002  0.12651027428476289        0.0000000000000000     
   1.0732769640314747E-002  0.13387650312018315        0.0000000000000000     
   4.8225389273230104E-003  0.10516603057205105        0.0000000000000000     
   4.9626366072734194E-003  0.11212534476785627        0.0000000000000000     
   5.0954707671865144E-003  0.11921998316532503        0.0000000000000000     
   5.2210414070622945E-003  0.12644994576445731        0.0000000000000000     
   5.3393485269007564E-003  0.13381523256525310        0.0000000000000000     
  -7.9086610814942809E-006  0.10514359216860654        0.0000000000000000     
  -9.1244743290288567E-006  0.11210404178041067        0.0000000000000000     
  -1.0280157916188362E-005  0.11919837107908682        0.0000000000000000     
  -1.1375711842972878E-005  0.12642658006463492        0.0000000000000000     
  -1.2411136109383245E-005  0.13378866873705506        0.0000000000000000     
   2.1644596218354295E-002  0.13410316441023937        0.0000000000000000     
   2.2117671766286179E-002  0.14158755330324135        0.0000000000000000     
   2.2560822881764461E-002  0.14917853587697646        0.0000000000000000     
   2.2974049564789146E-002  0.15687611213144476        0.0000000000000000     
   2.3357351815360229E-002  0.16468028206664617        0.0000000000000000     
   1.6167852204132596E-002  0.13397248040184526        0.0000000000000000     
   1.6517243622173772E-002  0.14145618784252625        0.0000000000000000     
   1.6847024033062794E-002  0.14903934882453487        0.0000000000000000     
   1.7157193436799653E-002  0.15672196334787111        0.0000000000000000     
   1.7447751833384352E-002  0.16450403141253500        0.0000000000000000     
   1.0732769640314747E-002  0.13387650312018315        0.0000000000000000     
   1.0961904464352232E-002  0.14136009460889545        0.0000000000000000     
   1.1179823362789410E-002  0.14894166983566984        0.0000000000000000     
   1.1386526335626288E-002  0.15662122880050633        0.0000000000000000     
   1.1582013382862865E-002  0.16439877150340498        0.0000000000000000     
   5.3393485269007564E-003  0.13381523256525310        0.0000000000000000     
   5.4516542928215485E-003  0.14129927360234895        0.0000000000000000     
   5.5592208709443159E-003  0.14888549891038139        0.0000000000000000     
   5.6620482612690553E-003  0.15657390848935043        0.0000000000000000     
   5.7601364637957682E-003  0.16436450233925604        0.0000000000000000     
  -1.2411136109383245E-005  0.13378866873705506        0.0000000000000000     
  -1.3506892418272028E-005  0.14127372482288672        0.0000000000000000     
  -1.4783442472494934E-005  0.14887083604866946        0.0000000000000000     
  -1.6240786272050581E-005  0.15658000241440331        0.0000000000000000     
  -1.7878923816940298E-005  0.16440122392008821        0.0000000000000000     
   0.0000000000000000        0.0000000000000000        0.0000000000000000     
   2.1814120885078198E-008   1.0733709674429438E-003   0.0000000000000000     
   2.7543557684151562E-008   2.5156628394616175E-003   0.0000000000000000     
   1.7188310397220092E-008   4.3268756160560213E-003   0.0000000000000000     
  -9.2516209754722658E-009   6.5070092972261536E-003   0.0000000000000000     
   0.0000000000000000        0.0000000000000000        0.0000000000000000     
  -2.1298050566229452E-004   1.0756641787428944E-003   0.0000000000000000     
  -4.2696933342789990E-004   2.5208289574200171E-003   0.0000000000000000     
  -6.4196648329681609E-004   4.3354943360313682E-003   0.0000000000000000     
  -8.5797195526904292E-004   6.5196603145769470E-003   0.0000000000000000     
   0.0000000000000000        0.0000000000000000        0.0000000000000000     
  -4.2426543328248493E-004   1.0825318726128900E-003   0.0000000000000000     
  -8.5299543629372061E-004   2.5362992074038711E-003   0.0000000000000000     
  -1.2861900090337069E-003   4.3613020043729439E-003   0.0000000000000000     
  -1.7238491515024440E-003   6.5575402635201074E-003   0.0000000000000000     
   0.0000000000000000        0.0000000000000000        0.0000000000000000     
  -6.3383296873968610E-004   1.0939740490529303E-003   0.0000000000000000     
  -1.2780507650397778E-003   2.5620735894131799E-003   0.0000000000000000     
  -1.9326533889002754E-003   4.4042986210807477E-003   0.0000000000000000     
  -2.5976408403211790E-003   6.6206491440556348E-003   0.0000000000000000     
   0.0000000000000000        0.0000000000000000        0.0000000000000000     
  -8.4168311203389819E-004   1.1099907080630161E-003   0.0000000000000000     
  -1.7021353196660723E-003   2.5981521034479428E-003   0.0000000000000000     
  -2.5813566228965216E-003   4.4644841861547803E-003   0.0000000000000000     
  -3.4793470217252477E-003   6.7089869561835283E-003   0.0000000000000000     
  -9.2516209754722658E-009   6.5070092972261536E-003   0.0000000000000000     
  -3.6554982062894062E-008   9.0286729257790712E-003   0.0000000000000000     
  -4.9500518493736021E-008   1.1864475544521830E-002   0.0000000000000000     
  -4.8088230267894803E-008   1.5014417153454432E-002   0.0000000000000000     
  -3.2318117385477137E-008   1.8478497752576872E-002   0.0000000000000000     
  -8.5797195526904292E-004   6.5196603145769470E-003   0.0000000000000000     
  -1.0761364650057760E-003   9.0453105214112553E-003   0.0000000000000000     
  -1.2976107281682091E-003   1.1884428584888794E-002   0.0000000000000000     
  -1.5223947447563432E-003   1.5037014505009560E-002   0.0000000000000000     
  -1.7504885147701782E-003   1.8503068281773557E-002   0.0000000000000000     
  -1.7238491515024440E-003   6.5575402635201074E-003   0.0000000000000000     
  -2.1661421780853189E-003   9.0951298939539512E-003   0.0000000000000000     
  -2.6132384031677183E-003   1.1944186804783064E-002   0.0000000000000000     
  -3.0651378267496417E-003   1.5104710996007440E-002   0.0000000000000000     
  -3.5218404488310913E-003   1.8576702467627090E-002   0.0000000000000000     
  -2.5976408403211790E-003   6.6206491440556348E-003   0.0000000000000000     
  -3.2700536942206924E-003   9.1781310434071606E-003   0.0000000000000000     
  -3.9469325255170199E-003   1.2043750204204638E-002   0.0000000000000000     
  -4.6282773342101631E-003   1.5217506626448078E-002   0.0000000000000000     
  -5.3140881203001204E-003   1.8699400310137469E-002   0.0000000000000000     
  -3.4793470217252477E-003   6.7089869561835283E-003   0.0000000000000000     
  -4.3878710134118964E-003   9.2943139697708784E-003   0.0000000000000000     
  -5.2986930952161164E-003   1.2183118783153526E-002   0.0000000000000000     
  -6.2118132671379065E-003   1.5375401396331465E-002   0.0000000000000000     
  -7.1272315291772692E-003   1.8871161809304701E-002   0.0000000000000000     
  -3.2318117385477137E-008   1.8478497752576872E-002   0.0000000000000000     
  -6.5326068555233638E-008   2.2227565223319597E-002   0.0000000000000000     
  -2.1024797248724307E-007   2.6232467447113050E-002   0.0000000000000000     
  -4.6708382917975039E-007   3.0493204423957233E-002   0.0000000000000000     
  -8.3583363863406340E-007   3.5009776153852146E-002   0.0000000000000000     
  -1.7504885147701782E-003   1.8503068281773557E-002   0.0000000000000000     
  -1.9783297336565982E-003   2.2253674778707686E-002   0.0000000000000000     
  -2.2023560968624854E-003   2.6259918859338847E-002   0.0000000000000000     
  -2.4225676043878397E-003   3.0521800523667049E-002   0.0000000000000000     
  -2.6389642562326615E-003   3.5039319771692279E-002   0.0000000000000000     
  -3.5218404488310913E-003   1.8576702467627090E-002   0.0000000000000000     
  -3.9774666909087398E-003   2.2331880021384316E-002   0.0000000000000000     
  -4.4261369744792670E-003   2.6341962459021446E-002   0.0000000000000000     
  -4.8678512995426713E-003   3.0606949780538479E-002   0.0000000000000000     
  -5.3026096660989527E-003   3.5126841985935395E-002   0.0000000000000000     
  -5.3140881203001204E-003   1.8699400310137469E-002   0.0000000000000000     
  -5.9974761978249811E-003   2.2462180951349504E-002   0.0000000000000000     
  -6.6715528808228312E-003   2.6478598246160848E-002   0.0000000000000000     
  -7.3363181692936751E-003   3.0748652194571516E-002   0.0000000000000000     
  -7.9917720632375084E-003   3.5272342796581493E-002   0.0000000000000000     
  -7.1272315291772692E-003   1.8871161809304701E-002   0.0000000000000000     
  -8.0383582544053221E-003   2.2644577568603233E-002   0.0000000000000000     
  -8.9386038158931827E-003   2.6669826220757052E-002   0.0000000000000000     
  -9.8279682136408510E-003   3.0946907765766165E-002   0.0000000000000000     
  -1.0706451447648325E-002   3.5475822203630568E-002   0.0000000000000000     
  -8.3583363863406340E-007   3.5009776153852146E-002   0.0000000000000000     
  -1.3276733374872982E-006   3.9762540970596220E-002   0.0000000000000000     
  -1.9537788623758120E-006   4.4731857207987884E-002   0.0000000000000000     
  -2.7141502132992524E-006   4.9917724866027129E-002   0.0000000000000000     
  -3.6087873902588934E-006   5.5320143944713962E-002   0.0000000000000000     
  -2.6389642562326615E-003   3.5039319771692279E-002   0.0000000000000000     
  -2.8512455341474625E-003   3.9792715096714067E-002   0.0000000000000000     
  -3.0591109198827540E-003   4.4762224992031890E-002   0.0000000000000000     
  -3.2625604134385372E-003   4.9947849457645771E-002   0.0000000000000000     
  -3.4615940148148092E-003   5.5349588493555715E-002   0.0000000000000000     
  -5.3026096660989527E-003   3.5126841985935395E-002   0.0000000000000000     
  -5.7290363711635876E-003   3.9881700357095130E-002   0.0000000000000000     
  -6.1457557117520550E-003   4.4851586175900598E-002   0.0000000000000000     
  -6.5527676878643516E-003   5.0036499442351785E-002   0.0000000000000000     
  -6.9500722995004807E-003   5.5436440156448705E-002   0.0000000000000000     
  -7.9917720632375084E-003   3.5272342796581493E-002   0.0000000000000000     
  -8.6347001843858663E-003   4.0029496751739425E-002   0.0000000000000000     
  -9.2618881544702797E-003   4.4999940759593987E-002   0.0000000000000000     
  -9.8733359734907485E-003   5.0183674820145151E-002   0.0000000000000000     
  -1.0469043641447273E-002   5.5580698933392916E-002   0.0000000000000000     
  -1.0706451447648325E-002   3.5475822203630568E-002   0.0000000000000000     
  -1.1568236973814290E-002   4.0236104280646973E-002   0.0000000000000000     
  -1.2407508248037422E-002   4.5207288743112063E-002   0.0000000000000000     
  -1.3224265270317722E-002   5.0389375591025874E-002   0.0000000000000000     
  -1.4018508040655187E-002   5.5782364824388364E-002   0.0000000000000000     
  -3.6087873902588934E-006   5.5320143944713962E-002   0.0000000000000000     
  -4.4467292613582961E-006   6.0923721857258729E-002   0.0000000000000000     
  -5.0370146947041660E-006   6.6713066016871769E-002   0.0000000000000000     
  -5.3796436902946870E-006   7.2688176423553116E-002   0.0000000000000000     
  -5.4746162481320547E-006   7.8849053077302736E-002   0.0000000000000000     
  -3.4615940148148092E-003   5.5349588493555715E-002   0.0000000000000000     
  -3.6553541652073812E-003   6.0952215210237137E-002   0.0000000000000000     
  -3.8429833058120609E-003   6.6740502718165437E-002   0.0000000000000000     
  -4.0244814366288502E-003   7.2714451017340656E-002   0.0000000000000000     
  -4.1998485576577463E-003   7.8874060107762781E-002   0.0000000000000000     
  -6.9500722995004807E-003   5.5436440156448705E-002   0.0000000000000000     
  -7.3365730878591599E-003   6.1036684868562105E-002   0.0000000000000000     
  -7.7111735941391094E-003   6.6822510129062748E-002   0.0000000000000000     
  -8.0738738183403335E-003   7.2793915937950635E-002   0.0000000000000000     
  -8.4246737604628270E-003   7.8950902295225805E-002   0.0000000000000000     
  -1.0469043641447273E-002   5.5580698933392916E-002   0.0000000000000000     
  -1.1048103497216697E-002   6.1177130832233653E-002   0.0000000000000000     
  -1.1609607879675850E-002   6.6959088249563717E-002   0.0000000000000000     
  -1.2153556788824743E-002   7.2926571185383079E-002   0.0000000000000000     
  -1.2679950224663372E-002   7.9079579639691783E-002   0.0000000000000000     
  -1.4018508040655187E-002   5.5782364824388364E-002   0.0000000000000000     
  -1.4789945393279987E-002   6.1373553101251768E-002   0.0000000000000000     
  -1.5538286162422284E-002   6.7150237079668301E-002   0.0000000000000000     
  -1.6263530348082086E-002   7.3112416759637963E-002   0.0000000000000000     
  -1.6965677950259384E-002   7.9260092141160768E-002   0.0000000000000000     
  -5.4746162481320547E-006   7.8849053077302736E-002   0.0000000000000000     
  -5.6051023044371637E-006   8.5182781603472049E-002   0.0000000000000000     
  -6.0542717954322096E-006   9.1676447627412450E-002   0.0000000000000000     
  -6.8221247211188189E-006   9.8330051149123965E-002   0.0000000000000000     
  -7.9086610814942809E-006  0.10514359216860654        0.0000000000000000     
  -4.1998485576577463E-003   7.8874060107762781E-002   0.0000000000000000     
  -4.3688616082847810E-003   8.5206561062893024E-002   0.0000000000000000     
  -4.5312975278959848E-003   9.1699184956192642E-002   0.0000000000000000     
  -4.6871563164913562E-003   9.8351931787661620E-002   0.0000000000000000     
  -4.8364379740708976E-003  0.10516480155729999        0.0000000000000000     
  -8.4246737604628270E-003   7.8950902295225805E-002   0.0000000000000000     
  -8.7626740115480887E-003   8.5280662020133929E-002   0.0000000000000000     
  -9.0869751626376158E-003   9.1770387931920855E-002   0.0000000000000000     
  -9.3975772137314117E-003   9.8420080030586513E-002   0.0000000000000000     
  -9.6944801648294714E-003  0.10522973831613099        0.0000000000000000     
  -1.2679950224663372E-002   7.9079579639691783E-002   0.0000000000000000     
  -1.3187042312094359E-002   8.5405084475194779E-002   0.0000000000000000     
  -1.3673087176020327E-002   9.1890056554597060E-002   0.0000000000000000     
  -1.4138084816441280E-002   9.8534495877898629E-002   0.0000000000000000     
  -1.4582035233357217E-002  0.10533840244509950        0.0000000000000000     
  -1.6965677950259384E-002   7.9260092141160768E-002   0.0000000000000000     
  -1.7641966509923588E-002   8.5579828428075572E-002   0.0000000000000000     
  -1.8289633568044118E-002   9.2058190824221314E-002   0.0000000000000000     
  -1.8908679124620967E-002   9.8695179329597982E-002   0.0000000000000000     
  -1.9499103179654136E-002  0.10549079394420557        0.0000000000000000     
  -7.9086610814942809E-006  0.10514359216860654        0.0000000000000000     
  -9.1244743290288567E-006  0.11210404178041067        0.0000000000000000     
  -1.0280157916188362E-005  0.11919837107908682        0.0000000000000000     
  -1.1375711842972878E-005  0.12642658006463492        0.0000000000000000     
  -1.2411136109383245E-005  0.13378866873705506        0.0000000000000000     
  -4.8364379740708976E-003  0.10516480155729999        0.0000000000000000     
  -4.9787337149989541E-003  0.11212413456756769        0.0000000000000000     
  -5.1136347536398750E-003  0.11921627112092470        0.0000000000000000     
  -5.2411410899936605E-003  0.12644121121737104        0.0000000000000000     
  -5.3612527240603077E-003  0.13379895485690671        0.0000000000000000     
  -9.6944801648294714E-003  0.10522973831613099        0.0000000000000000     
  -9.9777351811213139E-003  0.11218562533974349        0.0000000000000000     
  -1.0247393427796460E-002  0.11927400365261348        0.0000000000000000     
  -1.0503454904854909E-002  0.12649487325474085        0.0000000000000000     
  -1.0745919612296663E-002  0.13384823414612565        0.0000000000000000     
  -1.4582035233357217E-002  0.10533840244509950        0.0000000000000000     
  -1.5006128872696116E-002  0.11228851409693814        0.0000000000000000     
  -1.5411556180385951E-002  0.11937156867415312        0.0000000000000000     
  -1.5798317156426728E-002  0.12658756617674438        0.0000000000000000     
  -1.6166411800818438E-002  0.13393650660471190        0.0000000000000000     
  -1.9499103179654136E-002  0.10549079394420557        0.0000000000000000     
  -2.0063914789723351E-002  0.11243280083915161        0.0000000000000000     
  -2.0606123011408337E-002  0.11950896618554362        0.0000000000000000     
  -2.1125727844709105E-002  0.12671928998338156        0.0000000000000000     
  -2.1622729289625647E-002  0.13406377223266547        0.0000000000000000     
  -1.2411136109383245E-005  0.13378866873705506        0.0000000000000000     
  -1.3506892418272028E-005  0.14127372482288672        0.0000000000000000     
  -1.4783442472494934E-005  0.14887083604866946        0.0000000000000000     
  -1.6240786272050581E-005  0.15658000241440331        0.0000000000000000     
  -1.7878923816940298E-005  0.16440122392008821        0.0000000000000000     
  -5.3612527240603077E-003  0.13379895485690671        0.0000000000000000     
  -5.4754734396175184E-003  0.14128406960097958        0.0000000000000000     
  -5.5853070204429887E-003  0.14889112301103760        0.0000000000000000     
  -5.6907534665367188E-003  0.15662011508708074        0.0000000000000000     
  -5.7918127778987076E-003  0.16447104582910893        0.0000000000000000     
  -1.0745919612296663E-002  0.13384823414612565        0.0000000000000000     
  -1.0976139697026481E-002  0.14133092926709831        0.0000000000000000     
  -1.1195467305949140E-002  0.14893980155798919        0.0000000000000000     
  -1.1403902439064643E-002  0.15667485101879824        0.0000000000000000     
  -1.1601445096372981E-002  0.16453607764952563        0.0000000000000000     
  -1.6166411800818438E-002  0.13393650660471190        0.0000000000000000     
  -1.6515505664645158E-002  0.14141430382124281        0.0000000000000000     
  -1.6845264298990952E-002  0.14901687168952421        0.0000000000000000     
  -1.7155687703855824E-002  0.15674421020955601        0.0000000000000000     
  -1.7446775879239765E-002  0.16459631938133829        0.0000000000000000     
  -2.1622729289625647E-002  0.13406377223266547        0.0000000000000000     
  -2.2093571342473552E-002  0.14153419326341324        0.0000000000000000     
  -2.2534697999568420E-002  0.14912233340564274        0.0000000000000000     
  -2.2946109260910258E-002  0.15682819265935391        0.0000000000000000     
  -2.3327805126499054E-002  0.16465177102454689        0.0000000000000000     
   0.0000000000000000        0.0000000000000000        0.0000000000000000     
  -8.4168311203389819E-004   1.1099907080630161E-003   0.0000000000000000     
  -1.7021353196660723E-003   2.5981521034479428E-003   0.0000000000000000     
  -2.5813566228965216E-003   4.4644841861547803E-003   0.0000000000000000     
  -3.4793470217252477E-003   6.7089869561835283E-003   0.0000000000000000     
   0.0000000000000000        0.0000000000000000        0.0000000000000000     
  -1.0567169897365300E-003   1.1341479580385862E-003   0.0000000000000000     
  -2.1397852168146946E-003   2.6503901148754385E-003   0.0000000000000000     
  -3.2492046812344936E-003   4.5487264705105579E-003   0.0000000000000000     
  -4.3849753829959268E-003   6.8291570249439434E-003   0.0000000000000000     
   0.0000000000000000        0.0000000000000000        0.0000000000000000     
  -1.2878357284189907E-003   1.1700119073750803E-003   0.0000000000000000     
  -2.6055365731277370E-003   2.7246429890629463E-003   0.0000000000000000     
  -3.9531025341262380E-003   4.6638932450635967E-003   0.0000000000000000     
  -5.3305336114144938E-003   6.9877626753770327E-003   0.0000000000000000     
   0.0000000000000000        0.0000000000000000        0.0000000000000000     
  -1.5350393280812807E-003   1.2175825560724989E-003   0.0000000000000000     
  -3.0993893886051989E-003   2.8209107260104647E-003   0.0000000000000000     
  -4.6930501815717566E-003   4.8099845098138975E-003   0.0000000000000000     
  -6.3160217069809501E-003   7.1848039074827955E-003   0.0000000000000000     
   0.0000000000000000        0.0000000000000000        0.0000000000000000     
  -1.7983277887233990E-003   1.2768599041308416E-003   0.0000000000000000     
  -3.6213436632470813E-003   2.9391933257179943E-003   0.0000000000000000     
  -5.4690476235710467E-003   4.9870002647614594E-003   0.0000000000000000     
  -7.3414396696952931E-003   7.4202807212612352E-003   0.0000000000000000     
  -3.4793470217252477E-003   6.7089869561835283E-003   0.0000000000000000     
  -4.3878710134118964E-003   9.2943139697708784E-003   0.0000000000000000     
  -5.2986930952161164E-003   1.2183118783153526E-002   0.0000000000000000     
  -6.2118132671379065E-003   1.5375401396331465E-002   0.0000000000000000     
  -7.1272315291772692E-003   1.8871161809304701E-002   0.0000000000000000     
  -4.3849753829959268E-003   6.8291570249439434E-003   0.0000000000000000     
  -5.5341346852886223E-003   9.4496649096489915E-003   0.0000000000000000     
  -6.6837199513022083E-003   1.2368233256099100E-002   0.0000000000000000     
  -7.8337311810366857E-003   1.5584862064294264E-002   0.0000000000000000     
  -8.9841683744920509E-003   1.9099551334234490E-002   0.0000000000000000     
  -5.3305336114144938E-003   6.9877626753770327E-003   0.0000000000000000     
  -6.7233852594805622E-003   9.6501700996453731E-003   0.0000000000000000     
  -8.1172129328124995E-003   1.2605034337510737E-002   0.0000000000000000     
  -9.5120166314103059E-003   1.5852355388973123E-002   0.0000000000000000     
  -1.0907796355273979E-002   1.9392133254032537E-002   0.0000000000000000     
  -6.3160217069809501E-003   7.1848039074827955E-003   0.0000000000000000     
  -7.9556227359877194E-003   9.8958295397600250E-003   0.0000000000000000     
  -9.5991720397469883E-003   1.2893522027388443E-002   0.0000000000000000     
  -1.1246669618258768E-002   1.6177881370368054E-002   0.0000000000000000     
  -1.2898115471523055E-002   1.9748907568698851E-002   0.0000000000000000     
  -7.3414396696952931E-003   7.4202807212612352E-003   0.0000000000000000     
  -9.2308471148100854E-003   1.0186643229992945E-002   0.0000000000000000     
  -1.1129597272105678E-002   1.3233696325732215E-002   0.0000000000000000     
  -1.3037690141582075E-002   1.6561440008479044E-002   0.0000000000000000     
  -1.4955125723239274E-002   2.0169874278233427E-002   0.0000000000000000     
  -7.1272315291772692E-003   1.8871161809304701E-002   0.0000000000000000     
  -8.0383582544053221E-003   2.2644577568603233E-002   0.0000000000000000     
  -8.9386038158931827E-003   2.6669826220757052E-002   0.0000000000000000     
  -9.8279682136408510E-003   3.0946907765766165E-002   0.0000000000000000     
  -1.0706451447648325E-002   3.5475822203630568E-002   0.0000000000000000     
  -8.9841683744920509E-003   1.9099551334234490E-002   0.0000000000000000     
  -1.0127985312864175E-002   2.2887522503927893E-002   0.0000000000000000     
  -1.1258135777348922E-002   2.6923997011382619E-002   0.0000000000000000     
  -1.2374619767946297E-002   3.1208974856598647E-002   0.0000000000000000     
  -1.3477437284656293E-002   3.5742456039575994E-002   0.0000000000000000     
  -1.0907796355273979E-002   1.9392133254032537E-002   0.0000000000000000     
  -1.2294229825415953E-002   2.3199468388105892E-002   0.0000000000000000     
  -1.3660994762848667E-002   2.7249461246610106E-002   0.0000000000000000     
  -1.5008091167572114E-002   3.1542111829545201E-002   0.0000000000000000     
  -1.6335519039586292E-002   3.6077420136911141E-002   0.0000000000000000     
  -1.2898115471523055E-002   1.9748907568698851E-002   0.0000000000000000     
  -1.4537091792060662E-002   2.3580415221137217E-002   0.0000000000000000     
  -1.6147180772392411E-002   2.7646218926439536E-002   0.0000000000000000     
  -1.7728382412518298E-002   3.1946318684605797E-002   0.0000000000000000     
  -1.9280696712438324E-002   3.6480714495636023E-002   0.0000000000000000     
  -1.4955125723239274E-002   2.0169874278233427E-002   0.0000000000000000     
  -1.6856571212798294E-002   2.4030363003021873E-002   0.0000000000000000     
  -1.8716693805980154E-002   2.8114270050870888E-002   0.0000000000000000     
  -2.0535493502784854E-002   3.2421595421780469E-002   0.0000000000000000     
  -2.2312970303212387E-002   3.6952339115750632E-002   0.0000000000000000     
  -1.0706451447648325E-002   3.5475822203630568E-002   0.0000000000000000     
  -1.1568236973814290E-002   4.0236104280646973E-002   0.0000000000000000     
  -1.2407508248037422E-002   4.5207288743112063E-002   0.0000000000000000     
  -1.3224265270317722E-002   5.0389375591025874E-002   0.0000000000000000     
  -1.4018508040655187E-002   5.5782364824388364E-002   0.0000000000000000     
  -1.3477437284656293E-002   3.5742456039575994E-002   0.0000000000000000     
  -1.4558721992577682E-002   4.0504481631948759E-002   0.0000000000000000     
  -1.5610607556809219E-002   4.5475092705351092E-002   0.0000000000000000     
  -1.6633093977350910E-002   5.0654289259782950E-002   0.0000000000000000     
  -1.7626181254202754E-002   5.6042071295244356E-002   0.0000000000000000     
  -1.6335519039586292E-002   3.6077420136911141E-002   0.0000000000000000     
  -1.7635230493804843E-002   4.0837587493775869E-002   0.0000000000000000     
  -1.8899177645141391E-002   4.5804815225207289E-002   0.0000000000000000     
  -2.0127360493595949E-002   5.0979103331205401E-002   0.0000000000000000     
  -2.1319779039168506E-002   5.6360451811770212E-002   0.0000000000000000     
  -1.9280696712438324E-002   3.6480714495636023E-002   0.0000000000000000     
  -2.0797762477495780E-002   4.1235421866128275E-002   0.0000000000000000     
  -2.2273218513033950E-002   4.6196456302680683E-002   0.0000000000000000     
  -2.3707064819052836E-002   5.1363817805293241E-002   0.0000000000000000     
  -2.5099301395552439E-002   5.6737506373965928E-002   0.0000000000000000     
  -2.2312970303212387E-002   3.6952339115750632E-002   0.0000000000000000     
  -2.4046317943650492E-002   4.1697984749006003E-002   0.0000000000000000     
  -2.5732730160486883E-002   4.6650015937771280E-002   0.0000000000000000     
  -2.7372206953721577E-002   5.1808432682046449E-002   0.0000000000000000     
  -2.8964748323354557E-002   5.7173234981831508E-002   0.0000000000000000     
  -1.4018508040655187E-002   5.5782364824388364E-002   0.0000000000000000     
  -1.4789945393279987E-002   6.1373553101251768E-002   0.0000000000000000     
  -1.5538286162422284E-002   6.7150237079668301E-002   0.0000000000000000     
  -1.6263530348082086E-002   7.3112416759637963E-002   0.0000000000000000     
  -1.6965677950259384E-002   7.9260092141160768E-002   0.0000000000000000     
  -1.7626181254202754E-002   5.6042071295244356E-002   0.0000000000000000     
  -1.8590183428022850E-002   6.1626758125611414E-002   0.0000000000000000     
  -1.9525414539469283E-002   6.7396669064760203E-002   0.0000000000000000     
  -2.0431874588542068E-002   7.3351804112690724E-002   0.0000000000000000     
  -2.1309563575241195E-002   7.9492163269403004E-002   0.0000000000000000     
  -2.1319779039168506E-002   5.6360451811770212E-002   0.0000000000000000     
  -2.2476902253419088E-002   6.1937552355307499E-002   0.0000000000000000     
  -2.3599199107907722E-002   6.7699096650223028E-002   0.0000000000000000     
  -2.4686669602634402E-002   7.3645084696516802E-002   0.0000000000000000     
  -2.5739313737599141E-002   7.9775516494188847E-002   0.0000000000000000     
  -2.5099301395552439E-002   5.6737506373965928E-002   0.0000000000000000     
  -2.6450101869468709E-002   6.2305935790340022E-002   0.0000000000000000     
  -2.7759639867737596E-002   6.8057519836056762E-002   0.0000000000000000     
  -2.9027915390359101E-002   7.3992258511116182E-002   0.0000000000000000     
  -3.0254928437333219E-002   8.0110151815518255E-002   0.0000000000000000     
  -2.8964748323354557E-002   5.7173234981831508E-002   0.0000000000000000     
  -3.0509782276171710E-002   6.2731908430708985E-002   0.0000000000000000     
  -3.2006736818958902E-002   6.8471938622261447E-002   0.0000000000000000     
  -3.3455611951716147E-002   7.4393325556488851E-002   0.0000000000000000     
  -3.4856407674443438E-002   8.0496069233391240E-002   0.0000000000000000     
  -1.6965677950259384E-002   7.9260092141160768E-002   0.0000000000000000     
  -1.7641966509923588E-002   8.5579828428075572E-002   0.0000000000000000     
  -1.8289633568044118E-002   9.2058190824221314E-002   0.0000000000000000     
  -1.8908679124620967E-002   9.8695179329597982E-002   0.0000000000000000     
  -1.9499103179654136E-002  0.10549079394420557        0.0000000000000000     
  -2.1309563575241195E-002   7.9492163269403004E-002   0.0000000000000000     
  -2.2154857743508755E-002   8.5804034604915355E-002   0.0000000000000000     
  -2.2964133337286842E-002   9.2273706189246116E-002   0.0000000000000000     
  -2.3737390356575457E-002   9.8901178022395259E-002   0.0000000000000000     
  -2.4474628801374590E-002  0.10568645010436280        0.0000000000000000     
  -2.5739313737599141E-002   7.9775516494188847E-002   0.0000000000000000     
  -2.6753127151322824E-002   8.6076843731853217E-002   0.0000000000000000     
  -2.7724105482326351E-002   9.2535518098123978E-002   0.0000000000000000     
  -2.8652248730609727E-002   9.9151539593001173E-002   0.0000000000000000     
  -2.9537556896172951E-002  0.10592490821648479        0.0000000000000000     
  -3.0254928437333219E-002   8.0110151815518255E-002   0.0000000000000000     
  -3.1436774733365792E-002   8.6398255808889143E-002   0.0000000000000000     
  -3.2569550003162646E-002   9.2843626550854957E-002   0.0000000000000000     
  -3.3653254246723795E-002   9.9446264041415752E-002   0.0000000000000000     
  -3.4687887464049223E-002  0.10620616828057149        0.0000000000000000     
  -3.4856407674443438E-002   8.0496069233391240E-002   0.0000000000000000     
  -3.6205800489637667E-002   8.6768270836023120E-002   0.0000000000000000     
  -3.7500466899795734E-002   9.3198031547439053E-002   0.0000000000000000     
  -3.8740406904917646E-002   9.9785351367638983E-002   0.0000000000000000     
  -3.9925620505003388E-002  0.10653023029662297        0.0000000000000000     
  -1.9499103179654136E-002  0.10549079394420557        0.0000000000000000     
  -2.0063914789723351E-002  0.11243280083915161        0.0000000000000000     
  -2.0606123011408337E-002  0.11950896618554362        0.0000000000000000     
  -2.1125727844709105E-002  0.12671928998338156        0.0000000000000000     
  -2.1622729289625647E-002  0.13406377223266547        0.0000000000000000     
  -2.4474628801374590E-002  0.10568645010436280        0.0000000000000000     
  -2.5180644983258210E-002  0.11261838287400010        0.0000000000000000     
  -2.5860235213800282E-002  0.11968583677015845        0.0000000000000000     
  -2.6513399493000800E-002  0.12688881179283795        0.0000000000000000     
  -2.7140137820859764E-002  0.13422730794203849        0.0000000000000000     
  -2.9537556896172951E-002  0.10592490821648479        0.0000000000000000     
  -3.0385871504355892E-002  0.11284515750909975        0.0000000000000000     
  -3.1203034080498425E-002  0.11990182101137113        0.0000000000000000     
  -3.1989044624600567E-002  0.12709489872329890        0.0000000000000000     
  -3.2743903136662290E-002  0.13442439064488310        0.0000000000000000     
  -3.4687887464049223E-002  0.10620616828057149        0.0000000000000000     
  -3.5679594353016396E-002  0.11311312474445064        0.0000000000000000     
  -3.6634519611502790E-002  0.12015691890918166        0.0000000000000000     
  -3.7552663239508385E-002  0.12733755077476455        0.0000000000000000     
  -3.8434025237033209E-002  0.13465502034119931        0.0000000000000000     
  -3.9925620505003388E-002  0.10653023029662297        0.0000000000000000     
  -4.1061813529239710E-002  0.11342228458005274        0.0000000000000000     
  -4.2154691806813339E-002  0.12045113046359002        0.0000000000000000     
  -4.3204255337724283E-002  0.12761676794723481        0.0000000000000000     
  -4.4210504121972534E-002  0.13491919703098712        0.0000000000000000     
  -2.1622729289625647E-002  0.13406377223266547        0.0000000000000000     
  -2.2093571342473552E-002  0.14153419326341324        0.0000000000000000     
  -2.2534697999568420E-002  0.14912233340564274        0.0000000000000000     
  -2.2946109260910258E-002  0.15682819265935391        0.0000000000000000     
  -2.3327805126499054E-002  0.16465177102454689        0.0000000000000000     
  -2.7140137820859764E-002  0.13422730794203849        0.0000000000000000     
  -2.7733540556004445E-002  0.14168833301311093        0.0000000000000000     
  -2.8286698057062104E-002  0.14925889480140614        0.0000000000000000     
  -2.8799610324032745E-002  0.15693899330692410        0.0000000000000000     
  -2.9272277356916364E-002  0.16472862852966477        0.0000000000000000     
  -3.2743903136662290E-002  0.13442439064488310        0.0000000000000000     
  -3.3458617130730610E-002  0.14187445848983748        0.0000000000000000     
  -3.4124194120852540E-002  0.14942926397187600        0.0000000000000000     
  -3.4740634107028066E-002  0.15708880709099851        0.0000000000000000     
  -3.5307937089257203E-002  0.16485308784720515        0.0000000000000000     
  -3.8434025237033209E-002  0.13465502034119931        0.0000000000000000     
  -3.9268801066652058E-002  0.14209256969359291        0.0000000000000000     
  -4.0047186190939735E-002  0.14963344091705216        0.0000000000000000     
  -4.0769180609896240E-002  0.15727763401157727        0.0000000000000000     
  -4.1434784323521587E-002  0.16502514897716805        0.0000000000000000     
  -4.4210504121972534E-002  0.13491919703098712        0.0000000000000000     
  -4.5164092363768775E-002  0.14234266662437706        0.0000000000000000     
  -4.6055674267323682E-002  0.14987142563693479        0.0000000000000000     
  -4.6885249832637255E-002  0.15750547406866025        0.0000000000000000     
  -4.7652819059709500E-002  0.16524481191955348        0.0000000000000000     
   0.0000000000000000        0.0000000000000000        0.0000000000000000     
  -1.7983277887233990E-003   1.2768599041308416E-003   0.0000000000000000     
  -3.6213436632470813E-003   2.9391933257179943E-003   0.0000000000000000     
  -5.4690476235710467E-003   4.9870002647614594E-003   0.0000000000000000     
  -7.3414396696952931E-003   7.4202807212612352E-003   0.0000000000000000     
   0.0000000000000000        0.0000000000000000        0.0000000000000000     
  -2.0694362916736722E-003   1.3549561404028658E-003   0.0000000000000000     
  -4.1640564167469644E-003   3.0940014336661267E-003   0.0000000000000000     
  -6.2838603752198765E-003   5.2171358797897830E-003   0.0000000000000000     
  -8.4288481670924086E-003   7.7243594787738340E-003   0.0000000000000000     
   0.0000000000000000        0.0000000000000000        0.0000000000000000     
  -2.3401000182604265E-003   1.4589834537413289E-003   0.0000000000000000     
  -4.7201846687984330E-003   3.2998456953354516E-003   0.0000000000000000     
  -7.1402539516140142E-003   5.5225867247823690E-003   0.0000000000000000     
  -9.6003078667071771E-003   8.1272065420820820E-003   0.0000000000000000     
   0.0000000000000000        0.0000000000000000        0.0000000000000000     
  -2.6103189684836612E-003   1.5889418441462310E-003   0.0000000000000000     
  -5.2897284194014819E-003   3.5567261107259706E-003   0.0000000000000000     
  -8.0382283527534598E-003   5.9033527997392182E-003   0.0000000000000000     
  -1.0855818768539600E-002   8.6288219111859740E-003   0.0000000000000000     
   0.0000000000000000        0.0000000000000000        0.0000000000000000     
  -2.8800931423433773E-003   1.7448313116175719E-003   0.0000000000000000     
  -5.8726876685561147E-003   3.8646426798376815E-003   0.0000000000000000     
  -8.9777835786382133E-003   6.3594341046603296E-003   0.0000000000000000     
  -1.2195380872589671E-002   9.2292055860855159E-003   0.0000000000000000     
  -7.3414396696952931E-003   7.4202807212612352E-003   0.0000000000000000     
  -9.2308471148100854E-003   1.0186643229992945E-002   0.0000000000000000     
  -1.1129597272105678E-002   1.3233696325732215E-002   0.0000000000000000     
  -1.3037690141582075E-002   1.6561440008479044E-002   0.0000000000000000     
  -1.4955125723239274E-002   2.0169874278233427E-002   0.0000000000000000     
  -8.4288481670924086E-003   7.7243594787738340E-003   0.0000000000000000     
  -1.0590691937944437E-002   1.0558261264157209E-002   0.0000000000000000     
  -1.2761063833355839E-002   1.3661430269478830E-002   0.0000000000000000     
  -1.4939963853326608E-002   1.7033866494738700E-002   0.0000000000000000     
  -1.7127391997856754E-002   2.0675569939936821E-002   0.0000000000000000     
  -9.6003078667071771E-003   8.1272065420820820E-003   0.0000000000000000     
  -1.2076790747387541E-002   1.1046333736065882E-002   0.0000000000000000     
  -1.4546146926964739E-002   1.4212596895565068E-002   0.0000000000000000     
  -1.7008376405438761E-002   1.7625996020579637E-002   0.0000000000000000     
  -1.9463479182809613E-002   2.1286531111109591E-002   0.0000000000000000     
  -1.0855818768539600E-002   8.6288219111859740E-003   0.0000000000000000     
  -1.3689143543139401E-002   1.1650860645718970E-002   0.0000000000000000     
  -1.6484846552932374E-002   1.4887196203990927E-002   0.0000000000000000     
  -1.9242927797918523E-002   1.8337828586001848E-002   0.0000000000000000     
  -2.1963387278097841E-002   2.2002757791751735E-002   0.0000000000000000     
  -1.2195380872589671E-002   9.2292055860855159E-003   0.0000000000000000     
  -1.5427750325200012E-002   1.2371841993116466E-002   0.0000000000000000     
  -1.8577162711258755E-002   1.5685228194756401E-002   0.0000000000000000     
  -2.1643618030765904E-002   1.9169364191005331E-002   0.0000000000000000     
  -2.4627116283721450E-002   2.2824249981863255E-002   0.0000000000000000     
  -1.4955125723239274E-002   2.0169874278233427E-002   0.0000000000000000     
  -1.6856571212798294E-002   2.4030363003021873E-002   0.0000000000000000     
  -1.8716693805980154E-002   2.8114270050870888E-002   0.0000000000000000     
  -2.0535493502784854E-002   3.2421595421780469E-002   0.0000000000000000     
  -2.2312970303212387E-002   3.6952339115750632E-002   0.0000000000000000     
  -1.7127391997856754E-002   2.0675569939936821E-002   0.0000000000000000     
  -1.9292117456086028E-002   2.4558848090926105E-002   0.0000000000000000     
  -2.1402909417154174E-002   2.8656008433559484E-002   0.0000000000000000     
  -2.3459767881061199E-002   3.2967050967836947E-002   0.0000000000000000     
  -2.5462692847807108E-002   3.7491975693758485E-002   0.0000000000000000     
  -1.9463479182809613E-002   2.1286531111109591E-002   0.0000000000000000     
  -2.1883179890381028E-002   2.5175406842016176E-002   0.0000000000000000     
  -2.4239203159456747E-002   2.9273827888160627E-002   0.0000000000000000     
  -2.6531548990036773E-002   3.3581794249542961E-002   0.0000000000000000     
  -2.8760217382121096E-002   3.8099305926163160E-002   0.0000000000000000     
  -2.1963387278097841E-002   2.2002757791751735E-002   0.0000000000000000     
  -2.4629758515683307E-002   2.5880039256292071E-002   0.0000000000000000     
  -2.7225575032887878E-002   2.9967728414674332E-002   0.0000000000000000     
  -2.9750836829711563E-002   3.4265825266898524E-002   0.0000000000000000     
  -3.2205543906154356E-002   3.8774329812964629E-002   0.0000000000000000     
  -2.4627116283721450E-002   2.2824249981863255E-002   0.0000000000000000     
  -2.7531853331992852E-002   2.6672745333753793E-002   0.0000000000000000     
  -3.0362025037447560E-002   3.0737710013100581E-002   0.0000000000000000     
  -3.3117631400085577E-002   3.5019144019903616E-002   0.0000000000000000     
  -3.5798672419906898E-002   3.9517047354162907E-002   0.0000000000000000     
  -2.2312970303212387E-002   3.6952339115750632E-002   0.0000000000000000     
  -2.4046317943650492E-002   4.1697984749006003E-002   0.0000000000000000     
  -2.5732730160486883E-002   4.6650015937771280E-002   0.0000000000000000     
  -2.7372206953721577E-002   5.1808432682046449E-002   0.0000000000000000     
  -2.8964748323354557E-002   5.7173234981831508E-002   0.0000000000000000     
  -2.5462692847807108E-002   3.7491975693758485E-002   0.0000000000000000     
  -2.7412407246924293E-002   4.2226910704137491E-002   0.0000000000000000     
  -2.9309634007945180E-002   4.7167984091787303E-002   0.0000000000000000     
  -3.1154373130869755E-002   5.2315195856707929E-002   0.0000000000000000     
  -3.2946624615698035E-002   5.7668545998899375E-002   0.0000000000000000     
  -2.8760217382121096E-002   3.8099305926163160E-002   0.0000000000000000     
  -3.0927540741972508E-002   4.2823834293251192E-002   0.0000000000000000     
  -3.3035851475853799E-002   4.7752850726037001E-002   0.0000000000000000     
  -3.5085149583764977E-002   5.2886355224520606E-002   0.0000000000000000     
  -3.7075435065706021E-002   5.8224347788701988E-002   0.0000000000000000     
  -3.2205543906154356E-002   3.8774329812964629E-002   0.0000000000000000     
  -3.4591718428795132E-002   4.3488755516347101E-002   0.0000000000000000     
  -3.6911382564212766E-002   4.8404615840520381E-002   0.0000000000000000     
  -3.9164536312407232E-002   5.3521910785484447E-002   0.0000000000000000     
  -4.1351179673378556E-002   5.8840640351239322E-002   0.0000000000000000     
  -3.5798672419906898E-002   3.9517047354162907E-002   0.0000000000000000     
  -3.8404940307392166E-002   4.4221674373425238E-002   0.0000000000000000     
  -4.0936227273022041E-002   4.9123279435237435E-002   0.0000000000000000     
  -4.3392533316796517E-002   5.4221862539599486E-002   0.0000000000000000     
  -4.5773858438715599E-002   5.9517423686511389E-002   0.0000000000000000     
  -2.8964748323354557E-002   5.7173234981831508E-002   0.0000000000000000     
  -3.0509782276171710E-002   6.2731908430708985E-002   0.0000000000000000     
  -3.2006736818958902E-002   6.8471938622261447E-002   0.0000000000000000     
  -3.3455611951716147E-002   7.4393325556488851E-002   0.0000000000000000     
  -3.4856407674443438E-002   8.0496069233391240E-002   0.0000000000000000     
  -3.2946624615698035E-002   5.7668545998899375E-002   0.0000000000000000     
  -3.4685249565650743E-002   6.3214879379857730E-002   0.0000000000000000     
  -3.6369109083948664E-002   6.8941040861079092E-002   0.0000000000000000     
  -3.7998203170591778E-002   7.4847030442563439E-002   0.0000000000000000     
  -3.9572531825580091E-002   8.0932848124310786E-002   0.0000000000000000     
  -3.7075435065706021E-002   5.8224347788701988E-002   0.0000000000000000     
  -3.9005809830028479E-002   6.3754257741229559E-002   0.0000000000000000     
  -4.0875375785083885E-002   6.9463514404751736E-002   0.0000000000000000     
  -4.2684132930872212E-002   7.5352117779268493E-002   0.0000000000000000     
  -4.4432081267393488E-002   8.1420067864779871E-002   0.0000000000000000     
  -4.1351179673378556E-002   5.8840640351239322E-002   0.0000000000000000     
  -4.3471463069304925E-002   6.4350043514824457E-002   0.0000000000000000     
  -4.5525536922364558E-002   7.0039359253279365E-002   0.0000000000000000     
  -4.7513401232557456E-002   7.5908587566604055E-002   0.0000000000000000     
  -4.9435055999883626E-002   8.1957728454798498E-002   0.0000000000000000     
  -4.5773858438715599E-002   5.9517423686511389E-002   0.0000000000000000     
  -4.8082209283480067E-002   6.5002236700642466E-002   0.0000000000000000     
  -5.0319592495790696E-002   7.0668575406662049E-002   0.0000000000000000     
  -5.2486008075647517E-002   7.6516439804570097E-002   0.0000000000000000     
  -5.4581456023050499E-002   8.2545829894366637E-002   0.0000000000000000     
  -3.4856407674443438E-002   8.0496069233391240E-002   0.0000000000000000     
  -3.6205800489637667E-002   8.6768270836023120E-002   0.0000000000000000     
  -3.7500466899795734E-002   9.3198031547439053E-002   0.0000000000000000     
  -3.8740406904917646E-002   9.9785351367638983E-002   0.0000000000000000     
  -3.9925620505003388E-002  0.10653023029662297        0.0000000000000000     
  -3.9572531825580091E-002   8.0932848124310786E-002   0.0000000000000000     
  -4.1089303654967012E-002   8.7187537958195158E-002   0.0000000000000000     
  -4.2545727264805960E-002   9.3600143996090596E-002   0.0000000000000000     
  -4.3941802655096937E-002  0.10017066623799707        0.0000000000000000     
  -4.5277529825839935E-002  0.10689910468391461        0.0000000000000000     
  -4.4432081267393488E-002   8.1420067864779871E-002   0.0000000000000000     
  -4.6116383464182398E-002   8.7656706320345251E-002   0.0000000000000000     
  -4.7734202190773678E-002   9.4051374805024027E-002   0.0000000000000000     
  -4.9285537447167314E-002  0.10060407331881621        0.0000000000000000     
  -5.0770389233363300E-002  0.10731480186172181        0.0000000000000000     
  -4.9435055999883626E-002   8.1957728454798498E-002   0.0000000000000000     
  -5.1287039917283832E-002   8.8175775922473359E-002   0.0000000000000000     
  -5.3065891677698880E-002   9.4551723974239318E-002   0.0000000000000000     
  -5.4771611281128771E-002  0.10108557261009639        0.0000000000000000     
  -5.6404198727573504E-002  0.10777732183004454        0.0000000000000000     
  -5.4581456023050499E-002   8.2545829894366637E-002   0.0000000000000000     
  -5.6601273014271300E-002   8.8744746764579496E-002   0.0000000000000000     
  -5.8540795725581567E-002   9.5101191503736471E-002   0.0000000000000000     
  -6.0400024156981327E-002  0.10161516411183760        0.0000000000000000     
  -6.2178958308470547E-002  0.10828666458888285        0.0000000000000000     
  -3.9925620505003388E-002  0.10653023029662297        0.0000000000000000     
  -4.1061813529239710E-002  0.11342228458005274        0.0000000000000000     
  -4.2154691806813339E-002  0.12045113046359002        0.0000000000000000     
  -4.3204255337724283E-002  0.12761676794723481        0.0000000000000000     
  -4.4210504121972534E-002  0.13491919703098712        0.0000000000000000     
  -4.5277529825839935E-002  0.10689910468391461        0.0000000000000000     
  -4.6558215430668813E-002  0.11377461533872262        0.0000000000000000     
  -4.7789166123217465E-002  0.12078635420730049        0.0000000000000000     
  -4.8970381903485849E-002  0.12793432128964832        0.0000000000000000     
  -5.0101862771474007E-002  0.13521851658576597        0.0000000000000000     
  -5.0770389233363300E-002  0.10731480186172181        0.0000000000000000     
  -5.2194486454946683E-002  0.11417209534327685        0.0000000000000000     
  -5.3563558017502497E-002  0.12116448867301746        0.0000000000000000     
  -5.4877603921030728E-002  0.12829198185094365        0.0000000000000000     
  -5.6136624165531376E-002  0.13555457487705530        0.0000000000000000     
  -5.6404198727573504E-002  0.10777732183004454        0.0000000000000000     
  -5.7970626602073312E-002  0.11461472459371548        0.0000000000000000     
  -5.9477867489668441E-002  0.12158553386074092        0.0000000000000000     
  -6.0925921390358885E-002  0.12868974963112079        0.0000000000000000     
  -6.2314788304144643E-002  0.13592737190485513        0.0000000000000000     
  -6.2178958308470547E-002  0.10828666458888285        0.0000000000000000     
  -6.3886635872048708E-002  0.11510250309003851        0.0000000000000000     
  -6.5532094539715313E-002  0.12204948977047084        0.0000000000000000     
  -6.7115334311470334E-002  0.12912762463017979        0.0000000000000000     
  -6.8636355187313813E-002  0.13633690766916548        0.0000000000000000     
  -4.4210504121972534E-002  0.13491919703098712        0.0000000000000000     
  -4.5164092363768775E-002  0.14234266662437706        0.0000000000000000     
  -4.6055674267323682E-002  0.14987142563693479        0.0000000000000000     
  -4.6885249832637255E-002  0.15750547406866025        0.0000000000000000     
  -4.7652819059709500E-002  0.16524481191955348        0.0000000000000000     
  -5.0101862771474007E-002  0.13521851658576597        0.0000000000000000     
  -5.1174960099174778E-002  0.14262522083524828        0.0000000000000000     
  -5.2181025258581031E-002  0.15014071477768989        0.0000000000000000     
  -5.3120058249692778E-002  0.15776499841309088        0.0000000000000000     
  -5.3992059072510014E-002  0.16549807174145112        0.0000000000000000     
  -5.6136624165531376E-002  0.13555457487705530        0.0000000000000000     
  -5.7331873349964077E-002  0.14294070387926464        0.0000000000000000     
  -5.8454606073288437E-002  0.15043880498548362        0.0000000000000000     
  -5.9504822335504470E-002  0.15804887819571234        0.0000000000000000     
  -6.0482522136612170E-002  0.16577092350995073        0.0000000000000000     
  -6.2314788304144643E-002  0.13592737190485513        0.0000000000000000     
  -6.3634832116136672E-002  0.14328911575642617        0.0000000000000000     
  -6.4876416711445895E-002  0.15076569626031602        0.0000000000000000     
  -6.6039542090072345E-002  0.15835711341652475        0.0000000000000000     
  -6.7124208252015982E-002  0.16606336722505230        0.0000000000000000     
  -6.8636355187313813E-002  0.13633690766916548        0.0000000000000000     
  -7.0083836397692556E-002  0.14367045646673285        0.0000000000000000     
  -7.1446457173053410E-002  0.15112138860218705        0.0000000000000000     
  -7.2724217513396375E-002  0.15868970407552804        0.0000000000000000     
  -7.3917117418721451E-002  0.16637540288675584        0.0000000000000000     
   0.0000000000000000        0.0000000000000000        0.0000000000000000     
  -2.8800931423433773E-003   1.7448313116175719E-003   0.0000000000000000     
  -5.8726876685561147E-003   3.8646426798376815E-003   0.0000000000000000     
  -8.9777835786382133E-003   6.3594341046603296E-003   0.0000000000000000     
  -1.2195380872589671E-002   9.2292055860855159E-003   0.0000000000000000     
   0.0000000000000000        0.0000000000000000        0.0000000000000000     
  -3.2832519634681139E-003   1.9993318713627277E-003   0.0000000000000000     
  -6.6770247779081183E-003   4.3309303980375363E-003   0.0000000000000000     
  -1.0181318443320014E-002   6.9947955800244250E-003   0.0000000000000000     
  -1.3796132959703802E-002   9.9909274173233965E-003   0.0000000000000000     
   0.0000000000000000        0.0000000000000000        0.0000000000000000     
  -3.9536248554864102E-003   2.4251235385890739E-003   0.0000000000000000     
  -7.9107021091032789E-003   5.0629242606924831E-003   0.0000000000000000     
  -1.1871231760850604E-002   7.9134021663102277E-003   0.0000000000000000     
  -1.5835213810728388E-002   1.0976557255442311E-002   0.0000000000000000     
   0.0000000000000000        0.0000000000000000        0.0000000000000000     
  -4.8912118183982670E-003   3.0222063132966099E-003   0.0000000000000000     
  -9.5737196621415947E-003   6.0606242678025220E-003   0.0000000000000000     
  -1.4047523531229985E-002   9.1152538635177367E-003   0.0000000000000000     
  -1.8312623425663435E-002   1.2186095100442258E-002   0.0000000000000000     
   0.0000000000000000        0.0000000000000000        0.0000000000000000     
  -6.0960128522036840E-003   3.7905801954853362E-003   0.0000000000000000     
  -1.1666077437023069E-002   7.3240304193676548E-003   0.0000000000000000     
  -1.6710193754458154E-002   1.0600350671646955E-002   0.0000000000000000     
  -2.1228361804508940E-002   1.3619540952323237E-002   0.0000000000000000     
  -1.2195380872589671E-002   9.2292055860855159E-003   0.0000000000000000     
  -1.5427750325200012E-002   1.2371841993116466E-002   0.0000000000000000     
  -1.8577162711258755E-002   1.5685228194756401E-002   0.0000000000000000     
  -2.1643618030765904E-002   1.9169364191005331E-002   0.0000000000000000     
  -2.4627116283721450E-002   2.2824249981863255E-002   0.0000000000000000     
  -1.3796132959703802E-002   9.9909274173233965E-003   0.0000000000000000     
  -1.7404408673933988E-002   1.3221281768398124E-002   0.0000000000000000     
  -2.0889085932885083E-002   1.6587814491712292E-002   0.0000000000000000     
  -2.4250164736557080E-002   2.0090525587265887E-002   0.0000000000000000     
  -2.7487645084949996E-002   2.3729415055058923E-002   0.0000000000000000     
  -1.5835213810728388E-002   1.0976557255442311E-002   0.0000000000000000     
  -1.9730916169705941E-002   1.4211183961703696E-002   0.0000000000000000     
  -2.3486606748752567E-002   1.7576076718709362E-002   0.0000000000000000     
  -2.7102285547868268E-002   2.1071235526459307E-002   0.0000000000000000     
  -3.0577952567053049E-002   2.4696660384953526E-002   0.0000000000000000     
  -1.8312623425663435E-002   1.2186095100442258E-002   0.0000000000000000     
  -2.2407272812515866E-002   1.5341548573033182E-002   0.0000000000000000     
  -2.6369725158861209E-002   1.8650014875747627E-002   0.0000000000000000     
  -3.0199980464699457E-002   2.2111494008585583E-002   0.0000000000000000     
  -3.3898038730030611E-002   2.5725985971547054E-002   0.0000000000000000     
  -2.1228361804508940E-002   1.3619540952323237E-002   0.0000000000000000     
  -2.5433478602363772E-002   1.6612375602386584E-002   0.0000000000000000     
  -2.9538441163211006E-002   1.9809628962827081E-002   0.0000000000000000     
  -3.3543249487050640E-002   2.3211301033644726E-002   0.0000000000000000     
  -3.7447903573882675E-002   2.6817391814839518E-002   0.0000000000000000     
  -2.4627116283721450E-002   2.2824249981863255E-002   0.0000000000000000     
  -2.7531853331992852E-002   2.6672745333753793E-002   0.0000000000000000     
  -3.0362025037447560E-002   3.0737710013100581E-002   0.0000000000000000     
  -3.3117631400085577E-002   3.5019144019903616E-002   0.0000000000000000     
  -3.5798672419906898E-002   3.9517047354162907E-002   0.0000000000000000     
  -2.7487645084949996E-002   2.3729415055058923E-002   0.0000000000000000     
  -3.0624544020951942E-002   2.7547186226191307E-002   0.0000000000000000     
  -3.3683878587451040E-002   3.1586542431762926E-002   0.0000000000000000     
  -3.6665648784447301E-002   3.5847483671773803E-002   0.0000000000000000     
  -3.9569854611940729E-002   4.0330009946223919E-002   0.0000000000000000     
  -3.0577952567053049E-002   2.4696660384953526E-002   0.0000000000000000     
  -3.3942910264202840E-002   2.8497023085394556E-002   0.0000000000000000     
  -3.7226461097213573E-002   3.2516995418984909E-002   0.0000000000000000     
  -4.0428605066085255E-002   3.6756577385724604E-002   0.0000000000000000     
  -4.3549342170817885E-002   4.1215768985613632E-002   0.0000000000000000     
  -3.3898038730030611E-002   2.5725985971547054E-002   0.0000000000000000     
  -3.7486952061745550E-002   2.9522255911363541E-002   0.0000000000000000     
  -4.0989772566735153E-002   3.3529068974766534E-002   0.0000000000000000     
  -4.4406500244999432E-002   3.7746425161756025E-002   0.0000000000000000     
  -4.7737135096538368E-002   4.2174324472332013E-002   0.0000000000000000     
  -3.7447903573882675E-002   2.6817391814839518E-002   0.0000000000000000     
  -4.1256669413580069E-002   3.0622884704098265E-002   0.0000000000000000     
  -4.4973812996015786E-002   3.4622763099107785E-002   0.0000000000000000     
  -4.8599334321189819E-002   3.8817026999868054E-002   0.0000000000000000     
  -5.2133233389102175E-002   4.3205676406379095E-002   0.0000000000000000     
  -3.5798672419906898E-002   3.9517047354162907E-002   0.0000000000000000     
  -3.8404940307392166E-002   4.4221674373425238E-002   0.0000000000000000     
  -4.0936227273022041E-002   4.9123279435237435E-002   0.0000000000000000     
  -4.3392533316796517E-002   5.4221862539599486E-002   0.0000000000000000     
  -4.5773858438715599E-002   5.9517423686511389E-002   0.0000000000000000     
  -3.9569854611940729E-002   4.0330009946223919E-002   0.0000000000000000     
  -4.2393749415940665E-002   4.5020141372865682E-002   0.0000000000000000     
  -4.5134586542456501E-002   4.9903898069451502E-002   0.0000000000000000     
  -4.7792365991488207E-002   5.4981280035981364E-002   0.0000000000000000     
  -5.0367087763035813E-002   6.0252287272455254E-002   0.0000000000000000     
  -4.3549342170817885E-002   4.1215768985613632E-002   0.0000000000000000     
  -4.6584688792617707E-002   4.5881707023048543E-002   0.0000000000000000     
  -4.9530661312690967E-002   5.0741528302425905E-002   0.0000000000000000     
  -5.2387259731037673E-002   5.5795232823745718E-002   0.0000000000000000     
  -5.5154484047657826E-002   6.1042820587007995E-002   0.0000000000000000     
  -4.7737135096538368E-002   4.2174324472332013E-002   0.0000000000000000     
  -5.0977758437423276E-002   4.6806371323973799E-002   0.0000000000000000     
  -5.4124451583725454E-002   5.1636170134160650E-002   0.0000000000000000     
  -5.7177214535444922E-002   5.6663720902892581E-002   0.0000000000000000     
  -6.0136047292581644E-002   6.1889023630169550E-002   0.0000000000000000     
  -5.2133233389102175E-002   4.3205676406379095E-002   0.0000000000000000     
  -5.5572958350357381E-002   4.7794134275641470E-002   0.0000000000000000     
  -5.8915957355559961E-002   5.2587823564655738E-002   0.0000000000000000     
  -6.2162230404709924E-002   5.7586744273421919E-002   0.0000000000000000     
  -6.5311777497807255E-002   6.2790896401939994E-002   0.0000000000000000     
  -4.5773858438715599E-002   5.9517423686511389E-002   0.0000000000000000     
  -4.8082209283480067E-002   6.5002236700642466E-002   0.0000000000000000     
  -5.0319592495790696E-002   7.0668575406662049E-002   0.0000000000000000     
  -5.2486008075647517E-002   7.6516439804570097E-002   0.0000000000000000     
  -5.4581456023050499E-002   8.2545829894366637E-002   0.0000000000000000     
  -5.0367087763035813E-002   6.0252287272455254E-002   0.0000000000000000     
  -5.2862527455547516E-002   6.5711482367460675E-002   0.0000000000000000     
  -5.5282460667471583E-002   7.1353427909585029E-002   0.0000000000000000     
  -5.7626887398807981E-002   7.7178123898828319E-002   0.0000000000000000     
  -5.9895807649556730E-002   8.3185570335190570E-002   0.0000000000000000     
  -5.5154484047657826E-002   6.1042820587007995E-002   0.0000000000000000     
  -5.7836896568500919E-002   6.6478425584056144E-002   0.0000000000000000     
  -6.0439059599516474E-002   7.2096181806733606E-002   0.0000000000000000     
  -6.2960973140704479E-002   7.7896089255040393E-002   0.0000000000000000     
  -6.5402637192064947E-002   8.3878147928976507E-002   0.0000000000000000     
  -6.0136047292581644E-002   6.1889023630169550E-002   0.0000000000000000     
  -6.3005316622340254E-002   6.7303066350428875E-002   0.0000000000000000     
  -6.5789389291925390E-002   7.2896837098107820E-002   0.0000000000000000     
  -6.8488265301337004E-002   7.8670335873206348E-002   0.0000000000000000     
  -7.1101944650575150E-002   8.4623562675724476E-002   0.0000000000000000     
  -6.5311777497807255E-002   6.2790896401939994E-002   0.0000000000000000     
  -6.8367787617065537E-002   6.8185404666578908E-002   0.0000000000000000     
  -7.1333449744698296E-002   7.3755393783707629E-002   0.0000000000000000     
  -7.4208763880705575E-002   7.9500863753326143E-002   0.0000000000000000     
  -7.6993730025087331E-002   8.5421814575434435E-002   0.0000000000000000     
  -5.4581456023050499E-002   8.2545829894366637E-002   0.0000000000000000     
  -5.6601273014271300E-002   8.8744746764579496E-002   0.0000000000000000     
  -5.8540795725581567E-002   9.5101191503736471E-002   0.0000000000000000     
  -6.0400024156981327E-002  0.10161516411183760        0.0000000000000000     
  -6.2178958308470547E-002  0.10828666458888285        0.0000000000000000     
  -5.9895807649556730E-002   8.3185570335190570E-002   0.0000000000000000     
  -6.2083273148002424E-002   8.9363004165323057E-002   0.0000000000000000     
  -6.4183335622429685E-002   9.5697662335877065E-002   0.0000000000000000     
  -6.6195995072838479E-002  0.10218954484685258        0.0000000000000000     
  -6.8121251499228819E-002  0.10883865169824961        0.0000000000000000     
  -6.5402637192064947E-002   8.3878147928976507E-002   0.0000000000000000     
  -6.7757230711334840E-002   9.0029933443363436E-002   0.0000000000000000     
  -7.0017932656251086E-002   9.6339021413022599E-002   0.0000000000000000     
  -7.2184743026813755E-002  0.10280541183795402        0.0000000000000000     
  -7.4257661823022764E-002  0.10942910471815774        0.0000000000000000     
  -7.1101944650575150E-002   8.4623562675724476E-002   0.0000000000000000     
  -7.3623145704268519E-002   9.0745534598700592E-002   0.0000000000000000     
  -7.6044586827045874E-002   9.7025268735173087E-002   0.0000000000000000     
  -7.8366268018907143E-002  0.10346276508514198        0.0000000000000000     
  -8.0588189279852368E-002  0.11005802364860721        0.0000000000000000     
  -7.6993730025087331E-002   8.5421814575434435E-002   0.0000000000000000     
  -7.9681018126803504E-002   9.1509807631334567E-002   0.0000000000000000     
  -8.2263298134813923E-002   9.7756404302328556E-002   0.0000000000000000     
  -8.4740570049118655E-002  0.10416160458841638        0.0000000000000000     
  -8.7112833869717660E-002  0.11072540848959805        0.0000000000000000     
  -6.2178958308470547E-002  0.10828666458888285        0.0000000000000000     
  -6.3886635872048708E-002  0.11510250309003851        0.0000000000000000     
  -6.5532094539715313E-002  0.12204948977047084        0.0000000000000000     
  -6.7115334311470334E-002  0.12912762463017979        0.0000000000000000     
  -6.8636355187313813E-002  0.13633690766916548        0.0000000000000000     
  -6.8121251499228819E-002  0.10883865169824961        0.0000000000000000     
  -6.9970111210032271E-002  0.11563132636217069        0.0000000000000000     
  -7.1753580513680387E-002  0.12255391231071834        0.0000000000000000     
  -7.3471659410173154E-002  0.12960640954389255        0.0000000000000000     
  -7.5124347899510571E-002  0.13678881806169332        0.0000000000000000     
  -7.4257661823022764E-002  0.10942910471815774        0.0000000000000000     
  -7.6248649561183421E-002  0.11619708994003687        0.0000000000000000     
  -7.8169666757600953E-002  0.12309635738999457        0.0000000000000000     
  -8.0020713412275346E-002  0.13012690706803087        0.0000000000000000     
  -8.1801789525206614E-002  0.13728873897414573        0.0000000000000000     
  -8.0588189279852368E-002  0.11005802364860721        0.0000000000000000     
  -8.2722250925502158E-002  0.11679979382363702        0.0000000000000000     
  -8.4780353271476983E-002  0.12367682500829956        0.0000000000000000     
  -8.6762496317776924E-002  0.13068911720259477        0.0000000000000000     
  -8.8668680064401942E-002  0.13783667040652273        0.0000000000000000     
  -8.7112833869717660E-002  0.11072540848959805        0.0000000000000000     
  -8.9390915302988441E-002  0.11743943801297115        0.0000000000000000     
  -9.1585640055308531E-002  0.12429531516563323        0.0000000000000000     
  -9.3697008126677889E-002  0.13129303994758426        0.0000000000000000     
  -9.5725019517096555E-002  0.13843261235882426        0.0000000000000000     
  -6.8636355187313813E-002  0.13633690766916548        0.0000000000000000     
  -7.0083836397692556E-002  0.14367045646673285        0.0000000000000000     
  -7.1446457173053410E-002  0.15112138860218705        0.0000000000000000     
  -7.2724217513396375E-002  0.15868970407552804        0.0000000000000000     
  -7.3917117418721451E-002  0.16637540288675584        0.0000000000000000     
  -7.5124347899510571E-002  0.13678881806169332        0.0000000000000000     
  -7.6698756467099088E-002  0.14409482342914115        0.0000000000000000     
  -7.8181995598345114E-002  0.15151811121125663        0.0000000000000000     
  -7.9574065293248647E-002  0.15905868140803964        0.0000000000000000     
  -8.0874965551809730E-002  0.16671653401949033        0.0000000000000000     
  -8.1801789525206614E-002  0.13728873897414573        0.0000000000000000     
  -8.3499462596823601E-002  0.14457231406260757        0.0000000000000000     
  -8.5100300127555151E-002  0.15196809328768468        0.0000000000000000     
  -8.6604302117401291E-002  0.15947607664937707        0.0000000000000000     
  -8.8011468566361981E-002  0.16709626414768483        0.0000000000000000     
  -8.8668680064401942E-002  0.13783667040652273        0.0000000000000000     
  -9.0485954786866135E-002  0.14510292836713198        0.0000000000000000     
  -9.2201370760683563E-002  0.15247133483147116        0.0000000000000000     
  -9.3814927985854252E-002  0.15994188979954030        0.0000000000000000     
  -9.5326626462378175E-002  0.16751459327133933        0.0000000000000000     
  -9.5725019517096555E-002  0.13843261235882426        0.0000000000000000     
  -9.7658233037226649E-002  0.14568666634271449        0.0000000000000000     
  -9.9485207497730321E-002  0.15302783584261617        0.0000000000000000     
 -0.10120594289860754       0.16045612085852926        0.0000000000000000     
 -0.10282043923985834       0.16797152139045385        0.0000000000000000     
 </DataArray>
 <DataArray  type="Float64" Name="stress" NumberOfComponents="3" format="ascii">
   13416331216.366163        4024899364.9098487        2894048757.7658329     
   11766265140.057564        1890274353.7108316        1715909970.8669817     
   10313518599.237240        413381127.47272730        810785416.75788260     
   9058091593.9051914       -405780313.80446434        178675095.43853545     
   7999984124.0614128       -567209970.12074614       -180420993.09105933     
   10539918181.449709        3161975454.4349127        2225756883.5900397     
   9667469314.0658245        1589479390.8421266        1446750532.5154083     
   8943690683.0816250        512550781.91494942        863174967.60706067     
   8368582288.4971046       -68810372.346618652        475030188.86499429     
   7942144130.3122702       -154604071.94257784        282316196.28921205     
   8338067409.9655781        2501420222.9896736        1712322146.0347002     
   8021568761.1536398        1424553009.8972881        1275690715.1809332     
   7805091049.6527929        681088921.17520833        956906623.86997950     
   7688634275.4630394        271027956.82343340        755969872.10183942     
   7672198438.5843744        194370116.84196377        672880459.87651229     
   6810778901.9137735        2043233670.5741320        1353744545.0998144     
   6828563481.3210115        1395495210.8763165        1202730518.8635557     
   6897719698.9507494        918995545.25350261        1091980385.5466406     
   7018247554.8029861        613734673.70568991        1021494145.1490690     
   7190147048.8777246        479712596.23287868        991271797.67084169     
   5958052657.2942963        1787415797.1882887        1150024080.7853827     
   6088453474.5679388        1502305993.7792115        1227869943.5632756     
   6221576630.9754896        1226270654.1498322        1268396252.6370423     
   6357422126.5169497        959309778.30015075        1271603008.0066836     
   6495989961.1923218        701423366.23016787        1237490209.6722000     
   7999984124.0614128       -567209970.12074614       -180420993.09105933     
   7917684647.4849119       -199679897.63249350       -78486004.903295338     
   7793813326.0735512        29277358.739561558       -9036827.0547190011     
   7628370159.8273373        119661798.99542999        27926540.454666402     
   7421355148.7462606        71473423.135099888        32404097.624861594     
   7942144130.3122702       -154604071.94257784        282316196.28921205     
   7739724018.2600317        16723556.985580921        281008534.78164589     
   7513852954.2153673        109881345.93898821        265063681.76118487     
   7264530938.1782780        124869294.91764212        234481637.22782773     
   6991757970.1487646        61687403.921547413        189262401.18157789     
   7672198438.5843744        194370116.84196377        672880459.87651229     
   7400653744.8458157        184794118.34685755        589471190.32311928     
   7123778991.9572630        157451256.01843929        509273348.08312529     
   6841574179.9187164        112341529.85670805        432286933.15653497     
   6554039308.7301731        49464939.861663818        358511945.54334331     
   7190147048.8777246        479712596.23287868        991271797.67084169     
   6900473827.2422600        304531786.45133042        846901961.72112405     
   6623591439.2992325        171987088.97791171        723592171.91110456     
   6359499885.0486431        82078503.812618256        621342428.24077845     
   6108199164.4904947        34806030.955455542        540152730.71015179     
   6495989961.1923218        701423366.23016787        1237490209.6722000     
   6239184265.4493656        375936561.29900289        1053300848.9756625     
   6013290296.2412825        153488844.81740785        908020153.24511766     
   5818308053.5680685        34080216.785380125        801648122.48056698     
   5654237537.4297247        17710677.202920437        734184756.68200660     
   7421355148.7462606        71473423.135099888        32404097.624861594     
   7218839037.0288181       -19655845.729168415        15217183.188074386     
   7028692201.2585278       -69554194.769594193        2141418.4181328891     
   6850914641.4353848       -78221623.986198425       -6823196.6849653013     
   6685506357.5593939       -45658133.378962040       -11676662.121220026     
   6991757970.1487646        61687403.921547413        189262401.18157789     
   6808631574.9134417        1894029.3428001404        180818294.43053371     
   6633458029.1952333       -31389846.845572948        175946844.31762126     
   6466237332.9941301       -38164224.643592834        174648050.84283653     
   6306969486.3101349       -18429104.051253557        176921914.00618246     
   6554039308.7301731        49464939.861663818        358511945.54334331     
   6388764078.4663620        20545894.115264893        353658148.97632855     
   6227025271.2896194        3414925.3257546425        351838516.01872647     
   6068822887.1999407       -1927966.5068712234        353053046.67054081     
   5914156926.1973314        4517218.6173958778        357301740.93176663     
   6108199164.4904947        34806030.955455542        540152730.71015179     
   5959236547.6875744        36299748.588212729        533736746.82545072     
   5809393927.5416813        34860121.744385719        529816433.52144754     
   5658671304.0528126        30487150.423970699        528391790.79814351     
   5507068677.2209663        23180834.626967669        529462818.65553677     
   5654237537.4297247        17710677.202920437        734184756.68200660     
   5520048982.5770836        49155592.761649847        721054087.97790098     
   5380563997.9514256        62945742.410320282        709880596.82578218     
   5235782583.5527487        59081126.148931026        700664283.22564423     
   5085704739.3810568        37561743.977483034        693405147.17748630     
   6685506357.5593939       -45658133.378962040       -11676662.121220026     
   6511398073.9110899       -5170883.1197521687       -4839458.8493069131     
   6331865850.3048706        17236567.279734135        3997020.9656057754     
   6146909686.7407322        21564217.819487810        14832777.323523805     
   5956529583.2186747        7812068.4995248318        27667810.224452935     
   6306969486.3101349       -18429104.051253557        176921914.00618246     
   6133989201.5301380        4014672.2765450478        174100002.52061737     
   5957554344.4841938        14943207.717851400        174310384.52876103     
   5777664915.1722994        14356502.272663832        177553060.03061217     
   5594320913.5944576        2254555.9409706593        183828029.02617717     
   5914156926.1973314        4517218.6173958778        357301740.93176663     
   5745256117.2876530        9802964.1143829823        347118310.32935315     
   5574870103.8040009        10138027.698106766        341000190.17135513     
   5402998885.7463665        5522409.3685736656        338947380.45777255     
   5229642463.1147566       -4043890.8742270470        340959881.18860602     
   5507068677.2209663        23180834.626967669        529462818.65553677     
   5345198821.1836338        12193992.393760920        514215464.57690501     
   5183813128.2642860        2821027.2205145359        504066437.89339530     
   5022911598.4629345       -4938060.8927617073        499015738.60500932     
   4862494231.7795658       -11083271.946072340        499063366.71174055     
   5085704739.3810568        37561743.977483034        693405147.17748630     
   4933817313.2180758        11187757.114673853        675391465.26327026     
   4784383417.8650570       -7007793.7149350643        663509127.69488251     
   4637403053.3219957       -17024908.511346340        657758134.47231948     
   4492876219.5888968       -18863587.274561167        658138485.59558535     
   5956529583.2186747        7812068.4995248318        27667810.224452935     
   5778170541.2440577       -6482508.0822474957        21221552.055700626     
   5602500002.4849300       -11815407.279056549        18951216.092040159     
   5429517966.9412727       -8186629.0909609795        20856802.333491713     
   5259224434.6131001        4403826.4820778370        26938310.780039594     
   5594320913.5944576        2254555.9409706593        183828029.02617717     
   5427980731.7757301       -7145071.8103349209        179060096.88093758     
   5263513477.8181095       -10301606.691292763        178231915.99732721     
   5100919151.7215910       -7215048.7019112110        181343486.37535596     
   4940197753.4861698        2114602.1578013897        188394808.01501328     
   5229642463.1147566       -4043890.8742270470        340959881.18860602     
   5074646367.3277187       -8751002.0323274136        336918770.48677838     
   4920707624.0474072       -9933604.8346836567        336581240.10311073     
   4767826233.2738161       -7591699.2812962532        339947290.03760755     
   4616002195.0069542       -1725285.3721663952        347016920.29025614     
   4862494231.7795658       -11083271.946072340        499063366.71174055     
   4718167447.9000177       -11300298.748228550        494797572.87321663     
   4574082441.1728172       -10711401.709239006        493999188.40938085     
   4430239211.5979586       -9316580.8291063309        496668213.32023215     
   4286637759.1754389       -7115836.1078245640        502804647.60577351     
   4492876219.5888968       -18863587.274561167        658138485.59558535     
   4358543973.4926329       -14792961.958039999        652696504.04024971     
   4223637929.1943359       -12634997.314975739        650485760.91613567     
   4088158086.6940079       -12389693.345344067        651506256.22323978     
   3952104445.9916463       -14057050.049159050        655757989.96156478     
   5259224434.6131001        4403826.4820778370        26938310.780039594     
   5056615062.4891901        11693473.858879566        22190028.155305576     
   4854214292.9140873        19678463.065016747        21376546.478221521     
   4652022125.8877764        28358794.100476980        24497865.748774625     
   4450038561.4102707        37734466.965277910        31553985.966975134     
   4940197753.4861698        2114602.1578013897        188394808.01501328     
   4747059429.0599842        4918894.1137471199        182322673.73617703     
   4554157881.5771847        8512442.5476472378        180636241.83583751     
   4361493111.0377712        12895247.459492445        183335512.31399566     
   4169065117.4417386        18067308.849288702        190420485.17063966     
   4616002195.0069542       -1725285.3721663952        347016920.29025614     
   4433623208.0809221       -3019861.8963356018        339653804.48433602     
   4251509172.4928589       -3431267.2939431667        337127292.48776126     
   4069660088.2427659       -2959501.5649790764        339437384.30053145     
   3888075955.3306437       -1604564.7094426155        346584079.92264283     
   4286637759.1754389       -7115836.1078245640        502804647.60577351     
   4116306399.5519915       -12122794.171388865        494183420.39979029     
   3946268165.6610975       -16152666.459767342        490849698.43399262     
   3776523057.5027623       -19205452.972956419        492803481.70839083     
   3607071075.0769777       -21281153.710968733        500044770.22298384     
   3952104445.9916463       -14057050.049159050        655757989.96156478     
   3795109003.4732065       -22389902.711393595        645911521.48252344     
   3638434861.0819063       -29651754.949824333        641803459.67452943     
   3482082018.8177528       -35842606.764434814        643433804.53757358     
   3326050476.6807365       -40962458.155254364        650802556.07167017     
   4450038561.4102707        37734466.965277910        31553985.966975134     
   4309794308.2270994        55229142.795019150        40240469.140918352     
   4162482469.7984052        49165201.139702082        51836615.796042763     
   4008103046.1242037        19542641.999347925        66342425.932329156     
   3846656037.2044759       -33638534.626080513        83757899.549786478     
   4169065117.4417386        18067308.849288702        190420485.17063966     
   4035128293.0696201        32781940.465009928        191598872.31383792     
   3895676814.4741683        29114391.336273193        195361012.95683870     
   3750710681.6553831        7064661.4630987644        201706907.09964839     
   3600229894.6132536       -33367249.154545546        210636554.74224526     
   3888075955.3306437       -1604564.7094426155        346584079.92264283     
   3759515388.3942413        10050671.279639482        342066123.89430809     
   3626993098.2566757        8500163.2648615837        339806011.38440943     
   3490509084.9179754       -6256088.7537000179        339803742.39293635     
   3350063348.3781042       -34218084.776171684        342059316.91989833     
   3607071075.0769777       -21281153.710968733        500044770.22298384     
   3482955594.2009449       -12964664.761110306        491642223.88232577     
   3356431321.1459413       -12677483.074499607        485171611.07872975     
   3227498255.9119706       -20419608.651117802        480632931.81219769     
   3096156398.4990196       -36191041.490993500        478026186.08273345     
   3326050476.6807365       -40962458.155254364        650802556.07167017     
   3205448910.4897394       -36264067.657233357        640327172.27789402     
   3083991483.1419497       -34418547.681857109        631457812.03982151     
   2961678194.6373792       -35425898.229086637        624194475.35743058     
   2838509044.9760094       -39286119.298982978        618537162.23074400     
   3846656037.2044759       -33638534.626080513        83757899.549786478     
   3590046720.8938656       -67963718.881110907        23209639.697226916     
   3371760825.8206153        25455834.321748257       -22494825.018246707     
   3191798351.9847403        246620124.98249793       -53355494.596663855     
   3050159299.3862214        595529153.10113347       -69372369.037995055     
   3600229894.6132536       -33367249.154545546        210636554.74224526     
   3379805902.9863358       -63075640.628962278        185087095.07348031     
   3185801937.3532848       -4717278.7905119658        171463291.69033119     
   3018217997.7140975        141707836.36080992        169765144.59282866     
   2877054084.0687599        376199704.82501096        179992653.78095222     
   3350063348.3781042       -34218084.776171684        342059316.91989833     
   3157487141.8593283       -61810945.342660666        337621362.98415715     
   2979427566.0909100       -41015036.741304636        342190926.48261583     
   2815884621.0728564        28169641.027949452        355768007.41523451     
   2666858306.8051558        145743087.96504533        378352605.78206098     
   3096156398.4990196       -36191041.490993500        478026186.08273345     
   2923090437.5128312       -64169633.022210479        480812443.42926908     
   2752637712.0334988       -83437439.530572057        489688079.35854715     
   2584798222.0610247       -93994461.016091943        504653093.87057209     
   2419571967.5953965       -95840697.478773355        525707486.96532428     
   2838509044.9760094       -39286119.298982978        618537162.23074400     
   2676615789.9468451       -70151703.667600513        614660336.40880823     
   2505432375.1810365       -131984487.15838051        613954750.31815946     
   2324958800.6785812       -224784469.77131641        616420403.95881248     
   2135195066.4394708       -348551651.50642872        622057297.33076835     
   5958052657.2942963        1787415797.1882887        1150024080.7853827     
   6088453474.5679388        1502305993.7792115        1227869943.5632756     
   6221576630.9754896        1226270654.1498322        1268396252.6370423     
   6357422126.5169497        959309778.30015075        1271603008.0066836     
   6495989961.1923218        701423366.23016787        1237490209.6722000     
   5434601481.2194138        1630380444.3658242        1033464531.7832426     
   5489879582.9637966        1372537050.9376473        1113852682.4086027     
   5547349267.9490833        1121998934.9791493        1167481434.0276804     
   5607010536.1752729        878766096.49032998        1194350786.6404765     
   5668863387.6423683        642838535.47119045        1194460740.2469904     
   4895138178.8014030        1468541453.6404209        936369676.78523219     
   4905465435.5817947        1247016031.3627243        1018680900.0495527     
   4917453519.7100821        1031026700.2446874        1084792879.0054348     
   4931102431.1862688        820573460.28631079        1134705613.6528792     
   4946412170.0103550        615656311.48759413        1168419103.9918852     
   4339662750.0402622        1301898825.0120788        858739515.79135084     
   4335211032.4219294        1125742935.0544429        942354596.48612535     
   4331889386.2584887        953353949.94644761        1020330587.5703053     
   4329697811.5499382        784731869.68809342        1092667489.0438910     
   4328636308.2962828        619876694.27938092        1159365300.9068818     
   3768175194.9359908        1130452558.4807973        800574048.80159926     
   3779116373.4842010        1008717762.0128024        884873771.71832108     
   3790656867.5942974        888980684.08442926        974094559.72229218     
   3802796677.2662802        771241324.69567823        1068236412.8135124     
   3815535802.5001493        655499683.84654915        1167299330.9919815     
   6495989961.1923218        701423366.23016787        1237490209.6722000     
   6239184265.4493656        375936561.29900289        1053300848.9756625     
   6013290296.2412825        153488844.81740785        908020153.24511766     
   5818308053.5680685        34080216.785380125        801648122.48056698     
   5654237537.4297247        17710677.202920437        734184756.68200660     
   5668863387.6423683        642838535.47119045        1194460740.2469904     
   5518772467.2625732        383288205.11942267        1073557965.7736760     
   5392837455.2164488        204257569.21322632        980618705.55693984     
   5291058351.5039959        105746627.75260448        915642959.59678173     
   5213435156.1252193        87755380.737553835        878630727.89320040     
   4946412170.0103550        615656311.48759413        1168419103.9918852     
   4871764165.8239641        412660897.96429682        1102921127.8403938     
   4814516251.7700481        267665784.88257694        1054441515.2360669     
   4774668427.8486061        180670972.24243093        1022980266.1789026     
   4752220694.0596361        151676460.04386210        1008537380.6689035     
   4328636308.2962828        619876694.27938092        1159365300.9068818     
   4298159361.1335440        464054639.83362830        1141390335.1758146     
   4278326685.9020815        343713491.82545674        1129488582.2824981     
   4269138282.6018915        258853250.25486231        1123660042.2269309     
   4270594151.2329741        209473915.12184763        1123904715.0091138     
   3815535802.5001493        655499683.84654915        1167299330.9919815     
   3797958053.1913099        537469430.72741520        1188965587.7799397     
   3784268757.6125455        432400690.04186511        1205759906.6962347     
   3774467915.7638545        340293461.78989613        1217682287.7408648     
   3768555527.6452398        261147745.97151172        1224732730.9138310     
   5654237537.4297247        17710677.202920437        734184756.68200660     
   5520048982.5770836        49155592.761649847        721054087.97790098     
   5380563997.9514256        62945742.410320282        709880596.82578218     
   5235782583.5527487        59081126.148931026        700664283.22564423     
   5085704739.3810568        37561743.977483034        693405147.17748630     
   5213435156.1252193        87755380.737553835        878630727.89320040     
   5077016151.3608923        85592315.954366922        855109995.59250772     
   4938507342.6898384        76463238.148746967        835672042.80974913     
   4797908730.1120520        60368147.320695877        820316869.54492056     
   4655220313.6275377        37307043.470206976        809044475.79802358     
   4752220694.0596361        151676460.04386210        1008537380.6689035     
   4619644387.8577662        117727359.46100354        978367648.28229129     
   4488184903.6154537        87500998.743335485        954406297.37956095     
   4357842241.3327007        60997377.890863895        936653327.96071243     
   4228616401.0095034        38216496.903583050        925108740.02574301     
   4270594151.2329741        209473915.12184763        1123904715.0091138     
   4147933692.0677023        145560723.28155780        1090827046.0472524     
   4029596680.7282743        96059024.194085836        1066083360.5352209     
   3915583117.2146935        60968817.859434843        1049673658.4730200     
   3805893001.5269580        40290104.277602673        1041597939.8606476     
   3768555527.6452398        261147745.97151172        1224732730.9138310     
   3661884063.9907031        169092407.41603351        1192488188.8873901     
   3562742674.0282984        102137314.50099790        1170703232.2767255     
   3471131357.7580280        60282467.226410151        1159377861.0818434     
   3387050115.1798930        43527865.592268109        1158512075.3027387     
   5085704739.3810568        37561743.977483034        693405147.17748630     
   4933817313.2180758        11187757.114673853        675391465.26327026     
   4784383417.8650570       -7007793.7149350643        663509127.69488251     
   4637403053.3219957       -17024908.511346340        657758134.47231948     
   4492876219.5888968       -18863587.274561167        658138485.59558535     
   4655220313.6275377        37307043.470206976        809044475.79802358     
   4520254634.1463299        16355064.846339941        794710772.46463978     
   4387241816.2370996        1912624.7957317829        786011220.33164775     
   4256181859.8998461       -6020276.6816194057        782945819.39905298     
   4127074765.1345716       -7443639.5857081413        785514569.66685379     
   4228616401.0095034        38216496.903583050        925108740.02574301     
   4109151916.3659716        22260360.965426922        913870901.16221333     
   3991139624.0564365        11144866.140588522        907770020.35364449     
   3874579524.0808983        4870012.4290735722        906806097.60003746     
   3759471616.4393559        3435799.8308761120        910979132.90139055     
   3805893001.5269580        40290104.277602673        1041597939.8606476     
   3700509159.8770084        28903645.471928358        1032871851.3559947     
   3596076841.3230710        20688930.319636345        1028785527.7608668     
   3492596045.8651481        15645958.820722342        1029338969.0752693     
   3390066773.5032415        13774730.975192785        1034532175.2991973     
   3387050115.1798930        43527865.592268109        1158512075.3027387     
   3294326364.6794286        36284918.365848064        1151713623.0459812     
   3202053468.0369973        30544817.332867742        1149057742.5533183     
   3110231425.2526007        26307562.493332982        1150544433.8247483     
   3018860236.3262329        23573153.847239256        1156173696.8602762     
   4492876219.5888968       -18863587.274561167        658138485.59558535     
   4358543973.4926329       -14792961.958039999        652696504.04024971     
   4223637929.1943359       -12634997.314975739        650485760.91613567     
   4088158086.6940079       -12389693.345344067        651506256.22323978     
   3952104445.9916463       -14057050.049159050        655757989.96156478     
   4127074765.1345716       -7443639.5857081413        785514569.66685379     
   4001090696.9711347       -5468737.8483545780        779136199.39222252     
   3874776639.7593899       -4593799.6053671837        776431894.53758323     
   3748132593.4993334       -4818824.8567495346        777401655.10293484     
   3621158558.1909695       -6143813.6024940014        782045481.08828092     
   3759471616.4393559        3435799.8308761120        910979132.90139055     
   3643100946.1766629        3694543.9794394970        903948817.92014205     
   3526644096.0193863        3666021.8127179146        901035395.34765935     
   3410101065.9675245        3350233.3307082653        902238865.18393862     
   3293471856.0210729        2747178.5334124565        907559227.42898428     
   3390066773.5032415        13774730.975192785        1034532175.2991973     
   3284574721.1092143        12696883.525340080        1027134359.6240118     
   3179240297.9743266        12144466.939282656        1024296263.3463625     
   3074063504.0985742        12117481.217018604        1026017886.4662477     
   2969044339.4819641        12615926.358549833        1032299228.9836699     
   3018860236.3262329        23573153.847239256        1156173696.8602762     
   2925512021.7687898        21538280.789347172        1148692824.5038295     
   2832565245.6242113        20841535.774338245        1146214498.5336928     
   2740019907.8924913        21482918.802193522        1148738718.9498575     
   2647876008.5736351        23462429.872927904        1156265485.7523344     
   3952104445.9916463       -14057050.049159050        655757989.96156478     
   3795109003.4732065       -22389902.711393595        645911521.48252344     
   3638434861.0819063       -29651754.949824333        641803459.67452943     
   3482082018.8177528       -35842606.764434814        643433804.53757358     
   3326050476.6807365       -40962458.155254364        650802556.07167017     
   3621158558.1909695       -6143813.6024940014        782045481.08828092     
   3479212556.6205010       -12141402.701013565        773430413.21185148     
   3337477196.5329766       -17436853.523059607        770114524.72503674     
   3195952477.9283981       -22030166.068617105        772097815.62784100     
   3054638400.8067579       -25921340.337712049        779380285.92026591     
   3293471856.0210729        2747178.5334124565        907559227.42898428     
   3165320360.3087907       -1291627.5283292532        900046458.40359712     
   3037268847.4352517       -4997157.4609230757        897393641.48640108     
   2909317317.4004555       -8369411.2643721104        899600776.67739832     
   2781465770.2044063       -11408388.938674927        906667863.97658193     
   2969044339.4819641        12615926.358549833        1032299228.9836699     
   2853432414.5380716        10159422.806649685        1025759657.0577637     
   2737809813.7887235        7667333.2365623713        1023640809.9586184     
   2622176537.2339239        5139657.6483011246        1025942687.6862401     
   2506532584.8736625        2576396.0418395996        1032665290.2406218     
   2647876008.5736351        23462429.872927904        1156265485.7523344     
   2543548719.3083439        22211748.303924203        1150570009.1743445     
   2439100095.5933990        20556618.569416285        1148856030.1416881     
   2334530137.4287982        18497040.669385314        1151123548.6543651     
   2229838844.8145456        16033014.603848696        1157372564.7123847     
   3326050476.6807365       -40962458.155254364        650802556.07167017     
   3205448910.4897394       -36264067.657233357        640327172.27789402     
   3083991483.1419497       -34418547.681857109        631457812.03982151     
   2961678194.6373792       -35425898.229086637        624194475.35743058     
   2838509044.9760094       -39286119.298982978        618537162.23074400     
   3054638400.8067579       -25921340.337712049        779380285.92026591     
   2939386164.9072938       -21635378.552623868        768303497.33484006     
   2824159716.3298469       -17263459.027478814        759830730.50558043     
   2708959055.0744238       -12805581.762260318        753961985.43247986     
   2593784181.1410131       -8261746.7569942474        750697262.11553204     
   2781465770.2044063       -11408388.938674927        906667863.97658193     
   2674414288.0263743       -6679428.8375531435        896018260.49145150     
   2568270241.6491690        1074317.2663233280        888970676.96294737     
   2463033631.0727925        11852849.372963071        885525113.39107049     
   2358704456.2972436        25656167.482357621        885681569.77581930     
   2506532584.8736625        2576396.0418395996        1032665290.2406218     
   2410533279.8469729        8603781.4879729748        1023471461.7477306     
   2316323059.0999155        20594781.199554682        1018877651.4119277     
   2223901922.6324935        38549395.176586270        1018883859.2332207     
   2133269870.4447131        62467623.419083834        1023490085.2116035     
   2229838844.8145456        16033014.603848696        1157372564.7123847     
   2147743140.3690925        24214252.423951983        1150663101.1036725     
   2068318168.6820850        41297932.772209525        1149551653.8525178     
   1991563929.7535195        67284055.648612738        1154038222.9589243     
   1917480423.5834055        102172621.05318010        1164122808.4228897     
   2838509044.9760094       -39286119.298982978        618537162.23074400     
   2676615789.9468451       -70151703.667600513        614660336.40880823     
   2505432375.1810365       -131984487.15838051        613954750.31815946     
   2324958800.6785812       -224784469.77131641        616420403.95881248     
   2135195066.4394708       -348551651.50642872        622057297.33076835     
   2593784181.1410131       -8261746.7569942474        750697262.11553204     
   2445184477.2150078       -22551713.082435012        741403967.12652040     
   2290752599.8134141       -56282257.659855485        735340098.32175922     
   2130488548.9362206       -109453380.48926187        732505655.70124066     
   1964392324.5834348       -182065081.57064462        732900639.26497126     
   2358704456.2972436        25656167.482357621        885681569.77581930     
   2223564550.4828310        27991693.302631617        875006122.92430162     
   2086050457.4538691        22413261.741085768        867618288.70998037     
   1946162177.2103729        8920872.7977478504        863518067.13284743     
   1803899709.7523301       -12485473.527394533        862705458.19291520     
   2133269870.4447131        62467623.419083834        1023490085.2116035     
   2011756009.7503042        81478515.487585306        1015466803.8021415     
   1891325948.1024199        104102071.04446918        1010789321.4828230     
   1771979685.5010459        130338290.08972991        1009457638.2536423     
   1653717221.9461746        160187172.62335038        1011471754.1146249     
   1917480423.5834055        102172621.05318010        1164122808.4228897     
   1809758855.0174448        137908753.47244906        1162786009.7600448     
   1706579071.7590454        188784170.25024927        1164853196.6402910     
   1607941073.8082192        254798871.38663048        1170324369.0636373     
   1513844861.1649611        335952856.88157129        1179199527.0300744     
   3768175194.9359908        1130452558.4807973        800574048.80159926     
   3779116373.4842010        1008717762.0128024        884873771.71832108     
   3790656867.5942974        888980684.08442926        974094559.72229218     
   3802796677.2662802        771241324.69567823        1068236412.8135124     
   3815535802.5001493        655499683.84654915        1167299330.9919815     
   3207800385.3028927        962340115.59086776        756717292.56442380     
   3235908125.9800792        868217735.39551485        853081469.23209369     
   3263735197.2507715        773159790.51184881        951357532.54111755     
   3291281599.1149697        677166280.93987000        1051545482.4914954     
   3318547331.5726743        580237206.67957830        1153645319.0832264     
   2685663192.9552708        805698957.88658130        722013263.82827127     
   2722339843.0588756        736609698.15310287        829415245.11711240     
   2757855838.7876058        663651590.50337660        935719934.60141134     
   2792211180.1414618        586824634.93740225        1040927332.2811693     
   2825405867.1204429        506128831.45518005        1145037438.1563854     
   2201763617.8931265        660529085.36793792        696461962.59314156     
   2238411524.7205906        613893650.28556669        813875099.37337625     
   2273018792.2047997        560456084.05901217        927181765.90317380     
   2305585420.3457541        500216386.68827462        1036381962.1825342     
   2336111409.1434536        433174558.17335439        1141475688.2114575     
   1756101660.1164584        526830498.03493750        680063388.85903490     
   1784123170.9652238        500069591.79290563        806461032.00088608     
   1809224057.5023539        463573271.17875576        925743026.44640493     
   1831404319.7278485        417341536.19248796        1037909372.1955907     
   1850663957.6417077        361374386.83410221        1142960069.2484441     
   3815535802.5001493        655499683.84654915        1167299330.9919815     
   3797958053.1913099        537469430.72741520        1188965587.7799397     
   3784268757.6125455        432400690.04186511        1205759906.6962347     
   3774467915.7638545        340293461.78989613        1217682287.7408648     
   3768555527.6452398        261147745.97151172        1224732730.9138310     
   3318547331.5726743        580237206.67957830        1153645319.0832264     
   3293866452.2120514        472995196.45738733        1182012510.1450286     
   3272941658.2471080        378273470.88746309        1207298098.3701355     
   3255772949.6778460        296072029.96980953        1229502083.7585478     
   3242360326.5042629        226390873.70442080        1248624466.3102655     
   2825405867.1204429        506128831.45518005        1145037438.1563854     
   2798737100.6650906        411209637.01704836        1179951133.7685702     
   2775692051.2710228        328369499.44986868        1213573561.5790288     
   2756270718.9382424        257608418.75364244        1245904721.5877631     
   2740473103.6667471        198926394.92836893        1276944613.7947705     
   2336111409.1434536        433174558.17335439        1141475688.2114575     
   2312569998.5504265        352112752.40639848        1182781458.6505659     
   2292519936.6842914        282688775.72908002        1224586296.3229170     
   2275961223.5450473        224902628.14139807        1266890201.2285123     
   2262893859.1326957        178754309.64335597        1309693173.3673501     
   1850663957.6417077        361374386.83410221        1142960069.2484441     
   1835365145.8680611        295704542.62543845        1190503484.7910147     
   1823425314.4869113        241231299.72509545        1240336302.6017976     
   1814844463.4982581        197954658.13307697        1292458522.6807938     
   1809622592.9021022        165874617.84938097        1346870145.0280015     
   3768555527.6452398        261147745.97151172        1224732730.9138310     
   3661884063.9907031        169092407.41603351        1192488188.8873901     
   3562742674.0282984        102137314.50099790        1170703232.2767255     
   3471131357.7580280        60282467.226410151        1159377861.0818434     
   3387050115.1798930        43527865.592268109        1158512075.3027387     
   3242360326.5042629        226390873.70442080        1248624466.3102655     
   3165125698.0360475        152320747.67161798        1231552279.5435286     
   3093865290.8672972        98164692.637039304        1222513793.0760264     
   3028579104.9980149        63922708.600685596        1221509006.9077587     
   2969267140.4282017        49594795.562561393        1228537921.0387247     
   2740473103.6667471        198926394.92836893        1276944613.7947705     
   2685744210.0518637        140762151.31834567        1273229621.1629643     
   2635433685.3437824        97325804.064326882        1275122443.7138464     
   2589541529.5425034        68617353.166313648        1282623081.4474163     
   2548067742.6480246        54636798.624308228        1295731534.3636761     
   2262893859.1326957        178754309.64335597        1309693173.3673501     
   2223739600.0381579        134416618.35621572        1317520213.7456956     
   2187447857.4577575        99620648.782861829        1328529184.1901841     
   2154018631.3914909        74366400.923292398        1342720084.7008173     
   2123451921.8393624        58653874.777511477        1360092915.2775917     
   1809622592.9021022        165874617.84938097        1346870145.0280015     
   1779111867.9949253        133284148.78522801        1364424057.2917230     
   1749907807.2092183        105049226.79264063        1382734014.5050423     
   1722010410.5449810        81169851.871620834        1401800016.6679592     
   1695419678.0022142        61646024.022166610        1421622063.7804735     
   3387050115.1798930        43527865.592268109        1158512075.3027387     
   3294326364.6794286        36284918.365848064        1151713623.0459812     
   3202053468.0369973        30544817.332867742        1149057742.5533183     
   3110231425.2526007        26307562.493332982        1150544433.8247483     
   3018860236.3262329        23573153.847239256        1156173696.8602762     
   2969267140.4282017        49594795.562561393        1228537921.0387247     
   2886416109.5457110        38356575.823448300        1221341767.1419098     
   2804284096.8315463        29515083.312083483        1218519427.1516027     
   2722871102.2857037        23070318.028463364        1220070901.0678010     
   2642177125.9081864        19022279.972595215        1225996188.8905067     
   2548067742.6480246        54636798.624308228        1295731534.3636761     
   2475750123.2189713        39601513.923144341        1288450537.1888120     
   2404419686.2685337        27856837.484032512        1285774596.0628674     
   2334076431.7967091        19402769.306968451        1287703710.9858384     
   2264720359.8035035        14239309.391955256        1294237881.9577281     
   2123451921.8393624        58653874.777511477        1360092915.2775917     
   2062328405.6992052        40019732.664931297        1353039933.1866839     
   2002460236.3479552        25570079.848709822        1350823249.2871058     
   1943847413.7856116        15304916.328839779        1353442863.5788577     
   1886489938.0121727        9224242.1053242683        1360898776.0619369     
   1695419678.0022142        61646024.022166610        1421622063.7804735     
   1646150956.9864156        39611232.048812032        1415109955.1355293     
   1598405747.0698156        22654810.406119287        1413665386.8243248     
   1552184048.2524126        10776759.094081104        1417288358.8468616     
   1507485860.5342052        3977078.1127005219        1425978871.2031386     
   3018860236.3262329        23573153.847239256        1156173696.8602762     
   2925512021.7687898        21538280.789347172        1148692824.5038295     
   2832565245.6242113        20841535.774338245        1146214498.5336928     
   2740019907.8924913        21482918.802193522        1148738718.9498575     
   2647876008.5736351        23462429.872927904        1156265485.7523344     
   2642177125.9081864        19022279.972595215        1225996188.8905067     
   2561512955.6331038        16707734.083342075        1218630772.9030232     
   2481266833.3452353        15786681.484804511        1216084307.5536697     
   2401438759.0445724        16259122.176957250        1218356792.8424435     
   2322028732.7311244        18125056.159820795        1225448228.7693472     
   2264720359.8035035        14239309.391955256        1294237881.9577281     
   2196215674.5302720        11487722.887200356        1287007300.1759458     
   2128145646.8185990        10184994.920973659        1284412073.2841136     
   2060510276.6684828        10331125.493273020        1286452201.2822356     
   1993309564.0799296        11926114.604106665        1293127684.1703057     
   1886489938.0121727        9224242.1053242683        1360898776.0619369     
   1829620178.4602852        5878247.2009085417        1353822406.3225973     
   1773201686.0443037        4036476.0828464031        1351197795.7250321     
   1717234460.7642295        3698928.7511429787        1353024944.2692368     
   1661718502.6200633        4865605.2057985067        1359303851.9552157     
   1507485860.5342052        3977078.1127005219        1425978871.2031386     
   1461726467.4231510       -120692.97552657127        1419076091.3429801     
   1416434951.0223482       -2658875.0295798779        1416441474.8764160     
   1371611311.3318019       -3637468.0494470000        1418075021.8034470     
   1327255548.3515115       -3056472.0351251364        1423976732.1240695     
   2647876008.5736351        23462429.872927904        1156265485.7523344     
   2543548719.3083439        22211748.303924203        1150570009.1743445     
   2439100095.5933990        20556618.569416285        1148856030.1416881     
   2334530137.4287982        18497040.669385314        1151123548.6543651     
   2229838844.8145456        16033014.603848696        1157372564.7123847     
   2322028732.7311244        18125056.159820795        1225448228.7693472     
   2228361157.8222017        16318866.625477433        1218848186.1802237     
   2134674529.0325122        14449164.155243754        1216594620.4657433     
   2040968846.3620539        12515948.749114633        1218687531.6259058     
   1947244109.8108234        10519220.407082558        1225126919.6607130     
   1993309564.0799296        11926114.604106665        1293127684.1703057     
   1911344501.6111100        9877256.5295366049        1285742402.9004190     
   1829462665.8304057        8105820.7486948967        1283068577.8344812     
   1747664056.7378216        6611807.2615805864        1285106208.9724932     
   1665948674.3333549        5395216.0681910515        1291855296.3144548     
   1661718502.6200633        4865605.2057985067        1359303851.9552157     
   1592498750.6750720        2886918.0161131024        1351252659.3349321     
   1523464505.9870906        1526588.3497886062        1348277902.2479055     
   1454615768.5561123        784616.20680856705        1350379580.6941319     
   1385952538.3821373        661001.58717715740        1357557694.6736155     
   1327255548.3515115       -3056472.0351251364        1423976732.1240695     
   1271823905.0140884       -4652148.9147907495        1415378955.4837601     
   1216680049.5025613       -5288533.0414785743        1412222593.7060091     
   1161823981.8169224       -4965624.4152034521        1414507646.7908189     
   1107255701.9571724       -3683423.0359641910        1422234114.7381945     
   2229838844.8145456        16033014.603848696        1157372564.7123847     
   2147743140.3690925        24214252.423951983        1150663101.1036725     
   2068318168.6820850        41297932.772209525        1149551653.8525178     
   1991563929.7535195        67284055.648612738        1154038222.9589243     
   1917480423.5834055        102172621.05318010        1164122808.4228897     
   1947244109.8108234        10519220.407082558        1225126919.6607130     
   1878689378.4021904        18758674.448559999        1221077347.8929639     
   1811924149.7802918        32963137.779159665        1221832458.3602784     
   1746948423.9451358        53132610.398903012        1227392251.0626519     
   1683762200.8967199        79267092.307775021        1237756726.0000849     
   1665948674.3333549        5395216.0681910515        1291855296.3144548     
   1608668247.0401163        13012885.654613018        1289437514.7540133     
   1552296092.5619097        23658131.291143358        1291031081.3061342     
   1496832210.8987358        37330952.977781773        1296635995.9708216     
   1442276602.0505946        54031350.714529693        1306252258.7480719     
   1385952538.3821373        661001.58717715740        1357557694.6736155     
   1337679746.2828710        6976886.0421113968        1355743601.6868241     
   1289433997.0269351        13382913.308144271        1357147522.6900949     
   1241215290.6143205        19879083.385252774        1361769457.6834323     
   1193023627.0450380        26465396.273462474        1369609406.6668389     
   1107255701.9571724       -3683423.0359641910        1422234114.7381945     
   1065723876.1304612        650675.61107039452        1419995608.6913884     
   1023337863.1753715        2137483.8301758766        1420181782.5121539     
   980097663.09189677        777001.62133294344        1422792636.2004879     
   936003275.88004088       -3430771.0154469609        1427828169.7563865     
   1917480423.5834055        102172621.05318010        1164122808.4228897     
   1809758855.0174448        137908753.47244906        1162786009.7600448     
   1706579071.7590454        188784170.25024927        1164853196.6402910     
   1607941073.8082192        254798871.38663048        1170324369.0636373     
   1513844861.1649611        335952856.88157129        1179199527.0300744     
   1683762200.8967199        79267092.307775021        1237756726.0000849     
   1581762280.7363389        99243751.302848160        1238032003.1418874     
   1481590189.3626938        125313172.92038262        1242941364.3043118     
   1383245926.7757998        157475357.16042006        1252484809.4873617     
   1286729492.9756548        195730304.02294660        1266662338.6910346     
   1442276602.0505946        54031350.714529693        1306252258.7480719     
   1349512897.3744466        59302906.408996403        1304973329.0868919     
   1255863064.9642236        61620702.989866555        1309558581.9238663     
   1161327104.8199241        60984740.457162738        1320008017.2589979     
   1065905016.9415556        57395018.810870647        1336321635.0922883     
   1193023627.0450380        26465396.273462474        1369609406.6668389     
   1113010704.9317806        18086218.790906608        1363609987.5950511     
   1029397698.5636345       -2293239.5412783027        1364704849.4989500     
   942184607.94058800       -34672978.723131061        1372893992.3785405     
   851371433.06264520       -79052998.754638672        1388177416.2338204     
   936003275.88004088       -3430771.0154469609        1427828169.7563865     
   872255703.40834582       -24406311.551390469        1413941978.6663728     
   802194090.16093051       -66428654.673063457        1408380167.0295799     
   725818436.13779676       -129497800.38046622        1411142734.8460100     
   643128741.33894515       -213613748.67359141        1422229682.1156447     
   1756101660.1164584        526830498.03493750        680063388.85903490     
   1784123170.9652238        500069591.79290563        806461032.00088608     
   1809224057.5023539        463573271.17875576        925743026.44640493     
   1831404319.7278485        417341536.19248796        1037909372.1955907     
   1850663957.6417077        361374386.83410221        1142960069.2484441     
   1326441881.6247230        397932564.48741686        669719408.72865236     
   1339636859.6211526        375518403.87101531        791865724.10328436     
   1350641703.5771279        345803796.45309842        908719567.75884557     
   1359456413.4926484        308788742.23366660        1020280939.6953356     
   1366080989.3677146        264473241.21271953        1126549839.9127541     
   890548844.41737628        267164653.32521290        662331888.30469537     
   894126366.63936007        250659961.45780820        781079114.56181943     
   896244245.09207022        229289790.35949147        896357046.07713389     
   896902479.77550697        203054140.03026253        1008165682.8506387     
   896101070.68966961        171953010.47012132        1116505024.8823340     
   448422548.49441791        134526764.54832539        657900827.58716416     
   447591692.01984596        125494264.55328478        774101203.37649107     
   446031682.04718119        114031252.89793497        888655461.40127003     
   443742518.57642365        100137729.58227599        1001563601.6615007     
   440724201.60757339        83813694.606307670        1112825624.1571834     
   62993.855848143619        18898.156754443087        656426226.57605827     
   32835.762610250342        21313.157444882818        770931990.54729927     
   4014.4424605422064        28184.068429229646        885614813.73125386     
  -23470.104601173807        39510.889707165457        1000474696.1279215     
  -49617.878574759015        55293.621278523686        1115511637.7373025     
   1850663957.6417077        361374386.83410221        1142960069.2484441     
   1835365145.8680611        295704542.62543845        1190503484.7910147     
   1823425314.4869113        241231299.72509545        1240336302.6017976     
   1814844463.4982581        197954658.13307697        1292458522.6807938     
   1809622592.9021022        165874617.84938097        1346870145.0280015     
   1366080989.3677146        264473241.21271953        1126549839.9127541     
   1360423277.5712879        216970651.86507577        1181955181.4624794     
   1357283786.3920748        177862131.24147698        1238294908.0662336     
   1356662515.8300745        147147679.34192294        1295569019.7240155     
   1358559465.8852882        124827296.16641420        1353777516.4358268     
   896101070.68966961        171953010.47012132        1116505024.8823340     
   896212981.11565232        141456232.65705559        1178791406.0347159     
   898002352.38356471        116550990.98375559        1240657155.0269430     
   901469184.49340761        97237285.450224161        1302102271.8590157     
   906613477.44518030        83515116.056458980        1363126756.5309324     
   440724201.60757339        83813694.606307670        1112825624.1571834     
   442734256.50115436        69161285.001376063        1181012158.5077257     
   445581012.46138215        57297878.951934099        1247423043.4839287     
   449264469.48825616        48223476.457979530        1312058279.0857933     
   453784627.58177751        41938077.519515350        1374917865.3133194     
  -49617.878574759015        55293.621278523686        1115511637.7373025     
  -12896.272206243535        85808.898037827399        1188617438.8815074     
   19766.625525604173        102795.14600802171        1258592573.4371896     
   48370.814621056837        106252.36519042769        1325437041.4043486     
   72916.295079882475        96180.555583730020        1389150842.7829862     
   1809622592.9021022        165874617.84938097        1346870145.0280015     
   1779111867.9949253        133284148.78522801        1364424057.2917230     
   1749907807.2092183        105049226.79264063        1382734014.5050423     
   1722010410.5449810        81169851.871620834        1401800016.6679592     
   1695419678.0022142        61646024.022166610        1421622063.7804735     
   1358559465.8852882        124827296.16641420        1353777516.4358268     
   1333013372.2139463        99596574.591276288        1372667057.0039480     
   1308458447.8495708        77669750.706026793        1392921096.4602630     
   1284894692.7921617        59046824.510665834        1414539634.8047721     
   1262322107.0417185        43727796.005189717        1437522672.0374777     
   906613477.44518030        83515116.056458980        1363126756.5309324     
   887770454.83423543        66165673.917706549        1382983848.1198649     
   869603106.71575367        51068480.087164581        1404813892.5355895     
   852111433.08973408        38223534.564829886        1428616889.7781045     
   835295433.95617664        27630837.350701898        1454392839.8474112     
   453784627.58177751        41938077.519515350        1374917865.3133194     
   443383115.85579145        32991446.764516428        1395374430.6394763     
   433341783.80776507        25245414.936048850        1418412402.7310209     
   423660631.43769634        18699982.034108400        1444031781.5879536     
   414339658.74558759        13355148.058699369        1472232567.2102740     
   72916.295079882475        96180.555583730020        1389150842.7829862     
  -148644.72138548383        73893.131706070519        1409838804.5627794     
  -325520.87439459772        200555.25268275928        1433716627.0465577     
  -457712.16394910339        476166.91850822896        1460784310.2343204     
  -545218.59004939813        900728.12918072101        1491041854.1260681     
   1695419678.0022142        61646024.022166610        1421622063.7804735     
   1646150956.9864156        39611232.048812032        1415109955.1355293     
   1598405747.0698156        22654810.406119287        1413665386.8243248     
   1552184048.2524126        10776759.094081104        1417288358.8468616     
   1507485860.5342052        3977078.1127005219        1425978871.2031386     
   1262322107.0417185        43727796.005189717        1437522672.0374777     
   1227456296.0334551        27930255.838094532        1434432674.0199978     
   1193715440.4978213        15882567.246433079        1435914931.4115918     
   1161099540.4348164        7584730.2302002907        1441969444.2122567     
   1129608595.8444448        3036744.7894108891        1452596212.4219952     
   835295433.95617664        27630837.350701898        1454392839.8474112     
   813417433.17067814        17646019.054425061        1454259970.8930693     
   792265832.23124433        10082533.578363657        1458204072.4231327     
   771840631.13787496        4940380.9225159585        1466225144.4375997     
   752141829.89056981        2219561.0868836045        1478323186.9364707     
   414339658.74558759        13355148.058699369        1472232567.2102740     
   404034368.39808941        8758521.6978155822        1474591845.7547438     
   394056922.27008873        5254709.4019232243        1480532809.8589487     
   384407320.36158609        2843711.1710249186        1490055459.5228915     
   375085562.67258292        1525527.0051235259        1503159794.7465692     
  -545218.59004939813        900728.12918072101        1491041854.1260681     
  -692898.28431415663        1267763.7682583525        1495428298.6050205     
  -911289.38564638083        1399094.7171114446        1502901143.7190416     
  -1200391.8940479471        1294720.9757333971        1513460389.4681289     
  -1560205.8095166131        954642.54413133650        1527106035.8522873     
   1507485860.5342052        3977078.1127005219        1425978871.2031386     
   1461726467.4231510       -120692.97552657127        1419076091.3429801     
   1416434951.0223482       -2658875.0295798779        1416441474.8764160     
   1371611311.3318019       -3637468.0494470000        1418075021.8034470     
   1327255548.3515115       -3056472.0351251364        1423976732.1240695     
   1129608595.8444448        3036744.7894108891        1452596212.4219952     
   1095255311.2615280       -159885.37694215775        1446318656.8286896     
   1061234251.8250103       -2249098.3886309862        1444338911.8814635     
   1027545417.5348978       -3230894.2456375957        1446656977.5803185     
   994188808.39118588       -3105272.9479744434        1453272853.9252503     
   752141829.89056981        2219561.0868836045        1478323186.9364707     
   729279360.27146494       -50516.226890265942        1472512595.4521906     
   706613464.23490560       -1665348.2655116618        1471029461.8664749     
   684144141.78089714       -2624935.0289637744        1473873786.1793237     
   661871392.90943575       -2929276.5172594190        1481045568.3907387     
   375085562.67258292        1525527.0051235259        1503159794.7465692     
   363798614.45296049        207414.47462615371        1497657907.2134826     
   352572588.25203282       -907624.66022138298        1496513124.8314469     
   341407484.06980097       -1819590.3994169682        1499725447.6004612     
   330303301.90626407       -2528482.7429634035        1507294875.5205264     
  -1560205.8095166131        954642.54413133650        1527106035.8522873     
  -1186926.1939817336        613906.72761874588        1521754592.1125662     
  -888376.12360779638        24072.427237736760        1520789900.7763824     
  -664555.59839050029       -814860.35699978424        1524211961.8437343     
  -515464.61833378009       -1902891.6251051975        1532020775.3146207     
   1327255548.3515115       -3056472.0351251364        1423976732.1240695     
   1271823905.0140884       -4652148.9147907495        1415378955.4837601     
   1216680049.5025613       -5288533.0414785743        1412222593.7060091     
   1161823981.8169224       -4965624.4152034521        1414507646.7908189     
   1107255701.9571724       -3683423.0359641910        1422234114.7381945     
   994188808.39118588       -3105272.9479744434        1453272853.9252503     
   952836014.23988235       -4461704.9970076084        1445209957.2551603     
   911755479.87991977       -4910604.4082368612        1442480319.3662970     
   870947205.31129527       -4451971.1816723347        1445083940.2586615     
   830411190.53401637       -3085805.3172920346        1453020819.9322572     
   661871392.90943575       -2929276.5172594190        1481045568.3907387     
   634288430.56901002       -4139168.9482393861        1473499435.6505606     
   606962199.98537552       -4493288.8565792441        1471178405.6102784     
   579892701.15853393       -3991636.2422781587        1474082478.2698925     
   553079934.08848536       -2634211.1053322852        1482211653.6294000     
   330303301.90626407       -2528482.7429634035        1507294875.5205264     
   316181154.00147676       -3684540.7684685737        1500247390.6699560     
   302300209.81893504       -4036586.3864872307        1498316852.4379478     
   288660469.35863847       -3584619.5970225632        1501503260.8245020     
   275261932.62058532       -2328640.4000799358        1509806615.8296227     
  -515464.61833378009       -1902891.6251051975        1532020775.3146207     
  -1485815.4627119787       -3097820.4576794337        1525453822.3133492     
  -2230490.6194012538       -3540496.9979572566        1523895659.8493071     
  -2749490.0883919518       -3230921.2459057951        1527346287.9224961     
  -3042813.8696888760       -2169093.2015431440        1535805706.5329132     
   1107255701.9571724       -3683423.0359641910        1422234114.7381945     
   1065723876.1304612        650675.61107039452        1419995608.6913884     
   1023337863.1753715        2137483.8301758766        1420181782.5121539     
   980097663.09189677        777001.62133294344        1422792636.2004879     
   936003275.88004088       -3430771.0154469609        1427828169.7563865     
   830411190.53401637       -3085805.3172920346        1453020819.9322572     
   795648316.78694928       -896348.95412579179        1450031599.5906785     
   760014072.16485226       -1611462.1743935049        1450319503.0467680     
   723508456.66771674       -5231144.9781228602        1453884530.3005202     
   686131470.29554892       -11755397.365294725        1460726681.3519404     
   553079934.08848536       -2634211.1053322852        1482211653.6294000     
   527521566.50705874       -1858730.8002288938        1478451671.2886195     
   501074644.30394709       -4045099.2340757251        1478821256.6756003     
   473739167.47914267       -9193316.4068970382        1483320409.7903447     
   445515136.03265560       -17303382.318661362        1491949130.6328542     
   275261932.62058532       -2328640.4000799358        1509806615.8296227     
   261343625.29079187       -2236469.9272399247        1505255823.7852049     
   246519579.59265587       -5163427.3488735706        1505687043.3986509     
   230789795.52617761       -11109512.664981768        1511100274.6699569     
   214154273.09136057       -20074725.875552580        1521495517.5991273     
  -3042813.8696888760       -2169093.2015431440        1535805706.5329132     
  -2885506.8618612569       -2029566.3351834770        1530444057.0804391     
  -3651121.9690239355       -4966446.5187921617        1530916863.2159219     
  -5339659.1911860611       -10979733.752397966        1537224124.9393632     
  -7951118.5283337263       -20069428.035956956        1549365842.2507648     
   936003275.88004088       -3430771.0154469609        1427828169.7563865     
   872255703.40834582       -24406311.551390469        1413941978.6663728     
   802194090.16093051       -66428654.673063457        1408380167.0295799     
   725818436.13779676       -129497800.38046622        1411142734.8460100     
   643128741.33894515       -213613748.67359141        1422229682.1156447     
   686131470.29554892       -11755397.365294725        1460726681.3519404     
   644502034.94656742       -25009736.088075489        1444098875.3559504     
   600147694.66432834       -47347091.255050927        1434378825.7365575     
   553068449.44883645       -78767462.866202384        1431566532.4937758     
   503264299.30009598       -119270850.92151883        1435661995.6275804     
   445515136.03265560       -17303382.318661362        1491949130.6328542     
   421956343.30177069       -24050767.579681039        1476767034.8804195     
   399261781.48010099       -27917383.143319726        1467076072.4279778     
   377431450.56763715       -28903229.009600490        1462876243.2755196     
   356465350.56439102       -27008305.178496301        1464167547.4230509     
   214154273.09136057       -20074725.875552580        1521495517.5991273     
   204618628.47396114       -21529406.026182964        1511946457.2397997     
   199536350.60824245       -8139530.3378776833        1506471907.1038404     
   198907439.49419695        20094901.189337552        1505071867.1912615     
   202731895.13182494        63173888.555464543        1507746337.5020483     
  -7951118.5283337263       -20069428.035956956        1549365842.2507648     
  -7511109.5368595915       -17445651.427574914        1549637142.4340811     
   971402.04875481175        11986467.161273990        1552566329.7641563     
   17496416.228503741        68226927.730570972        1558153404.2409911     
   42063933.002401955        151275730.28036833        1566398365.8645785     
   62993.855848143619        18898.156754443087        656426226.57605827     
   32835.762610250342        21313.157444882818        770931990.54729927     
   4014.4424605422064        28184.068429229646        885614813.73125386     
  -23470.104601173807        39510.889707165457        1000474696.1279215     
  -49617.878574759015        55293.621278523686        1115511637.7373025     
  -448301738.07959014       -134490521.42387706        657905633.55749929     
  -447529911.43059278       -125464504.46602961        774107708.31383884     
  -446025565.45249617       -113996756.41118532        888667265.51522553     
  -443788700.14530063       -100087277.25934416        1001584305.1616589     
  -440819315.50900620       -83736067.010506347        1112858827.2531390     
  -890443565.89315426       -267133069.76794627        662336596.81760812     
  -894068545.26668286       -250643088.08237022        781088028.67439234     
  -896229822.75510144       -229274100.11309412        896377366.20855725     
  -896927398.35841024       -203026105.86011851        1008204609.4201022     
  -896161272.07660878       -171899105.32344276        1116569758.3090274     
  -1326362489.5848439       -397908746.87545317        669719116.35638487     
  -1339583065.7456598       -375514437.69157684        791872951.62895977     
  -1350608757.4653552       -345803847.03729767        908745115.81124878     
  -1359439564.7439299       -308776974.91261595        1020335608.9032518     
  -1366075487.5813835       -264433821.31753081        1126644430.9049683     
  -1756058509.1546590       -526817552.74639767        680053192.17382944     
  -1784073472.8675241       -500078553.29364985        806462477.17754149     
  -1809162369.5832574       -463585997.18379581        925770514.32330060     
  -1831325199.3018591       -417339884.41683626        1037977303.6111073     
  -1850561962.0233290       -361340214.99277008        1143082845.0409613     
  -49617.878574759015        55293.621278523686        1115511637.7373025     
  -12896.272206243535        85808.898037827399        1188617438.8815074     
   19766.625525604173        102795.14600802171        1258592573.4371896     
   48370.814621056837        106252.36519042769        1325437041.4043486     
   72916.295079882475        96180.555583730020        1389150842.7829862     
  -440819315.50900620       -83736067.010506347        1112858827.2531390     
  -442762214.44926870       -69029974.886897221        1181044669.7385561     
  -445550665.50034136       -57142389.799320698        1247451722.1965830     
  -449184668.66222376       -48073311.747777477        1312079984.6272199     
  -453664223.93491584       -41822740.732265890        1374929457.0304677     
  -896161272.07660878       -171899105.32344276        1116569758.3090274     
  -896221287.10312438       -141358685.01487020        1178853899.8331215     
  -897968347.64262247       -116441749.74957323        1240711127.8909588     
  -901402453.69510388       -97148299.527555138        1302141442.4825380     
  -906523605.26056838       -83478334.348812729        1363144843.6078601     
  -1366075487.5813835       -264433821.31753081        1126644430.9049683     
  -1360390114.2337718       -216900321.48587990        1182045129.1652043     
  -1357233279.8013172       -177795284.70475051        1238370790.5203149     
  -1356604984.2840195       -147118710.97414386        1295621414.9703009     
  -1358505227.6818767       -124870600.29405463        1353797002.5151627     
  -1850561962.0233290       -361340214.99277008        1143082845.0409613     
  -1835268695.8412132       -295654884.29992968        1190618357.7348034     
  -1823345461.9764261       -241202994.66485155        1240430710.0846527     
  -1814792260.4289708       -197984546.08754367        1292519902.0905104     
  -1809609091.1988425       -165999538.56799656        1346885933.7523751     
   72916.295079882475        96180.555583730020        1389150842.7829862     
  -148644.72138548383        73893.131706070519        1409838804.5627794     
  -325520.87439459772        200555.25268275928        1433716627.0465577     
  -457712.16394910339        476166.91850822896        1460784310.2343204     
  -545218.59004939813        900728.12918072101        1491041854.1260681     
  -453664223.93491584       -41822740.732265890        1374929457.0304677     
  -443681557.10546577       -32962260.989505947        1395488940.0831168     
  -433993178.54106987       -25082742.130260527        1418658099.1209538     
  -424599088.24172854       -18184184.154529691        1444436934.1439788     
  -415499286.20744210       -12266587.062316030        1472825445.1521919     
  -906523605.26056838       -83478334.348812729        1363144843.6078601     
  -887994381.21033657       -66232388.626957834        1383180379.2834370     
  -870098418.55366826       -51097314.216981620        1405245406.2254055     
  -852835717.29056382       -38073111.118885219        1429339924.4337659     
  -836206277.42102361       -27159779.332667768        1455463933.9085166     
  -1358505227.6818767       -124870600.29405463        1353797002.5151627     
  -1333087117.0359964       -99736489.780644596        1372913122.1637397     
  -1308641240.9121907       -77843161.007481158        1393478548.3599124     
  -1285167599.3104553       -59190613.974556327        1415493281.1036799     
  -1262666192.2307944       -43778848.681875467        1438957320.3950415     
  -1809609091.1988425       -165999538.56799656        1346885933.7523751     
  -1778959764.5824463       -133474564.45056969        1364687168.7240255     
  -1749621645.6166329       -105320282.50175214        1383357525.5244739     
  -1721594734.3014021       -81536692.721543252        1402897004.1537201     
  -1694879030.6367543       -62123795.109944046        1423305604.6117654     
  -545218.59004939813        900728.12918072101        1491041854.1260681     
  -692898.28431415663        1267763.7682583525        1495428298.6050205     
  -911289.38564638083        1399094.7171114446        1502901143.7190416     
  -1200391.8940479471        1294720.9757333971        1513460389.4681289     
  -1560205.8095166131        954642.54413133650        1527106035.8522873     
  -415499286.20744210       -12266587.062316030        1472825445.1521919     
  -405519663.50813484       -7262888.0134852976        1475149485.2357569     
  -396022353.14348221       -3866896.7468374670        1481107358.0462906     
  -387007355.11348367       -2078613.2623702437        1490699063.5837913     
  -378474669.41814214       -1898037.5600930005        1503924601.8482602     
  -836206277.42102361       -27159779.332667768        1455463933.9085166     
  -814535260.63700199       -17050189.366744578        1455245368.5145092     
  -793758157.11522102       -9920310.2749589384        1459208067.9393699     
  -773874966.85568190       -5770142.0573109686        1467352032.1830986     
  -754885689.85838389       -4599684.7138005197        1479677261.2456949     
  -1262666192.2307944       -43778848.681875467        1438957320.3950415     
  -1227739689.6709146       -28094140.291514874        1435715948.4412780     
  -1194118701.3008626       -16761145.867249489        1437203273.3982811     
  -1161803227.1206372       -9779865.4090712667        1443419295.2660537     
  -1130793267.1302423       -7150298.9169956446        1454364014.0445940     
  -1694879030.6367543       -62123795.109944046        1423305604.6117654     
  -1645132950.6098731       -40394740.787803650        1416561225.0160601     
  -1597103985.7004070       -24389403.523712039        1415092974.4230232     
  -1550792135.9083540       -14107783.317665756        1418900852.8326547     
  -1506197401.2337170       -9549880.1696720719        1427984860.2449539     
  -1560205.8095166131        954642.54413133650        1527106035.8522873     
  -1186926.1939817336        613906.72761874588        1521754592.1125662     
  -888376.12360779638        24072.427237736760        1520789900.7763824     
  -664555.59839050029       -814860.35699978424        1524211961.8437343     
  -515464.61833378009       -1902891.6251051975        1532020775.3146207     
  -378474669.41814214       -1898037.5600930005        1503924601.8482602     
  -366593815.49669445       -1533653.7977744788        1498629365.9120965     
  -354771732.14682621       -1365171.9407214075        1497636637.9049070     
  -343008419.36853999       -1392591.9889420569        1500946417.8266938     
  -331303877.16183287       -1615913.9424263984        1508558705.6774533     
  -754885689.85838389       -4599684.7138005197        1479677261.2456949     
  -731737960.12976563       -3602390.9222689569        1474456851.9155953     
  -708633041.99914944       -2747802.4574115872        1473454706.0399091     
  -685570935.46653652       -2035919.3192333579        1476670823.6186371     
  -662551640.53192735       -1466741.5077312291        1484105204.6517816     
  -1130793267.1302423       -7150298.9169956446        1454364014.0445940     
  -1096619360.0931981       -5592304.6458758712        1449237050.1230631     
  -1062472305.6805761       -4123819.1228312850        1448244105.1813872     
  -1028352103.8923824       -2744842.3478804231        1451385179.2195654     
  -994258754.72861409       -1455374.3210128546        1458660272.2375987     
  -1506197401.2337170       -9549880.1696720719        1427984860.2449539     
  -1461238015.3869910       -7503394.9685874581        1422969960.5345006     
  -1416289523.1911097       -5493221.9369865060        1422004835.3293428     
  -1371351924.6460781       -3519361.0748838186        1425089484.6294780     
  -1326425219.7518938       -1581812.3822724819        1432223908.4349062     
  -515464.61833378009       -1902891.6251051975        1532020775.3146207     
  -1485815.4627119787       -3097820.4576794337        1525453822.3133492     
  -2230490.6194012538       -3540496.9979572566        1523895659.8493071     
  -2749490.0883919518       -3230921.2459057951        1527346287.9224961     
  -3042813.8696888760       -2169093.2015431440        1535805706.5329132     
  -331303877.16183287       -1615913.9424263984        1508558705.6774533     
  -318682913.65943611       -1639674.1024241894        1502051423.6995246     
  -306052870.52735627       -1633168.8301461190        1500719938.6805234     
  -293413747.76559758       -1596398.1256055683        1504564250.6204472     
  -280765545.37416035       -1529361.9888029993        1513584359.5192971     
  -662551640.53192735       -1466741.5077312291        1484105204.6517816     
  -635862201.47790372       -176184.63368284702        1477404898.2961783     
  -609380278.85221362        422650.81258764863        1476047395.3212001     
  -583105872.65485919        329764.83107122779        1480032695.7268438     
  -557038982.88583791       -454842.57821965218        1489360799.5131071     
  -994258754.72861409       -1455374.3210128546        1458660272.2375987     
  -953023678.91811717        1292647.9485352039        1451514246.1033046     
  -912212715.59397113        2626961.9302496910        1449878029.7713311     
  -871825864.75617301        2547567.6241356134        1453751623.2416770     
  -831863126.40472078        1054465.0302028656        1463135026.5143383     
  -1326425219.7518938       -1581812.3822724819        1432223908.4349062     
  -1270167345.9800801        2766823.6442217231        1424379467.1209068     
  -1214550180.7526259        4979764.5228500962        1422211842.0309219     
  -1159573724.0695398        5057010.2535852790        1425721033.1649508     
  -1105237975.9308133        2998560.8364558220        1434907040.5229950     
  -3042813.8696888760       -2169093.2015431440        1535805706.5329132     
  -2885506.8618612569       -2029566.3351834770        1530444057.0804391     
  -3651121.9690239355       -4966446.5187921617        1530916863.2159219     
  -5339659.1911860611       -10979733.752397966        1537224124.9393632     
  -7951118.5283337263       -20069428.035956956        1549365842.2507648     
  -280765545.37416035       -1529361.9888029993        1513584359.5192971     
  -266607520.10809082       -1662039.0729073882        1507517116.3688984     
  -252888899.80136171       -3259399.3548147678        1506448017.2023711     
  -239609684.45397335       -6321442.8345233500        1510377062.0197155     
  -226769874.06591910       -10848169.512011789        1519304250.8209388     
  -557038982.88583791       -454842.57821965218        1489360799.5131071     
  -531269701.08749127       -1576562.1305992603        1483152066.0130475     
  -505456307.09282672       -2551241.0285851359        1481105164.8927741     
  -479598800.90184462       -3378879.2721804976        1483220096.1522908     
  -453697182.51453972       -4059476.8613638580        1489496859.7915931     
  -831863126.40472078        1054465.0302028656        1463135026.5143383     
  -796872049.80005491       -1773135.5082350075        1457348906.0128851     
  -761353343.84341419       -2841971.5400907695        1454888306.2871368     
  -725307008.53479886       -2152043.0653626025        1455753227.3370850     
  -688733043.87420416        296649.91596090794        1459943669.1627431     
  -1105237975.9308133        2998560.8364558220        1434907040.5229950     
  -1063414566.2457830       -2251759.2058151364        1430107636.3684144     
  -1020580010.0531236       -4131590.8893280029        1427797441.3854535     
  -976734307.35283351       -2640934.2140675187        1427976455.5741062     
  -931877458.14490390        2220210.8199883699        1430644678.9343784     
  -7951118.5283337263       -20069428.035956956        1549365842.2507648     
  -7511109.5368595915       -17445651.427574914        1549637142.4340811     
   971402.04875481175        11986467.161273990        1552566329.7641563     
   17496416.228503741        68226927.730570972        1558153404.2409911     
   42063933.002401955        151275730.28036833        1566398365.8645785     
  -226769874.06591910       -10848169.512011789        1519304250.8209388     
  -218260708.34554410       -10561946.060567454        1524751513.6699107     
  -205282152.92127651        4622243.0705173463        1534287368.3536494     
  -187834207.79312328        34704397.881225556        1547911814.8721590     
  -165916872.96107435        79684518.371578500        1565624853.2254326     
  -453697182.51453972       -4059476.8613638580        1489496859.7915931     
  -433031132.38523686       -4884488.2628491521        1495951453.6009367     
  -411468805.44229186       -2721910.2855270207        1507925343.9330552     
  -389010201.68571198        2428257.0705851763        1525418530.7879491     
  -365655321.11548132        10566013.805516079        1548431014.1656244     
  -688733043.87420416        296649.91596090794        1459943669.1627431     
  -651822381.65594912       -413278.03444999456        1463236962.2271609     
  -617588555.51429820       -10045992.906875730        1473480256.5023634     
  -586031565.44926190       -28601494.701347023        1490673551.9883590     
  -557151411.46082795       -56079783.417831525        1514816848.6851261     
  -931877458.14490390        2220210.8199883699        1430644678.9343784     
  -874634456.15766990        2851684.6246598959        1426608039.5485809     
  -823641403.13728905       -17350004.793513179        1430952106.0615799     
  -778898299.08377075       -58384857.434561908        1443676878.4733701     
  -740405143.99710751       -120252873.29845901        1464782356.7839608     
  -1756058509.1546590       -526817552.74639767        680053192.17382944     
  -1784073472.8675241       -500078553.29364985        806462477.17754149     
  -1809162369.5832574       -463585997.18379581        925770514.32330060     
  -1831325199.3018591       -417339884.41683626        1037977303.6111073     
  -1850561962.0233290       -361340214.99277008        1143082845.0409613     
  -2201757618.0727129       -660527285.42181385        696443710.99528837     
  -2238360112.9013538       -613887682.53082442        813872307.13489687     
  -2272921767.8911252       -560445280.17693436        927203911.01919031     
  -2305442583.0420265       -500200078.36014426        1036438522.6481678     
  -2335922558.3540564       -433152077.08045328        1141576142.0218301     
  -2685685809.8091183       -805705742.94273543        721995559.54610801     
  -2722292248.3174291       -736590460.38267255        829410701.80364156     
  -2757743074.1451311       -663623135.55391455        935733107.40849662     
  -2792038287.2922249       -586803768.45646167        1040962776.3606735     
  -2825177887.7587118       -506132359.09031421        1145099708.6601725     
  -3207843084.3638744       -962352925.30916238        756708737.82628846     
  -3235869879.1157494       -868186886.84919405        853077661.18377483     
  -3263626288.3452768       -773119563.31473660        951358103.49121988     
  -3291112312.0524573       -677150954.70578933        1051550064.7486246     
  -3318327950.2372913       -580281061.02235270        1153653544.9559872     
  -3768229441.7369833       -1130468832.5210950        800583245.83582950     
  -3779093005.2963147       -1008676961.9303895        884873185.27529669     
  -3790571410.4915605       -888934563.45939982        974078899.26736009     
  -3802664657.3227220       -771241637.10812616        1068200387.8120198     
  -3815372745.7897987       -655598182.87656963        1167237650.9092755     
  -1850561962.0233290       -361340214.99277008        1143082845.0409613     
  -1835268695.8412132       -295654884.29992968        1190618357.7348034     
  -1823345461.9764261       -241202994.66485155        1240430710.0846527     
  -1814792260.4289708       -197984546.08754367        1292519902.0905104     
  -1809609091.1988425       -165999538.56799656        1346885933.7523751     
  -2335922558.3540564       -433152077.08045328        1141576142.0218301     
  -2312426615.5716224       -352106099.99197310        1182853656.0319340     
  -2292418633.2563329       -282686657.79397625        1224619317.0642054     
  -2275898611.4081888       -224893750.48646450        1266873125.1186433     
  -2262866550.0271893       -178727378.06943548        1309615080.1952488     
  -2825177887.7587118       -506132359.09031421        1145099708.6601725     
  -2798589818.7583599       -411258900.72091597        1179981641.1450870     
  -2775607638.3749690       -328405071.07471979        1213563028.0183280     
  -2756231346.6085377       -257570870.15172493        1245843869.2798946     
  -2740460943.4590683       -198756297.95193255        1276824164.9297891     
  -3318327950.2372913       -580281061.02235270        1153653544.9559872     
  -3293758305.4014254       -473113286.48675740        1182002313.0742610     
  -3272912477.3323340       -378358234.50708139        1207261842.9470208     
  -3255790466.0300198       -296015905.08332598        1229432134.5742662     
  -3242392271.4944806       -226086298.21549034        1248513187.9559975     
  -3815372745.7897987       -655598182.87656963        1167237650.9092755     
  -3797932075.5008178       -537669257.28949583        1188915671.8194571     
  -3784333150.1284294       -432546148.09106290        1205715761.8502834     
  -3774575969.6726322       -340228855.28126538        1217637921.0017555     
  -3768660534.1334267       -260717378.86010897        1224682149.2738721     
  -1809609091.1988425       -165999538.56799656        1346885933.7523751     
  -1778959764.5824463       -133474564.45056969        1364687168.7240255     
  -1749621645.6166329       -105320282.50175214        1383357525.5244739     
  -1721594734.3014021       -81536692.721543252        1402897004.1537201     
  -1694879030.6367543       -62123795.109944046        1423305604.6117654     
  -2262866550.0271893       -178727378.06943548        1309615080.1952488     
  -2223296868.9294839       -134293873.95628822        1317627362.2661524     
  -2186630977.3990703       -99539668.400779366        1328884211.3410225     
  -2152868875.4359484       -74464761.402909875        1343385627.4198575     
  -2122010563.0401175       -59069152.962678313        1361131610.5026584     
  -2740460943.4590683       -198756297.95193255        1276824164.9297891     
  -2685183921.6652918       -140378167.97863865        1273189481.8637865     
  -2634403271.3555145       -96987942.952011824        1275174810.9769173     
  -2588118992.5297375       -68585622.872052431        1282780152.2691813     
  -2546331085.1879606       -55171207.738759637        1296005505.7405772     
  -3242392271.4944806       -226086298.21549034        1248513187.9559975     
  -3164620922.7898674       -151727446.51761866        1231373527.5169289     
  -3092938527.4859629       -97665106.155442357        1222229324.4321597     
  -3027345085.5827675       -63899277.128964782        1221080578.7016914     
  -2967840597.0802813       -50429959.438184142        1227927290.3255217     
  -3768660534.1334267       -260717378.86010897        1224682149.2738721     
  -3661607872.3032136       -168341709.57323050        1192179499.2255771     
  -3562236745.7904191       -101571158.01107883        1170047751.7067487     
  -3470547154.5950418       -60405724.173653603        1158286906.7173874     
  -3386539098.7170811       -44845408.060950994        1156896964.2574933     
  -1694879030.6367543       -62123795.109944046        1423305604.6117654     
  -1645132950.6098731       -40394740.787803650        1416561225.0160601     
  -1597103985.7004070       -24389403.523712039        1415092974.4230232     
  -1550792135.9083540       -14107783.317665756        1418900852.8326547     
  -1506197401.2337170       -9549880.1696720719        1427984860.2449539     
  -2122010563.0401175       -59069152.962678313        1361131610.5026584     
  -2060017907.5666845       -40581487.666256547        1353468238.4435220     
  -1999241185.2075562       -26146932.750850558        1350697192.8850000     
  -1939680395.9627323       -15765488.216458082        1352818473.8270946     
  -1881335539.8322148       -9437154.0630867481        1359832081.2698019     
  -2546331085.1879606       -55171207.738759637        1296005505.7405772     
  -2473188432.8452697       -40253905.041243434        1288007853.5549715     
  -2400760531.6137738       -27719106.047709346        1284518725.3679268     
  -2329047381.4934740       -17566810.758162737        1285538121.1794450     
  -2258048982.4843707       -9797019.1726037264        1291066040.9895215     
  -2967840597.0802813       -50429959.438184142        1227927290.3255217     
  -2884644526.4456291       -39411992.912759185        1220180070.3504074     
  -2801662024.9190631       -29105923.414292097        1216557571.8718007     
  -2718893092.5005813       -19511750.942773700        1217059794.8897026     
  -2636337729.1901898       -10629475.498217821        1221686739.4041114     
  -3386539098.7170811       -44845408.060950994        1156896964.2574933     
  -3294386188.3677621       -38055751.280813694        1149984888.8298302     
  -3201945665.1234188       -30307384.850590825        1146813732.3966229     
  -3109217528.9840517       -21600308.770297170        1147383494.9578695     
  -3016201779.9496636       -11934523.039925218        1151694176.5135705     
  -1506197401.2337170       -9549880.1696720719        1427984860.2449539     
  -1461238015.3869910       -7503394.9685874581        1422969960.5345006     
  -1416289523.1911097       -5493221.9369865060        1422004835.3293428     
  -1371351924.6460781       -3519361.0748838186        1425089484.6294780     
  -1326425219.7518938       -1581812.3822724819        1432223908.4349062     
  -1881335539.8322148       -9437154.0630867481        1359832081.2698019     
  -1825090295.2613459       -6087804.6849209070        1354205874.2314131     
  -1769177975.5809832       -3848204.9417718649        1352910661.5115910     
  -1713598580.7911310       -2718354.8336584568        1355946443.1103339     
  -1658352110.8917861       -2698254.3605729342        1363313219.0276432     
  -2258048982.4843707       -9797019.1726037264        1291066040.9895215     
  -2189714394.0085812       -4903760.0631126165        1284452823.5102587     
  -2122034761.6629596       -2193688.0541813374        1282451820.1628330     
  -2055010085.4475112       -1666803.1458295584        1285063030.9472446     
  -1988640365.3622317       -3323105.3380377293        1292286455.8634944     
  -2636337729.1901898       -10629475.498217821        1221686739.4041114     
  -2555110311.6287007       -3951261.1031708717        1213710808.3710365     
  -2474859881.4370465       -529671.27423238754        1210628311.2830698     
  -2395586438.6152201       -364706.01139509678        1212439248.1402140     
  -2317289983.1632271       -3456365.3146649599        1219143618.9424665     
  -3016201779.9496636       -11934523.039925218        1151694176.5135705     
  -2921278048.1217031       -3230307.8050965071        1141979828.8137436     
  -2827653334.9032340        1143845.3980951309        1137440134.8722980     
  -2735327640.2942615        1187936.5696293116        1138075094.6892354     
  -2644300964.2947793       -3098034.2904659510        1143884708.2645535     
  -1326425219.7518938       -1581812.3822724819        1432223908.4349062     
  -1270167345.9800801        2766823.6442217231        1424379467.1209068     
  -1214550180.7526259        4979764.5228500962        1422211842.0309219     
  -1159573724.0695398        5057010.2535852790        1425721033.1649508     
  -1105237975.9308133        2998560.8364558220        1434907040.5229950     
  -1658352110.8917861       -2698254.3605729342        1363313219.0276432     
  -1588183037.4460027        679780.39273542166        1355218072.0408072     
  -1518418740.2857766        2708560.8608444929        1352371016.5652893     
  -1449059219.4111164        3388087.0437359214        1354772052.6010814     
  -1380104474.8220203        2718358.9414178133        1362421180.1481884     
  -1988640365.3622317       -3323105.3380377293        1292286455.8634944     
  -1905785019.9930530       -1283150.1830909252        1284215857.5057609     
  -1823098518.6506341        193991.54931974411        1280964625.9466412     
  -1740580861.3349762        1108319.8591915369        1282532761.1861310     
  -1658232048.0460813        1459834.7465268373        1288920263.2242365     
  -2317289983.1632271       -3456365.3146649599        1219143618.9424665     
  -2222973293.6212330       -3121968.0832585096        1211372823.5157659     
  -2128589515.8471906       -2563943.4117077589        1207992670.1749785     
  -2034138649.8411095       -1782291.3000198603        1209003158.9201021     
  -1939620695.6029942       -777011.74821460247        1214404289.7511356     
  -2644300964.2947793       -3098034.2904659510        1143884708.2645535     
  -2539747858.3305359       -4836673.3077565432        1136688970.0708234     
  -2434891731.8754535       -5565244.0222502947        1133455149.2503040     
  -2329732584.9295273       -5283746.4339356422        1134183245.8029928     
  -2224270417.4927664       -3992180.5428304672        1138873259.7288911     
  -1105237975.9308133        2998560.8364558220        1434907040.5229950     
  -1063414566.2457830       -2251759.2058151364        1430107636.3684144     
  -1020580010.0531236       -4131590.8893280029        1427797441.3854535     
  -976734307.35283351       -2640934.2140675187        1427976455.5741062     
  -931877458.14490390        2220210.8199883699        1430644678.9343784     
  -1380104474.8220203        2718358.9414178133        1362421180.1481884     
  -1331234543.9380174       -3507960.0311729312        1357820289.6602314     
  -1281650702.7632413       -7354578.0345274806        1356375821.4453268     
  -1231352951.2976937       -8821495.0686371922        1358087775.5034730     
  -1180341289.5413666       -7908711.1334869266        1362956151.8346710     
  -1658232048.0460813        1459834.7465268373        1288920263.2242365     
  -1600409272.8161519       -5170586.2123032808        1284171110.8165667     
  -1542169823.5123057       -10412093.591416895        1283245593.7833838     
  -1483513700.1345434       -14264687.390803397        1286143712.1246886     
  -1424440902.6828647       -16728367.610469580        1292865465.8404777     
  -1939620695.6029942       -777011.74821460247        1214404289.7511356     
  -1870938752.8801827       -7239637.7492063046        1209160099.8374248     
  -1802137372.3003111       -13304137.559988976        1208406758.3996308     
  -1733216553.8633807       -18970511.180576086        1212144265.4377584     
  -1664176297.5693858       -24238758.610950887        1220372620.9518051     
  -2224270417.4927664       -3992180.5428304672        1138873259.7288911     
  -2142822984.1301138       -9715114.6418694258        1132787256.7227991     
  -2061553349.1272588       -16030709.940237164        1131859315.2940633     
  -1980461512.4842045       -22938966.437938094        1136089435.4426813     
  -1899547474.2009466       -30439884.134960771        1145477617.1686540     
  -931877458.14490390        2220210.8199883699        1430644678.9343784     
  -874634456.15766990        2851684.6246598959        1426608039.5485809     
  -823641403.13728905       -17350004.793513179        1430952106.0615799     
  -778898299.08377075       -58384857.434561908        1443676878.4733701     
  -740405143.99710751       -120252873.29845901        1464782356.7839608     
  -1180341289.5413666       -7908711.1334869266        1362956151.8346710     
  -1101869715.9824753       -3906297.4274391532        1353799780.1023815     
  -1027506565.0900979       -13598625.943102837        1351814463.7030215     
  -957251836.86422682       -36985696.680471182        1357000202.6365976     
  -891105531.30487788       -74067509.639552832        1369356996.9031072     
  -1424440902.6828647       -16728367.610469580        1292865465.8404777     
  -1328196902.0262067       -10391857.345215857        1281087809.1121001     
  -1233919797.7357197       -10611668.300526321        1275271557.1507921     
  -1141609589.8113959       -17387800.476392806        1275416709.9565489     
  -1051266278.2532438       -30720253.872818649        1281523267.5293849     
  -1664176297.5693858       -24238758.610950887        1220372620.9518051     
  -1553616014.2888622       -16604995.128669918        1208472126.5777419     
  -1442881101.0741637       -8389131.8658081293        1201323386.4048827     
  -1331971557.9252744        408831.17767870426        1198926400.4332366     
  -1220887384.8422246        9788894.0017310977        1201281168.6627865     
  -1899547474.2009466       -30439884.134960771        1145477617.1686540     
  -1778127052.7704456       -22545710.777812243        1135952732.4993038     
  -1654390475.1054192       -6931016.6389175653        1129969951.4652977     
  -1528337741.2058704        16404198.281718850        1127529274.0666397     
  -1399968851.0718024        47459933.984095097        1128630700.3033228     
  -3768229441.7369833       -1130468832.5210950        800583245.83582950     
  -3779093005.2963147       -1008676961.9303895        884873185.27529669     
  -3790571410.4915605       -888934563.45939982        974078899.26736009     
  -3802664657.3227220       -771241637.10812616        1068200387.8120198     
  -3815372745.7897987       -655598182.87656963        1167237650.9092755     
  -4339715604.3404579       -1301914681.3021371        858765462.62597024     
  -4335211623.9442482       -1125724879.5572066        942361552.29382133     
  -4331845316.2137671       -953327320.03137112        1020309686.3392862     
  -4329616681.1490154       -784722002.72463083        1092609864.7623651     
  -4328525718.7499914       -619908927.63698542        1159262087.5630581     
  -4895172294.5863104       -1468551688.3758934        936401767.24794960     
  -4905482856.4487982       -1247018581.3410089        1018694037.6094017     
  -4917453922.0068245       -1031020486.6245975        1084774622.1734855     
  -4931085491.2603941       -820557404.22666025        1134643520.9402018     
  -4946377564.2095060       -615629334.14719725        1168300733.9095490     
  -5434599512.4745474       -1630379853.7423642        1033492159.7017676     
  -5489906702.8099613       -1372558067.2817950        1113870641.2220380     
  -5547397227.8707314       -1122014063.2390788        1167473706.7699583     
  -5607071087.6568556       -878747841.61421490        1194301356.3455281     
  -5668928282.1683369       -642759402.40720415        1194353589.9487479     
  -5957997258.0051632       -1787399177.4015491        1150036639.9874237     
  -6088483163.0277395       -1502343337.3795657        1227891363.1317301     
  -6221675233.8054867       -1226308049.8748150        1268406940.1287043     
  -6357573470.3384037       -959293314.88729572        1271583370.9783459     
  -6496177872.6264877       -701299132.41700768        1237420655.6806550     
  -3815372745.7897987       -655598182.87656963        1167237650.9092755     
  -3797932075.5008178       -537669257.28949583        1188915671.8194571     
  -3784333150.1284294       -432546148.09106290        1205715761.8502834     
  -3774575969.6726322       -340228855.28126538        1217637921.0017555     
  -3768660534.1334267       -260717378.86010897        1224682149.2738721     
  -4328525718.7499914       -619908927.63698542        1159262087.5630581     
  -4298171619.6306438       -464148600.05917430        1141339258.3855529     
  -4278437005.1154122       -343786554.49508440        1129497443.3436682     
  -4269321875.2042971       -258822790.94471788        1123736642.4374051     
  -4270826229.8972998       -209257309.40807223        1124056855.6667631     
  -4946377564.2095060       -615629334.14719725        1168300733.9095490     
  -4871798764.7884283       -412644223.13723922        1102869691.6755774     
  -4814617189.6589947       -267649859.76608777        1054478608.5922031     
  -4774832838.8212032       -180646244.03374052        1023127484.6594255     
  -4752445712.2750521       -151633375.94019842        1008816319.8772447     
  -5668928282.1683369       -642759402.40720415        1194353589.9487479     
  -5518813510.9741745       -383156126.52369332        1073506971.6895317     
  -5392873703.7591791       -204136063.90406966        980659257.59588683     
  -5291108860.5233498       -105699214.54833603        915810447.66781664     
  -5213518981.2666883       -87845578.456489086        878960541.90531778     
  -6496177872.6264877       -701299132.41700768        1237420655.6806550     
  -6239215858.1878805       -375684310.21853518        1053251098.4274139     
  -6013206547.4159632       -153245166.90903401        908039390.35472095     
  -5818149940.3107376       -33981702.488503933        801785531.46257794     
  -5654046036.8722038       -17893916.956945896        734489521.75098252     
  -3768660534.1334267       -260717378.86010897        1224682149.2738721     
  -3661607872.3032136       -168341709.57323050        1192179499.2255771     
  -3562236745.7904191       -101571158.01107883        1170047751.7067487     
  -3470547154.5950418       -60405724.173653603        1158286906.7173874     
  -3386539098.7170811       -44845408.060950994        1156896964.2574933     
  -4270826229.8972998       -209257309.40807223        1124056855.6667631     
  -4148048458.1265545       -145172452.00343871        1090644855.1532030     
  -4029661264.6557398       -95722855.598574162        1065486839.4218725     
  -3915664649.4848533       -60908520.193471193        1048582808.4727720     
  -3806058612.6138983       -40729445.788136959        1039932762.3058980     
  -4752445712.2750521       -151633375.94019842        1008816319.8772447     
  -4619991166.9844561       -117653831.34401536        978334418.75215697     
  -4488636242.9763021       -87339691.022638798        953989584.66206086     
  -4358380940.2505903       -60690954.976069212        935781817.60695422     
  -4229225258.8073192       -37707623.204301596        923711117.58684075     
  -5213518981.2666883       -87845578.456489086        878960541.90531778     
  -5077435998.8769226       -85785847.594960213        855248190.02243936     
  -4939161680.7521105       -76421664.283277988        835555987.42731237     
  -4798696026.8922510       -59753028.521441460        819883934.11993837     
  -4656039037.2973452       -35779940.309447289        808232030.10031652     
  -5654046036.8722038       -17893916.956945896        734489521.75098252     
  -5520382953.8039494       -49568500.756276131        721386168.96404660     
  -5381237577.9831610       -62968775.380490780        710186047.71762800     
  -5236609909.4098377       -58094740.829594135        700889158.01172173     
  -5086499948.0839796       -34946397.103576899        693495499.84632921     
  -3386539098.7170811       -44845408.060950994        1156896964.2574933     
  -3294386188.3677621       -38055751.280813694        1149984888.8298302     
  -3201945665.1234188       -30307384.850590825        1146813732.3966229     
  -3109217528.9840517       -21600308.770297170        1147383494.9578695     
  -3016201779.9496636       -11934523.039925218        1151694176.5135705     
  -3806058612.6138983       -40729445.788136959        1039932762.3058980     
  -3701998730.7581749       -29784056.752079248        1031920836.8148170     
  -3598539373.1506753       -20840415.210106611        1028368186.0443799     
  -3495680539.7914038       -13898521.162229776        1029274809.9945878     
  -3393422230.6803656       -8958374.6084487438        1034640708.6654407     
  -4229225258.8073192       -37707623.204301596        923711117.58684075     
  -4111205960.5132184       -21990768.432734013        913563182.03187966     
  -3994675323.6105947       -11236118.299422741        908592876.92375433     
  -3879633348.0994511       -5443672.8043756485        908800202.26246452     
  -3766080033.9797812       -4613431.9475874901        914185158.04801035     
  -4656039037.2973452       -35779940.309447289        808232030.10031652     
  -4522007877.6328964       -14675886.322776556        794911924.48101914     
  -4390353516.5031729       -1494494.1185376644        787487805.03474605     
  -4261075953.9081779        3764236.3032808304        785959671.76150131     
  -4134175189.8479128        1100304.9426629543        790327524.66128051     
  -5086499948.0839796       -34946397.103576899        693495499.84632921     
  -4934404482.1172085       -7839410.4222161770        675967064.16223466     
  -4785573951.8284121        8384457.3325536251        665052970.37735665     
  -4640008357.2175961        13725206.160721540        660753218.49169719     
  -4497707698.2847633        8182836.0622928143        663067808.50524938     
  -3016201779.9496636       -11934523.039925218        1151694176.5135705     
  -2921278048.1217031       -3230307.8050965071        1141979828.8137436     
  -2827653334.9032340        1143845.3980951309        1137440134.8722980     
  -2735327640.2942615        1187936.5696293116        1138075094.6892354     
  -2644300964.2947793       -3098034.2904659510        1143884708.2645535     
  -3393422230.6803656       -8958374.6084487438        1034640708.6654407     
  -3286976360.5392151       -4637570.0620214939        1025157159.9961568     
  -3181166632.2925129       -2437238.4970768690        1020373697.1990378     
  -3075993045.9402552       -2357379.9136253595        1020290320.2740809     
  -2971455601.4824419       -4397994.3116500378        1024907029.2212889     
  -3766080033.9797812       -4613431.9475874901        914185158.04801035     
  -3649467933.7717814       -5082810.5634620190        905705764.57682490     
  -3532829098.7431784       -5463073.1106650829        901451889.09158492     
  -3416163528.8939757       -5754219.5891985893        901423531.59229231     
  -3299471224.2241712       -5956249.9990608692        905620692.07894409     
  -4134175189.8479128        1100304.9426629543        790327524.66128051     
  -4008752767.8193970       -4566029.3094139099        783625642.55574739     
  -3882640734.2552338       -7933658.4426672459        780674710.54994321     
  -3755839089.1554198       -9002582.4570882320        781474728.64386690     
  -3628347832.5199599       -7772801.3526909351        786025696.83752084     
  -4497707698.2847633        8182836.0622928143        663067808.50524938     
  -4364830862.6820669       -3087226.2998890877        658916793.93292475     
  -4230601538.8286767       -9848994.4930887222        658042161.57411051     
  -4095019726.7245898       -12102468.517301798        660443911.42880690     
  -3958085426.3698096       -9847648.3725328445        666122043.49701345     
  -2644300964.2947793       -3098034.2904659510        1143884708.2645535     
  -2539747858.3305359       -4836673.3077565432        1136688970.0708234     
  -2434891731.8754535       -5565244.0222502947        1133455149.2503040     
  -2329732584.9295273       -5283746.4339356422        1134183245.8029928     
  -2224270417.4927664       -3992180.5428304672        1138873259.7288911     
  -2971455601.4824419       -4397994.3116500378        1024907029.2212889     
  -2855382639.7495255       -3716726.9756259918        1017863223.5944898     
  -2739160639.4947796       -2538664.5668566227        1015160488.1811583     
  -2622789600.7182107       -863807.08533298969        1016798822.9812956     
  -2506269523.4198198        1307845.4689276218        1022778227.9949023     
  -3299471224.2241712       -5956249.9990608692        905620692.07894409     
  -3170795112.8932562       -2530088.1609164476        898549173.38855457     
  -3042123945.0095396        879595.51990699768        896197877.75189388     
  -2913457720.5730138        4272801.0434336662        898566805.16896105     
  -2784796439.5836821        7649528.4096380472        905655955.63976038     
  -3628347832.5199599       -7772801.3526909351        786025696.83752084     
  -3485985277.7617426       -1276756.8636410236        778746819.45302069     
  -3343781648.4197354        4689536.2380366325        776567317.96250916     
  -3201736944.4939318        10126077.952362657        779487192.36598980     
  -3059851165.9843426        15032868.279314756        787506442.66345680     
  -3958085426.3698096       -9847648.3725328445        666122043.49701345     
  -3800953134.3549705        43266.916223764420        658456161.78788388     
  -3644133749.7253590        8891157.5875437260        656268808.81300724     
  -3487627272.4809709        16696023.641461611        659559984.57237709     
  -3331433702.6218128        23457865.077938795        668329689.06599653     
  -2224270417.4927664       -3992180.5428304672        1138873259.7288911     
  -2142822984.1301138       -9715114.6418694258        1132787256.7227991     
  -2061553349.1272588       -16030709.940237164        1131859315.2940633     
  -1980461512.4842045       -22938966.437938094        1136089435.4426813     
  -1899547474.2009466       -30439884.134960771        1145477617.1686540     
  -2506269523.4198198        1307845.4689276218        1022778227.9949023     
  -2412335544.6965661       -3882330.7137969732        1017074436.0660634     
  -2318936977.5705976       -10857212.220812201        1015694673.3181046     
  -2226073822.0419183       -19616799.052112818        1018638939.7510244     
  -2133746078.1105175       -30161091.207688808        1025907235.3648292     
  -2784796439.5836821        7649528.4096380472        905655955.63976038     
  -2680758865.2040358        2277225.2319602966        899917159.34443343     
  -2577614315.6591630       -6071827.3949586153        897668359.83351469     
  -2475362790.9490614       -17397629.471113205        898909557.10700512     
  -2374004291.0737309       -31700180.996511579        903640751.16490495     
  -3059851165.9843426        15032868.279314756        787506442.66345680     
  -2948092945.6525145        8763553.1954231262        781315426.55790997     
  -2837585363.3929415       -1674555.4626556635        777780374.84030104     
  -2728328419.2056351       -16281457.694947720        776901287.51062346     
  -2620322113.0905805       -35057153.501424074        778678164.56888652     
  -3331433702.6218128        23457865.077938795        668329689.06599653     
  -3214337786.0420094        15576653.176574469        661269237.70649397     
  -3098850120.7719522        2334603.5760542154        656030718.33845341     
  -2984970706.8116369       -16268283.723603845        652614130.96188211     
  -2872699544.1610723       -40232008.722432852        651019475.57676697     
  -1899547474.2009466       -30439884.134960771        1145477617.1686540     
  -1778127052.7704456       -22545710.777812243        1135952732.4993038     
  -1654390475.1054192       -6931016.6389175653        1129969951.4652977     
  -1528337741.2058704        16404198.281718850        1127529274.0666397     
  -1399968851.0718024        47459933.984095097        1128630700.3033228     
  -2133746078.1105175       -30161091.207688808        1025907235.3648292     
  -2004133250.7858603       -27124210.543712258        1017015583.6536431     
  -1872405463.8628721       -17037464.551961303        1012004592.6933472     
  -1738562717.3415580        99146.767540454865        1010874262.4839398     
  -1602605011.2219150        24285623.414809942        1013624593.0254366     
  -2374004291.0737309       -31700180.996511579        903640751.16490495     
  -2235231751.8104892       -33230401.212371588        895147603.00299132     
  -2094545449.5851150       -28381411.554441571        890873672.70751429     
  -1951945384.3976090       -17153212.022743702        890818960.27847934     
  -1807431556.2479601        454197.38274514675        894983465.71589029     
  -2620322113.0905805       -35057153.501424074        778678164.56888652     
  -2471422555.8443432       -40864282.783804297        770348790.54734540     
  -2320810432.2721562       -40962857.646365047        766577191.50779676     
  -2168485742.3740330       -35352878.089138031        767363367.45023429     
  -2014448486.1499748       -24034344.112104177        772707318.37465966     
  -2872699544.1610723       -40232008.722432852        651019475.57676697     
  -2712705662.8874087       -50025855.258003592        642619146.28671074     
  -2551200411.9239845       -54781802.827711940        639115149.09419608     
  -2388183791.2708220       -54499851.431650400        640507483.99921560     
  -2223655800.9279194       -49180001.069745541        646796151.00177085     
  -5957997258.0051632       -1787399177.4015491        1150036639.9874237     
  -6088483163.0277395       -1502343337.3795657        1227891363.1317301     
  -6221675233.8054867       -1226308049.8748150        1268406940.1287043     
  -6357573470.3384037       -959293314.88729572        1271583370.9783459     
  -6496177872.6264877       -701299132.41700768        1237420655.6806550     
  -6810707420.7975407       -2043212226.2392623        1353746616.8910923     
  -6828592994.9714298       -1395497360.5987873        1202731822.1148934     
  -6897844753.1556501       -919003108.32608581        1091981268.2269049     
  -7018462695.3502026       -613729469.42115808        1021494955.2271268     
  -7190446821.5550880       -479676443.88400459        991272883.11555851     
  -8338071890.4710627       -2501421567.1413188        1712333499.1989458     
  -8021633170.8375702       -1424530486.9947445        1275679165.2045524     
  -7805220653.4695711       -681060081.06648445        956892459.13391185     
  -7688834338.3670683       -271010349.35654068        755973380.98702407     
  -7672474225.5300579       -194381291.86491013        672921930.76388824     
  -10540090667.025730       -3162027200.1077189        2225797286.9109845     
  -9667603690.6261616       -1589442716.5674355        1446733392.4007070     
  -8943802934.7472515       -512478968.09601116        863140512.84972441     
  -8368688399.3889999        68864045.306558132        475018648.25803751     
  -7942260084.5514040        154586323.64027023        282367798.62564647     
  -13416763750.461540       -4025029125.1384621        2894137980.0272088     
  -11766504554.337206       -1890234049.3168643        1715894503.7033575     
  -10313591596.988691       -413259769.41466475        810725429.37434387     
  -9058024878.4159946        405893714.56813669        178630757.04016829     
  -7999804398.6191158        567226402.63153934       -180389513.29917008     
  -6496177872.6264877       -701299132.41700768        1237420655.6806550     
  -6239215858.1878805       -375684310.21853518        1053251098.4274139     
  -6013206547.4159632       -153245166.90903401        908039390.35472095     
  -5818149940.3107376       -33981702.488503933        801785531.46257794     
  -5654046036.8722038       -17893916.956945896        734489521.75098252     
  -7190446821.5550880       -479676443.88400459        991272883.11555851     
  -6900554249.7812176       -304397985.09062243        846912454.11063302     
  -6623474115.6260681       -171827651.69297957        723618380.81499767     
  -6359206419.0896387       -81965443.691078901        621390663.22865188     
  -6107751160.1719360       -34811361.084920168        540229301.35159647     
  -7672474225.5300579       -194381291.86491013        672921930.76388824     
  -7400769649.1959496       -184774762.30912733        589534273.72990942     
  -7123737244.4325924       -157408804.65585375        509321478.93396318     
  -6841377011.2399883       -112283418.90508699        432283546.37604779     
  -6553688949.6181374       -49398605.056834221        358420476.05616313     
  -7942260084.5514040        154586323.64027023        282367798.62564647     
  -7739862056.4320765       -16814641.874052525        281116557.28524536     
  -7513995933.8355389       -109988625.79765177        265148684.71161512     
  -7264661716.7617807       -124935628.13053083        234464180.90476081     
  -6991859405.2108078       -61655648.872689724        189063045.86467853     
  -7999804398.6191158        567226402.63153934       -180389513.29917008     
  -7917831471.4896049        199482376.21460342       -78340695.223363578     
  -7794250183.8349056       -29567115.118377209       -8900001.8520399835     
  -7629060535.6550217       -119922071.36740828        27932566.814794429     
  -7422262526.9499540       -71582492.532489300        32157010.777144101     
  -5654046036.8722038       -17893916.956945896        734489521.75098252     
  -5520382953.8039494       -49568500.756276131        721386168.96404660     
  -5381237577.9831610       -62968775.380490780        710186047.71762800     
  -5236609909.4098377       -58094740.829594135        700889158.01172173     
  -5086499948.0839796       -34946397.103576899        693495499.84632921     
  -6107751160.1719360       -34811361.084920168        540229301.35159647     
  -5959332054.8664484       -36492974.884806633        533933702.58240587     
  -5809919094.5723801       -34861738.722757339        530164203.99377841     
  -5659512279.2897320       -29917652.598776579        528920805.58571440     
  -5508111609.0185003       -21660716.512856245        530203507.35821283     
  -6553688949.6181374       -49398605.056834221        358420476.05616313     
  -6388734197.3895607       -20553361.451520920        353696120.58010149     
  -6227274027.9363585       -3356727.0974490643        352120733.92465359     
  -6069308441.2585249        2191298.0053746700        353694316.08982056     
  -5914837437.3560715       -3909286.1430482864        358416867.07559675     
  -6991859405.2108078       -61655648.872689724        189063045.86467853     
  -6808589381.3732891       -1749660.4564228058        180673422.95713434     
  -6633302378.0750971        31546259.495422840        176055637.51025522     
  -6465998395.3162327        38232110.982845068        175209689.52403593     
  -6306677433.0966959        18307894.005839825        178135578.99847829     
  -7422262526.9499540       -71582492.532489300        32157010.777144101     
  -7218897606.8176374        19918128.100492477        14865609.713503955     
  -7028004144.9885969        69847221.055879593        1968914.7505778510     
  -6849582141.4628410        78204786.333645821       -6533074.1116364123     
  -6683631596.2403688        44990823.933818340       -10640356.873142797     
  -5086499948.0839796       -34946397.103576899        693495499.84632921     
  -4934404482.1172085       -7839410.4222161770        675967064.16223466     
  -4785573951.8284121        8384457.3325536251        665052970.37735665     
  -4640008357.2175961        13725206.160721540        660753218.49169719     
  -4497707698.2847633        8182836.0622928143        663067808.50524938     
  -5508111609.0185003       -21660716.512856245        530203507.35821283     
  -5345113461.7622328       -9902694.8902988434        514759250.95459765     
  -5183094767.8850098       -1409517.8645715714        504629399.42648840     
  -5022055527.3868380        3818814.5643329620        499813952.77388507     
  -4861995740.2677097        5782302.3964107037        500312910.99678481     
  -5914837437.3560715       -3909286.1430482864        358416867.07559675     
  -5744650714.5923386       -8614461.3139145374        347723185.96787918     
  -5573157962.9087219       -8966206.7518341541        341043972.71195722     
  -5400359182.3052187       -4964522.4567990303        338379227.30783010     
  -5226254372.7818346        3390591.5711774826        339728949.75549883     
  -6306677433.0966959        18307894.005839825        178135578.99847829     
  -6133016240.6075230       -3974709.6930449009        174858869.20207760     
  -5955763536.8995380       -14285609.329216719        174296690.23376453     
  -5774919321.9727383       -12624804.902678728        176449042.09353587     
  -5590483595.8271227        1007703.5865838528        181315924.78139406     
  -6683631596.2403688        44990823.933818340       -10640356.873142797     
  -6510210039.8077898        4016559.9722948074       -3833699.3428036338     
  -6330911489.8574657       -17367725.596747637        4387551.9919139631     
  -6145735946.3893909       -19162032.773284435        14023397.130999986     
  -5954683409.4035711       -1366361.5573408604        25073836.074467167     
  -4497707698.2847633        8182836.0622928143        663067808.50524938     
  -4364830862.6820669       -3087226.2998890877        658916793.93292475     
  -4230601538.8286767       -9848994.4930887222        658042161.57411051     
  -4095019726.7245898       -12102468.517301798        660443911.42880690     
  -3958085426.3698096       -9847648.3725328445        666122043.49701345     
  -4861995740.2677097        5782302.3964107037        500312910.99678481     
  -4718258889.9287958        1663661.0984737873        497152006.93251669     
  -4574324068.4719048       -1795076.4728713036        497418250.20623350     
  -4430191275.8970289       -4593910.3176176548        501111640.81793690     
  -4285860512.2041855       -6732840.4357843399        508232178.76762772     
  -5226254372.7818346        3390591.5711774826        339728949.75549883     
  -5071226750.2081957        6552598.5870268345        336211219.54444993     
  -4917155673.6492929        6526118.8870954514        336271401.79586154     
  -4764041143.1051311        3311152.4713599682        339909496.50973916     
  -4611883158.5757103       -3092300.6601719856        347125503.68607998     
  -5590483595.8271227        1007703.5865838528        181315924.78139406     
  -5423734443.5202560        11579586.165786505        176094431.76872364     
  -5259096354.3608427        15114591.586808681        174601616.34299600     
  -5096569328.3488846        11612719.849647284        176837478.50421137     
  -4936153365.4843855        1073970.9542977810        182802018.25236231     
  -5954683409.4035711       -1366361.5573408604        25073836.074467167     
  -5775781969.8649817        16744623.834747791        16801643.605349407     
  -5600146110.6065531        23970341.626279354        12408893.847640425     
  -5427775831.6282978        20310791.817237139        11895586.801353997     
  -5258671132.9302225        5765974.4076054096        15261722.466479551     
  -3958085426.3698096       -9847648.3725328445        666122043.49701345     
  -3800953134.3549705        43266.916223764420        658456161.78788388     
  -3644133749.7253590        8891157.5875437260        656268808.81300724     
  -3487627272.4809709        16696023.641461611        659559984.57237709     
  -3331433702.6218128        23457865.077938795        668329689.06599653     
  -4285860512.2041855       -6732840.4357843399        508232178.76762772     
  -4116366033.4815989       -1130598.4119093418        500726512.10693407     
  -3946942894.4705524        4233844.5735099316        498241384.93291950     
  -3777591095.1710415        9360488.5204660892        500776797.24558866     
  -3608310635.5830693        14249333.428971291        508332749.04493380     
  -4611883158.5757103       -3092300.6601719856        347125503.68607998     
  -4431335033.8527184       -2171294.1133828163        340061881.02645302     
  -4250616681.1675749       -682861.02607512474        337560808.60594654     
  -4069728100.5202808        1372998.6017270088        339622286.42454565     
  -3888669291.9108310        3996284.7700469494        346246314.48226058     
  -4936153365.4843855        1073970.9542977810        182802018.25236231     
  -4745860135.4683266       -3078820.1881828308        176462268.54644915     
  -4555155109.8164349       -5858959.2112205029        174227079.83207849     
  -4364038288.5286942       -7266446.1147644520        176096452.10925418     
  -4172509671.6051102       -7301280.8988201618        182070385.37797344     
  -5258671132.9302225        5765974.4076054096        15261722.466479551     
  -5059941338.3284359       -3853176.6363735199        9927674.6669122539     
  -4860558180.4171162       -11294449.981884956        8240198.6113245655     
  -4660521659.1962767       -16557845.629008532        10199294.299704798     
  -4459831774.6658955       -19643363.577658892        15804961.732066238     
  -3331433702.6218128        23457865.077938795        668329689.06599653     
  -3214337786.0420094        15576653.176574469        661269237.70649397     
  -3098850120.7719522        2334603.5760542154        656030718.33845341     
  -2984970706.8116369       -16268283.723603845        652614130.96188211     
  -2872699544.1610723       -40232008.722432852        651019475.57676697     
  -3608310635.5830693        14249333.428971291        508332749.04493380     
  -3485488836.3450198        5156725.0949242115        499660402.46178979     
  -3362624612.8707685       -3794469.1184356213        493850202.03183419     
  -3239717965.1603007       -12604249.211081147        490902147.75507033     
  -3116768893.2136245       -21272615.183027744        490816239.63149619     
  -3888669291.9108310        3996284.7700469494        346246314.48226058     
  -3757149569.5524697       -5416107.8580775261        337887860.81242257     
  -3623936747.4119329       -9184834.5456264019        333431767.45749801     
  -3489030825.4892359       -7309895.2926397324        332878034.41749364     
  -3352431803.7843695        208709.90090751648        336226661.69241136     
  -4172509671.6051102       -7301280.8988201618        182070385.37797344     
  -4029319985.6643486       -16141845.682396650        175951612.75838628     
  -3882786524.3954515       -13836492.705532074        174775414.61544409     
  -3732909287.7984395       -385221.96827864647        178541790.94915527     
  -3579688275.8732977        24211966.529400826        187250741.75951043     
  -4459831774.6658955       -19643363.577658892        15804961.732066238     
  -4302000084.6806488       -27020488.378042221        13851658.299687605     
  -4139173943.8213148       -17749443.598127842        17881143.505680989     
  -3971353352.0879140        8169770.7620110512        27893417.350049432     
  -3798538309.4804287        50737154.702419519        43888479.832787655     
  -2872699544.1610723       -40232008.722432852        651019475.57676697     
  -2712705662.8874087       -50025855.258003592        642619146.28671074     
  -2551200411.9239845       -54781802.827711940        639115149.09419608     
  -2388183791.2708220       -54499851.431650400        640507483.99921560     
  -2223655800.9279194       -49180001.069745541        646796151.00177085     
  -3116768893.2136245       -21272615.183027744        490816239.63149619     
  -2940227256.3398275       -16284884.862243533        485046258.62113786     
  -2765324751.2970128       -16760927.311387181        483697855.16187489     
  -2592061378.0851755       -22700742.530460715        486771029.25370377     
  -2420437136.7043157       -34104330.519451022        494265780.89663768     
  -3352431803.7843695        208709.90090751648        336226661.69241136     
  -3160698852.8717108        19571084.609662056        329411443.85423589     
  -2973755535.3107476        22968014.812759399        326543049.02070731     
  -2791601851.1014957        10399500.510138869        327621477.19184524     
  -2614237800.2439485       -18134458.298134327        332646728.36762315     
  -3579688275.8732977        24211966.529400826        187250741.75951043     
  -3374120452.4830313        57542053.157760620        175714701.98600125     
  -3176492763.9651847        64405023.544685006        167650730.67070520     
  -2986805210.3197713        44800877.690168619        163058827.81362748     
  -2805057791.5467896       -1270384.4057567120        161938993.41475710     
  -3798538309.4804287        50737154.702419519        43888479.832787655     
  -3580492055.1738014        97628020.782004356        23956033.016438063     
  -3373536437.2603374        107550098.88438940        7020900.1118595097     
  -3177671455.7400370        80503389.009563088       -6916918.8809440108     
  -2992897110.6128712        16487891.157608628       -17857423.961983223     
 </DataArray>
 <DataArray  type="Float64" Name="VM" NumberOfComponents="1" format="ascii">
   12935413787.339716     
   11340621866.969215     
   10210203469.210653     
   9272812443.1200199     
   8304023066.9030676     
   10130300221.570539     
   9321986148.1344604     
   8826291903.1705551     
   8443382656.9079561     
   8035455863.3768644     
   7982455901.5741148     
   7734980746.4220877     
   7669053281.1849842     
   7669366967.3148766     
   7665994185.7691345     
   6491792756.1081314     
   6586891571.1190109     
   6757320450.3709679     
   6960996910.1340246     
   7171261672.9505129     
   5657861382.0206995     
   5890879616.6746025     
   6116282024.9176569     
   6331609334.4926987     
   6536634242.9519358     
   8304023066.9030676     
   8020541431.6821527     
   7779231713.3152332     
   7569403240.6617289     
   7386091057.7844715     
   8035455863.3768644     
   7746681175.2116013     
   7473633929.8982210     
   7214348906.9351234     
   6968833634.1469755     
   7665994185.7691345     
   7380965809.8361158     
   7101369452.6897678     
   6827282105.3765182     
   6558908089.4376249     
   7171261672.9505129     
   6910831630.5452862     
   6658312683.9359360     
   6409851532.8014393     
   6162304864.3468456     
   6536634242.9519358     
   6328628536.5509434     
   6142780138.2866554     
   5965190693.0484056     
   5786852097.0165586     
   7386091057.7844715     
   7228735053.1922636     
   7063727106.0965309     
   6890368595.6395445     
   6708482443.6235170     
   6968833634.1469755     
   6814884997.4941282     
   6656188538.1386738     
   6492454583.1152697     
   6323633419.2457247     
   6558908089.4376249     
   6407861419.5998068     
   6255074866.7585325     
   6100512667.1296558     
   5944203110.2072296     
   6162304864.3468456     
   6012663624.3282051     
   5864287954.5226250     
   5717216742.8001080     
   5571505806.1041517     
   5786852097.0165586     
   5635758401.1299715     
   5488855881.9074955     
   5346060720.1712914     
   5207418528.9646692     
   6708482443.6235170     
   6513990447.8313074     
   6323268975.9572449     
   6136209778.5917492     
   5952820290.4352636     
   6323633419.2457247     
   6139392976.3717566     
   5957751625.0128345     
   5778688968.0154772     
   5602249288.5106716     
   5944203110.2072296     
   5771760283.9938383     
   5601036034.1153154     
   5432057240.5741663     
   5264891800.4303646     
   5571505806.1041517     
   5412889473.2568560     
   5255430691.2421989     
   5099168449.4510994     
   4944194380.3712425     
   5207418528.9646692     
   5065169394.0501766     
   4923884123.1251268     
   4783585013.3113079     
   4644403419.2585430     
   5952820290.4352636     
   5781531365.1887121     
   5608513095.8906736     
   5433735993.0882511     
   5257230958.7121878     
   5602249288.5106716     
   5440404097.4525461     
   5277708096.0940180     
   5114184979.9928408     
   4949908036.8551931     
   5264891800.4303646     
   5112442014.1319723     
   4960060821.8524532     
   4807817904.9951754     
   4655824888.3400640     
   4944194380.3712425     
   4800939739.1806831     
   4658695669.5729780     
   4517567807.4306431     
   4377699677.4815359     
   4644403419.2585430     
   4509948819.5481615     
   4377446496.4685631     
   4247025109.0661440     
   4118851503.3775043     
   5257230958.7121878     
   5050924709.7461681     
   4844546525.4227085     
   4638101850.9312706     
   4431628844.6841993     
   4949908036.8551931     
   4755099558.1521025     
   4560652126.6463194     
   4366621307.4073162     
   4173114721.3498459     
   4655824888.3400640     
   4473981104.2616711     
   4293121768.1053510     
   4113373235.1280837     
   3934938049.3066511     
   4377699677.4815359     
   4210306192.1139946     
   4044729456.5573740     
   3881184214.1294708     
   3719988115.4161534     
   4118851503.3775043     
   3967358171.1392436     
   3818731266.5805640     
   3673282994.4370842     
   3531453638.4961691     
   4431628844.6841993     
   4283013994.6355977     
   4139092816.6357388     
   4000018371.5472221     
   3866307831.6510873     
   4173114721.3498459     
   4032516093.6188855     
   3895923896.5191307     
   3763434608.8152733     
   3635381920.7713723     
   3934938049.3066511     
   3800960275.7165208     
   3670248701.4098005     
   3542870234.0341220     
   3419026439.7935758     
   3719988115.4161534     
   3591857365.5250497     
   3466196403.8411512     
   3343065995.3203630     
   3222588162.3120446     
   3531453638.4961691     
   3409181291.6295495     
   3288548542.6838279     
   3169632322.8990779     
   3052532664.1550860     
   3866307831.6510873     
   3624729440.0435543     
   3359331203.1627197     
   3077300265.4444437     
   2802874509.5341687     
   3635381920.7713723     
   3426809244.6359868     
   3201965573.4977584     
   2964536466.8773952     
   2726501712.7484488     
   3419026439.7935758     
   3242017498.9266491     
   3058129506.1546464     
   2868865611.0419569     
   2678460414.9347548     
   3222588162.3120446     
   3070780178.6543374     
   2921135475.7815304     
   2774346366.0201006     
   2631446844.6456022     
   3052532664.1550860     
   2913826435.0697312     
   2784979498.1146135     
   2668051434.5124769     
   2566249760.9738908     
   5657861382.0206995     
   5890879616.6746025     
   6116282024.9176569     
   6331609334.4926987     
   6536634242.9519358     
   5151379668.6424637     
   5311268779.9773369     
   5467804334.1465073     
   5618092883.5248585     
   5760668280.0274782     
   4643343942.5224943     
   4755478778.3223677     
   4868743787.6844492     
   4980507072.0317926     
   5088845231.0455198     
   4134018888.1248994     
   4224347904.2681041     
   4320595916.6915283     
   4421108697.2209711     
   4524433925.1367035     
   3624924884.6881175     
   3719700935.9240956     
   3825719023.0169039     
   3942916294.2680736     
   4071200556.0819931     
   6536634242.9519358     
   6328628536.5509434     
   6142780138.2866554     
   5965190693.0484056     
   5786852097.0165586     
   5760668280.0274782     
   5652084493.1571817     
   5559471938.9764233     
   5473771582.6260862     
   5389441159.7946663     
   5088845231.0455198     
   5054037353.5903101     
   5029718795.9919558     
   5010680840.3733950     
   4993721078.1117334     
   4524433925.1367035     
   4539080909.1567144     
   4558391488.6616402     
   4579880132.9726801     
   4601821495.2522526     
   4071200556.0819931     
   4112540567.1879435     
   4151254126.4398499     
   4186434210.0922823     
   4217341569.6470933     
   5786852097.0165586     
   5635758401.1299715     
   5488855881.9074955     
   5346060720.1712914     
   5207418528.9646692     
   5389441159.7946663     
   5248095348.6844873     
   5110002977.1955776     
   4975207627.2277975     
   4843805773.2280064     
   4993721078.1117334     
   4866490032.0062656     
   4742511321.4039783     
   4621758442.4988585     
   4504279387.9312792     
   4601821495.2522526     
   4493603959.2709827     
   4389692337.1973543     
   4289781374.2144690     
   4193791102.4083562     
   4217341569.6470933     
   4133385366.7670531     
   4056022262.9519610     
   3984420860.1318102     
   3918293350.6211720     
   5207418528.9646692     
   5065169394.0501766     
   4923884123.1251268     
   4783585013.3113079     
   4644403419.2585430     
   4843805773.2280064     
   4717386567.1172314     
   4592705540.3380861     
   4469872048.3945713     
   4349094319.4362316     
   4504279387.9312792     
   4393134855.9425621     
   4284504431.0228815     
   4178565884.4802413     
   4075582263.8409572     
   4193791102.4083562     
   4097330599.5737247     
   4004122461.1310668     
   3914389232.2404628     
   3828422087.4165683     
   3918293350.6211720     
   3835844266.6040344     
   3757296148.4194427     
   3682888334.1067963     
   3612910407.8560305     
   4644403419.2585430     
   4509948819.5481615     
   4377446496.4685631     
   4247025109.0661440     
   4118851503.3775043     
   4349094319.4362316     
   4225138724.3760304     
   4103687916.8601694     
   3984926944.6381741     
   3869090355.1976771     
   4075582263.8409572     
   3963597980.7845035     
   3854853773.6898093     
   3749597415.6526632     
   3648137595.0043344     
   3828422087.4165683     
   3729866408.4518380     
   3635471728.2584252     
   3545546708.7399945     
   3460469809.3100653     
   3612910407.8560305     
   3529101812.4836473     
   3450543183.3811750     
   3377589217.1034460     
   3310667886.9766245     
   4118851503.3775043     
   3967358171.1392436     
   3818731266.5805640     
   3673282994.4370842     
   3531453638.4961691     
   3869090355.1976771     
   3733884540.3655467     
   3602288484.5370593     
   3474681286.6681309     
   3351562156.2799034     
   3648137595.0043344     
   3528964996.7738380     
   3414110539.6875792     
   3303996253.8863015     
   3199148929.3539686     
   3460469809.3100653     
   3357043215.9864469     
   3258556611.0985956     
   3165443778.3755760     
   3078221437.9772682     
   3310667886.9766245     
   3222587597.4657607     
   3139920816.6053734     
   3063078104.9429307     
   2992527535.9275784     
   3531453638.4961691     
   3409181291.6295495     
   3288548542.6838279     
   3169632322.8990779     
   3052532664.1550860     
   3351562156.2799034     
   3236498824.4234662     
   3123613150.3388386     
   3013086286.2016110     
   2905142502.6815782     
   3199148929.3539686     
   3094987258.1467280     
   2994004115.6840391     
   2896540241.4851828     
   2803020721.2284198     
   3078221437.9772682     
   2988726570.9215550     
   2903860791.8047757     
   2824158051.3713102     
   2750286913.9026170     
   2992527535.9275784     
   2921208251.5980940     
   2856332493.9675837     
   2798618622.1622047     
   2748963833.5005398     
   3052532664.1550860     
   2913826435.0697312     
   2784979498.1146135     
   2668051434.5124769     
   2566249760.9738908     
   2905142502.6815782     
   2771934042.0639138     
   2646095061.5456829     
   2528605204.5201793     
   2420963070.5003905     
   2803020721.2284198     
   2679494104.0403876     
   2561959826.9975758     
   2450970357.5407758     
   2347235547.3521347     
   2750286913.9026170     
   2642613211.7521958     
   2540894585.0260644     
   2446008471.7138290     
   2358974697.2885242     
   2748963833.5005398     
   2664747316.9698954     
   2587764553.8657260     
   2519855705.6525064     
   2463238651.3252120     
   3624924884.6881175     
   3719700935.9240956     
   3825719023.0169039     
   3942916294.2680736     
   4071200556.0819931     
   3137985022.1181922     
   3255560564.6638517     
   3382543147.1325650     
   3518463801.4282637     
   3662864936.1839232     
   2694811871.0529075     
   2830585643.4581347     
   2973661419.0848193     
   3122956492.4109521     
   3277559693.1887822     
   2298893340.0635962     
   2449567916.6438642     
   2604956107.4369879     
   2763134392.4007425     
   2922672223.6017003     
   1955437071.5325236     
   2119461612.8644290     
   2284837938.7622733     
   2448604141.6772304     
   2608800325.5010285     
   4071200556.0819931     
   4112540567.1879435     
   4151254126.4398499     
   4186434210.0922823     
   4217341569.6470933     
   3662864936.1839232     
   3702263952.4525242     
   3740304400.8440957     
   3776082488.8172588     
   3808845192.5760145     
   3277559693.1887822     
   3320844635.2079606     
   3364390383.1520619     
   3407372529.9342432     
   3449112168.0380144     
   2922672223.6017003     
   2975666973.6486573     
   3030895204.5902214     
   3087676046.5451756     
   3145477438.5498624     
   2608800325.5010285     
   2676784680.5609283     
   2749274011.3653870     
   2825763022.0138803     
   2905900105.6888404     
   4217341569.6470933     
   4133385366.7670531     
   4056022262.9519610     
   3984420860.1318102     
   3918293350.6211720     
   3808845192.5760145     
   3756230961.1479564     
   3709656363.1095157     
   3668655787.9109960     
   3633134055.9445162     
   3449112168.0380144     
   3423204027.9237733     
   3402396076.1330385     
   3386460112.8456278     
   3375378017.9684315     
   3145477438.5498624     
   3141935171.1662931     
   3141959071.6234574     
   3145446183.0408993     
   3152379715.8392830     
   2905900105.6888404     
   2920759373.2773700     
   2936876959.6773138     
   2954194125.1589580     
   2972668853.2898264     
   3918293350.6211720     
   3835844266.6040344     
   3757296148.4194427     
   3682888334.1067963     
   3612910407.8560305     
   3633134055.9445162     
   3563310719.3291545     
   3498068115.4280167     
   3437653383.9020829     
   3382366264.0677648     
   3375378017.9684315     
   3318610832.8478785     
   3267212793.5456524     
   3221419602.0131793     
   3181519777.9417067     
   3152379715.8392830     
   3108764607.1850634     
   3071395140.8838000     
   3040468605.5669837     
   3016233473.8887072     
   2972668853.2898264     
   2941731549.7370238     
   2917970539.8211164     
   2901513884.3363509     
   2892538897.0924945     
   3612910407.8560305     
   3529101812.4836473     
   3450543183.3811750     
   3377589217.1034460     
   3310667886.9766245     
   3382366264.0677648     
   3312704872.9005947     
   3248745369.7742190     
   3190816041.4395080     
   3139303925.4404836     
   3181519777.9417067     
   3125288644.5700645     
   3075154564.8283339     
   3031402272.9940796     
   2994359770.4454894     
   3016233473.8887072     
   2972422398.5008864     
   2935014391.0806131     
   2904235776.7294068     
   2880341590.1048651     
   2892538897.0924945     
   2859746764.8924317     
   2833545573.8114805     
   2814094937.1435437     
   2801571443.4956689     
   3310667886.9766245     
   3222587597.4657607     
   3139920816.6053734     
   3063078104.9429307     
   2992527535.9275784     
   3139303925.4404836     
   3063701703.7295284     
   2994412675.6670518     
   2931853290.7591515     
   2876489995.6449466     
   2994359770.4454894     
   2931528117.5395999     
   2875928542.1999359     
   2827951919.3802395     
   2788027306.2974229     
   2880341590.1048651     
   2830037886.6620340     
   2787863094.4467773     
   2754149845.3270421     
   2729255840.3062892     
   2801571443.4956689     
   2762854893.9336691     
   2733110083.1476164     
   2712586303.1745443     
   2701547127.0471354     
   2992527535.9275784     
   2921208251.5980940     
   2856332493.9675837     
   2798618622.1622047     
   2748963833.5005398     
   2876489995.6449466     
   2822706788.6269741     
   2775437381.1208296     
   2735197827.2369390     
   2702590724.7609692     
   2788027306.2974229     
   2748635436.2916627     
   2715463533.1917205     
   2688831867.7253270     
   2669089343.0575171     
   2729255840.3062892     
   2700782309.2481704     
   2677893005.0863256     
   2660748864.6973329     
   2649513489.1759148     
   2701547127.0471354     
   2680342692.4756155     
   2663791746.5613394     
   2651951574.2817459     
   2644882788.0658150     
   2748963833.5005398     
   2664747316.9698954     
   2587764553.8657260     
   2519855705.6525064     
   2463238651.3252120     
   2702590724.7609692     
   2636856259.8165655     
   2580670420.3021355     
   2535053299.1802568     
   2501086089.2671423     
   2669089343.0575171     
   2617926283.6684637     
   2578455549.8452048     
   2551242843.7467170     
   2536835941.1035428     
   2649513489.1759148     
   2607160597.3326230     
   2578620467.4204388     
   2564390013.3726430     
   2565052782.1683702     
   2644882788.0658150     
   2603922038.3350048     
   2579112421.6081920     
   2571292559.7493491     
   2581634822.9267526     
   1955437071.5325236     
   2119461612.8644290     
   2284837938.7622733     
   2448604141.6772304     
   2608800325.5010285     
   1653945655.3625920     
   1820367179.1807828     
   1988484349.1518157     
   2155598983.8533158     
   2319951534.6736517     
   1393765264.9522295     
   1571122033.7107899     
   1749484427.4562917     
   1926847013.2634146     
   2101958158.8777702     
   1207209962.9303210     
   1399147941.4978111     
   1590663831.1491871     
   1780979664.0805724     
   1969636119.4366641     
   1136963577.2290800     
   1335293377.1199000     
   1533929853.5454757     
   1732873006.2575421     
   1932122835.1336639     
   2608800325.5010285     
   2676784680.5609283     
   2749274011.3653870     
   2825763022.0138803     
   2905900105.6888404     
   2319951534.6736517     
   2407012668.3379760     
   2496511098.6361861     
   2588059724.0298510     
   2681384169.3104057     
   2101958158.8777702     
   2205692679.8932505     
   2309333198.8408055     
   2412645092.6311150     
   2515462284.6346955     
   1969636119.4366641     
   2086754894.7488191     
   2201019624.3848739     
   2312355888.6579728     
   2420711846.7013130     
   1932122835.1336639     
   2058745797.0025821     
   2179946285.2692933     
   2295724299.7951484     
   2406079840.6471047     
   2905900105.6888404     
   2920759373.2773700     
   2936876959.6773138     
   2954194125.1589580     
   2972668853.2898264     
   2681384169.3104057     
   2703095468.2671266     
   2727114959.3227925     
   2753423157.2555513     
   2782010955.4682674     
   2515462284.6346955     
   2543955054.4250035     
   2575832770.5641212     
   2611096106.1322260     
   2649750480.8346701     
   2420711846.7013130     
   2454436509.1747422     
   2492621867.0490713     
   2535270978.1145797     
   2582388108.1595001     
   2406079840.6471047     
   2441912447.8761096     
   2483270084.2800899     
   2530152773.5026255     
   2582560557.2639151     
   2972668853.2898264     
   2941731549.7370238     
   2917970539.8211164     
   2901513884.3363509     
   2892538897.0924945     
   2782010955.4682674     
   2765128781.5169730     
   2755322959.9850364     
   2752677002.1692357     
   2757299718.4991059     
   2649750480.8346701     
   2644280982.0204897     
   2645538907.3007770     
   2653563208.7916913     
   2668402362.6670551     
   2582388108.1595001     
   2585158616.6937690     
   2594064382.1139116     
   2609114744.2401972     
   2630320780.6331544     
   2582560557.2639151     
   2590158364.7666149     
   2603101920.0696979     
   2621391180.8203540     
   2645026156.6254616     
   2892538897.0924945     
   2859746764.8924317     
   2833545573.8114805     
   2814094937.1435437     
   2801571443.4956689     
   2757299718.4991059     
   2734094422.1058726     
   2717895268.9646964     
   2708805852.5292478     
   2706938163.4847832     
   2668402362.6670551     
   2652690192.9187880     
   2644289158.1231170     
   2643249466.7926016     
   2649624322.9354281     
   2630320780.6331544     
   2619391463.4734111     
   2615966906.4656038     
   2620059704.9322381     
   2631682989.2647204     
   2645026156.6254616     
   2635756747.1571207     
   2634085529.7592955     
   2640012666.2563777     
   2653538368.6341977     
   2801571443.4956689     
   2762854893.9336691     
   2733110083.1476164     
   2712586303.1745443     
   2701547127.0471354     
   2706938163.4847832     
   2679190756.8701553     
   2660460083.3094139     
   2650895899.4133019     
   2650653365.5488968     
   2649624322.9354281     
   2630316736.3336458     
   2619971042.1581759     
   2618656842.1552167     
   2626445400.2183986     
   2631682989.2647204     
   2617895295.8387303     
   2612945109.0094662     
   2616850890.0667591     
   2629631835.7864718     
   2653538368.6341977     
   2642164887.6216755     
   2639466529.3359408     
   2645443094.2384276     
   2660094898.3432651     
   2701547127.0471354     
   2680342692.4756155     
   2663791746.5613394     
   2651951574.2817459     
   2644882788.0658150     
   2650653365.5488968     
   2634681222.7323556     
   2624714975.6462536     
   2620804706.9018140     
   2623003554.0989389     
   2626445400.2183986     
   2614712414.7030087     
   2610336374.1554141     
   2613347826.8751659     
   2623781371.8733835     
   2629631835.7864718     
   2620357850.4765978     
   2619799967.1767960     
   2627969450.6348190     
   2644883733.9006724     
   2660094898.3432651     
   2650808107.8267951     
   2651629534.7233739     
   2662567270.3922572     
   2683637450.7795753     
   2644882788.0658150     
   2603922038.3350048     
   2579112421.6081920     
   2571292559.7493491     
   2581634822.9267526     
   2623003554.0989389     
   2586192543.3278675     
   2561866916.3895221     
   2550255091.6340322     
   2551646791.6060805     
   2623781371.8733835     
   2594474242.4899530     
   2574543124.7956214     
   2564024101.6019421     
   2562963975.6453285     
   2644883733.9006724     
   2627676518.2676663     
   2617227151.0181742     
   2613751121.5548544     
   2617667063.2648807     
   2683637450.7795753     
   2684093059.2949243     
   2689148489.8179607     
   2699498732.1660657     
   2716450255.4984789     
   1136963577.2290800     
   1335293377.1199000     
   1533929853.5454757     
   1732873006.2575421     
   1932122835.1336639     
   1207182373.2181385     
   1399143837.1902030     
   1590684482.9086521     
   1781028251.2661967     
   1969717043.2036488     
   1393718838.3041251     
   1571109145.0663576     
   1749511180.3085415     
   1926921971.4421697     
   2102091597.0994980     
   1653895000.5740745     
   1820343213.7477274     
   1988499853.8412118     
   2155669218.2329612     
   2320093520.3791876     
   1955395818.6876864     
   2119425633.5287395     
   2284826306.4621859     
   2448638431.0780001     
   2608903800.6267147     
   1932122835.1336639     
   2058745797.0025821     
   2179946285.2692933     
   2295724299.7951484     
   2406079840.6471047     
   1969717043.2036488     
   2086825145.3311012     
   2201074332.2455220     
   2312389624.0540361     
   2420718885.7721548     
   2102091597.0994980     
   2205809548.0149593     
   2309423550.8998537     
   2412697964.6764159     
   2515466197.8546500     
   2320093520.3791876     
   2407141462.6879926     
   2496611765.1954169     
   2588115834.8696275     
   2681378512.8606248     
   2608903800.6267147     
   2676888690.9885244     
   2749359236.6534033     
   2825808043.5476069     
   2905882274.1547623     
   2406079840.6471047     
   2441912447.8761096     
   2483270084.2800899     
   2530152773.5026255     
   2582560557.2639151     
   2420718885.7721548     
   2454685974.4509954     
   2493163831.4787397     
   2536156192.4365797     
   2583667498.6328473     
   2515466197.8546500     
   2544340906.0724354     
   2576696811.1033282     
   2612536329.3526073     
   2651865985.0689559     
   2681378512.8606248     
   2703476007.3661284     
   2728017609.6448174     
   2754986953.5781245     
   2784377657.2484860     
   2905882274.1547623     
   2920989666.0285811     
   2937521361.4550219     
   2955422733.4482918     
   2974656032.0705009     
   2582560557.2639151     
   2590158364.7666149     
   2603101920.0696979     
   2621391180.8203540     
   2645026156.6254616     
   2583667498.6328473     
   2586455434.4710207     
   2595448766.1495643     
   2610656176.0279408     
   2632089653.2855783     
   2651865985.0689559     
   2646334760.9642034     
   2647667020.9750862     
   2655902172.4128881     
   2671092607.5347533     
   2784377657.2484860     
   2767215674.4740357     
   2757325762.0876303     
   2754795435.4110098     
   2759743300.7314458     
   2974656032.0705009     
   2943055649.1207066     
   2918877857.9022436     
   2902260486.1433272     
   2893399400.4055514     
   2645026156.6254616     
   2635756747.1571207     
   2634085529.7592955     
   2640012666.2563777     
   2653538368.6341977     
   2632089653.2855783     
   2621354817.4139447     
   2618038773.3561435     
   2622155504.8954573     
   2633719350.4760041     
   2671092607.5347533     
   2656103619.5549145     
   2648287648.1361632     
   2647694478.1056871     
   2654375597.2231088     
   2759743300.7314458     
   2738126503.2150097     
   2723364817.1313043     
   2715556984.2503285     
   2714806611.9378800     
   2893399400.4055514     
   2863361506.7480178     
   2839792149.3324695     
   2822841179.0523825     
   2812668516.1186671     
   2653538368.6341977     
   2642164887.6216755     
   2639466529.3359408     
   2645443094.2384276     
   2660094898.3432651     
   2633719350.4760041     
   2620975846.9284916     
   2617184019.8674912     
   2622358961.5922289     
   2636515707.9768753     
   2654375597.2231088     
   2636737461.6538777     
   2628259842.1125031     
   2629010307.4237700     
   2639057794.6812911     
   2714806611.9378800     
   2688897273.5200086     
   2672260127.8949728     
   2665049569.9215460     
   2667427011.3696432     
   2812668516.1186671     
   2775503138.2109895     
   2747592525.1683950     
   2729201744.8961921     
   2720615508.1054177     
   2660094898.3432651     
   2650808107.8267951     
   2651629534.7233739     
   2662567270.3922572     
   2683637450.7795753     
   2636515707.9768753     
   2624588117.8714709     
   2621315707.6187735     
   2626719378.0506306     
   2640821546.4546771     
   2639057794.6812911     
   2623095986.4073195     
   2614425476.9945245     
   2613088494.6925020     
   2619125526.8785009     
   2667427011.3696432     
   2646732466.1185365     
   2632034041.9078526     
   2623388338.1436486     
   2620851800.0280180     
   2720615508.1054177     
   2695196581.2129259     
   2674546804.3712540     
   2658719177.2854018     
   2647773042.1695738     
   2683637450.7795753     
   2684093059.2949243     
   2689148489.8179607     
   2699498732.1660657     
   2716450255.4984789     
   2640821546.4546771     
   2649536859.3396559     
   2665562638.0778484     
   2689070047.0227599     
   2720412207.8141732     
   2619125526.8785009     
   2626601785.3776603     
   2643806069.6845503     
   2670764784.1834607     
   2707507117.3625240     
   2620851800.0280180     
   2616828314.3983631     
   2624641776.4210167     
   2644581739.7616615     
   2676999806.1442461     
   2647773042.1695738     
   2621663449.2528176     
   2609074125.2141423     
   2610981477.1577868     
   2628761446.5865908     
   1955395818.6876864     
   2119425633.5287395     
   2284826306.4621859     
   2448638431.0780001     
   2608903800.6267147     
   2298872212.3380923     
   2449525826.8439674     
   2604907920.7963905     
   2763095636.2547245     
   2922658631.5470819     
   2694815447.5827913     
   2830546312.6207337     
   2973588701.8924870     
   3122859006.9082794     
   3277445063.0847855     
   3138013316.1428523     
   3255531759.4057083     
   3382461204.7332597     
   3518330063.8044810     
   3662678410.2200365     
   3624975526.7783666     
   3719689606.2483130     
   3825644447.6840067     
   3942772507.8603029     
   4070977515.1271319     
   2608903800.6267147     
   2676888690.9885244     
   2749359236.6534033     
   2825808043.5476069     
   2905882274.1547623     
   2922658631.5470819     
   2975651921.1247411     
   3030863934.6028214     
   3087613780.8046360     
   3145369178.3828115     
   3277445063.0847855     
   3320747491.9010592     
   3364302260.2132583     
   3407287766.3560653     
   3449026851.3368087     
   3662678410.2200365     
   3702127434.8445053     
   3740216721.4728136     
   3776048375.4531331     
   3808873551.5849519     
   4070977515.1271319     
   4112408830.1353793     
   4151219860.3941269     
   4186512400.9665413     
   4217553743.2440548     
   2905882274.1547623     
   2920989666.0285811     
   2937521361.4550219     
   2955422733.4482918     
   2974656032.0705009     
   3145369178.3828115     
   3141804300.0587707     
   3141879436.8905578     
   3145493818.1858315     
   3152635470.7256613     
   3449026851.3368087     
   3422866035.0343099     
   3401792806.5450912     
   3385576894.8815036     
   3374203981.5362306     
   3808873551.5849519     
   3755865977.9048915     
   3708809593.7448573     
   3667229139.4564438     
   3631028669.7484994     
   4217553743.2440548     
   4133181061.5802727     
   4055251169.2423844     
   3982912397.2851019     
   3915867618.7649565     
   2974656032.0705009     
   2943055649.1207066     
   2918877857.9022436     
   2902260486.1433272     
   2893399400.4055514     
   3152635470.7256613     
   3107627851.3931928     
   3068961334.8007979     
   3036837508.0102997     
   3011509237.5303297     
   3374203981.5362306     
   3315964203.8724890     
   3263102451.7606106     
   3215848433.3844252     
   3174478477.8445678     
   3631028669.7484994     
   3560274704.5343218     
   3494087759.8247576     
   3432697718.2708969     
   3376377080.3201389     
   3915867618.7649565     
   3833595439.0776834     
   3755246621.8446927     
   3681033388.9718790     
   3611207154.0167356     
   2893399400.4055514     
   2863361506.7480178     
   2839792149.3324695     
   2822841179.0523825     
   2812668516.1186671     
   3011509237.5303297     
   2970101261.4693346     
   2935012629.0407658     
   2906465479.9787378     
   2884706769.8446927     
   3174478477.8445678     
   3119870591.4935937     
   3071226021.1164732     
   3028828967.2364359     
   2993009511.5766406     
   3376377080.3201389     
   3307233010.8622522     
   3243529493.5226960     
   3185590624.1080427     
   3133810604.1419277     
   3611207154.0167356     
   3526583761.9853806     
   3446762142.9801545     
   3372078419.9274821     
   3302962568.6540132     
   2812668516.1186671     
   2775503138.2109895     
   2747592525.1683950     
   2729201744.8961921     
   2720615508.1054177     
   2884706769.8446927     
   2834299473.6935496     
   2792210170.4672580     
   2758788789.0862365     
   2734414340.6929884     
   2993009511.5766406     
   2928686375.5811663     
   2871698631.6159477     
   2822449810.7319512     
   2781385039.1300077     
   3133810604.1419277     
   3055642700.2879443     
   2983819899.2741556     
   2918760646.3287463     
   2860936083.7650704     
   3302962568.6540132     
   3211579687.7347479     
   3125594291.8630552     
   3045404246.4345822     
   2971466312.0642567     
   2720615508.1054177     
   2695196581.2129259     
   2674546804.3712540     
   2658719177.2854018     
   2647773042.1695738     
   2734414340.6929884     
   2701583908.7883563     
   2674420071.8304429     
   2653045938.7980971     
   2637590101.7182302     
   2781385039.1300077     
   2738676294.6586442     
   2702313216.7833676     
   2672517813.8479209     
   2649525710.5278606     
   2860936083.7650704     
   2805908721.1950326     
   2757651338.8121271     
   2716505229.0706177     
   2682845634.9842854     
   2971466312.0642567     
   2901824919.0468793     
   2839106824.3457589     
   2783778345.0589905     
   2736373896.7050800     
   2647773042.1695738     
   2621663449.2528176     
   2609074125.2141423     
   2610981477.1577868     
   2628761446.5865908     
   2637590101.7182302     
   2590009543.0592036     
   2554249208.5401754     
   2531134734.6044407     
   2521699595.7645431     
   2649525710.5278606     
   2583402890.0823431     
   2527554027.2323899     
   2482697739.0520849     
   2449635689.3407922     
   2682845634.9842854     
   2601810004.8840871     
   2529704600.4853501     
   2467177839.2999697     
   2414920765.7110457     
   2736373896.7050800     
   2644488763.0747318     
   2560485412.7380657     
   2484979536.3132133     
   2418683408.7077703     
   3624975526.7783666     
   3719689606.2483130     
   3825644447.6840067     
   3942772507.8603029     
   4070977515.1271319     
   4134078889.5928054     
   4224357540.6611400     
   4320549259.6125031     
   4420996799.8078041     
   4524245351.7540274     
   4643391769.6148272     
   4755502260.6938391     
   4868733770.2952394     
   4980454559.9630079     
   5088742002.9947996     
   5151394656.0786877     
   5311299175.9249496     
   5467838551.5528221     
   5618123309.8277082     
   5760691977.2094641     
   5657822953.0265741     
   5890910134.6124058     
   6116367567.6428957     
   6331743770.3829784     
   6536819804.5492086     
   4070977515.1271319     
   4112408830.1353793     
   4151219860.3941269     
   4186512400.9665413     
   4217553743.2440548     
   4524245351.7540274     
   4539018480.1194429     
   4558468680.2411280     
   4580114936.6252928     
   4602233712.6678076     
   5088742002.9947996     
   5054042294.3773689     
   5029842832.8019066     
   5010935604.8090868     
   4994120006.8928823     
   5760691977.2094641     
   5652149647.0927181     
   5559582362.4434128     
   5473925974.5990686     
   5389640741.7989016     
   6536819804.5492086     
   6328743267.7456036     
   6142820917.5717678     
   5965139810.5262289     
   5786692347.2538061     
   4217553743.2440548     
   4133181061.5802727     
   4055251169.2423844     
   3982912397.2851019     
   3915867618.7649565     
   4602233712.6678076     
   4493742013.7684708     
   4389463373.1865978     
   4289081472.1053534     
   4192505556.6843600     
   4994120006.8928823     
   4866828109.7875700     
   4742756142.1334801     
   4621873682.9811287     
   4504222553.1535320     
   5389640741.7989016     
   5248475186.4875984     
   5110593003.5516872     
   4976037214.3556461     
   4844904949.0751228     
   5786692347.2538061     
   5636012943.6165905     
   5489619810.5308056     
   5347427015.1338825     
   5209487129.3052559     
   3915867618.7649565     
   3833595439.0776834     
   3755246621.8446927     
   3681033388.9718790     
   3611207154.0167356     
   4192505556.6843600     
   4097560614.8825307     
   4005939124.1680188     
   3917857924.7691355     
   3833593526.7953796     
   4504222553.1535320     
   4394983791.5618525     
   4288274197.7284670     
   4184282318.1052027     
   4083284102.5007491     
   4844904949.0751228     
   4719964094.8313198     
   4596635291.7227459     
   4475044130.3022385     
   4355434232.4424896     
   5209487129.3052559     
   5067595153.8245392     
   4926337295.4333410     
   4785742936.5632439     
   4645989911.6114197     
   3611207154.0167356     
   3526583761.9853806     
   3446762142.9801545     
   3372078419.9274821     
   3302962568.6540132     
   3833593526.7953796     
   3733876420.9209781     
   3638071091.4669933     
   3546472120.9431314     
   3459451191.2649279     
   4083284102.5007491     
   3970012755.1923537     
   3859981568.2825212     
   3753430718.9577265     
   3650662936.3289418     
   4355434232.4424896     
   4230132735.8020334     
   4107617007.4472442     
   3988070249.3248601     
   3871727672.6959047     
   4645989911.6114197     
   4510077249.2425003     
   4376697118.9472437     
   4245978293.0577354     
   4118096054.6847525     
   3302962568.6540132     
   3211579687.7347479     
   3125594291.8630552     
   3045404246.4345822     
   2971466312.0642567     
   3459451191.2649279     
   3354213437.0963912     
   3253875549.8650284     
   3158860552.6053658     
   3069673005.1756449     
   3650662936.3289418     
   3531019330.0391035     
   3415656103.4950094     
   3304991631.0995984     
   3199545316.8598499     
   3871727672.6959047     
   3737242841.6781206     
   3606348414.5675015     
   3479431546.4257636     
   3356994589.8595595     
   4118096054.6847525     
   3968387926.8470001     
   3821551602.9843268     
   3677922018.7627392     
   3537957437.3601294     
   2971466312.0642567     
   2901824919.0468793     
   2839106824.3457589     
   2783778345.0589905     
   2736373896.7050800     
   3069673005.1756449     
   2985520657.0744729     
   2906426741.2631626     
   2832842548.7263622     
   2765299780.1179957     
   3199545316.8598499     
   3101955939.7098298     
   3007641443.2079649     
   2916980177.3851266     
   2830431898.3674188     
   3356994589.8595595     
   3247849438.1293468     
   3140377165.0976872     
   3034855304.0930247     
   2931633503.3135405     
   3537957437.3601294     
   3419665140.6238518     
   3301702745.2765660     
   3184253450.8118563     
   3067560249.6401277     
   2736373896.7050800     
   2644488763.0747318     
   2560485412.7380657     
   2484979536.3132133     
   2418683408.7077703     
   2765299780.1179957     
   2658173690.6444302     
   2558662021.7374778     
   2467462872.7685208     
   2385405064.5627065     
   2830431898.3674188     
   2706834920.9800792     
   2590260158.8731394     
   2481446784.2960749     
   2381305561.9161944     
   2931633503.3135405     
   2790863344.2425299     
   2656255590.5839353     
   2528528750.4582882     
   2408608354.3294997     
   3067560249.6401277     
   2909372317.2411814     
   2756314523.2696605     
   2609020104.1877828     
   2468347662.2407432     
   5657822953.0265741     
   5890910134.6124058     
   6116367567.6428957     
   6331743770.3829784     
   6536819804.5492086     
   6491734807.4209347     
   6586919096.2929316     
   6757437195.6626005     
   6961206857.4459372     
   7171568364.6974306     
   7982466905.0025520     
   7735043427.5525303     
   7669186241.5394821     
   7669573239.1319103     
   7666272311.2996950     
   10130468626.370054     
   9322118832.1965427     
   8826424494.9043999     
   8443513348.6289158     
   8035567913.4136400     
   12935828078.461386     
   11340857484.419027     
   10210317818.108625     
   9272803600.4307842     
   8303850769.8728361     
   6536819804.5492086     
   6328743267.7456036     
   6142820917.5717678     
   5965139810.5262289     
   5786692347.2538061     
   7171568364.6974306     
   6910974923.4563141     
   6658281218.3083363     
   6409630918.2299824     
   6161879585.6869135     
   7666272311.2996950     
   7381104906.4566412     
   7101358743.3589897     
   6827113663.0823488     
   6558576956.2771692     
   8035567913.4136400     
   7746785393.4702864     
   7473733322.7446003     
   7214445512.4287386     
   6968934368.9514503     
   8303850769.8728361     
   8020581528.7493486     
   7779524039.4357605     
   7569966572.1014528     
   7386941399.5455170     
   5786692347.2538061     
   5636012943.6165905     
   5489619810.5308056     
   5347427015.1338825     
   5209487129.3052559     
   6161879585.6869135     
   6012715868.7756329     
   5864900135.0762358     
   5718472404.3106384     
   5573490855.6132889     
   6558576956.2771692     
   6407834264.3615084     
   6255399016.9239902     
   6101238270.0647755     
   5945383280.5503550     
   6968934368.9514503     
   6814903400.8667622     
   6656120359.9463758     
   6492295512.1217537     
   6323383134.0196037     
   7386941399.5455170     
   7228923106.2363529     
   7063187600.8809710     
   6889026756.5362282     
   6706265520.5761824     
   5209487129.3052559     
   5067595153.8245392     
   4926337295.4333410     
   4785742936.5632439     
   4645989911.6114197     
   5573490855.6132889     
   5414086831.0401230     
   5255579909.7002687     
   5098007116.9482107     
   4941466236.8322296     
   5945383280.5503550     
   5771856998.6137171     
   5599922585.1622095     
   5429603599.1936378     
   5260961284.5052910     
   6323383134.0196037     
   6138505837.6765852     
   5956289086.6402712     
   5776707377.4418821     
   5599800692.4163761     
   6706265520.5761824     
   6512222634.0917768     
   6322250085.8955259     
   6136225442.3728046     
   5954158732.7211695     
   4645989911.6114197     
   4510077249.2425003     
   4376697118.9472437     
   4245978293.0577354     
   4118096054.6847525     
   4941466236.8322296     
   4797009449.4298372     
   4653870151.9381685     
   4512161629.7872715     
   4372034936.8294659     
   5260961284.5052910     
   5107810426.6168718     
   4954774244.9721174     
   4801925534.7189941     
   4649376608.4572763     
   5599800692.4163761     
   5438093576.5829458     
   5275345408.7984543     
   5111570530.3893156     
   4946833554.9084673     
   5954158732.7211695     
   5784245666.2874556     
   5612210829.5026894     
   5437998707.8497343     
   5261622891.7001381     
   4118096054.6847525     
   3968387926.8470001     
   3821551602.9843268     
   3677922018.7627392     
   3537957437.3601294     
   4372034936.8294659     
   4206185654.8105240     
   4042254360.3027735     
   3880460591.3629508     
   3721119624.3847804     
   4649376608.4572763     
   4469232530.7458458     
   4290300916.5524712     
   4112700611.5920601     
   3936618421.0419612     
   4946833554.9084673     
   4754156397.4303055     
   4562219762.3460722     
   4371064151.5829573     
   4180774387.4634719     
   5261622891.7001381     
   5058045079.1508141     
   4854941787.6208200     
   4652298375.7190924     
   4450126808.6935787     
   3537957437.3601294     
   3419665140.6238518     
   3301702745.2765660     
   3184253450.8118563     
   3067560249.6401277     
   3721119624.3847804     
   3593830029.5387869     
   3467875917.0377474     
   3343359374.0855470     
   3220419347.8239832     
   3936618421.0419612     
   3799783903.6395473     
   3665139408.2147694     
   3532748001.6509995     
   3402740635.4867511     
   4180774387.4634719     
   4032805023.1494479     
   3887690552.4742279     
   3745504694.1648016     
   3606468381.3028998     
   4450126808.6935787     
   4288620791.9804478     
   4130443941.1978288     
   3975738090.8442783     
   3824914792.4228330     
   3067560249.6401277     
   2909372317.2411814     
   2756314523.2696605     
   2609020104.1877828     
   2468347662.2407432     
   3220419347.8239832     
   3050103256.1320562     
   2881465485.9872866     
   2715012688.4173708     
   2551475580.2244973     
   3402740635.4867511     
   3221458407.0881557     
   3038411075.4260216     
   2853802341.8784442     
   2668168264.2054648     
   3606468381.3028998     
   3416837822.2657070     
   3222290595.2624650     
   3022679030.5837803     
   2818414454.7746735     
   3824914792.4228330     
   3630527870.0115342     
   3428598427.0290089     
   3218700596.3452816     
   3001334401.5366030     
 </DataArray>
 <DataArray  type="Float64" Name="strain" NumberOfComponents="3" format="ascii">
  0.20348102344822014        0.0000000000000000       0.12540877950318610     
  0.18665304723240525       -2.7326753138440629E-002   7.4356098737569210E-002
  0.16982507101659036       -4.4677907538307408E-002   3.5134034726174913E-002
  0.15299709480077550       -5.2053463199600358E-002   7.7425874690032030E-003
  0.13616911858496061       -4.9453420122319500E-002  -7.8182430339459041E-003
  0.15985542575198725        0.0000000000000000        9.6449464955568387E-002
  0.15317709161355311       -2.1846023389627014E-002   6.2692523075667694E-002
  0.14649875747511898       -3.6175940383492290E-002   3.7404248596305964E-002
  0.13982042333668485       -4.2989750981595840E-002   2.0584641517483085E-002
  0.13314208919825071       -4.2287455183937644E-002   1.2233701839199189E-002
  0.12646068905114460        0.0000000000000000        7.4200626328170344E-002
  0.12657004763640756       -1.6365293640813398E-002   5.5279930991173773E-002
  0.12667940622167051       -2.7673973228677162E-002   4.1465953701032447E-002
  0.12678876480693349       -3.3926038763591307E-002   3.2758694457746373E-002
  0.12689812339219642       -3.5121490245555810E-002   2.9158153261315534E-002
  0.10329681334569223        0.0000000000000000        5.8662263620991958E-002
  0.10683191530096861       -1.0884563891999781E-002   5.2118322484087411E-002
  0.11036701725624498       -1.9172006073862040E-002   4.7319150040354432E-002
  0.11390211921152132       -2.4862326545586767E-002   4.4264746289792989E-002
  0.11743722116679768       -2.7955525307173979E-002   4.2955111232403143E-002
   9.0363798635630155E-002   0.0000000000000000        4.9834376834033252E-002
   9.3962694607236247E-002  -5.4038341431861649E-003   5.3207697554408608E-002
   9.7561590578842339E-002  -1.0670038919046911E-002   5.4963837614271829E-002
  0.10116048655044842       -1.5798614327582238E-002   5.5102797013622959E-002
  0.10475938252205452       -2.0789560368792141E-002   5.3624575752461996E-002
  0.13616911858496061       -4.9453420122319500E-002  -7.8182430339459041E-003
  0.13295981027957765       -4.2916421531299452E-002  -3.4010602124761313E-003
  0.12975050197419472       -3.8481110651375064E-002  -3.9159583903782338E-004
  0.12654119366881181       -3.6147487482546189E-002   1.2101500863688774E-003
  0.12333188536342884       -3.5915552024812974E-002   1.4041775637440024E-003
  0.13314208919825071       -4.2287455183937644E-002   1.2233701839199189E-002
  0.12891178251940597       -3.8419894141540477E-002   1.2177036507204655E-002
  0.12468147584056119       -3.5737909005427039E-002   1.1486092876318011E-002
  0.12045116916171641       -3.4241499775597352E-002   1.0160870946539202E-002
  0.11622086248287167       -3.3930666452051367E-002   8.2013707178683753E-003
  0.12689812339219642       -3.5121490245555810E-002   2.9158153261315534E-002
  0.12242025848902931       -3.3923366751781453E-002   2.5543751580668503E-002
  0.11794239358586218       -3.2994707359478993E-002   2.2068511750268763E-002
  0.11346452868269508       -3.2335512068648452E-002   1.8732433770116515E-002
  0.10898666377952790       -3.1945780879289801E-002   1.5535517640211542E-002
  0.11743722116679768       -2.7955525307173979E-002   4.2955111232403143E-002
  0.11348523818844768       -2.9426839362022457E-002   3.6699085007915376E-002
  0.10953325521009766       -3.0251505713530972E-002   3.1355660782814529E-002
  0.10558127223174762       -3.0429524361699576E-002   2.6924838557100400E-002
  0.10162928925339763       -2.9960895306528214E-002   2.3406618330773246E-002
  0.10475938252205452       -2.0789560368792141E-002   5.3624575752461996E-002
  0.10210672161766109       -2.4930311972263447E-002   4.5643036788945372E-002
   9.9454060713267664E-002  -2.7508304067582943E-002   3.9347539973955098E-002
   9.6801399808874242E-002  -2.8523536654750676E-002   3.4738085307491236E-002
   9.4148738904480805E-002  -2.7976009733766613E-002   3.1814672789553619E-002
  0.12333188536342884       -3.5915552024812974E-002   1.4041775637440024E-003
  0.12041226317912615       -3.6421792613963569E-002   6.5941127148322343E-004
  0.11749264099482344       -3.6302697585785880E-002   9.2794798119091859E-005
  0.11457301881052073       -3.5558266940280227E-002  -2.9567185634849641E-004
  0.11165339662621804       -3.4188500677446332E-002  -5.0598869191953444E-004
  0.11622086248287167       -3.3930666452051367E-002   8.2013707178683753E-003
  0.11346772276851003       -3.4011590718853874E-002   7.8354594253231269E-003
  0.11071458305414841       -3.3690454260069044E-002   7.6243632537635886E-003
  0.10796144333978680       -3.2967257075697198E-002   7.5680822031895835E-003
  0.10520830362542519       -3.1841999165738238E-002   7.6666162736012400E-003
  0.10898666377952790       -3.1945780879289801E-002   1.5535517640211542E-002
  0.10637667183719637       -3.1601388823744060E-002   1.5325186455640905E-002
  0.10376667989486488       -3.1078210934352184E-002   1.5246335694144814E-002
  0.10115668795253337       -3.0376247211114222E-002   1.5298965355723436E-002
   9.8546696010201884E-002  -2.9495497654030062E-002   1.5483075440376554E-002
  0.10162928925339763       -2.9960895306528214E-002   2.3406618330773246E-002
   9.9139110385185192E-002  -2.9191186928634334E-002   2.3128592362436199E-002
   9.6648931516972764E-002  -2.8465967608635311E-002   2.2958712119262727E-002
   9.4158752648760363E-002  -2.7785237346531218E-002   2.2896977601252887E-002
   9.1668573780547935E-002  -2.7148996142322038E-002   2.2943388808406594E-002
   9.4148738904480805E-002  -2.7976009733766613E-002   3.1814672789553619E-002
   9.1755038412476481E-002  -2.6780985033524586E-002   3.1245677145709042E-002
   8.9361337920472156E-002  -2.5853724282918458E-002   3.0761492529117231E-002
   8.6967637428467831E-002  -2.5194227481948231E-002   3.0362118939777919E-002
   8.4573936936463534E-002  -2.4802494630613903E-002   3.0047556377691076E-002
  0.11165339662621804       -3.4188500677446332E-002  -5.0598869191953444E-004
  0.10854915564745027       -3.2643171754884653E-002  -2.0970988346996622E-004
  0.10544491466868250       -3.1372053130195449E-002   1.7320424184291694E-004
  0.10234067368991476       -3.0375144803378863E-002   6.4275368401936483E-004
   9.9236432711146960E-002  -2.9652446774434627E-002   1.1989384430596273E-003
  0.10520830362542519       -3.1841999165738238E-002   7.6666162736012400E-003
  0.10221307999745291       -3.0603034803041607E-002   7.5443334425600861E-003
   9.9217856369480648E-002  -2.9538718260456780E-002   7.5534499962463114E-003
   9.6222632741508329E-002  -2.8649049537983765E-002   7.6939659346598605E-003
   9.3227409113536108E-002  -2.7934028635622776E-002   7.9658812578010108E-003
   9.8546696010201884E-002  -2.9495497654030062E-002   1.5483075440376554E-002
   9.5705253800888956E-002  -2.8562897851198546E-002   1.5041793447605305E-002
   9.2863811591576140E-002  -2.7705383390718222E-002   1.4776674907425388E-002
   9.0022369382263240E-002  -2.6922954272588940E-002   1.4687719819836811E-002
   8.7180927172950409E-002  -2.6215610496810898E-002   1.4774928184839595E-002
   9.1668573780547935E-002  -2.7148996142322038E-002   2.2943388808406594E-002
   8.9025677057758434E-002  -2.6522760899355492E-002   2.2282670131665884E-002
   8.6382780334968864E-002  -2.5872048520979525E-002   2.1842878975380463E-002
   8.3739883612179378E-002  -2.5196859007194032E-002   2.1624015339550405E-002
   8.1096986889389794E-002  -2.4497192357999034E-002   2.1626079224175424E-002
   8.4573936936463534E-002  -2.4802494630613903E-002   3.0047556377691076E-002
   8.2174349768061219E-002  -2.4482623947512480E-002   2.9266963494741713E-002
   7.9774762599658960E-002  -2.4038713651240870E-002   2.8752062200111575E-002
   7.7375175431256660E-002  -2.3470763741799083E-002   2.8502852493800510E-002
   7.4975588262854415E-002  -2.2778774219187170E-002   2.8519334375808697E-002
   9.9236432711146960E-002  -2.9652446774434627E-002   1.1989384430596273E-003
   9.6335254894478861E-002  -2.8998894507591078E-002   9.1960058908036046E-004
   9.3434077077810790E-002  -2.8209423467075598E-002   8.2121936398840689E-004
   9.0532899261142677E-002  -2.7284033652889044E-002   9.0379476778464085E-004
   8.7631721444474620E-002  -2.6222725065030872E-002   1.1673268004683823E-003
   9.3227409113536108E-002  -2.7934028635622776E-002   7.9658812578010108E-003
   9.0502070888647174E-002  -2.7258988189050898E-002   7.7592708648406283E-003
   8.7776732663758295E-002  -2.6489260833945427E-002   7.7233830265508452E-003
   8.5051394438869415E-002  -2.5624846570306475E-002   7.8582177429320915E-003
   8.2326056213980481E-002  -2.4665745398134153E-002   8.1637750139839094E-003
   8.7180927172950409E-002  -2.6215610496810898E-002   1.4774928184839595E-002
   8.4621194465623620E-002  -2.5519081870510718E-002   1.4599813387760396E-002
   8.2061461758296872E-002  -2.4769098200815097E-002   1.4585187071134799E-002
   7.9501729050970096E-002  -2.3965659487724021E-002   1.4731049234962993E-002
   7.6941996343643404E-002  -2.3108765731237546E-002   1.5037399879244434E-002
   8.1096986889389794E-002  -2.4497192357999034E-002   2.1626079224175424E-002
   7.8692625625408102E-002  -2.3779175551970566E-002   2.1441228157839387E-002
   7.6288264361426480E-002  -2.3048935567684736E-002   2.1406631497739838E-002
   7.3883903097444831E-002  -2.2306472405141563E-002   2.1522289243876728E-002
   7.1479541833463112E-002  -2.1551786064340939E-002   2.1788201396250186E-002
   7.4975588262854415E-002  -2.2778774219187170E-002   2.8519334375808697E-002
   7.2716364368000747E-002  -2.2039269233430497E-002   2.8283515175077489E-002
   7.0457140473147148E-002  -2.1328772934554610E-002   2.8187716306365879E-002
   6.8197916578293521E-002  -2.0647285322559109E-002   2.8231937769673726E-002
   6.5938692683439909E-002  -1.9994806397444220E-002   2.8416179565001143E-002
   8.7631721444474620E-002  -2.6222725065030872E-002   1.1673268004683823E-003
   8.4218450338858775E-002  -2.5088184081464626E-002   9.6156788672990823E-004
   8.0805179233243041E-002  -2.3943097080153491E-002   9.2631701405626599E-004
   7.7391908127627224E-002  -2.2787464061097600E-002   1.0615741824469005E-003
   7.3978637022011462E-002  -2.1621285024296721E-002   1.3673393919022558E-003
   8.2326056213980481E-002  -2.4665745398134153E-002   8.1637750139839094E-003
   7.9093062680431009E-002  -2.3653315576737471E-002   7.9006491952343383E-003
   7.5860069146881509E-002  -2.2628915365425134E-002   7.8275704795529588E-003
   7.2627075613332051E-002  -2.1592544764197315E-002   7.9445388669398126E-003
   6.9394082079782538E-002  -2.0544203773053882E-002   8.2515543573943861E-003
   7.6941996343643404E-002  -2.3108765731237546E-002   1.5037399879244434E-002
   7.3908819444163720E-002  -2.2218447072010206E-002   1.4718331527654560E-002
   7.0875642544684023E-002  -2.1314733650696679E-002   1.4608849341136321E-002
   6.7842465645204325E-002  -2.0397625467296811E-002   1.4708953319689695E-002
   6.4809288745724614E-002  -1.9467122521810598E-002   1.5018643463314524E-002
   7.1479541833463112E-002  -2.1551786064340939E-002   2.1788201396250186E-002
   6.8665720630056812E-002  -2.0783578567283106E-002   2.1414614883990914E-002
   6.5851899426650456E-002  -2.0000551935968273E-002   2.1270153598806348E-002
   6.3038078223244157E-002  -1.9202706170396419E-002   2.1354817540696937E-002
   6.0224257019837808E-002  -1.8390041270567703E-002   2.1668606709662634E-002
   6.5938692683439909E-002  -1.9994806397444220E-002   2.8416179565001143E-002
   6.3363766238110408E-002  -1.9348710062555924E-002   2.7989499264242684E-002
   6.0788839792780894E-002  -1.8686370221239937E-002   2.7811483252562941E-002
   5.8213913347451386E-002  -1.8007786873496013E-002   2.7882131529961524E-002
   5.5638986902121879E-002  -1.7312960019324586E-002   2.8201444096439043E-002
   7.3978637022011462E-002  -2.1621285024296721E-002   1.3673393919022558E-003
   7.1553759423143237E-002  -2.0628485827885179E-002   1.7437536627731287E-003
   6.9128881824274901E-002  -1.9992992329996989E-002   2.2462533511618532E-003
   6.6704004225406649E-002  -1.9714804530631881E-002   2.8748384570675967E-003
   6.4279126626538341E-002  -1.9793922429790389E-002   3.6295089804907477E-003
   6.9394082079782538E-002  -2.0544203773053882E-002   8.2515543573943861E-003
   6.7088228515501946E-002  -1.9629275790931267E-002   8.3026178002663098E-003
   6.4782374951221439E-002  -1.8993144216766289E-002   8.4656438947963430E-003
   6.2476521386940889E-002  -1.8635809050558602E-002   8.7406326409847634E-003
   6.0170667822660284E-002  -1.8557270292308692E-002   9.1275840388306273E-003
   6.4809288745724614E-002  -1.9467122521810598E-002   1.5018643463314524E-002
   6.2608336450172497E-002  -1.8630065753977215E-002   1.4822865368753352E-002
   6.0407384154620283E-002  -1.7993296103535686E-002   1.4724927159991075E-002
   5.8206431859068090E-002  -1.7556813570484876E-002   1.4724828837027241E-002
   5.6005479563515925E-002  -1.7320618154826717E-002   1.4822570399862262E-002
   6.0224257019837808E-002  -1.8390041270567703E-002   2.1668606709662634E-002
   5.8114083227154639E-002  -1.7630855717023233E-002   2.1304496368234116E-002
   5.6003909434471519E-002  -1.6993447990304701E-002   2.1024103146744955E-002
   5.3893735641788433E-002  -1.6477818090411815E-002   2.0827427045195232E-002
   5.1783561849105299E-002  -1.6083966017344992E-002   2.0714468063585116E-002
   5.5638986902121879E-002  -1.7312960019324586E-002   2.8201444096439043E-002
   5.3605468846448484E-002  -1.6631645680069251E-002   2.7747510798708741E-002
   5.1571950790775117E-002  -1.5993599877074036E-002   2.7363171855058932E-002
   4.9538432735101751E-002  -1.5398822610338338E-002   2.7048427265488659E-002
   4.7504914679428412E-002  -1.4847313879863100E-002   2.6803277029998906E-002
   6.4279126626538341E-002  -1.9793922429790389E-002   3.6295089804907477E-003
   6.0173930609303317E-002  -1.9082962252487845E-002   1.0057510535464997E-003
   5.6068734592068181E-002  -1.6434540223740607E-002  -9.7477575079069068E-004
   5.1963538574833185E-002  -1.1848656343548737E-002  -2.3120714325221003E-003
   4.7858342557598021E-002  -5.3253106119122151E-003  -3.0061359916464525E-003
   6.0170667822660284E-002  -1.8557270292308692E-002   9.1275840388306273E-003
   5.6645476586250409E-002  -1.7950290192081053E-002   8.0204407865174798E-003
   5.3120285349840646E-002  -1.6007630999941624E-002   7.4300759732476851E-003
   4.9595094113430910E-002  -1.2729292715890322E-002   7.3564895990225754E-003
   4.6069902877020952E-002  -8.1152753399269528E-003   7.7996816638412625E-003
   5.6005479563515925E-002  -1.7320618154826717E-002   1.4822570399862262E-002
   5.2933840424368772E-002  -1.6817618131674317E-002   1.4630259062646811E-002
   4.9862201285221688E-002  -1.5580721776142961E-002   1.4828273480913354E-002
   4.6790562146074528E-002  -1.3609929088231793E-002   1.5416613654660162E-002
   4.3718923006927368E-002  -1.0905240067941691E-002   1.6395279583889311E-002
   5.1783561849105299E-002  -1.6083966017344992E-002   2.0714468063585116E-002
   4.9039022123658238E-002  -1.5684946071267664E-002   2.0835205881934993E-002
   4.6294482398211170E-002  -1.5153812552343694E-002   2.1219816772203710E-002
   4.3549942672764200E-002  -1.4490565460573321E-002   2.1868300734391458E-002
   4.0805402947317146E-002  -1.3695204795956539E-002   2.2780657768497387E-002
   4.7504914679428412E-002  -1.4847313879863100E-002   2.6803277029998906E-002
   4.4961021684118752E-002  -1.4552274010860899E-002   2.6635281244381692E-002
   4.2417128688809175E-002  -1.4726903328544858E-002   2.6604705847120241E-002
   3.9873235693499598E-002  -1.5371201832914846E-002   2.6711550838215206E-002
   3.7329342698189993E-002  -1.6485169523971166E-002   2.6955816217666628E-002
   9.0363798635630155E-002   0.0000000000000000        4.9834376834033252E-002
   9.3962694607236247E-002  -5.4038341431861649E-003   5.3207697554408608E-002
   9.7561590578842339E-002  -1.0670038919046911E-002   5.4963837614271829E-002
  0.10116048655044842       -1.5798614327582238E-002   5.5102797013622959E-002
  0.10475938252205452       -2.0789560368792141E-002   5.3624575752461996E-002
   8.2424789131827783E-002   0.0000000000000000        4.4783463043940513E-002
   8.4635307794708375E-002  -4.5737803991915309E-003   4.8266949571039448E-002
   8.6845826457588982E-002  -9.0367640900929306E-003   5.0590862141199483E-002
   8.9056345120469574E-002  -1.3388951072704202E-002   5.1755200754420652E-002
   9.1266863783350180E-002  -1.7630341347025333E-002   5.1759965410702921E-002
   7.4242929045154615E-002   0.0000000000000000        4.0576019327360061E-002
   7.5522677102882949E-002  -3.7437266551968991E-003   4.4142839002147286E-002
   7.6802425160611268E-002  -7.4034892611389552E-003   4.7007691423568844E-002
   7.8082173218339601E-002  -1.0979287817826167E-002   4.9170576591624764E-002
   7.9361921276067934E-002  -1.4471122325258535E-002   5.0631494506315024E-002
   6.5818218375610651E-002   0.0000000000000000        3.7212045684291872E-002
   6.6624802531759938E-002  -2.9136729112022664E-003   4.0835365847732098E-002
   6.7431386687909226E-002  -5.7702144321849771E-003   4.4214325461379898E-002
   6.8237970844058499E-002  -8.5696245629481305E-003   4.7348924525235279E-002
   6.9044555000207800E-002  -1.1311903303491730E-002   5.0239163039298214E-002
   5.7150657123195864E-002   0.0000000000000000        3.4691542114735970E-002
   5.7941684081339338E-002  -2.0836191672076333E-003   3.8344530107793914E-002
   5.8732711039482813E-002  -4.1369396032309991E-003   4.2210764254632660E-002
   5.9523737997626280E-002  -6.1599613080700975E-003   4.6290244555252207E-002
   6.0314764955769741E-002  -8.1526842817249250E-003   5.0582971009652533E-002
  0.10475938252205452       -2.0789560368792141E-002   5.3624575752461996E-002
  0.10210672161766109       -2.4930311972263447E-002   4.5643036788945372E-002
   9.9454060713267664E-002  -2.7508304067582943E-002   3.9347539973955098E-002
   9.6801399808874242E-002  -2.8523536654750676E-002   3.4738085307491236E-002
   9.4148738904480805E-002  -2.7976009733766613E-002   3.1814672789553619E-002
   9.1266863783350180E-002  -1.7630341347025333E-002   5.1759965410702921E-002
   9.0063100095445769E-002  -2.1205725584322488E-002   4.6520845183525963E-002
   8.8859336407541345E-002  -2.3559894455861805E-002   4.2493477240800728E-002
   8.7655572719636921E-002  -2.4692847961643241E-002   3.9677861582527209E-002
   8.6451809031732552E-002  -2.4604586101666867E-002   3.8073998208705349E-002
   7.9361921276067934E-002  -1.4471122325258535E-002   5.0631494506315024E-002
   7.9132764940577929E-002  -1.7481139196381543E-002   4.7793248873083727E-002
   7.8903608605087924E-002  -1.9611484844140627E-002   4.5692465660229567E-002
   7.8674452269597947E-002  -2.0862159268535848E-002   4.4329144867752447E-002
   7.8445295934107956E-002  -2.1233162469567142E-002   4.3703286495652485E-002
   6.9044555000207800E-002  -1.1311903303491730E-002   5.0239163039298214E-002
   6.9315716153057594E-002  -1.3756552808440580E-002   4.9460247857618635E-002
   6.9586877305907402E-002  -1.5663075232419461E-002   4.8944505232241586E-002
   6.9858038458757210E-002  -1.7031470575428417E-002   4.8691935163167006E-002
   7.0129199611607004E-002  -1.7861738837467413E-002   4.8702537650394936E-002
   6.0314764955769741E-002  -8.1526842817249250E-003   5.0582971009652533E-002
   6.0611953732884756E-002  -1.0031966420499631E-002   5.1521842137130722E-002
   6.0909142509999764E-002  -1.1714665620698308E-002   5.2249595956836835E-002
   6.1206331287114765E-002  -1.3200781882321004E-002   5.2766232468770803E-002
   6.1503520064229773E-002  -1.4490315205367671E-002   5.3071751672932682E-002
   9.4148738904480805E-002  -2.7976009733766613E-002   3.1814672789553619E-002
   9.1755038412476481E-002  -2.6780985033524586E-002   3.1245677145709042E-002
   8.9361337920472156E-002  -2.5853724282918458E-002   3.0761492529117231E-002
   8.6967637428467831E-002  -2.5194227481948231E-002   3.0362118939777919E-002
   8.4573936936463534E-002  -2.4802494630613903E-002   3.0047556377691076E-002
   8.6451809031732552E-002  -2.4604586101666867E-002   3.8073998208705349E-002
   8.4188974276243042E-002  -2.3958542157565012E-002   3.7054766475675335E-002
   8.1926139520753560E-002  -2.3418149410970073E-002   3.6212455188422463E-002
   7.9663304765264065E-002  -2.2983407861881997E-002   3.5547064346946558E-002
   7.7400470009774597E-002  -2.2654317510300906E-002   3.5058593951247691E-002
   7.8445295934107956E-002  -2.1233162469567142E-002   4.3703286495652485E-002
   7.6405436333657761E-002  -2.1136099281605442E-002   4.2395931425565955E-002
   7.4365576733207553E-002  -2.0982574539021678E-002   4.1357606219780976E-002
   7.2325717132757372E-002  -2.0772588241815777E-002   4.0588310878297541E-002
   7.0285857532307136E-002  -2.0506140389987798E-002   4.0088045401115532E-002
   7.0129199611607004E-002  -1.7861738837467413E-002   4.8702537650394936E-002
   6.8404424584720583E-002  -1.8313656405645883E-002   4.7269171995380943E-002
   6.6679649557834147E-002  -1.8546999667073273E-002   4.6196945623192903E-002
   6.4954874530947712E-002  -1.8561768621749550E-002   4.5485858533830865E-002
   6.3230099504061291E-002  -1.8357963269674746E-002   4.5135910727294726E-002
   6.1503520064229773E-002  -1.4490315205367671E-002   5.3071751672932682E-002
   6.0185939029431555E-002  -1.5491213529686292E-002   5.1674488185120236E-002
   5.8868357994633316E-002  -1.6111424795124861E-002   5.0730473398658105E-002
   5.7550776959835084E-002  -1.6350949001683303E-002   5.0239707313546551E-002
   5.6233195925036880E-002  -1.6209786149361666E-002   5.0202189929785340E-002
   8.4573936936463534E-002  -2.4802494630613903E-002   3.0047556377691076E-002
   8.2174349768061219E-002  -2.4482623947512480E-002   2.9266963494741713E-002
   7.9774762599658960E-002  -2.4038713651240870E-002   2.8752062200111575E-002
   7.7375175431256660E-002  -2.3470763741799083E-002   2.8502852493800510E-002
   7.4975588262854415E-002  -2.2778774219187170E-002   2.8519334375808697E-002
   7.7400470009774597E-002  -2.2654317510300906E-002   3.5058593951247691E-002
   7.5255801911540465E-002  -2.2328688756625983E-002   3.4437466806801056E-002
   7.3111133813306334E-002  -2.1904332001256636E-002   3.4060486214371404E-002
   7.0966465715072202E-002  -2.1381247244192887E-002   3.3927652173958961E-002
   6.8821797616838071E-002  -2.0759434485434658E-002   3.4038964685563666E-002
   7.0285857532307136E-002  -2.0506140389987798E-002   4.0088045401115532E-002
   6.8374563467939062E-002  -2.0174753565739410E-002   3.9601072383695909E-002
   6.6463269403571001E-002  -1.9769950351272374E-002   3.9336700881991260E-002
   6.4551975339202941E-002  -1.9291730746586598E-002   3.9294930896001626E-002
   6.2640681274834881E-002  -1.8740094751682174E-002   3.9475762425726924E-002
   6.3230099504061291E-002  -1.8357963269674746E-002   4.5135910727294726E-002
   6.1530634437257162E-002  -1.8020818374852903E-002   4.4757780225426438E-002
   5.9831169370453005E-002  -1.7635568701288084E-002   4.4580706202970895E-002
   5.8131704303648855E-002  -1.7202214248980368E-002   4.4604688659928338E-002
   5.6432239236844733E-002  -1.6720755017929662E-002   4.4829727596298552E-002
   5.6233195925036880E-002  -1.6209786149361666E-002   5.0202189929785340E-002
   5.4724014819494571E-002  -1.5866883183966340E-002   4.9907590331992518E-002
   5.3214833713952282E-002  -1.5501187051303857E-002   4.9792502177310460E-002
   5.1705652608410008E-002  -1.5112697751374119E-002   4.9856925465739090E-002
   5.0196471502867684E-002  -1.4701415284177177E-002   5.0100860197278635E-002
   7.4975588262854415E-002  -2.2778774219187170E-002   2.8519334375808697E-002
   7.2716364368000747E-002  -2.2039269233430497E-002   2.8283515175077489E-002
   7.0457140473147148E-002  -2.1328772934554610E-002   2.8187716306365879E-002
   6.8197916578293521E-002  -2.0647285322559109E-002   2.8231937769673726E-002
   6.5938692683439909E-002  -1.9994806397444220E-002   2.8416179565001143E-002
   6.8821797616838071E-002  -2.0759434485434658E-002   3.4038964685563666E-002
   6.6712188638760689E-002  -2.0096599115661584E-002   3.3762568640329643E-002
   6.4602579660683335E-002  -1.9450446525553070E-002   3.3645382096628609E-002
   6.2492970682605967E-002  -1.8820976715109159E-002   3.3687405054460509E-002
   6.0383361704528626E-002  -1.8208189684329745E-002   3.3888637513825509E-002
   6.2640681274834881E-002  -1.8740094751682174E-002   3.9475762425726924E-002
   6.0699876383047184E-002  -1.8153928997892657E-002   3.9171115443206159E-002
   5.8759071491259515E-002  -1.7572120116551633E-002   3.9044867131731907E-002
   5.6818266599471867E-002  -1.6994668107659150E-002   3.9097017491304009E-002
   5.4877461707684157E-002  -1.6421572971215159E-002   3.9327566521922652E-002
   5.6432239236844733E-002  -1.6720755017929662E-002   4.4829727596298552E-002
   5.4679427600860205E-002  -1.6211258880123737E-002   4.4509155583707175E-002
   5.2926615964875696E-002  -1.5693793707550256E-002   4.4386171411675709E-002
   5.1173804328891140E-002  -1.5168359500209228E-002   4.4460775080204067E-002
   4.9420992692906653E-002  -1.4634956258100656E-002   4.4732966589292364E-002
   5.0196471502867684E-002  -1.4701415284177177E-002   5.0100860197278635E-002
   4.8650842292199764E-002  -1.4268588762354831E-002   4.9776689061832607E-002
   4.7105213081531830E-002  -1.3815467298548753E-002   4.9669294936460023E-002
   4.5559583870863889E-002  -1.3342050892759232E-002   4.9778677821160494E-002
   4.4013954660195947E-002  -1.2848339544986043E-002   5.0104837715934492E-002
   6.5938692683439909E-002  -1.9994806397444220E-002   2.8416179565001143E-002
   6.3363766238110408E-002  -1.9348710062555924E-002   2.7989499264242684E-002
   6.0788839792780894E-002  -1.8686370221239937E-002   2.7811483252562941E-002
   5.8213913347451386E-002  -1.8007786873496013E-002   2.7882131529961524E-002
   5.5638986902121879E-002  -1.7312960019324586E-002   2.8201444096439043E-002
   6.0383361704528626E-002  -1.8208189684329745E-002   3.3888637513825509E-002
   5.8047582957180086E-002  -1.7598419494786063E-002   3.3515317905846900E-002
   5.5711804209831572E-002  -1.6978000208049210E-002   3.3371629404751593E-002
   5.3376025462483052E-002  -1.6346931824118942E-002   3.3457572010539775E-002
   5.1040246715134518E-002  -1.5705214342995655E-002   3.3773145723211523E-002
   5.4877461707684157E-002  -1.6421572971215159E-002   3.9327566521922652E-002
   5.2761797476121489E-002  -1.5848128927016106E-002   3.9002013197489208E-002
   5.0646133244558814E-002  -1.5269630194858309E-002   3.8887057797744047E-002
   4.8530469012996118E-002  -1.4686076774741813E-002   3.8982700322687261E-002
   4.6414804781433477E-002  -1.4097468666666613E-002   3.9288940772318551E-002
   4.9420992692906653E-002  -1.4634956258100656E-002   4.4732966589292364E-002
   4.7506409794934611E-002  -1.4097838359246197E-002   4.4449585139169759E-002
   4.5591826896962583E-002  -1.3561260181667579E-002   4.4357768431540129E-002
   4.3677243998990561E-002  -1.3025221725364602E-002   4.4457516466403738E-002
   4.1762661101018513E-002  -1.2489722990337654E-002   4.4748829243760280E-002
   4.4013954660195947E-002  -1.2848339544986043E-002   5.0104837715934492E-002
   4.2281419913619445E-002  -1.2347547791476315E-002   4.9858033730888263E-002
   4.0548885167042900E-002  -1.1852890168476723E-002   4.9783761306139818E-002
   3.8816350420466376E-002  -1.1364366675987569E-002   4.9882020441689157E-002
   3.7083815673889853E-002  -1.0881977314008584E-002   5.0152811137536668E-002
   5.5638986902121879E-002  -1.7312960019324586E-002   2.8201444096439043E-002
   5.3605468846448484E-002  -1.6631645680069251E-002   2.7747510798708741E-002
   5.1571950790775117E-002  -1.5993599877074036E-002   2.7363171855058932E-002
   4.9538432735101751E-002  -1.5398822610338338E-002   2.7048427265488659E-002
   4.7504914679428412E-002  -1.4847313879863100E-002   2.6803277029998906E-002
   5.1040246715134518E-002  -1.5705214342995655E-002   3.3773145723211523E-002
   4.9097946307884680E-002  -1.5057520467080199E-002   3.3293151551176403E-002
   4.7155645900634841E-002  -1.4408522898773882E-002   3.2925998321908484E-002
   4.5213345493385029E-002  -1.3758221638076457E-002   3.2671686035407460E-002
   4.3271045086135190E-002  -1.3106616684988304E-002   3.2530214691673054E-002
   4.6414804781433477E-002  -1.4097468666666613E-002   3.9288940772318551E-002
   4.4606968611294005E-002  -1.3483395254091091E-002   3.8827457954629566E-002
   4.2799132441154533E-002  -1.2823445920473790E-002   3.8522062668394384E-002
   4.0991296271015061E-002  -1.2117620665814578E-002   3.8372754913613055E-002
   3.9183460100875603E-002  -1.1365919490113591E-002   3.8379534690285502E-002
   4.1762661101018513E-002  -1.2489722990337654E-002   4.4748829243760280E-002
   4.0132535756676350E-002  -1.1909270041101983E-002   4.4350430009068326E-002
   3.8502410412334154E-002  -1.1238368942173668E-002   4.4151364894516869E-002
   3.6872285067991964E-002  -1.0477019693552699E-002   4.4151633900106228E-002
   3.5242159723649802E-002  -9.6252222952388361E-003   4.4351237025836154E-002
   3.7083815673889853E-002  -1.0881977314008584E-002   5.0152811137536668E-002
   3.5674647744031784E-002  -1.0335144828112930E-002   4.9862067714492475E-002
   3.4265479814173702E-002  -9.6532919638736003E-003   4.9813905000275771E-002
   3.2856311884315599E-002  -8.8364187212907203E-003   5.0008322994886723E-002
   3.1447143954457524E-002  -7.8845251003640260E-003   5.0445321698325218E-002
   4.7504914679428412E-002  -1.4847313879863100E-002   2.6803277029998906E-002
   4.4961021684118752E-002  -1.4552274010860899E-002   2.6635281244381692E-002
   4.2417128688809175E-002  -1.4726903328544858E-002   2.6604705847120241E-002
   3.9873235693499598E-002  -1.5371201832914846E-002   2.6711550838215206E-002
   3.7329342698189993E-002  -1.6485169523971166E-002   2.6955816217666628E-002
   4.3271045086135190E-002  -1.3106616684988304E-002   3.2530214691673054E-002
   4.0865833185662309E-002  -1.2601784270782290E-002   3.2127505242149218E-002
   3.8460621285189511E-002  -1.2391800626731328E-002   3.1864737593942899E-002
   3.6055409384716658E-002  -1.2476665752835469E-002   3.1741911747053764E-002
   3.3650197484243805E-002  -1.2856379649094585E-002   3.1759027701482090E-002
   3.9183460100875603E-002  -1.1365919490113591E-002   3.8379534690285502E-002
   3.6919450708200685E-002  -1.0651294530703626E-002   3.7916931993386402E-002
   3.4655441315525726E-002  -1.0056697924917916E-002   3.7596792510765815E-002
   3.2391431922850808E-002  -9.5821296727560661E-003   3.7419116242423389E-002
   3.0127422530175807E-002  -9.2275897742182256E-003   3.7383903188359657E-002
   3.5242159723649802E-002  -9.6252222952388361E-003   4.4351237025836154E-002
   3.3121874251733810E-002  -8.7008047906250996E-003   4.4003561498092800E-002
   3.1001588779817985E-002  -7.7215952231042793E-003   4.3800870597588998E-002
   2.8881303307902118E-002  -6.6875935926763988E-003   4.3743164324324499E-002
   2.6761017835986160E-002  -5.5987998993416999E-003   4.3830442678300413E-002
   3.1447143954457524E-002  -7.8845251003640260E-003   5.0445321698325218E-002
   2.9473103816261836E-002  -6.7503150505464071E-003   5.0387393756268606E-002
   2.7499063678066177E-002  -5.3864925212910725E-003   5.0476971854412606E-002
   2.5525023539870503E-002  -3.7930575125972553E-003   5.0714055992757620E-002
   2.3550983401674830E-002  -1.9700100244652852E-003   5.1098646171303219E-002
   5.7150657123195864E-002   0.0000000000000000        3.4691542114735970E-002
   5.7941684081339338E-002  -2.0836191672076333E-003   3.8344530107793914E-002
   5.8732711039482813E-002  -4.1369396032309991E-003   4.2210764254632660E-002
   5.9523737997626280E-002  -6.1599613080700975E-003   4.6290244555252207E-002
   6.0314764955769741E-002  -8.1526842817249250E-003   5.0582971009652533E-002
   4.8651639177093871E-002   0.0000000000000000        3.2791082677791697E-002
   4.9590713422690412E-002  -1.7092450399751472E-003   3.6966863666724060E-002
   5.0529787668286946E-002  -3.4326794777230427E-003   4.1225493076781763E-002
   5.1468861913883480E-002  -5.1703033132436821E-003   4.5566970907964799E-002
   5.2407936159480015E-002  -6.9221165465370655E-003   4.9991297160273146E-002
   4.0732558426488277E-002   0.0000000000000000        3.1287241432558420E-002
   4.1689282226882410E-002  -1.3348709127426620E-003   3.5941327288408202E-002
   4.2646006027276549E-002  -2.7284193522150862E-003   4.0547863832727828E-002
   4.3602729827670682E-002  -4.1806453184172693E-003   4.5106851065517338E-002
   4.4559453628064814E-002  -5.6915488113492129E-003   4.9618288986776705E-002
   3.3393414871379083E-002   0.0000000000000000        3.0180018379036135E-002
   3.4237390493915346E-002  -9.6049678551017635E-004   3.5267920972846305E-002
   3.5081366116451601E-002  -2.0241592267071290E-003   4.0177876522470866E-002
   3.5925341738987863E-002  -3.1909873235908596E-003   4.4909885027909817E-002
   3.6769317361524119E-002  -4.4609810761613604E-003   4.9463946489163156E-002
   2.6634208511766285E-002   0.0000000000000000        2.9469413517224846E-002
   2.7235038223789202E-002  -5.8612265827769072E-004   3.4946644720038396E-002
   2.7835867935812119E-002  -1.3198991011991734E-003   4.0115531146010880E-002
   2.8436697647835036E-002  -2.2013293287644429E-003   4.4976072795142263E-002
   2.9037527359857949E-002  -3.2304133409735009E-003   4.9528269667432581E-002
   6.0314764955769741E-002  -8.1526842817249250E-003   5.0582971009652533E-002
   6.0611953732884756E-002  -1.0031966420499631E-002   5.1521842137130722E-002
   6.0909142509999764E-002  -1.1714665620698308E-002   5.2249595956836835E-002
   6.1206331287114765E-002  -1.3200781882321004E-002   5.2766232468770803E-002
   6.1503520064229773E-002  -1.4490315205367671E-002   5.3071751672932682E-002
   5.2407936159480015E-002  -6.9221165465370655E-003   4.9991297160273146E-002
   5.2532798221247255E-002  -8.5860789867704679E-003   5.1220542106284572E-002
   5.2657660283014489E-002  -1.0060150443111156E-002   5.2316250929372539E-002
   5.2782522344781722E-002  -1.1344330915559071E-002   5.3278423629537074E-002
   5.2907384406548949E-002  -1.2438620404114302E-002   5.4107060206778169E-002
   4.4559453628064814E-002  -5.6915488113492129E-003   4.9618288986776705E-002
   4.4589570159332938E-002  -7.1401915530413147E-003   5.1131215796638041E-002
   4.4619686690601040E-002  -8.4056352655239707E-003   5.2588187668424588E-002
   4.4649803221869164E-002  -9.4878799487971722E-003   5.3989204602136402E-002
   4.4679919753137273E-002  -1.0386925602860919E-002   5.5334266597773386E-002
   3.6769317361524119E-002  -4.4609810761613604E-003   4.9463946489163156E-002
   3.6782269547141783E-002  -5.6943041193121581E-003   5.1253863208191190E-002
   3.6795221732759460E-002  -6.7511200879367900E-003   5.3065406173993072E-002
   3.6808173918377124E-002  -7.6314289820352656E-003   5.4898575386568865E-002
   3.6821126103994808E-002  -8.3352308016075433E-003   5.6753370845918506E-002
   2.9037527359857949E-002  -3.2304133409735009E-003   4.9528269667432581E-002
   2.9110896384673825E-002  -4.2484166855829980E-003   5.1588484340943971E-002
   2.9184265409489710E-002  -5.0966049103496319E-003   5.3747906446077895E-002
   2.9257634434305586E-002  -5.7749780152733417E-003   5.6006535982834393E-002
   2.9331003459121464E-002  -6.2835360003541604E-003   5.8364372951213404E-002
   6.1503520064229773E-002  -1.4490315205367671E-002   5.3071751672932682E-002
   6.0185939029431555E-002  -1.5491213529686292E-002   5.1674488185120236E-002
   5.8868357994633316E-002  -1.6111424795124861E-002   5.0730473398658105E-002
   5.7550776959835084E-002  -1.6350949001683303E-002   5.0239707313546551E-002
   5.6233195925036880E-002  -1.6209786149361666E-002   5.0202189929785340E-002
   5.2907384406548949E-002  -1.2438620404114302E-002   5.4107060206778169E-002
   5.1990491228909363E-002  -1.3286949362319937E-002   5.3367265446886240E-002
   5.1073598051269757E-002  -1.3833248243719164E-002   5.2975597699961144E-002
   5.0156704873630151E-002  -1.4077517048311981E-002   5.2932056966002873E-002
   4.9239811695990558E-002  -1.4019755776098319E-002   5.3236643245011400E-002
   4.4679919753137273E-002  -1.0386925602860919E-002   5.5334266597773386E-002
   4.4058592744272672E-002  -1.1082685194953559E-002   5.5173283583728458E-002
   4.3437265735408077E-002  -1.1555071692313467E-002   5.5255305894266679E-002
   4.2815938726543483E-002  -1.1804085094940620E-002   5.5580333529388043E-002
   4.2194611717678868E-002  -1.1829725402834987E-002   5.6148366489092626E-002
   3.6821126103994808E-002  -8.3352308016075433E-003   5.6753370845918506E-002
   3.6390243575521550E-002  -8.8784210275871921E-003   5.7092542595646813E-002
   3.5959361047048312E-002  -9.2768951409077562E-003   5.7569597981574641E-002
   3.5528478518575053E-002  -9.5306531415692477E-003   5.8184537003702082E-002
   3.5097595990101815E-002  -9.6396950295716197E-003   5.8937359662028975E-002
   2.9331003459121464E-002  -6.2835360003541604E-003   5.8364372951213404E-002
   2.8985443722655949E-002  -6.6741568602208257E-003   5.9125042482641332E-002
   2.8639883986190436E-002  -6.9987185895020818E-003   5.9918473961885169E-002
   2.8294324249724910E-002  -7.2572211881978908E-003   6.0744667388944899E-002
   2.7948764513259401E-002  -7.4496646563082941E-003   6.1603622763820517E-002
   5.6233195925036880E-002  -1.6209786149361666E-002   5.0202189929785340E-002
   5.4724014819494571E-002  -1.5866883183966340E-002   4.9907590331992518E-002
   5.3214833713952282E-002  -1.5501187051303857E-002   4.9792502177310460E-002
   5.1705652608410008E-002  -1.5112697751374119E-002   4.9856925465739090E-002
   5.0196471502867684E-002  -1.4701415284177177E-002   5.0100860197278635E-002
   4.9239811695990558E-002  -1.4019755776098319E-002   5.3236643245011400E-002
   4.7915152279977939E-002  -1.3792804284004416E-002   5.2924809909482763E-002
   4.6590492863965355E-002  -1.3529502428956341E-002   5.2802508509902785E-002
   4.5265833447952750E-002  -1.3229850210954130E-002   5.2869739046271375E-002
   4.3941174031940131E-002  -1.2893847629997679E-002   5.3126501518588623E-002
   4.2194611717678868E-002  -1.1829725402834987E-002   5.6148366489092626E-002
   4.1064494484033799E-002  -1.1718725384042450E-002   5.5832856611515186E-002
   3.9934377250388738E-002  -1.1557817806608795E-002   5.5716899162724251E-002
   3.8804260016743641E-002  -1.1347002670534071E-002   5.5800494142719669E-002
   3.7674142783098614E-002  -1.1086279975818264E-002   5.6083641551501556E-002
   3.5097595990101815E-002  -9.6396950295716197E-003   5.8937359662028975E-002
   3.4172041431662095E-002  -9.6446464840805046E-003   5.8631730438089641E-002
   3.3246486873222368E-002  -9.5861331842612783E-003   5.8535674135774589E-002
   3.2320932314782662E-002  -9.4641551301140620E-003   5.8649190755083833E-002
   3.1395377756342928E-002  -9.2787123216387934E-003   5.8972280296017268E-002
   2.7948764513259401E-002  -7.4496646563082941E-003   6.1603622763820517E-002
   2.7237793122862869E-002  -7.5705675841185455E-003   6.1321431389206274E-002
   2.6526821732466333E-002  -7.6144485619137579E-003   6.1258833429054076E-002
   2.5815850342069804E-002  -7.5813075896940451E-003   6.1415828883363999E-002
   2.5104878951673251E-002  -7.4711446674593507E-003   6.1792417752136009E-002
   5.0196471502867684E-002  -1.4701415284177177E-002   5.0100860197278635E-002
   4.8650842292199764E-002  -1.4268588762354831E-002   4.9776689061832607E-002
   4.7105213081531830E-002  -1.3815467298548753E-002   4.9669294936460023E-002
   4.5559583870863889E-002  -1.3342050892759232E-002   4.9778677821160494E-002
   4.4013954660195947E-002  -1.2848339544986043E-002   5.0104837715934492E-002
   4.3941174031940131E-002  -1.2893847629997679E-002   5.3126501518588623E-002
   4.2608343923468357E-002  -1.2529102543443152E-002   5.2807333492464345E-002
   4.1275513814996570E-002  -1.2143222808646104E-002   5.2696986660659022E-002
   3.9942683706524755E-002  -1.1736208425606909E-002   5.2795461023172549E-002
   3.8609853598052968E-002  -1.1308059394325276E-002   5.3102756580005045E-002
   3.7674142783098614E-002  -1.1086279975818264E-002   5.6083641551501556E-002
   3.6546155961068534E-002  -1.0789616324531355E-002   5.5770316340957651E-002
   3.5418169139038447E-002  -1.0470978318743433E-002   5.5657856508978261E-002
   3.4290182317008353E-002  -1.0130365958454532E-002   5.5746262055563545E-002
   3.3162195494978293E-002  -9.7677792436645372E-003   5.6035532980713246E-002
   3.1395377756342928E-002  -9.2787123216387934E-003   5.8972280296017268E-002
   3.0464278405000211E-002  -9.0501301056196172E-003   5.8665637607312554E-002
   2.9533179053657495E-002  -8.7987338288407456E-003   5.8551904481418053E-002
   2.8602079702314778E-002  -8.5245234913020988E-003   5.8631080918333592E-002
   2.7670980350972062E-002  -8.2274990930036734E-003   5.8903166918059344E-002
   2.5104878951673251E-002  -7.4711446674593507E-003   6.1792417752136009E-002
   2.4362711255263486E-002  -7.3106438867078655E-003   6.1493297291529136E-002
   2.3620543558853700E-002  -7.1264893389380718E-003   6.1379130577978031E-002
   2.2878375862443932E-002  -6.9186810241497927E-003   6.1449917611482704E-002
   2.2136208166034149E-002  -6.6872189423429762E-003   6.1705658392043006E-002
   4.4013954660195947E-002  -1.2848339544986043E-002   5.0104837715934492E-002
   4.2281419913619445E-002  -1.2347547791476315E-002   4.9858033730888263E-002
   4.0548885167042900E-002  -1.1852890168476723E-002   4.9783761306139818E-002
   3.8816350420466376E-002  -1.1364366675987569E-002   4.9882020441689157E-002
   3.7083815673889853E-002  -1.0881977314008584E-002   5.0152811137536668E-002
   3.8609853598052968E-002  -1.1308059394325276E-002   5.3102756580005045E-002
   3.7057758297242643E-002  -1.0869824678686385E-002   5.2816754734476362E-002
   3.5505662996432319E-002  -1.0432553242575165E-002   5.2719100220182211E-002
   3.3953567695621995E-002  -9.9962450859916938E-003   5.2809793037122583E-002
   3.2401472394811642E-002  -9.5609002089360740E-003   5.3088833185297557E-002
   3.3162195494978293E-002  -9.7677792436645372E-003   5.6035532980713246E-002
   3.1806355410870818E-002  -9.3921015658966073E-003   5.5715504125684823E-002
   3.0450515326763291E-002  -9.0122163166737809E-003   5.5599638372827519E-002
   2.9094675242655792E-002  -8.6281234959960981E-003   5.5687935722141368E-002
   2.7738835158548296E-002  -8.2398231038635916E-003   5.5980396173626379E-002
   2.7670980350972062E-002  -8.2274990930036734E-003   5.8903166918059344E-002
   2.6527211254503968E-002  -7.9143784531068087E-003   5.8554281904513721E-002
   2.5383442158035899E-002  -7.5918793907723096E-003   5.8425375764075908E-002
   2.4239673061567827E-002  -7.2600019060004182E-003   5.8516448496745713E-002
   2.3095903965099737E-002  -6.9187459987910677E-003   5.8827500102523342E-002
   2.2136208166034149E-002  -6.6872189423429762E-003   6.1705658392043006E-002
   2.1220325828142095E-002  -6.4366553403169546E-003   6.1333088070962938E-002
   2.0304443490250082E-002  -6.1715424648707828E-003   6.1196312393927060E-002
   1.9388561152358055E-002  -5.8918803160046690E-003   6.1295331360935484E-002
   1.8472678814466029E-002  -5.5976688937185992E-003   6.1630144971988432E-002
   3.7083815673889853E-002  -1.0881977314008584E-002   5.0152811137536668E-002
   3.5674647744031784E-002  -1.0335144828112930E-002   4.9862067714492475E-002
   3.4265479814173702E-002  -9.6532919638736003E-003   4.9813905000275771E-002
   3.2856311884315599E-002  -8.8364187212907203E-003   5.0008322994886723E-002
   3.1447143954457524E-002  -7.8845251003640260E-003   5.0445321698325218E-002
   3.2401472394811642E-002  -9.5609002089360740E-003   5.3088833185297557E-002
   3.1217696267793707E-002  -9.0808023178682862E-003   5.2913351742028436E-002
   3.0033920140775730E-002  -8.5102351192487963E-003   5.2946073195612064E-002
   2.8850144013757746E-002  -7.8491986130772955E-003   5.3186997546048248E-002
   2.7666367886739790E-002  -7.0976927993540162E-003   5.3636124793337014E-002
   2.7738835158548296E-002  -8.2398231038635916E-003   5.5980396173626379E-002
   2.6746073022395539E-002  -7.8264598076236980E-003   5.5875625639340579E-002
   2.5753310886242779E-002  -7.3671782746238257E-003   5.5944680189932483E-002
   2.4760548750090018E-002  -6.8619785048639817E-003   5.6187559825402272E-002
   2.3767786613937261E-002  -6.3108604983441452E-003   5.6604264545749780E-002
   2.3095903965099737E-002  -6.9187459987910677E-003   5.8827500102523342E-002
   2.2259778007837294E-002  -6.5721172973791653E-003   5.8748889406429042E-002
   2.1423652050574865E-002  -6.2241214299989384E-003   5.8809725983237450E-002
   2.0587526093312412E-002  -5.8747583966507234E-003   5.9010009832948740E-002
   1.9751400136049990E-002  -5.5240281973341493E-003   5.9349740955563016E-002
   1.8472678814466029E-002  -5.5976688937185992E-003   6.1630144971988432E-002
   1.7758811224119000E-002  -5.3177747871344661E-003   6.1533143043293492E-002
   1.7044943633771979E-002  -5.0810645853739261E-003   6.1541210575526667E-002
   1.6331076043424948E-002  -4.8875382884372674E-003   6.1654347568687803E-002
   1.5617208453077916E-002  -4.7371958963243199E-003   6.1872554022776749E-002
   3.1447143954457524E-002  -7.8845251003640260E-003   5.0445321698325218E-002
   2.9473103816261836E-002  -6.7503150505464071E-003   5.0387393756268606E-002
   2.7499063678066177E-002  -5.3864925212910725E-003   5.0476971854412606E-002
   2.5525023539870503E-002  -3.7930575125972553E-003   5.0714055992757620E-002
   2.3550983401674830E-002  -1.9700100244652852E-003   5.1098646171303219E-002
   2.7666367886739790E-002  -7.0976927993540162E-003   5.3636124793337014E-002
   2.5866485922424742E-002  -6.2547488819675590E-003   5.3648053469481788E-002
   2.4066603958109653E-002  -5.3193980648070932E-003   5.3860792453186840E-002
   2.2266721993794564E-002  -4.2916403478719979E-003   5.4274341744452337E-002
   2.0466840029479516E-002  -3.1714757311624986E-003   5.4888701343278168E-002
   2.3767786613937261E-002  -6.3108604983441452E-003   5.6604264545749780E-002
   2.2195367090862464E-002  -5.7591827133889606E-003   5.6548844260431982E-002
   2.0622947567787729E-002  -5.2523036083233429E-003   5.6747538550034206E-002
   1.9050528044712921E-002  -4.7902231831469088E-003   5.7200347414556582E-002
   1.7478108521638239E-002  -4.3729414378599341E-003   5.7907270853999160E-002
   1.9751400136049990E-002  -5.5240281973341493E-003   5.9349740955563016E-002
   1.8459747321575144E-002  -5.2636165448104594E-003   5.9089766129118884E-002
   1.7168094507100301E-002  -5.1852091518394781E-003   5.9137210144954502E-002
   1.5876441692625455E-002  -5.2888060184217911E-003   5.9492073003070085E-002
   1.4584788878150613E-002  -5.5744071445572030E-003   6.0154354703465557E-002
   1.5617208453077916E-002  -4.7371958963243199E-003   6.1872554022776749E-002
   1.4659626614562715E-002  -4.7680503762315696E-003   6.1270819075542826E-002
   1.3702044776047494E-002  -5.1181146953557105E-003   6.1029807237948458E-002
   1.2744462937532276E-002  -5.7873888536967531E-003   6.1149518509993769E-002
   1.1786881099017044E-002  -6.7758728512545829E-003   6.1629952891677942E-002
   2.6634208511766285E-002   0.0000000000000000        2.9469413517224846E-002
   2.7235038223789202E-002  -5.8612265827769072E-004   3.4946644720038396E-002
   2.7835867935812119E-002  -1.3198991011991734E-003   4.0115531146010880E-002
   2.8436697647835036E-002  -2.2013293287644429E-003   4.4976072795142263E-002
   2.9037527359857949E-002  -3.2304133409735009E-003   4.9528269667432581E-002
   2.0117701871308298E-002   0.0000000000000000        2.9021174378241605E-002
   2.0449688974330804E-002  -4.3954423358884276E-004   3.4314181377808992E-002
   2.0781676077353307E-002  -9.8981191033399932E-004   3.9377847936216639E-002
   2.1113663180375806E-002  -1.6508030302354653E-003   4.4212174053464545E-002
   2.1445650283398315E-002  -2.4225175932932486E-003   4.8817159729552674E-002
   1.3506657473663541E-002   0.0000000000000000        2.8701048493203467E-002
   1.3648806303366959E-002  -2.9296580889999653E-004   3.3846761631012176E-002
   1.3790955133070380E-002  -6.5972471946882695E-004   3.8842138663342470E-002
   1.3933103962773802E-002  -1.1002767317064921E-003   4.3687179590194344E-002
   1.4075252792477221E-002  -1.6146218456129929E-003   4.8381884411567808E-002
   6.8010753188320052E-003   0.0000000000000000        2.8509035862110448E-002
   6.8323902108976750E-003  -1.4638738421114987E-004   3.3544385479647949E-002
   6.8637051029633448E-003  -3.2963752860365632E-004   3.8508403327388370E-002
   6.8950199950290145E-003  -5.4975043317751849E-004   4.3401089405331696E-002
   6.9263348870946843E-003  -8.0672609793273897E-004   4.8222443713477947E-002
   9.5540681369684494E-007   0.0000000000000000        2.8445136484962528E-002
   4.4069692294642498E-007   1.9104047769679527E-007   3.3407052923716304E-002
  -7.4012967803778126E-008   4.4966226151778310E-007   3.8376641928354334E-002
  -5.8872285855539070E-007   7.7586535145862667E-007   4.3353903498876599E-002
  -1.1034327493052686E-006   1.1696497475158565E-006   4.8338837635283106E-002
   2.9037527359857949E-002  -3.2304133409735009E-003   4.9528269667432581E-002
   2.9110896384673825E-002  -4.2484166855829980E-003   5.1588484340943971E-002
   2.9184265409489710E-002  -5.0966049103496319E-003   5.3747906446077895E-002
   2.9257634434305586E-002  -5.7749780152733417E-003   5.6006535982834393E-002
   2.9331003459121464E-002  -6.2835360003541604E-003   5.8364372951213404E-002
   2.1445650283398315E-002  -2.4225175932932486E-003   4.8817159729552674E-002
   2.1588868033529419E-002  -3.1859388567718433E-003   5.1218057863374106E-002
   2.1732085783660527E-002  -3.8220500779357577E-003   5.3659446016203455E-002
   2.1875303533791631E-002  -4.3308512567849919E-003   5.6141324188040673E-002
   2.2018521283922735E-002  -4.7123423933195380E-003   5.8663692378885829E-002
   1.4075252792477221E-002  -1.6146218456129929E-003   4.8381884411567808E-002
   1.4229601855308928E-002  -2.1234610279606686E-003   5.1080960928171021E-002
   1.4383950918140634E-002  -2.5474952455218974E-003   5.3761810051167529E-002
   1.4538299980972339E-002  -2.8867244982966351E-003   5.6424431780557352E-002
   1.4692649043804044E-002  -3.1411487862849190E-003   5.9068826116340407E-002
   6.9263348870946843E-003  -8.0672609793273897E-004   4.8222443713477947E-002
   7.0330978500123594E-003  -1.0609831991495039E-003   5.1177193535334779E-002
   7.1398608129300328E-003  -1.2729404131080094E-003   5.4054998550970249E-002
   7.2466237758477053E-003  -1.4425977398082887E-003   5.6855858760384376E-002
   7.3533867387653822E-003  -1.5699551792502982E-003   5.9579774163577175E-002
  -1.1034327493052686E-006   1.1696497475158565E-006   4.8338837635283106E-002
  -6.4398236029319586E-007   1.4946296616616742E-006   5.1506755684865319E-002
  -1.8453197128003897E-007   1.6144193058390075E-006   5.4539011515611552E-002
   2.7491841773214214E-007   1.5290186800685107E-006   5.7435605127521779E-002
   7.3436880674605798E-007   1.2384277843294211E-006   6.0196536520596068E-002
   2.9331003459121464E-002  -6.2835360003541604E-003   5.8364372951213404E-002
   2.8985443722655949E-002  -6.6741568602208257E-003   5.9125042482641332E-002
   2.8639883986190436E-002  -6.9987185895020818E-003   5.9918473961885169E-002
   2.8294324249724910E-002  -7.2572211881978908E-003   6.0744667388944899E-002
   2.7948764513259401E-002  -7.4496646563082941E-003   6.1603622763820517E-002
   2.2018521283922735E-002  -4.7123423933195380E-003   5.8663692378885829E-002
   2.1718906663942727E-002  -5.0051239512151277E-003   5.9482239136837749E-002
   2.1419292043962715E-002  -5.2477963941474082E-003   6.0359914179944726E-002
   2.1119677423982703E-002  -5.4403597221163794E-003   6.1296717508206790E-002
   2.0820062804002691E-002  -5.5828139351220968E-003   6.2292649121624036E-002
   1.4692649043804044E-002  -3.1411487862849190E-003   5.9068826116340407E-002
   1.4465345877648726E-002  -3.3360910422094020E-003   5.9929300085194148E-002
   1.4238042711493405E-002  -3.4968741987926920E-003   6.0875268676542214E-002
   1.4010739545338087E-002  -3.6234982560348393E-003   6.1906731890384530E-002
   1.3783436379182766E-002  -3.7159632139358509E-003   6.3023689726721149E-002
   7.3533867387653822E-003  -1.5699551792502982E-003   5.9579774163577175E-002
   7.2247613637739421E-003  -1.6670581332036832E-003   6.0466225327710642E-002
   7.0961359887825063E-003  -1.7459520034380110E-003   6.1464537451677577E-002
   6.9675106137910637E-003  -1.8066367899533414E-003   6.2574710535477987E-002
   6.8388852387996305E-003  -1.8491124927496154E-003   6.3796744579111872E-002
   7.3436880674605798E-007   1.2384277843294211E-006   6.0196536520596068E-002
  -2.8468776816217498E-006   1.9747758020285944E-006   6.1093014864387112E-002
  -6.4281241699904249E-006   4.9701919166856429E-006   6.2127720505350828E-002
  -1.0009370658359534E-005   1.0224676128215999E-005   6.3300653443487218E-002
  -1.3590617146726908E-005   1.7738228436592340E-005   6.4611813678796287E-002
   2.7948764513259401E-002  -7.4496646563082941E-003   6.1603622763820517E-002
   2.7237793122862869E-002  -7.5705675841185455E-003   6.1321431389206274E-002
   2.6526821732466333E-002  -7.6144485619137579E-003   6.1258833429054076E-002
   2.5815850342069804E-002  -7.5813075896940451E-003   6.1415828883363999E-002
   2.5104878951673251E-002  -7.4711446674593507E-003   6.1792417752136009E-002
   2.0820062804002691E-002  -5.5828139351220968E-003   6.2292649121624036E-002
   2.0317953654700446E-002  -5.6717772161990337E-003   6.2158749207533240E-002
   1.9815844505398191E-002  -5.7038677483818891E-003   6.2222980361168974E-002
   1.9313735356095936E-002  -5.6790855316707434E-003   6.2485342582531120E-002
   1.8811626206793691E-002  -5.5974305660653756E-003   6.2945835871619796E-002
   1.3783436379182766E-002  -3.7159632139358509E-003   6.3023689726721149E-002
   1.3468727124239178E-002  -3.7729868482796400E-003   6.3017932072033003E-002
   1.3154017869295587E-002  -3.7932869348501607E-003   6.3188843138335754E-002
   1.2839308614352002E-002  -3.7768634736474421E-003   6.3536422925629318E-002
   1.2524599359408414E-002  -3.7237164646714560E-003   6.4060671433913738E-002
   6.8388852387996305E-003  -1.8491124927496154E-003   6.3796744579111872E-002
   6.6901135314790788E-003  -1.8741964803601872E-003   6.3898979982705564E-002
   6.5413418241585296E-003  -1.8827061213183898E-003   6.4156421760554444E-002
   6.3925701168379779E-003  -1.8746414156241822E-003   6.4569069912658636E-002
   6.2437984095174313E-003  -1.8500023632775225E-003   6.5136924439018001E-002
  -1.3590617146726908E-005   1.7738228436592340E-005   6.4611813678796287E-002
  -1.7887123579861039E-005   2.4593887559209993E-005   6.4801892939550895E-002
  -2.2183630012996905E-005   2.7874692213422647E-005   6.5125716227825134E-002
  -2.6480136446132771E-005   2.7580642399129690E-005   6.5583283543618920E-002
  -3.0776642879266902E-005   2.3711738116438674E-005   6.6174594886932447E-002
   2.5104878951673251E-002  -7.4711446674593507E-003   6.1792417752136009E-002
   2.4362711255263486E-002  -7.3106438867078655E-003   6.1493297291529136E-002
   2.3620543558853700E-002  -7.1264893389380718E-003   6.1379130577978031E-002
   2.2878375862443932E-002  -6.9186810241497927E-003   6.1449917611482704E-002
   2.2136208166034149E-002  -6.6872189423429762E-003   6.1705658392043006E-002
   1.8811626206793691E-002  -5.5974305660653756E-003   6.2945835871619796E-002
   1.8255054614576847E-002  -5.4789413125900105E-003   6.2673808462576544E-002
   1.7698483022359993E-002  -5.3436562322689007E-003   6.2588019514863424E-002
   1.7141911430143153E-002  -5.1915753251017827E-003   6.2688469028480465E-002
   1.6585339837926302E-002  -5.0226985910888367E-003   6.2975157003427512E-002
   1.2524599359408414E-002  -3.7237164646714560E-003   6.4060671433913738E-002
   1.2154908585658868E-002  -3.6472387384721625E-003   6.3808879136261598E-002
   1.1785217811909320E-002  -3.5608231255997227E-003   6.3744610014213915E-002
   1.1415527038159772E-002  -3.4644696260538819E-003   6.3867864067770688E-002
   1.1045836264410226E-002  -3.3581782398348359E-003   6.4178641296932015E-002
   6.2437984095174313E-003  -1.8500023632775225E-003   6.5136924439018001E-002
   6.0622731685095440E-003  -1.8155361643543665E-003   6.4898509312584243E-002
   5.8807479275016540E-003  -1.7779900189305205E-003   6.4848902076029363E-002
   5.6992226864937675E-003  -1.7373639270059542E-003   6.4988102729353320E-002
   5.5176974454858845E-003  -1.6936578885807102E-003   6.5316111272556140E-002
  -3.0776642879266902E-005   2.3711738116438674E-005   6.6174594886932447E-002
  -2.2851636871122627E-005   1.6166409763554435E-005   6.5942698991544535E-002
  -1.4926630862985291E-005   4.8430877386679283E-006   6.5900895700309908E-002
  -7.0016248548427501E-006  -1.0258227958043903E-005   6.6049185013228484E-002
   9.2338115329632098E-007  -2.9137537326751062E-005   6.6387566930300235E-002
   2.2136208166034149E-002  -6.6872189423429762E-003   6.1705658392043006E-002
   2.1220325828142095E-002  -6.4366553403169546E-003   6.1333088070962938E-002
   2.0304443490250082E-002  -6.1715424648707828E-003   6.1196312393927060E-002
   1.9388561152358055E-002  -5.8918803160046690E-003   6.1295331360935484E-002
   1.8472678814466029E-002  -5.5976688937185992E-003   6.1630144971988432E-002
   1.6585339837926302E-002  -5.0226985910888367E-003   6.2975157003427512E-002
   1.5902908762316412E-002  -4.8385418211495390E-003   6.2625764814390278E-002
   1.5220477686706514E-002  -4.6406208062035464E-003   6.2507480505872876E-002
   1.4538046611096617E-002  -4.4289355462510151E-003   6.2620304077875333E-002
   1.3855615535486733E-002  -4.2034860412916153E-003   6.2964235530397816E-002
   1.1045836264410226E-002  -3.3581782398348359E-003   6.4178641296932015E-002
   1.0592169687558030E-002  -3.2404283019823732E-003   6.3851642211524298E-002
   1.0138503110705823E-002  -3.1096991475365321E-003   6.3751064243112068E-002
   9.6848365338536233E-003  -2.9659907764973056E-003   6.3876907391695339E-002
   9.2311699570014165E-003  -2.8093031888646314E-003   6.4229171657274001E-002
   5.5176974454858845E-003  -1.6936578885807102E-003   6.5316111272556140E-002
   5.2881086038669561E-003  -1.6423147828151935E-003   6.5010720262364763E-002
   5.0585197622480199E-003  -1.5787774888694622E-003   6.4927063605644403E-002
   4.8289309206290872E-003  -1.5030460067435684E-003   6.5065141302395088E-002
   4.5993420790101545E-003  -1.4151203364375919E-003   6.5424953352616985E-002
   9.2338115329632098E-007  -2.9137537326751062E-005   6.6387566930300235E-002
  -9.2744887568024792E-006  -4.4201263647764000E-005   6.6102998966911797E-002
  -1.9472358666901279E-005  -4.7855830202281346E-005   6.6035478593469976E-002
  -2.9670228577003549E-005  -4.0101236989803501E-005   6.6185005809974828E-002
  -3.9868098487098880E-005  -2.0937484010608021E-005   6.6551580616426242E-002
   1.8472678814466029E-002  -5.5976688937185992E-003   6.1630144971988432E-002
   1.7758811224119000E-002  -5.3177747871344661E-003   6.1533143043293492E-002
   1.7044943633771979E-002  -5.0810645853739261E-003   6.1541210575526667E-002
   1.6331076043424948E-002  -4.8875382884372674E-003   6.1654347568687803E-002
   1.5617208453077916E-002  -4.7371958963243199E-003   6.1872554022776749E-002
   1.3855615535486733E-002  -4.2034860412916153E-003   6.2964235530397816E-002
   1.3265287024553117E-002  -3.9931807331701763E-003   6.2834702648929402E-002
   1.2674958513619505E-002  -3.8269280637308195E-003   6.2847178465359949E-002
   1.2084630002685894E-002  -3.7047280329739647E-003   6.3001662979689205E-002
   1.1494301491752290E-002  -3.6265806408993240E-003   6.3298156191917421E-002
   9.2311699570014165E-003  -2.8093031888646314E-003   6.4229171657274001E-002
   8.8013197624521242E-003  -2.6685866792057755E-003   6.4066239089173513E-002
   8.3714695679028301E-003  -2.5727915420876643E-003   6.4082254455942678E-002
   7.9416193733535291E-003  -2.5219177775106637E-003   6.4277217757581606E-002
   7.5117691788042333E-003  -2.5159653854743003E-003   6.4651128994090354E-002
   4.5993420790101545E-003  -1.4151203364375919E-003   6.5424953352616985E-002
   4.3669094378160642E-003  -1.3439926252412915E-003   6.5227752364025546E-002
   4.1344767966219661E-003  -1.3186550204445056E-003   6.5246438547274868E-002
   3.9020441554278688E-003  -1.3391075220472509E-003   6.5481011902364800E-002
   3.6696115142337725E-003  -1.4053501300493459E-003   6.5931472429295521E-002
  -3.9868098487098880E-005  -2.0937484010608021E-005   6.6551580616426242E-002
  -3.7943949355103562E-005  -1.9398571277084997E-005   6.6319242473485696E-002
  -3.6019800223104775E-005  -6.4518498801416357E-005   6.6339730739356617E-002
  -3.4095651091111193E-005  -1.5629726658403578E-004   6.6613045414039077E-002
  -3.2171501959110671E-005  -2.9473487462428061E-004   6.7139186497533143E-002
   1.5617208453077916E-002  -4.7371958963243199E-003   6.1872554022776749E-002
   1.4659626614562715E-002  -4.7680503762315696E-003   6.1270819075542826E-002
   1.3702044776047494E-002  -5.1181146953557105E-003   6.1029807237948458E-002
   1.2744462937532276E-002  -5.7873888536967531E-003   6.1149518509993769E-002
   1.1786881099017044E-002  -6.7758728512545829E-003   6.1629952891677942E-002
   1.1494301491752290E-002  -3.6265806408993240E-003   6.3298156191917421E-002
   1.0866749262883169E-002  -3.6393391095340955E-003   6.2577617932091184E-002
   1.0239197034014061E-002  -3.7898566609058243E-003   6.2156415781917496E-002
   9.6116448051449532E-003  -4.0781332950142225E-003   6.2034549741396952E-002
   8.9840925762758594E-003  -4.5041690118591271E-003   6.2212019810528485E-002
   7.5117691788042333E-003  -2.5159653854743003E-003   6.4651128994090354E-002
   7.1528595595945835E-003  -2.5106278428368711E-003   6.3993238178151515E-002
   6.7939499403849492E-003  -2.4615986264558340E-003   6.3573296471879037E-002
   6.4350403211752881E-003  -2.3688777363315271E-003   6.3391303875272517E-002
   6.0761307019656652E-003  -2.2324651724635602E-003   6.3447260388332205E-002
   3.6696115142337725E-003  -1.4053501300493459E-003   6.5931472429295521E-002
   3.5179575046969339E-003  -1.3819165761395219E-003   6.5517679813724652E-002
   3.3663034951600958E-003  -1.1333405920058402E-003   6.5280449307833083E-002
   3.2146494856232612E-003  -6.5962217764869210E-004   6.5219780911621339E-002
   3.0629954760864261E-003   3.9238666931951105E-005   6.5335674625088755E-002
  -3.2171501959110671E-005  -2.9473487462428061E-004   6.7139186497533143E-002
  -3.7956901809785282E-005  -2.5320530944195063E-004   6.7150942838810179E-002
  -4.3742301660456423E-005   1.9491744244412579E-004   6.7277874289780104E-002
  -4.9527701511125830E-005   1.0496333810336642E-003   6.7519980850442946E-002
  -5.5313101361809114E-005   2.3109425063274625E-003   6.7877262520798398E-002
   9.5540681369684494E-007   0.0000000000000000        2.8445136484962528E-002
   4.4069692294642498E-007   1.9104047769679527E-007   3.3407052923716304E-002
  -7.4012967803778126E-008   4.4966226151778310E-007   3.8376641928354334E-002
  -5.8872285855539070E-007   7.7586535145862667E-007   4.3353903498876599E-002
  -1.1034327493052686E-006   1.1696497475158565E-006   4.8338837635283106E-002
  -6.7992430275404508E-003   0.0000000000000000        2.8509244120824971E-002
  -6.8315093348463984E-003   1.4657448271913724E-004   3.3544667360266352E-002
  -6.8637756421523434E-003   3.3018188707605901E-004   3.8508914838993109E-002
  -6.8960419494582901E-003   5.5082221307076705E-004   4.3401986557005216E-002
  -6.9283082567642386E-003   8.0849546070325875E-004   4.8223882514302686E-002
  -1.3505060749379506E-002   0.0000000000000000        2.8701252528763019E-002
  -1.3647926980699530E-002   2.9295792496057725E-004   3.3847147909223670E-002
  -1.3790793212019552E-002   6.5991411189060458E-004   3.8843019202370814E-002
  -1.3933659443339578E-002   1.1008685607900755E-003   4.3688866408204428E-002
  -1.4076525674659600E-002   1.6158212716589977E-003   4.8384689526724527E-002
  -2.0116497758703465E-002   0.0000000000000000        2.9021161708776680E-002
  -2.0448812240636445E-002   4.3934136720201792E-004   3.4314494570588258E-002
  -2.0781126722569432E-002   9.8964633670514885E-004   3.9378955018487448E-002
  -2.1113441204502415E-002   1.6509149085093822E-003   4.4214543052474242E-002
  -2.1445755686435402E-002   2.4231470826147367E-003   4.8821258672548620E-002
  -2.6633554055512328E-002   0.0000000000000000        2.9468971660865942E-002
  -2.7234165114657156E-002   5.8572480944345771E-004   3.4946707344360131E-002
  -2.7834776173801982E-002   1.3193785615196914E-003   4.0116722287343025E-002
  -2.8435387232946807E-002   2.2009612562286923E-003   4.4979016489814651E-002
  -2.9035998292091632E-002   3.2304728935704770E-003   4.9533589951774988E-002
  -1.1034327493052686E-006   1.1696497475158565E-006   4.8338837635283106E-002
  -6.4398236029319586E-007   1.4946296616616742E-006   5.1506755684865319E-002
  -1.8453197128003897E-007   1.6144193058390075E-006   5.4539011515611552E-002
   2.7491841773214214E-007   1.5290186800685107E-006   5.7435605127521779E-002
   7.3436880674605798E-007   1.2384277843294211E-006   6.0196536520596068E-002
  -6.9283082567642386E-003   8.0849546070325875E-004   4.8223882514302686E-002
  -7.0342203663866596E-003   1.0633114907980567E-003   5.1178602355337437E-002
  -7.1401324760090859E-003   1.2753801641796952E-003   5.4056241295185270E-002
  -7.2460445856315087E-003   1.4447014808481608E-003   5.6856799333846193E-002
  -7.3519566952539341E-003   1.5712754408034810E-003   5.9580276471320269E-002
  -1.4076525674659600E-002   1.6158212716589977E-003   4.8384689526724527E-002
  -1.4230228026644387E-002   2.1251283519344512E-003   5.1083668992768602E-002
  -1.4383930378629175E-002   2.5491459090535582E-003   5.3764148875274878E-002
  -1.4537632730613955E-002   2.8878739430162671E-003   5.6426129174243313E-002
  -1.4691335082598742E-002   3.1413124538226291E-003   5.9069609889673941E-002
  -2.1445755686435402E-002   2.4231470826147367E-003   4.8821258672548620E-002
  -2.1588666963133461E-002   3.1869452130708596E-003   5.1221955597158850E-002
  -2.1731578239831534E-002   3.8229116539274109E-003   5.3662734255880314E-002
  -2.1874489516529604E-002   4.3310464051843659E-003   5.6143594648713040E-002
  -2.2017400793227671E-002   4.7113494668418066E-003   5.8664536775657049E-002
  -2.9035998292091632E-002   3.2304728935704770E-003   4.9533589951774988E-002
  -2.9109537175853906E-002   4.2487620742072381E-003   5.1593462168508145E-002
  -2.9183076059616179E-002   5.0966773988012715E-003   5.3751997437001618E-002
  -2.9256614943378462E-002   5.7742188673524601E-003   5.6009195757255451E-002
  -2.9330153827140725E-002   6.2813864798609356E-003   5.8365057129269586E-002
   7.3436880674605798E-007   1.2384277843294211E-006   6.0196536520596068E-002
  -2.8468776816217498E-006   1.9747758020285944E-006   6.1093014864387112E-002
  -6.4281241699904249E-006   4.9701919166856429E-006   6.2127720505350828E-002
  -1.0009370658359534E-005   1.0224676128215999E-005   6.3300653443487218E-002
  -1.3590617146726908E-005   1.7738228436592340E-005   6.4611813678796287E-002
  -7.3519566952539341E-003   1.5712754408034810E-003   5.9580276471320269E-002
  -7.2298813134769003E-003   1.6690367690355631E-003   6.0471187403601724E-002
  -7.1078059316998614E-003   1.7519201905343406E-003   6.1475184295241334E-002
  -6.9857305499228277E-003   1.8199257052998147E-003   6.2592267146239083E-002
  -6.8636551681457887E-003   1.8730533133319432E-003   6.3822435956594981E-002
  -1.4691335082598742E-002   3.1413124538226291E-003   5.9069609889673941E-002
  -1.4468744410370821E-002   3.3360987622690526E-003   5.9937816435615604E-002
  -1.4246153738142897E-002   3.4988701891519808E-003   6.0893967603100903E-002
  -1.4023563065914971E-002   3.6296267344713990E-003   6.1938063392129851E-002
  -1.3800972393687053E-002   3.7283683982273219E-003   6.3070103802702393E-002
  -2.2017400793227671E-002   4.7113494668418066E-003   5.8664536775657049E-002
  -2.1719436168363384E-002   5.0031607555025715E-003   5.9492901960428723E-002
  -2.1421471543499104E-002   5.2458201877696002E-003   6.0384070428929543E-002
  -2.1123506918634807E-002   5.4393277636430046E-003   6.1338042181159465E-002
  -2.0825542293770528E-002   5.5836834831227145E-003   6.2354817217118469E-002
  -2.9330153827140725E-002   6.2813864798609356E-003   5.8365057129269586E-002
  -2.8981956587454588E-002   6.6702227487360696E-003   5.9136443978041103E-002
  -2.8633759347768455E-002   6.9927701863872951E-003   5.9945492772727205E-002
  -2.8285562108082318E-002   7.2490287928146224E-003   6.0792203513327876E-002
  -2.7937364868396184E-002   7.4389985680180376E-003   6.1676576199843167E-002
  -1.3590617146726908E-005   1.7738228436592340E-005   6.4611813678796287E-002
  -1.7887123579861039E-005   2.4593887559209993E-005   6.4801892939550895E-002
  -2.2183630012996905E-005   2.7874692213422647E-005   6.5125716227825134E-002
  -2.6480136446132771E-005   2.7580642399129690E-005   6.5583283543618920E-002
  -3.0776642879266902E-005   2.3711738116438674E-005   6.6174594886932447E-002
  -6.8636551681457887E-003   1.8730533133319432E-003   6.3822435956594981E-002
  -6.7223466184014877E-003   1.9065501839825860E-003   6.3923144360216136E-002
  -6.5810380686571832E-003   1.9156634866034535E-003   6.4181318848672592E-002
  -6.4397295189128770E-003   1.9003932211945811E-003   6.4596959421964292E-002
  -6.2984209691685708E-003   1.8607393877558276E-003   6.5170066080091280E-002
  -1.3800972393687053E-002   3.7283683982273219E-003   6.3070103802702393E-002
  -1.3490336730449646E-002   3.7885064804059343E-003   6.3060632635628736E-002
  -1.3179701067212224E-002   3.8034522809934565E-003   6.3232349610706035E-002
  -1.2869065403974811E-002   3.7732057999898937E-003   6.3585254727934276E-002
  -1.2558429740737396E-002   3.6977670373952443E-003   6.4119347987313446E-002
  -2.0825542293770528E-002   5.5836834831227145E-003   6.2354817217118469E-002
  -2.0321857459724334E-002   5.6704627768293242E-003   6.2214357765788715E-002
  -1.9818172625678126E-002   5.6912410753834873E-003   6.2278808513925518E-002
  -1.9314487791631932E-002   5.6460183787853313E-003   6.2548169461528996E-002
  -1.8810802957585731E-002   5.5347946870346193E-003   6.3022440608599073E-002
  -2.7937364868396184E-002   7.4389985680180376E-003   6.1676576199843167E-002
  -2.7216908806225532E-002   7.5524190732526378E-003   6.1384319750695943E-002
  -2.6496452744054891E-002   7.5790298697735008E-003   6.1320695558331008E-002
  -2.5775996681884239E-002   7.5188309575806743E-003   6.1485703622748369E-002
  -2.5055540619713587E-002   7.3718223366740498E-003   6.1879343943948006E-002
  -3.0776642879266902E-005   2.3711738116438674E-005   6.6174594886932447E-002
  -2.2851636871122627E-005   1.6166409763554435E-005   6.5942698991544535E-002
  -1.4926630862985291E-005   4.8430877386679283E-006   6.5900895700309908E-002
  -7.0016248548427501E-006  -1.0258227958043903E-005   6.6049185013228484E-002
   9.2338115329632098E-007  -2.9137537326751062E-005   6.6387566930300235E-002
  -6.2984209691685708E-003   1.8607393877558276E-003   6.5170066080091280E-002
  -6.1022286559560355E-003   1.8074081808538978E-003   6.4940605856190853E-002
  -5.9060363427434967E-003   1.7511057950554410E-003   6.4897587642545967E-002
  -5.7098440295309562E-003   1.6918322303603323E-003   6.5041011439156735E-002
  -5.5136517163184157E-003   1.6295874867687243E-003   6.5370877246022974E-002
  -1.2558429740737396E-002   3.6977670373952443E-003   6.4119347987313446E-002
  -1.2177620714218082E-002   3.5986499519443452E-003   6.3893130249675800E-002
  -1.1796811687698767E-002   3.4973685023722209E-003   6.3849703928396062E-002
  -1.1416002661179443E-002   3.3939226886787934E-003   6.3989069023474274E-002
  -1.1035193634660134E-002   3.2883125108641165E-003   6.4311225534910532E-002
  -1.8810802957585731E-002   5.5347946870346193E-003   6.3022440608599073E-002
  -1.8249027811657256E-002   5.3898917230347267E-003   6.2800272171999405E-002
  -1.7687252665728778E-002   5.2436312096890252E-003   6.2757244557860109E-002
  -1.7125477519800307E-002   5.0960131469972398E-003   6.2893357766181171E-002
  -1.6563702373871836E-002   4.9470375349595225E-003   6.3208611796962605E-002
  -2.5055540619713587E-002   7.3718223366740498E-003   6.1879343943948006E-002
  -2.4316449948273578E-002   7.1811334941251637E-003   6.1662031623161695E-002
  -2.3577359276833562E-002   6.9898939170057739E-003   6.1620209530938191E-002
  -2.2838268605393546E-002   6.7981036053156585E-003   6.1753877667277385E-002
  -2.2099177933953537E-002   6.6057625590549285E-003   6.2063036032179275E-002
   9.2338115329632098E-007  -2.9137537326751062E-005   6.6387566930300235E-002
  -9.2744887568024792E-006  -4.4201263647764000E-005   6.6102998966911797E-002
  -1.9472358666901279E-005  -4.7855830202281346E-005   6.6035478593469976E-002
  -2.9670228577003549E-005  -4.0101236989803501E-005   6.6185005809974828E-002
  -3.9868098487098880E-005  -2.0937484010608021E-005   6.6551580616426242E-002
  -5.5136517163184157E-003   1.6295874867687243E-003   6.5370877246022974E-002
  -5.3031835238118146E-003   1.5660866665901108E-003   6.5088895026979399E-002
  -5.0927153313052066E-003   1.5030448721343459E-003   6.5031197342822686E-002
  -4.8822471387985986E-003   1.4404621034012285E-003   6.5197784193552710E-002
  -4.6717789462919906E-003   1.3783383603907517E-003   6.5588655579169541E-002
  -1.1035193634660134E-002   3.2883125108641165E-003   6.4311225534910532E-002
  -1.0596822434796649E-002   3.1763745968281382E-003   6.4020878926167729E-002
  -1.0158451234933166E-002   3.0539455744708621E-003   6.3962053797252005E-002
  -9.7200800350696753E-003   2.9210254437921496E-003   6.4134750148163236E-002
  -9.2817088352061990E-003   2.7776142047921948E-003   6.4538967978901310E-002
  -1.6563702373871836E-002   4.9470375349595225E-003   6.3208611796962605E-002
  -1.5890191221711297E-002   4.7866625270661725E-003   6.2898950664476538E-002
  -1.5216680069550768E-002   4.6048462768073506E-003   6.2828047956757685E-002
  -1.4543168917390230E-002   4.4015887841831261E-003   6.2995903673806003E-002
  -1.3869657765229693E-002   4.1768900491936517E-003   6.3402517815621326E-002
  -2.2099177933953537E-002   6.6057625590549285E-003   6.2063036032179275E-002
  -2.1183289884555777E-002   6.3969504573040958E-003   6.1723110241905965E-002
  -2.0267401835158017E-002   6.1557469791439640E-003   6.1629179821339947E-002
  -1.9351513785760256E-002   5.8821521245741200E-003   6.1781244770481206E-002
  -1.8435625736362503E-002   5.5761658935949976E-003   6.2179305089329784E-002
  -3.9868098487098880E-005  -2.0937484010608021E-005   6.6551580616426242E-002
  -3.7943949355103562E-005  -1.9398571277084997E-005   6.6319242473485696E-002
  -3.6019800223104775E-005  -6.4518498801416357E-005   6.6339730739356617E-002
  -3.4095651091111193E-005  -1.5629726658403578E-004   6.6613045414039077E-002
  -3.2171501959110671E-005  -2.9473487462428061E-004   6.7139186497533143E-002
  -4.6717789462919906E-003   1.3783383603907517E-003   6.5588655579169541E-002
  -4.4351484731036429E-003   1.3053369493253308E-003   6.5325741709318930E-002
  -4.1985179999152883E-003   1.2101211764265624E-003   6.5279414078769415E-002
  -3.9618875267269388E-003   1.0926910416944775E-003   6.5449672687521013E-002
  -3.7252570535385929E-003   9.5304654512939901E-004   6.5836517535574013E-002
  -9.2817088352061990E-003   2.7776142047921948E-003   6.4538967978901310E-002
  -8.8466122074718594E-003   2.6300724699274691E-003   6.4269922860565390E-002
  -8.4115155797375198E-003   2.4847608516543815E-003   6.4181223812020211E-002
  -7.9764189520031750E-003   2.3416793499728816E-003   6.4272870833265938E-002
  -7.5413223242688423E-003   2.2008279648833007E-003   6.4544863924302365E-002
  -1.3869657765229693E-002   4.1768900491936517E-003   6.3402517815621326E-002
  -1.3272335152459739E-002   3.9548079905296907E-003   6.3151785927225021E-002
  -1.2675012539689784E-002   3.7594005268822249E-003   6.3045159939109266E-002
  -1.2077689926919835E-002   3.5906676582512847E-003   6.3082639851273686E-002
  -1.1480367314149873E-002   3.4486093846370358E-003   6.3264225663718865E-002
  -1.8435625736362503E-002   5.5761658935949976E-003   6.2179305089329784E-002
  -1.7712317308067306E-002   5.2795435111319955E-003   6.1971330909297961E-002
  -1.6989008879772088E-002   5.0340402021101516E-003   6.1871222460036318E-002
  -1.6265700451476888E-002   4.8396559665297087E-003   6.1878979741544604E-002
  -1.5542392023181674E-002   4.6963908043909930E-003   6.1994602753823069E-002
  -3.2171501959110671E-005  -2.9473487462428061E-004   6.7139186497533143E-002
  -3.7956901809785282E-005  -2.5320530944195063E-004   6.7150942838810179E-002
  -4.3742301660456423E-005   1.9491744244412579E-004   6.7277874289780104E-002
  -4.9527701511125830E-005   1.0496333810336642E-003   6.7519980850442946E-002
  -5.5313101361809114E-005   2.3109425063274625E-003   6.7877262520798398E-002
  -3.7252570535385929E-003   9.5304654512939901E-004   6.5836517535574013E-002
  -3.5848687421228976E-003   9.1527110738492956E-004   6.6072565592362797E-002
  -3.4444804307071954E-003   1.1034481491150050E-003   6.6485785961991478E-002
  -3.3040921192915157E-003   1.5175776703193755E-003   6.7076178644460221E-002
  -3.1637038078757979E-003   2.1576596709983464E-003   6.7843743639768750E-002
  -7.5413223242688423E-003   2.2008279648833007E-003   6.4544863924302365E-002
  -7.1927630984397022E-003   2.0837475242120318E-003   6.4824562989373918E-002
  -6.8442038726105629E-003   2.0119788557860091E-003   6.5343431570432389E-002
  -6.4956446467814583E-003   1.9855219596049793E-003   6.6101469667477791E-002
  -6.1470854209522696E-003   2.0043768356693414E-003   6.7098677280510388E-002
  -1.1480367314149873E-002   3.4486093846370358E-003   6.3264225663718865E-002
  -1.0861639970760235E-002   3.2522239410389120E-003   6.3406935029843639E-002
  -1.0242912627370591E-002   2.9205095624568952E-003   6.3850811115102421E-002
  -9.6241852839809624E-003   2.4534662488905259E-003   6.4595853919495558E-002
  -9.0054579405913077E-003   1.8510940003402809E-003   6.5642063443022133E-002
  -1.5542392023181674E-002   4.6963908043909930E-003   6.1994602753823069E-002
  -1.4591499359084464E-002   4.4207003578660142E-003   6.1819681713771835E-002
  -1.3640606694987251E-002   3.8290402691278924E-003   6.2007924596001796E-002
  -1.2689714030890037E-002   2.9214105381761557E-003   6.2559331400512702E-002
  -1.1738821366792829E-002   1.6978111650112204E-003   6.3473902127304971E-002
  -2.6633554055512328E-002   0.0000000000000000        2.9468971660865942E-002
  -2.7234165114657156E-002   5.8572480944345771E-004   3.4946707344360131E-002
  -2.7834776173801982E-002   1.3193785615196914E-003   4.0116722287343025E-002
  -2.8435387232946807E-002   2.2009612562286923E-003   4.4979016489814651E-002
  -2.9035998292091632E-002   3.2304728935704770E-003   4.9533589951774988E-002
  -3.3393323874102813E-002   0.0000000000000000        3.0179227476462497E-002
  -3.4236563469035114E-002   9.6033918899303145E-004   3.5267799975845532E-002
  -3.5079803063967414E-002   2.0238541698400529E-003   4.0178836144164912E-002
  -3.5923042658899722E-002   3.1905449425410626E-003   4.4912335981420609E-002
  -3.6766282253832008E-002   4.4604115070960605E-003   4.9468299487612638E-002
  -4.0732901448771626E-002   0.0000000000000000        3.1286474246998014E-002
  -4.1688585170043792E-002   1.3349535685426043E-003   3.5941130411491135E-002
  -4.2644268891315951E-002   2.7283297781604144E-003   4.0548434654368186E-002
  -4.3599952612588110E-002   4.1801286288534328E-003   4.5108386975629189E-002
  -4.4555636333860289E-002   5.6903501206216536E-003   4.9620987375274136E-002
  -4.8652286779518765E-002   0.0000000000000000        3.2790711972472499E-002
  -4.9590230217683183E-002   1.7095679480921785E-003   3.6966698651296911E-002
  -5.0528173655847601E-002   3.4328053864807763E-003   4.1225517817952861E-002
  -5.1466117094012012E-002   5.1697123151657979E-003   4.5567169472440397E-002
  -5.2404060532176430E-002   6.9202887341472457E-003   4.9991653614759449E-002
  -5.7151479866344244E-002   0.0000000000000000        3.4691940652885944E-002
  -5.7941498611953302E-002   2.0841823276417501E-003   3.8344504695262856E-002
  -5.8731517357562345E-002   4.1372809948011392E-003   4.2210085634918938E-002
  -5.9521536103171402E-002   6.1592960014781734E-003   4.6288683471854192E-002
  -6.0311554848780466E-002   8.1502273476728327E-003   5.0580298206068602E-002
  -2.9035998292091632E-002   3.2304728935704770E-003   4.9533589951774988E-002
  -2.9109537175853906E-002   4.2487620742072381E-003   5.1593462168508145E-002
  -2.9183076059616179E-002   5.0966773988012715E-003   5.3751997437001618E-002
  -2.9256614943378462E-002   5.7742188673524601E-003   5.6009195757255451E-002
  -2.9330153827140725E-002   6.2813864798609356E-003   5.8365057129269586E-002
  -3.6766282253832008E-002   4.4604115070960605E-003   4.9468299487612638E-002
  -3.6779913092900504E-002   5.6936980779918912E-003   5.1256991761383805E-002
  -3.6793543931969000E-002   6.7506488697153940E-003   5.3066837072782230E-002
  -3.6807174771037489E-002   7.6312638822665351E-003   5.4897835421807872E-002
  -3.6820805610105978E-002   8.3355431156453552E-003   5.6749986808460780E-002
  -4.4555636333860289E-002   5.6903501206216536E-003   4.9620987375274136E-002
  -4.4586869142368084E-002   7.1386340817765331E-003   5.1132537782953770E-002
  -4.4618101950875885E-002   8.4046203406295157E-003   5.2587731214127548E-002
  -4.4649334759383673E-002   9.4883088971806067E-003   5.3986567668795435E-002
  -4.4680567567891474E-002   1.0389699751429799E-002   5.5329047146957529E-002
  -5.2404060532176430E-002   6.9202887341472457E-003   4.9991653614759449E-002
  -5.2530405324256638E-002   8.5835700855611714E-003   5.1220100233217977E-002
  -5.2656750116336831E-002   1.0058591811543649E-002   5.2314679861037564E-002
  -5.2783094908417032E-002   1.1345353912094664E-002   5.3275392498218201E-002
  -5.2909439700497225E-002   1.2443856387214231E-002   5.4102238144759895E-002
  -6.0311554848780466E-002   8.1502273476728327E-003   5.0580298206068602E-002
  -6.0610521638566145E-002   1.0028506089345824E-002   5.1519679112176468E-002
  -6.0909488428351845E-002   1.1712563282457764E-002   5.2247683013512285E-002
  -6.1208455218137545E-002   1.3202398927008739E-002   5.2764309910076072E-002
  -6.1507422007923231E-002   1.4498013022998649E-002   5.3069559801867797E-002
  -2.9330153827140725E-002   6.2813864798609356E-003   5.8365057129269586E-002
  -2.8981956587454588E-002   6.6702227487360696E-003   5.9136443978041103E-002
  -2.8633759347768455E-002   6.9927701863872951E-003   5.9945492772727205E-002
  -2.8285562108082318E-002   7.2490287928146224E-003   6.0792203513327876E-002
  -2.7937364868396184E-002   7.4389985680180376E-003   6.1676576199843167E-002
  -3.6820805610105978E-002   8.3355431156453552E-003   5.6749986808460780E-002
  -3.6383478445709959E-002   8.8782531120426174E-003   5.7097185698199937E-002
  -3.5946151281313940E-002   9.2741604136490283E-003   5.7584982491444309E-002
  -3.5508824116917928E-002   9.5232650204645792E-003   5.8213377188193825E-002
  -3.5071496952521902E-002   9.6255669324892823E-003   5.8982369788448528E-002
  -4.4680567567891474E-002   1.0389699751429799E-002   5.5329047146957529E-002
  -4.4051174521195002E-002   1.1086283475349148E-002   5.5171544214097416E-002
  -4.3421781474498516E-002   1.1555550640910708E-002   5.5257575142333079E-002
  -4.2792388427802031E-002   1.1797501248114481E-002   5.5587139931664517E-002
  -4.2162995381105552E-002   1.1812135296960478E-002   5.6160238582091682E-002
  -5.2909439700497225E-002   1.2443856387214231E-002   5.4102238144759895E-002
  -5.1985044813909698E-002   1.3294313838655694E-002   5.3359519525733583E-002
  -5.1060649927322170E-002   1.3836940868172441E-002   5.2963270725393585E-002
  -5.0136255040734636E-002   1.4071737475764425E-002   5.2913491743739965E-002
  -4.9211860154147101E-002   1.3998703661431671E-002   5.3210182580772612E-002
  -6.1507422007923231E-002   1.4498013022998649E-002   5.3069559801867797E-002
  -6.0185089323854073E-002   1.5502344201962226E-002   5.1661111633108339E-002
  -5.8862756639784922E-002   1.6118331095434115E-002   5.0702069240625779E-002
  -5.7540423955715764E-002   1.6345973703414320E-002   5.0192432624420122E-002
  -5.6218091271646599E-002   1.6185272025902891E-002   5.0132201784491376E-002
  -2.7937364868396184E-002   7.4389985680180376E-003   6.1676576199843167E-002
  -2.7216908806225532E-002   7.5524190732526378E-003   6.1384319750695943E-002
  -2.6496452744054891E-002   7.5790298697735008E-003   6.1320695558331008E-002
  -2.5775996681884239E-002   7.5188309575806743E-003   6.1485703622748369E-002
  -2.5055540619713587E-002   7.3718223366740498E-003   6.1879343943948006E-002
  -3.5071496952521902E-002   9.6255669324892823E-003   5.8982369788448528E-002
  -3.4130724354446793E-002   9.6237314100624805E-003   5.8650290332552618E-002
  -3.3189951756371690E-002   9.5604237135236067E-003   5.8530211691683334E-002
  -3.2249179158296580E-002   9.4356438428726940E-003   5.8622133865840760E-002
  -3.1308406560221484E-002   9.2493917981096296E-003   5.8926056855024750E-002
  -4.2162995381105552E-002   1.1812135296960478E-002   5.6160238582091682E-002
  -4.1018537688881612E-002   1.1695043746872292E-002   5.5813673654048761E-002
  -3.9874079996657687E-002   1.1541817557273714E-002   5.5662478099276831E-002
  -3.8729622304433754E-002   1.1352456728164659E-002   5.5706651917775948E-002
  -3.7585164612209829E-002   1.1126961259545126E-002   5.5946195109545932E-002
  -4.9211860154147101E-002   1.3998703661431671E-002   5.3210182580772612E-002
  -4.7880348809530023E-002   1.3766356083682161E-002   5.2874469715184315E-002
  -4.6548837464912923E-002   1.3523211401023780E-002   5.2717494781111360E-002
  -4.5217326120295817E-002   1.3269269613456678E-002   5.2739257778553782E-002
  -4.3885814775678739E-002   1.3004530720980650E-002   5.2939758707511497E-002
  -5.6218091271646599E-002   1.6185272025902891E-002   5.0132201784491376E-002
  -5.4716157716391968E-002   1.5837668420491918E-002   4.9832678515959308E-002
  -5.3214224161137358E-002   1.5504605244773914E-002   4.9695261737186996E-002
  -5.1712290605882713E-002   1.5186082498748640E-002   4.9719951448174343E-002
  -5.0210357050628096E-002   1.4882100182416230E-002   4.9906747648921390E-002
  -2.5055540619713587E-002   7.3718223366740498E-003   6.1879343943948006E-002
  -2.4316449948273578E-002   7.1811334941251637E-003   6.1662031623161695E-002
  -2.3577359276833562E-002   6.9898939170057739E-003   6.1620209530938191E-002
  -2.2838268605393546E-002   6.7981036053156585E-003   6.1753877667277385E-002
  -2.2099177933953537E-002   6.6057625590549285E-003   6.2063036032179275E-002
  -3.1308406560221484E-002   9.2493917981096296E-003   5.8926056855024750E-002
  -3.0387732564264490E-002   9.0239880648913806E-003   5.8682254550027901E-002
  -2.9467058568307527E-002   8.7817531288753858E-003   5.8626128665502278E-002
  -2.8546384572350557E-002   8.5226869900613469E-003   5.8757679201447803E-002
  -2.7625710576393573E-002   8.2467896484493819E-003   5.9076906157864539E-002
  -3.7585164612209829E-002   1.1126961259545126E-002   5.5946195109545932E-002
  -3.6470721099827456E-002   1.0866842635657695E-002   5.5659622352111207E-002
  -3.5356277587445084E-002   1.0573612340745109E-002   5.5572912207056097E-002
  -3.4241834075062705E-002   1.0247270374807063E-002   5.5686064674380600E-002
  -3.3127390562680339E-002   9.8878167378438631E-003   5.5999079754084760E-002
  -4.3885814775678739E-002   1.3004530720980650E-002   5.2939758707511497E-002
  -4.2565415554962488E-002   1.2709697206423988E-002   5.2594135029411584E-002
  -4.1245016334246279E-002   1.2365471552614693E-002   5.2460560155599696E-002
  -3.9924617113530021E-002   1.1971853759552849E-002   5.2539034086075943E-002
  -3.8604217892813791E-002   1.1528843827238386E-002   5.2829556820840215E-002
  -5.0210357050628096E-002   1.4882100182416230E-002   4.9906747648921390E-002
  -4.8671815929669571E-002   1.4552551777190240E-002   4.9485792581928895E-002
  -4.7133274808711045E-002   1.4157330764484423E-002   4.9289072511132917E-002
  -4.5594733687752506E-002   1.3696437144298463E-002   4.9316587436533534E-002
  -4.4056192566793995E-002   1.3169870916632798E-002   4.9568337358130654E-002
  -2.2099177933953537E-002   6.6057625590549285E-003   6.2063036032179275E-002
  -2.1183289884555777E-002   6.3969504573040958E-003   6.1723110241905965E-002
  -2.0267401835158017E-002   6.1557469791439640E-003   6.1629179821339947E-002
  -1.9351513785760256E-002   5.8821521245741200E-003   6.1781244770481206E-002
  -1.8435625736362503E-002   5.5761658935949976E-003   6.2179305089329784E-002
  -2.7625710576393573E-002   8.2467896484493819E-003   5.9076906157864539E-002
  -2.6473116192730389E-002   7.9522448604422702E-003   5.8726116455101646E-002
  -2.5320521809067166E-002   7.6372363824429579E-003   5.8602744051162531E-002
  -2.4167927425403954E-002   7.3017642144511813E-003   5.8706788946046862E-002
  -2.3015333041740763E-002   6.9458283564670653E-003   5.9038251139754833E-002
  -3.3127390562680339E-002   9.8878167378438631E-003   5.5999079754084760E-002
  -3.1756667915635431E-002   9.5075392635804168E-003   5.5649353825249645E-002
  -3.0385945268590502E-002   9.1187257857418338E-003   5.5508467124354456E-002
  -2.9015222621545562E-002   8.7213763043280743E-003   5.5576419651399006E-002
  -2.7644499974500657E-002   8.3154908193391885E-003   5.5853211406383579E-002
  -3.8604217892813791E-002   1.1528843827238386E-002   5.2829556820840215E-002
  -3.7033945053270921E-002   1.1062833666718522E-002   5.2492822352349852E-002
  -3.5463672213727974E-002   1.0600215189040824E-002   5.2346349040915736E-002
  -3.3893399374185063E-002   1.0140988394205217E-002   5.2390136886537757E-002
  -3.2323126534642165E-002   9.6851532822113950E-003   5.2624185889215878E-002
  -4.4056192566793995E-002   1.3169870916632798E-002   4.9568337358130654E-002
  -4.2304947605636814E-002   1.2618128069856738E-002   4.9256522036402350E-002
  -4.0553702644479633E-002   1.2081704592339759E-002   4.9116389800846511E-002
  -3.8802457683322446E-002   1.1560600484082043E-002   4.9147940651463023E-002
  -3.7051212722165286E-002   1.1054815745083324E-002   4.9351174588251945E-002
  -1.8435625736362503E-002   5.5761658935949976E-003   6.2179305089329784E-002
  -1.7712317308067306E-002   5.2795435111319955E-003   6.1971330909297961E-002
  -1.6989008879772088E-002   5.0340402021101516E-003   6.1871222460036318E-002
  -1.6265700451476888E-002   4.8396559665297087E-003   6.1878979741544604E-002
  -1.5542392023181674E-002   4.6963908043909930E-003   6.1994602753823069E-002
  -2.3015333041740763E-002   6.9458283564670653E-003   5.9038251139754833E-002
  -2.2169702598811090E-002   6.5977067191705374E-003   5.8838879218610030E-002
  -2.1324072155881384E-002   6.2856772132407479E-003   5.8776285595964164E-002
  -2.0478441712951712E-002   6.0097398386778494E-003   5.8850470271817161E-002
  -1.9632811270022008E-002   5.7698945954820502E-003   5.9061433246169082E-002
  -2.7644499974500657E-002   8.3154908193391885E-003   5.5853211406383579E-002
  -2.6647634949207681E-002   7.9158699272090377E-003   5.5647414802051223E-002
  -2.5650769923914678E-002   7.5373142243712471E-003   5.5607309063946633E-002
  -2.4653904898621706E-002   7.1798237108259937E-003   5.5732894192069844E-002
  -2.3657039873328727E-002   6.8433983865731629E-003   5.6024170186420696E-002
  -3.2323126534642165E-002   9.6851532822113950E-003   5.2624185889215878E-002
  -3.1146114359257016E-002   9.2340331352474755E-003   5.2396937659621737E-002
  -2.9969102183871908E-002   8.7889512355017393E-003   5.2364292863984002E-002
  -2.8792090008486797E-002   8.3499075829739696E-003   5.2526251502302862E-002
  -2.7615077833101676E-002   7.9169021776644144E-003   5.2882813574578219E-002
  -3.7051212722165286E-002   1.1054815745083324E-002   4.9351174588251945E-002
  -3.5665140828959219E-002   1.0552196343286080E-002   4.9087447791321293E-002
  -3.4279068935753131E-002   1.0040588246632343E-002   4.9047236996076077E-002
  -3.2892997042547056E-002   9.5199914551220566E-003   4.9230542202516187E-002
  -3.1506925149340975E-002   8.9904059687553883E-003   4.9637363410641677E-002
  -1.5542392023181674E-002   4.6963908043909930E-003   6.1994602753823069E-002
  -1.4591499359084464E-002   4.4207003578660142E-003   6.1819681713771835E-002
  -1.3640606694987251E-002   3.8290402691278924E-003   6.2007924596001796E-002
  -1.2689714030890037E-002   2.9214105381761557E-003   6.2559331400512702E-002
  -1.1738821366792829E-002   1.6978111650112204E-003   6.3473902127304971E-002
  -1.9632811270022008E-002   5.7698945954820502E-003   5.9061433246169082E-002
  -1.8344963779237396E-002   5.4442436227883917E-003   5.8664657137769860E-002
  -1.7057116288452787E-002   4.9108890597321098E-003   5.8578626760464270E-002
  -1.5769268797668091E-002   4.1698309063132807E-003   5.8803342114252560E-002
  -1.4481421306883534E-002   3.2210691625318422E-003   5.9338803199134649E-002
  -2.3657039873328727E-002   6.8433983865731629E-003   5.6024170186420696E-002
  -2.2084655747044032E-002   6.4677868877107692E-003   5.5513805061524341E-002
  -2.0512271620759363E-002   5.9927378503364936E-003   5.5261767476534329E-002
  -1.8939887494474637E-002   5.4182512744504335E-003   5.5268057431450454E-002
  -1.7367503368189971E-002   4.7443271600525749E-003   5.5532674926273340E-002
  -2.7615077833101676E-002   7.9169021776644144E-003   5.2882813574578219E-002
  -2.5810575262504357E-002   7.4913301526331466E-003   5.2367125485035478E-002
  -2.4006072691907021E-002   7.0745866409406832E-003   5.2057346744211586E-002
  -2.2201570121309633E-002   6.6666716425876835E-003   5.1953477352106918E-002
  -2.0397067550712397E-002   6.2675851575733077E-003   5.2055517308720753E-002
  -3.1506925149340975E-002   8.9904059687553883E-003   4.9637363410641677E-002
  -2.9522722325618367E-002   8.5148734175553575E-003   4.9224618408303167E-002
  -2.7538519501895731E-002   8.1564354315451365E-003   4.8965364563496233E-002
  -2.5554316678173102E-002   7.9150920107246663E-003   4.8859601876221057E-002
  -2.3570113854450514E-002   7.7908431550939294E-003   4.8907330346477318E-002
  -5.7151479866344244E-002   0.0000000000000000        3.4691940652885944E-002
  -5.7941498611953302E-002   2.0841823276417501E-003   3.8344504695262856E-002
  -5.8731517357562345E-002   4.1372809948011392E-003   4.2210085634918938E-002
  -5.9521536103171402E-002   6.1592960014781734E-003   4.6288683471854192E-002
  -6.0311554848780466E-002   8.1502273476728327E-003   5.0580298206068602E-002
  -6.5819019999163605E-002   0.0000000000000000        3.7213170047125377E-002
  -6.6624902667951430E-002   2.9139767937677967E-003   4.0835667266065592E-002
  -6.7430785336739268E-002   5.7704379138793166E-003   4.4213419741369067E-002
  -6.8236668005527107E-002   8.5693833603345659E-003   4.7346427473035822E-002
  -6.9042550674314931E-002   1.1310813133133533E-002   5.0234690461065858E-002
  -7.4243446467892382E-002   0.0000000000000000        4.0577409914077815E-002
  -7.5522954700774927E-002   3.7437712598938438E-003   4.4143408296407408E-002
  -7.6802462933657417E-002   7.4035948329574950E-003   4.7006900294184376E-002
  -7.8081971166539935E-002   1.0979470719190965E-002   4.9167885907408740E-002
  -7.9361479399422438E-002   1.4471398918594239E-002   5.0626365136080459E-002
  -8.2424759272530637E-002   0.0000000000000000        4.4784660253743259E-002
  -8.4635654710423711E-002   4.5735657260198882E-003   4.8267727786288316E-002
  -8.6846550148316798E-002   9.0367517520356776E-003   5.0590527293364863E-002
  -8.9057445586209844E-002   1.3389558078047361E-002   5.1753058774972889E-002
  -9.1268341024102931E-002   1.7631984704054950E-002   5.1755322231112413E-002
  -9.0362958413078315E-002   0.0000000000000000        4.9834921066121696E-002
  -9.3963002696897835E-002   5.4033601921459357E-003   5.3208625735708309E-002
  -9.7563046980717369E-002   1.0669908671113851E-002   5.4964300738910517E-002
 -0.10116309126453692        1.5799645436903757E-002   5.5101946075728325E-002
 -0.10476313554835642        2.0792570489515643E-002   5.3621561746161714E-002
  -6.0311554848780466E-002   8.1502273476728327E-003   5.0580298206068602E-002
  -6.0610521638566145E-002   1.0028506089345824E-002   5.1519679112176468E-002
  -6.0909488428351845E-002   1.1712563282457764E-002   5.2247683013512285E-002
  -6.1208455218137545E-002   1.3202398927008739E-002   5.2764309910076072E-002
  -6.1507422007923231E-002   1.4498013022998649E-002   5.3069559801867797E-002
  -6.9042550674314931E-002   1.1310813133133533E-002   5.0234690461065858E-002
  -6.9315450660214856E-002   1.3755048097166978E-002   4.9458034530040620E-002
  -6.9588350646114780E-002   1.5662409117325655E-002   4.8944889211558956E-002
  -6.9861250632014690E-002   1.7032896193609520E-002   4.8695254505620886E-002
  -7.0134150617914642E-002   1.7866509326018631E-002   4.8709130412226395E-002
  -7.9361479399422438E-002   1.4471398918594239E-002   5.0626365136080459E-002
  -7.9133424964120944E-002   1.7481590104988152E-002   4.7791019972608359E-002
  -7.8905370528819477E-002   1.9612254952193511E-002   4.5694073038995468E-002
  -7.8677316093518024E-002   2.0863393460210343E-002   4.4335524335241773E-002
  -7.8449261658216543E-002   2.1235005629038621E-002   4.3715373861347273E-002
  -9.1268341024102931E-002   1.7631984704054950E-002   5.1755322231112413E-002
  -9.0064444550284450E-002   2.1208132112809322E-002   4.6518635439879705E-002
  -8.8860548076465970E-002   2.3562100787061398E-002   4.2495234495821765E-002
  -8.7656651602647476E-002   2.4693890726811146E-002   3.9685119398938720E-002
  -8.6452755128829023E-002   2.4603501932058621E-002   3.8088290149230437E-002
 -0.10476313554835642        2.0792570489515643E-002   5.3621561746161714E-002
 -0.10210850941870533        2.4934674120630482E-002   4.5640880931854602E-002
  -9.9453883289054218E-002   2.7511946621929250E-002   3.9348373582037910E-002
  -9.6799257159403115E-002   2.8524387993411959E-002   3.4744039696711713E-002
  -9.4144631029752013E-002   2.7971998235078593E-002   3.1827879275875909E-002
  -6.1507422007923231E-002   1.4498013022998649E-002   5.3069559801867797E-002
  -6.0185089323854073E-002   1.5502344201962226E-002   5.1661111633108339E-002
  -5.8862756639784922E-002   1.6118331095434115E-002   5.0702069240625779E-002
  -5.7540423955715764E-002   1.6345973703414320E-002   5.0192432624420122E-002
  -5.6218091271646599E-002   1.6185272025902891E-002   5.0132201784491376E-002
  -7.0134150617914642E-002   1.7866509326018631E-002   4.8709130412226395E-002
  -6.8408278708758707E-002   1.8320701423908792E-002   4.7261277056638795E-002
  -6.6682406799602786E-002   1.8552925396635795E-002   4.6171096374947811E-002
  -6.4956534890446865E-002   1.8563181244199745E-002   4.5438588367153455E-002
  -6.3230662981290958E-002   1.8351468966600545E-002   4.5063753033255577E-002
  -7.8449261658216543E-002   2.1235005629038621E-002   4.3715373861347273E-002
  -7.6411583626354196E-002   2.1139058645855358E-002   4.2394491479260138E-002
  -7.4373905594491849E-002   2.0987519697837534E-002   4.1339548668689302E-002
  -7.2336227562629501E-002   2.0780388784985133E-002   4.0550545429634682E-002
  -7.0298549530767154E-002   2.0517665907298241E-002   4.0027481762096431E-002
  -8.6452755128829023E-002   2.4603501932058621E-002   3.8088290149230437E-002
  -8.4195004076640573E-002   2.3957415867801944E-002   3.7060754900972374E-002
  -8.1937253024452109E-002   2.3422113999039249E-002   3.6207426121850204E-002
  -7.9679501972263644E-002   2.2997596325770565E-002   3.5528303811863997E-002
  -7.7421750920075194E-002   2.2683862847995943E-002   3.5023387971013717E-002
  -9.4144631029752013E-002   2.7971998235078593E-002   3.1827879275875909E-002
  -9.1758540059617782E-002   2.6775773089748482E-002   3.1260067321775352E-002
  -8.9372449089483552E-002   2.5856708300240956E-002   3.0774728734430545E-002
  -8.6986358119349322E-002   2.5214803866555953E-002   3.0371863513841274E-002
  -8.4600267149215105E-002   2.4850059788693618E-002   3.0051471660007600E-002
  -5.6218091271646599E-002   1.6185272025902891E-002   5.0132201784491376E-002
  -5.4716157716391968E-002   1.5837668420491918E-002   4.9832678515959308E-002
  -5.3214224161137358E-002   1.5504605244773914E-002   4.9695261737186996E-002
  -5.1712290605882713E-002   1.5186082498748640E-002   4.9719951448174343E-002
  -5.0210357050628096E-002   1.4882100182416230E-002   4.9906747648921390E-002
  -6.3230662981290958E-002   1.8351468966600545E-002   4.5063753033255577E-002
  -6.1551058562209188E-002   1.8013592707922889E-002   4.4716569595308737E-002
  -5.9871454143127389E-002   1.7645356612251601E-002   4.4562621395256463E-002
  -5.8191849724045584E-002   1.7246760679586522E-002   4.4601908433098802E-002
  -5.6512245304963848E-002   1.6817804909927681E-002   4.4834430708835762E-002
  -7.0298549530767154E-002   2.0517665907298241E-002   4.0027481762096431E-002
  -6.8410145499723310E-002   2.0189516995353859E-002   3.9587737888048119E-002
  -6.6521741468679466E-002   1.9786107979729260E-002   3.9372358000029355E-002
  -6.4633337437635635E-002   1.9307438860424325E-002   3.9381342098040131E-002
  -6.2744933406591749E-002   1.8753509637439117E-002   3.9614690182080449E-002
  -7.7421750920075194E-002   2.2683862847995943E-002   3.5023387971013717E-002
  -7.5293418528934383E-002   2.2365441282784872E-002   3.4446183394177494E-002
  -7.3165086137793531E-002   2.1926859347206906E-002   3.4124471551505664E-002
  -7.1036753746652706E-002   2.1368117041262236E-002   3.4058252442998392E-002
  -6.8908421355511867E-002   2.0689214364950616E-002   3.4247526068655491E-002
  -8.4600267149215105E-002   2.4850059788693618E-002   3.0051471660007600E-002
  -8.2200877649842394E-002   2.4541365570215773E-002   2.9291906113696836E-002
  -7.9801488150469641E-002   2.4067610714684620E-002   2.8818962049685454E-002
  -7.7402098651096887E-002   2.3428795222100011E-002   2.8632639467973543E-002
  -7.5002709151724190E-002   2.2624919092462031E-002   2.8732938368560806E-002
  -5.0210357050628096E-002   1.4882100182416230E-002   4.9906747648921390E-002
  -4.8671815929669571E-002   1.4552551777190240E-002   4.9485792581928895E-002
  -4.7133274808711045E-002   1.4157330764484423E-002   4.9289072511132917E-002
  -4.5594733687752506E-002   1.3696437144298463E-002   4.9316587436533534E-002
  -4.4056192566793995E-002   1.3169870916632798E-002   4.9568337358130654E-002
  -5.6512245304963848E-002   1.6817804909927681E-002   4.4834430708835762E-002
  -5.4759751492010143E-002   1.6357588968329048E-002   4.4423476933166797E-002
  -5.3007257679056494E-002   1.5865212519844615E-002   4.4216193545291639E-002
  -5.1254763866102789E-002   1.5340675564474184E-002   4.4212580545210170E-002
  -4.9502270053149118E-002   1.4783978102218043E-002   4.4412637932922522E-002
  -6.2744933406591749E-002   1.8753509637439117E-002   3.9614690182080449E-002
  -6.0799051510045721E-002   1.8162626159467878E-002   3.9247249798329081E-002
  -5.8853169613499644E-002   1.7573094275204804E-002   3.9062915193968678E-002
  -5.6907287716953608E-002   1.6984913984649904E-002   3.9061686368999336E-002
  -5.4961405820407552E-002   1.6398085287803177E-002   3.9243563323420910E-002
  -6.8908421355511867E-002   2.0689214364950616E-002   3.4247526068655491E-002
  -6.6789715983776213E-002   1.9967663350606752E-002   3.3957111177415719E-002
  -6.4671010612040558E-002   1.9280976030565049E-002   3.3829237457164207E-002
  -6.2552305240304890E-002   1.8629152404825627E-002   3.3863904907900901E-002
  -6.0433599868569214E-002   1.8012192473388283E-002   3.4061113529625903E-002
  -7.5002709151724190E-002   2.2624919092462031E-002   2.8732938368560806E-002
  -7.2731744913201668E-002   2.1772700541745516E-002   2.8553061070426738E-002
  -7.0460780674679160E-002   2.0988857785925234E-002   2.8515160334878123E-002
  -6.8189816436156653E-002   2.0273390825001250E-002   2.8619236161914967E-002
  -6.5918852197634159E-002   1.9626299658973501E-002   2.8865288551537249E-002
  -4.4056192566793995E-002   1.3169870916632798E-002   4.9568337358130654E-002
  -4.2304947605636814E-002   1.2618128069856738E-002   4.9256522036402350E-002
  -4.0553702644479633E-002   1.2081704592339759E-002   4.9116389800846511E-002
  -3.8802457683322446E-002   1.1560600484082043E-002   4.9147940651463023E-002
  -3.7051212722165286E-002   1.1054815745083324E-002   4.9351174588251945E-002
  -4.9502270053149118E-002   1.4783978102218043E-002   4.4412637932922522E-002
  -4.7571127027613958E-002   1.4214967749153859E-002   4.4107406355761228E-002
  -4.5639984002078707E-002   1.3653492121359620E-002   4.3990287821183527E-002
  -4.3708840976543512E-002   1.3099551218835503E-002   4.4061282329189475E-002
  -4.1777697951008302E-002   1.2553145041581226E-002   4.4320389879779098E-002
  -5.4961405820407552E-002   1.6398085287803177E-002   3.9243563323420910E-002
  -5.2833934774083026E-002   1.5811807428451008E-002   3.8937130846837364E-002
  -5.0706463727758527E-002   1.5225279650379481E-002   3.8835241369248735E-002
  -4.8578992681434063E-002   1.4638501953588963E-002   3.8937894890654981E-002
  -4.6451521635109558E-002   1.4051474338079045E-002   3.9245091411056282E-002
  -6.0433599868569214E-002   1.8012192473388283E-002   3.4061113529625903E-002
  -5.8093370845044179E-002   1.7408647107748032E-002   3.3745695509630899E-002
  -5.5753141821519109E-002   1.6797067179399286E-002   3.3651250445042066E-002
  -5.3412912797994004E-002   1.6177452688342368E-002   3.3777778335859557E-002
  -5.1072683774468955E-002   1.5549803634576961E-002   3.4125279182083128E-002
  -6.5918852197634159E-002   1.9626299658973501E-002   2.8865288551537249E-002
  -6.3349435240497298E-002   1.9005486787045250E-002   2.8533100344141638E-002
  -6.0780018283360368E-002   1.8368854708419188E-002   2.8438315048563645E-002
  -5.8210601326223486E-002   1.7716403423095880E-002   2.8580932664803008E-002
  -5.5641184369086577E-002   1.7048132931074711E-002   2.8960953192859851E-002
  -3.7051212722165286E-002   1.1054815745083324E-002   4.9351174588251945E-002
  -3.5665140828959219E-002   1.0552196343286080E-002   4.9087447791321293E-002
  -3.4279068935753131E-002   1.0040588246632343E-002   4.9047236996076077E-002
  -3.2892997042547056E-002   9.5199914551220566E-003   4.9230542202516187E-002
  -3.1506925149340975E-002   8.9904059687553883E-003   4.9637363410641677E-002
  -4.1777697951008302E-002   1.2553145041581226E-002   4.4320389879779098E-002
  -4.0186180758040452E-002   1.1996972211586215E-002   4.4073225562862750E-002
  -3.8594663565072566E-002   1.1413731350839451E-002   4.4013435843784532E-002
  -3.7003146372104737E-002   1.0803422459341044E-002   4.4141020722544388E-002
  -3.5411629179136844E-002   1.0166045537091106E-002   4.4455980199142597E-002
  -4.6451521635109558E-002   1.4051474338079045E-002   3.9245091411056282E-002
  -4.4690700546227063E-002   1.3441748079886184E-002   3.8996410238258783E-002
  -4.2929879457344590E-002   1.2786874455046504E-002   3.8898962259452302E-002
  -4.1169058368462123E-002   1.2086853463560088E-002   3.8952747474636888E-002
  -3.9408237279579629E-002   1.1341685105426796E-002   3.9157765883812548E-002
  -5.1072683774468955E-002   1.5549803634576961E-002   3.4125279182083128E-002
  -4.9178700193519026E-002   1.4886523948186292E-002   3.3857001817509433E-002
  -4.7284716612569083E-002   1.4160017559253779E-002   3.3703816243079714E-002
  -4.5390733031619182E-002   1.3370284467779048E-002   3.3665722458793686E-002
  -4.3496749450669218E-002   1.2517324673762500E-002   3.3742720464651751E-002
  -5.5641184369086577E-002   1.7048132931074711E-002   2.8960953192859851E-002
  -5.3650179699916367E-002   1.6331299816486289E-002   2.8655000300614741E-002
  -5.1659175030746143E-002   1.5533160663460666E-002   2.8427997794666315E-002
  -4.9668170361575927E-002   1.4653715471998119E-002   2.8279945675014892E-002
  -4.7677165692405710E-002   1.3692964242098149E-002   2.8210843941659902E-002
  -3.1506925149340975E-002   8.9904059687553883E-003   4.9637363410641677E-002
  -2.9522722325618367E-002   8.5148734175553575E-003   4.9224618408303167E-002
  -2.7538519501895731E-002   8.1564354315451365E-003   4.8965364563496233E-002
  -2.5554316678173102E-002   7.9150920107246663E-003   4.8859601876221057E-002
  -2.3570113854450514E-002   7.7908431550939294E-003   4.8907330346477318E-002
  -3.5411629179136844E-002   1.0166045537091106E-002   4.4455980199142597E-002
  -3.3266599793712444E-002   9.5685960782007640E-003   4.4070675291657868E-002
  -3.1121570408288064E-002   9.0780695767816721E-003   4.3853532350045049E-002
  -2.8976541022863667E-002   8.6944660328334630E-003   4.3804551374304057E-002
  -2.6831511637439298E-002   8.4177854463564072E-003   4.3923732364435586E-002
  -3.9408237279579629E-002   1.1341685105426796E-002   3.9157765883812548E-002
  -3.7087710524112964E-002   1.0622318738846254E-002   3.8789729463462957E-002
  -3.4767183768646376E-002   9.9997037220182147E-003   3.8604525817325618E-002
  -3.2446657013179767E-002   9.4738400549423171E-003   3.8602154945400771E-002
  -3.0126130257713060E-002   9.0447277376188850E-003   3.8782616847688578E-002
  -4.3496749450669218E-002   1.2517324673762500E-002   3.3742720464651751E-002
  -4.0986054516820039E-002   1.1676041399491646E-002   3.3381780923718303E-002
  -3.8475359582970783E-002   1.0921337867254698E-002   3.3218344965337862E-002
  -3.5964664649121528E-002   1.0253214077051199E-002   3.3252412589510151E-002
  -3.3453969715272397E-002   9.6716700288814739E-003   3.3483983796235253E-002
  -4.7677165692405710E-002   1.3692964242098149E-002   2.8210843941659902E-002
  -4.4961631771833460E-002   1.2729764060136983E-002   2.7846829672424134E-002
  -4.2246097851261183E-002   1.1842972012491390E-002   2.7694989794081831E-002
  -3.9530563930688781E-002   1.1032588099159937E-002   2.7755324306632675E-002
  -3.6815030010116601E-002   1.0298612320143841E-002   2.8027833210076736E-002
  -9.0362958413078315E-002   0.0000000000000000        4.9834921066121696E-002
  -9.3963002696897835E-002   5.4033601921459357E-003   5.3208625735708309E-002
  -9.7563046980717369E-002   1.0669908671113851E-002   5.4964300738910517E-002
 -0.10116309126453692        1.5799645436903757E-002   5.5101946075728325E-002
 -0.10476313554835642        2.0792570489515643E-002   5.3621561746161714E-002
 -0.10329572921542937        0.0000000000000000        5.8662353398613996E-002
 -0.10683239644652989        1.0884675631544025E-002   5.2118378958312055E-002
 -0.11036906367763041        1.9172505293676825E-002   4.7319188289832545E-002
 -0.11390573090873092        2.4863488986398383E-002   4.4264781393175495E-002
 -0.11744239813983146        2.7957626709708701E-002   4.2955158268340871E-002
 -0.12646075700547779        0.0000000000000000        7.4201118298620986E-002
 -0.12657123374565246        1.6365991070942110E-002   5.5279430492197273E-002
 -0.12668171048582710        2.7675101916239783E-002   4.1465339895802845E-002
 -0.12679218722600177        3.3927332535893001E-002   3.2758846509437708E-002
 -0.12690266396617642        3.5122682929901790E-002   2.9159950333101824E-002
 -0.15985804178322358        0.0000000000000000        9.6451215766142670E-002
 -0.15317951459426551        2.1847306510340211E-002   6.2691780337363973E-002
 -0.14650098740530748        3.6177698538802747E-002   3.7402755556821390E-002
 -0.13982246021634945        4.2991176085387633E-002   2.0584141424514958E-002
 -0.13314393302739141        4.2287739150094858E-002   1.2235937940444681E-002
 -0.20348758354866670        0.0000000000000000       0.12541264580117906     
 -0.18665723899236911        2.7328621949738292E-002   7.4355428493812159E-002
 -0.16982689443607152        4.4680295161365707E-002   3.5131435272888235E-002
 -0.15299654987977390        5.2055019634882245E-002   7.7406661384072928E-003
 -0.13616620532347631        4.9452795370287905E-002  -7.8168789096307034E-003
 -0.10476313554835642        2.0792570489515643E-002   5.3621561746161714E-002
 -0.10210850941870533        2.4934674120630482E-002   4.5640880931854602E-002
  -9.9453883289054218E-002   2.7511946621929250E-002   3.9348373582037910E-002
  -9.6799257159403115E-002   2.8524387993411959E-002   3.4744039696711713E-002
  -9.4144631029752013E-002   2.7971998235078593E-002   3.1827879275875909E-002
 -0.11744239813983146        2.7957626709708701E-002   4.2955158268340871E-002
 -0.11348724757090051        2.9429471497395714E-002   3.6699539678127432E-002
 -0.10953209700196956        3.0253576383247341E-002   3.1356796501983232E-002
 -0.10557694643303860        3.0429941367263548E-002   2.6926928739908249E-002
 -0.10162179586410766        2.9958566449444342E-002   2.3409936391902517E-002
 -0.12690266396617642        3.5122682929901790E-002   2.9159950333101824E-002
 -0.12242228700838685        3.3924268874160959E-002   2.5546485194962741E-002
 -0.11794191005059727        3.2995206144565400E-002   2.2070597420471738E-002
 -0.11346153309280770        3.2335494741115155E-002   1.8732287009628739E-002
 -0.10898115613501813        3.1945134663810118E-002   1.5531553962433737E-002
 -0.13314393302739141        4.2287739150094858E-002   1.2235937940444681E-002
 -0.12891362773116435        3.8419066250926177E-002   1.2181717482360632E-002
 -0.12468332243493739        3.5736835905883495E-002   1.1489776337503322E-002
 -0.12045301713871036        3.4241048114966720E-002   1.0160114505872968E-002
 -0.11622271184248335        3.3931702878175880E-002   8.1927319874694031E-003
 -0.13616620532347631        4.9452795370287905E-002  -7.8168789096307034E-003
 -0.13296126973923311        4.2913863627691423E-002  -3.3947634596790885E-003
 -0.12975633415498988        3.8478465667201582E-002  -3.8566674692173258E-004
 -0.12655139857074665        3.6146601488818306E-002   1.2104112286410919E-003
 -0.12334646298650345        3.5918271092541615E-002   1.3934704670095777E-003
  -9.4144631029752013E-002   2.7971998235078593E-002   3.1827879275875909E-002
  -9.1758540059617782E-002   2.6775773089748482E-002   3.1260067321775352E-002
  -8.9372449089483552E-002   2.5856708300240956E-002   3.0774728734430545E-002
  -8.6986358119349322E-002   2.5214803866555953E-002   3.0371863513841274E-002
  -8.4600267149215105E-002   2.4850059788693618E-002   3.0051471660007600E-002
 -0.10162179586410766        2.9958566449444342E-002   2.3409936391902517E-002
  -9.9139736040016774E-002   2.9188444026252130E-002   2.3137127111904254E-002
  -9.6657676215925872E-002   2.8468566494149278E-002   2.2973782173063732E-002
  -9.4175616391834971E-002   2.7798933853135713E-002   2.2919901575380958E-002
  -9.1693556567744056E-002   2.7179546103211563E-002   2.2975485318855890E-002
 -0.10898115613501813        3.1945134663810118E-002   1.5531553962433737E-002
 -0.10637613648256841        3.1601114962755791E-002   1.5326831891804399E-002
 -0.10377111683011872        3.1080424688057638E-002   1.5258565136734990E-002
 -0.10116609717766896        3.0383063839715539E-002   1.5326753697225559E-002
  -9.8561077525219282E-002   2.9509032417729550E-002   1.5531397573275860E-002
 -0.11622271184248335        3.3931702878175880E-002   8.1927319874694031E-003
 -0.11346774138727271        3.4013785899259401E-002   7.8291816614758213E-003
 -0.11071277093206207        3.3692282881965865E-002   7.6290776254443931E-003
 -0.10795780047685144        3.2967193826295246E-002   7.5924198793748902E-003
 -0.10520283002164080        3.1838518732247474E-002   7.7192084232673933E-003
 -0.12334646298650345        3.5918271092541615E-002   1.3934704670095777E-003
 -0.12041455075412977        3.6426456835763066E-002   6.4417642091850469E-004
 -0.11748263852175601        3.6304141075874312E-002   8.5319639191706875E-005
 -0.11455072628938226        3.5551323812874971E-002  -2.8309987817091119E-004
 -0.11161881405700858        3.4168005046765482E-002  -4.6108213116952124E-004
  -8.4600267149215105E-002   2.4850059788693618E-002   3.0051471660007600E-002
  -8.2200877649842394E-002   2.4541365570215773E-002   2.9291906113696836E-002
  -7.9801488150469641E-002   2.4067610714684620E-002   2.8818962049685454E-002
  -7.7402098651096887E-002   2.3428795222100011E-002   2.8632639467973543E-002
  -7.5002709151724190E-002   2.2624919092462031E-002   2.8732938368560806E-002
  -9.1693556567744056E-002   2.7179546103211563E-002   2.2975485318855890E-002
  -8.9035710888252378E-002   2.6560522393972850E-002   2.2306234208032565E-002
  -8.6377865208760632E-002   2.5891981875015523E-002   2.1867273975147830E-002
  -8.3720019529268969E-002   2.5173924546339741E-002   2.1658604620201687E-002
  -8.1062173849777222E-002   2.4406350407945393E-002   2.1680226143194009E-002
  -9.8561077525219282E-002   2.9509032417729550E-002   1.5531397573275860E-002
  -9.5701106269969416E-002   2.8579679217729789E-002   1.5068004725274763E-002
  -9.2841135014719522E-002   2.7716353035346371E-002   1.4778572150851481E-002
  -8.9981163759469643E-002   2.6919053870579440E-002   1.4663099850005971E-002
  -8.7121192504219791E-002   2.6187781723428796E-002   1.4721587822738282E-002
 -0.10520283002164080        3.1838518732247474E-002   7.7192084232673933E-003
 -0.10219706379499349        3.0598836041486867E-002   7.5772176654233621E-003
  -9.9191297568346215E-002   2.9540724195677413E-002   7.5528565767964632E-003
  -9.6185531341698910E-002   2.8664183194819046E-002   7.6461251573865545E-003
  -9.3179765115051633E-002   2.7969213038912012E-002   7.8570234071937434E-003
 -0.11161881405700858        3.4168005046765482E-002  -4.6108213116952124E-004
 -0.10852358346332464        3.2617992865243861E-002  -1.6612697152149081E-004
 -0.10542835286964070        3.1365095356008205E-002   1.9012725298293842E-004
 -0.10233312227595676        3.0409312519058880E-002   6.0768054234333277E-004
  -9.9237891682272816E-002   2.9750644354395506E-002   1.0865328965602439E-003
  -7.5002709151724190E-002   2.2624919092462031E-002   2.8732938368560806E-002
  -7.2731744913201668E-002   2.1772700541745516E-002   2.8553061070426738E-002
  -7.0460780674679160E-002   2.0988857785925234E-002   2.8515160334878123E-002
  -6.8189816436156653E-002   2.0273390825001250E-002   2.8619236161914967E-002
  -6.5918852197634159E-002   1.9626299658973501E-002   2.8865288551537249E-002
  -8.1062173849777222E-002   2.4406350407945393E-002   2.1680226143194009E-002
  -7.8645966470972301E-002   2.3619022134618542E-002   2.1543253633742390E-002
  -7.6229759092167393E-002   2.2841702401145005E-002   2.1554790842270119E-002
  -7.3813551713362402E-002   2.2074391207524850E-002   2.1714837768777265E-002
  -7.1397344334557508E-002   2.1317088553757857E-002   2.2023394413263869E-002
  -8.7121192504219791E-002   2.6187781723428796E-002   1.4721587822738282E-002
  -8.4553208829738408E-002   2.5465343727491430E-002   1.4569152846926163E-002
  -8.1985225155257024E-002   2.4694547016364723E-002   1.4571760744487332E-002
  -7.9417241480775641E-002   2.3875391590048319E-002   1.4729411515422031E-002
  -7.6849257806294313E-002   2.3007877448542352E-002   1.5042105159730132E-002
  -9.3179765115051633E-002   2.7969213038912012E-002   7.8570234071937434E-003
  -9.0453471989499865E-002   2.7311665320364387E-002   7.6307587099780239E-003
  -8.7727178863948096E-002   2.6547391631584358E-002   7.5660700415298267E-003
  -8.5000885738396315E-002   2.5676391972571880E-002   7.6629574018491596E-003
  -8.2274592612844574E-002   2.4698666343326889E-002   7.9214207909357008E-003
  -9.9237891682272816E-002   2.9750644354395506E-002   1.0865328965602439E-003
  -9.6346755950256768E-002   2.9157986913237371E-002   7.2807122289847426E-004
  -9.3455620218240609E-002   2.8400236246804086E-002   5.3771873339775178E-004
  -9.0564484486224478E-002   2.7477392355095439E-002   5.1547542805867319E-004
  -8.7673348754208402E-002   2.6389455238111204E-002   6.6134130688078052E-004
  -6.5918852197634159E-002   1.9626299658973501E-002   2.8865288551537249E-002
  -6.3349435240497298E-002   1.9005486787045250E-002   2.8533100344141638E-002
  -6.0780018283360368E-002   1.8368854708419188E-002   2.8438315048563645E-002
  -5.8210601326223486E-002   1.7716403423095880E-002   2.8580932664803008E-002
  -5.5641184369086577E-002   1.7048132931074711E-002   2.8960953192859851E-002
  -7.1397344334557508E-002   2.1317088553757857E-002   2.2023394413263869E-002
  -6.8600447565967101E-002   2.0562986860542837E-002   2.1698148857967142E-002
  -6.5803550797376764E-002   1.9805278548577929E-002   2.1590460013759846E-002
  -6.3006654028786357E-002   1.9043963617862977E-002   2.1700327880642176E-002
  -6.0209757260196006E-002   1.8279042068398199E-002   2.2027752458613797E-002
  -7.6849257806294313E-002   2.3007877448542352E-002   1.5042105159730132E-002
  -7.3844727426978396E-002   2.2120486934040548E-002   1.4736014844479631E-002
  -7.0840197047662534E-002   2.1241702388736620E-002   1.4627635039591018E-002
  -6.7835666668346645E-002   2.0371523812630188E-002   1.4716965745063645E-002
  -6.4831136289030755E-002   1.9509951205721604E-002   1.5004006960897959E-002
  -8.2274592612844574E-002   2.4698666343326889E-002   7.9214207909357008E-003
  -7.9082274823531196E-002   2.3677987007538585E-002   7.6466983036794639E-003
  -7.5889957034217817E-002   2.2678126228895170E-002   7.5498401260567349E-003
  -7.2697639244904411E-002   2.1699084007397396E-002   7.6308462580676811E-003
  -6.9505321455591074E-002   2.0740860343045217E-002   7.8897166997121820E-003
  -8.7673348754208402E-002   2.6389455238111204E-002   6.6134130688078052E-004
  -8.4313089755625403E-002   2.5235487081035957E-002   4.3019923556619766E-004
  -8.0952830757042515E-002   2.4114550069054164E-002   3.5707527315739784E-004
  -7.7592571758459572E-002   2.3026644202164576E-002   4.4196941965387454E-004
  -7.4232312759876629E-002   2.1971769480368497E-002   6.8488167505620368E-004
  -5.5641184369086577E-002   1.7048132931074711E-002   2.8960953192859851E-002
  -5.3650179699916367E-002   1.6331299816486289E-002   2.8655000300614741E-002
  -5.1659175030746143E-002   1.5533160663460666E-002   2.8427997794666315E-002
  -4.9668170361575927E-002   1.4653715471998119E-002   2.8279945675014892E-002
  -4.7677165692405710E-002   1.3692964242098149E-002   2.8210843941659902E-002
  -6.0209757260196006E-002   1.8279042068398199E-002   2.2027752458613797E-002
  -5.8117264231224958E-002   1.7513389599973839E-002   2.1651950773344225E-002
  -5.6024771202253965E-002   1.6749881912379916E-002   2.1400175421379480E-002
  -5.3932278173282944E-002   1.5988519005616819E-002   2.1272426402719716E-002
  -5.1839785144311937E-002   1.5229300879684327E-002   2.1268703717364834E-002
  -6.4831136289030755E-002   1.9509951205721604E-002   1.5004006960897959E-002
  -6.2592078953250779E-002   1.8695479383461056E-002   1.4641807301871645E-002
  -6.0353021617470748E-002   1.7966603161299222E-002   1.4448709923158248E-002
  -5.8113964281690730E-002   1.7323322539235519E-002   1.4424714824758059E-002
  -5.5874906945910699E-002   1.6765637517270310E-002   1.4569822006671160E-002
  -6.9505321455591074E-002   2.0740860343045217E-002   7.8897166997121820E-003
  -6.7074623865993832E-002   1.9877569166948467E-002   7.6245698861967387E-003
  -6.4643926276396535E-002   1.9183324410218389E-002   7.5736013000025776E-003
  -6.2213228686799266E-002   1.8658126072854220E-002   7.7368109411300613E-003
  -5.9782531097201969E-002   1.8301974154856501E-002   8.1141988095787855E-003
  -7.4232312759876629E-002   2.1971769480368497E-002   6.8488167505620368E-004
  -7.1564898969453949E-002   2.1059658950435878E-002   6.0023852631979624E-004
  -6.8897485179031270E-002   2.0400045659137778E-002   7.7484955191284288E-004
  -6.6230071388608619E-002   1.9992929606473087E-002   1.2087147518354754E-003
  -6.3562657598185912E-002   1.9838310792442471E-002   1.9018341260874649E-003
  -4.7677165692405710E-002   1.3692964242098149E-002   2.8210843941659902E-002
  -4.4961631771833460E-002   1.2729764060136983E-002   2.7846829672424134E-002
  -4.2246097851261183E-002   1.1842972012491390E-002   2.7694989794081831E-002
  -3.9530563930688781E-002   1.1032588099159937E-002   2.7755324306632675E-002
  -3.6815030010116601E-002   1.0298612320143841E-002   2.8027833210076736E-002
  -5.1839785144311937E-002   1.5229300879684327E-002   2.1268703717364834E-002
  -4.8922363181352568E-002   1.4429721533995077E-002   2.1018671206915973E-002
  -4.6004941218393276E-002   1.3547274967961945E-002   2.0960240390347912E-002
  -4.3087519255433956E-002   1.2581961181584864E-002   2.1093411267660497E-002
  -4.0170097292474671E-002   1.1533780174864061E-002   2.1418183838854299E-002
  -5.5874906945910699E-002   1.6765637517270310E-002   1.4569822006671160E-002
  -5.2776169637576822E-002   1.6129679007852921E-002   1.4274495900350223E-002
  -4.9677432329242925E-002   1.5251577923433061E-002   1.4150198790897316E-002
  -4.6578695020908958E-002   1.4131334264009794E-002   1.4196930678313294E-002
  -4.3479957712575137E-002   1.2768948029584171E-002   1.4414691562597004E-002
  -5.9782531097201969E-002   1.8301974154856501E-002   8.1141988095787855E-003
  -5.6523051140505993E-002   1.7829636481711167E-002   7.6143037527267206E-003
  -5.3263571183809838E-002   1.6955880878904008E-002   7.2648649957305581E-003
  -5.0004091227113703E-002   1.5680707346435001E-002   7.0658825385905245E-003
  -4.6744611270417707E-002   1.4004115884304669E-002   7.0173563813061418E-003
  -6.3562657598185912E-002   1.9838310792442471E-002   1.9018341260874649E-003
  -6.0163007690140047E-002   1.9529593955569080E-002   1.0380947640456495E-003
  -5.6763357782094237E-002   1.8660183834374844E-002   3.0423900484724542E-004
  -5.3363707874048427E-002   1.7230080428859568E-002  -2.9973315150757379E-004
  -4.9964057966002562E-002   1.5239283739024501E-002  -7.7382170501927305E-004
 </DataArray>
 </PointData>
 </Piece>
 <Piece  NumberOfPoints="          1600 "  NumberOfCells="         1024 ">
 <Points>
 <DataArray  type="Float64" NumberOfComponents="3"  format="ascii" >
  0.50000000000000000        0.0000000000000000        0.0000000000000000     
  0.53125000000000000        0.0000000000000000        0.0000000000000000     
  0.56250000000000000        0.0000000000000000        0.0000000000000000     
  0.59375000000000000        0.0000000000000000        0.0000000000000000     
  0.62500000000000000        0.0000000000000000        0.0000000000000000     
  0.50000000000000000        3.1250000000000000E-002   0.0000000000000000     
  0.53125000000000000        3.1250000000000000E-002   0.0000000000000000     
  0.56250000000000000        3.1250000000000000E-002   0.0000000000000000     
  0.59375000000000000        3.1250000000000000E-002   0.0000000000000000     
  0.62500000000000000        3.1250000000000000E-002   0.0000000000000000     
  0.50000000000000000        6.2500000000000000E-002   0.0000000000000000     
  0.53125000000000000        6.2500000000000000E-002   0.0000000000000000     
  0.56250000000000000        6.2500000000000000E-002   0.0000000000000000     
  0.59375000000000000        6.2500000000000000E-002   0.0000000000000000     
  0.62500000000000000        6.2500000000000000E-002   0.0000000000000000     
  0.50000000000000000        9.3750000000000000E-002   0.0000000000000000     
  0.53125000000000000        9.3750000000000000E-002   0.0000000000000000     
  0.56250000000000000        9.3750000000000000E-002   0.0000000000000000     
  0.59375000000000000        9.3750000000000000E-002   0.0000000000000000     
  0.62500000000000000        9.3750000000000000E-002   0.0000000000000000     
  0.50000000000000000       0.12500000000000000        0.0000000000000000     
  0.53125000000000000       0.12500000000000000        0.0000000000000000     
  0.56250000000000000       0.12500000000000000        0.0000000000000000     
  0.59375000000000000       0.12500000000000000        0.0000000000000000     
  0.62500000000000000       0.12500000000000000        0.0000000000000000     
  0.62500000000000000        0.0000000000000000        0.0000000000000000     
  0.65625000000000000        0.0000000000000000        0.0000000000000000     
  0.68750000000000000        0.0000000000000000        0.0000000000000000     
  0.71875000000000000        0.0000000000000000        0.0000000000000000     
  0.75000000000000000        0.0000000000000000        0.0000000000000000     
  0.62500000000000000        3.1250000000000000E-002   0.0000000000000000     
  0.65625000000000000        3.1250000000000000E-002   0.0000000000000000     
  0.68750000000000000        3.1250000000000000E-002   0.0000000000000000     
  0.71875000000000000        3.1250000000000000E-002   0.0000000000000000     
  0.75000000000000000        3.1250000000000000E-002   0.0000000000000000     
  0.62500000000000000        6.2500000000000000E-002   0.0000000000000000     
  0.65625000000000000        6.2500000000000000E-002   0.0000000000000000     
  0.68750000000000000        6.2500000000000000E-002   0.0000000000000000     
  0.71875000000000000        6.2500000000000000E-002   0.0000000000000000     
  0.75000000000000000        6.2500000000000000E-002   0.0000000000000000     
  0.62500000000000000        9.3750000000000000E-002   0.0000000000000000     
  0.65625000000000000        9.3750000000000000E-002   0.0000000000000000     
  0.68750000000000000        9.3750000000000000E-002   0.0000000000000000     
  0.71875000000000000        9.3750000000000000E-002   0.0000000000000000     
  0.75000000000000000        9.3750000000000000E-002   0.0000000000000000     
  0.62500000000000000       0.12500000000000000        0.0000000000000000     
  0.65625000000000000       0.12500000000000000        0.0000000000000000     
  0.68750000000000000       0.12500000000000000        0.0000000000000000     
  0.71875000000000000       0.12500000000000000        0.0000000000000000     
  0.75000000000000000       0.12500000000000000        0.0000000000000000     
  0.75000000000000000        0.0000000000000000        0.0000000000000000     
  0.78125000000000000        0.0000000000000000        0.0000000000000000     
  0.81250000000000000        0.0000000000000000        0.0000000000000000     
  0.84375000000000000        0.0000000000000000        0.0000000000000000     
  0.87500000000000000        0.0000000000000000        0.0000000000000000     
  0.75000000000000000        3.1250000000000000E-002   0.0000000000000000     
  0.78125000000000000        3.1250000000000000E-002   0.0000000000000000     
  0.81250000000000000        3.1250000000000000E-002   0.0000000000000000     
  0.84375000000000000        3.1250000000000000E-002   0.0000000000000000     
  0.87500000000000000        3.1250000000000000E-002   0.0000000000000000     
  0.75000000000000000        6.2500000000000000E-002   0.0000000000000000     
  0.78125000000000000        6.2500000000000000E-002   0.0000000000000000     
  0.81250000000000000        6.2500000000000000E-002   0.0000000000000000     
  0.84375000000000000        6.2500000000000000E-002   0.0000000000000000     
  0.87500000000000000        6.2500000000000000E-002   0.0000000000000000     
  0.75000000000000000        9.3750000000000000E-002   0.0000000000000000     
  0.78125000000000000        9.3750000000000000E-002   0.0000000000000000     
  0.81250000000000000        9.3750000000000000E-002   0.0000000000000000     
  0.84375000000000000        9.3750000000000000E-002   0.0000000000000000     
  0.87500000000000000        9.3750000000000000E-002   0.0000000000000000     
  0.75000000000000000       0.12500000000000000        0.0000000000000000     
  0.78125000000000000       0.12500000000000000        0.0000000000000000     
  0.81250000000000000       0.12500000000000000        0.0000000000000000     
  0.84375000000000000       0.12500000000000000        0.0000000000000000     
  0.87500000000000000       0.12500000000000000        0.0000000000000000     
  0.87500000000000000        0.0000000000000000        0.0000000000000000     
  0.90625000000000000        0.0000000000000000        0.0000000000000000     
  0.93750000000000000        0.0000000000000000        0.0000000000000000     
  0.96875000000000000        0.0000000000000000        0.0000000000000000     
   1.0000000000000000        0.0000000000000000        0.0000000000000000     
  0.87500000000000000        3.1250000000000000E-002   0.0000000000000000     
  0.90625000000000000        3.1250000000000000E-002   0.0000000000000000     
  0.93750000000000000        3.1250000000000000E-002   0.0000000000000000     
  0.96875000000000000        3.1250000000000000E-002   0.0000000000000000     
   1.0000000000000000        3.1250000000000000E-002   0.0000000000000000     
  0.87500000000000000        6.2500000000000000E-002   0.0000000000000000     
  0.90625000000000000        6.2500000000000000E-002   0.0000000000000000     
  0.93750000000000000        6.2500000000000000E-002   0.0000000000000000     
  0.96875000000000000        6.2500000000000000E-002   0.0000000000000000     
   1.0000000000000000        6.2500000000000000E-002   0.0000000000000000     
  0.87500000000000000        9.3750000000000000E-002   0.0000000000000000     
  0.90625000000000000        9.3750000000000000E-002   0.0000000000000000     
  0.93750000000000000        9.3750000000000000E-002   0.0000000000000000     
  0.96875000000000000        9.3750000000000000E-002   0.0000000000000000     
   1.0000000000000000        9.3750000000000000E-002   0.0000000000000000     
  0.87500000000000000       0.12500000000000000        0.0000000000000000     
  0.90625000000000000       0.12500000000000000        0.0000000000000000     
  0.93750000000000000       0.12500000000000000        0.0000000000000000     
  0.96875000000000000       0.12500000000000000        0.0000000000000000     
   1.0000000000000000       0.12500000000000000        0.0000000000000000     
   1.0000000000000000        0.0000000000000000        0.0000000000000000     
   1.0312500000000000        0.0000000000000000        0.0000000000000000     
   1.0625000000000000        0.0000000000000000        0.0000000000000000     
   1.0937500000000000        0.0000000000000000        0.0000000000000000     
   1.1250000000000000        0.0000000000000000        0.0000000000000000     
   1.0000000000000000        3.1250000000000000E-002   0.0000000000000000     
   1.0312500000000000        3.1250000000000000E-002   0.0000000000000000     
   1.0625000000000000        3.1250000000000000E-002   0.0000000000000000     
   1.0937500000000000        3.1250000000000000E-002   0.0000000000000000     
   1.1250000000000000        3.1250000000000000E-002   0.0000000000000000     
   1.0000000000000000        6.2500000000000000E-002   0.0000000000000000     
   1.0312500000000000        6.2500000000000000E-002   0.0000000000000000     
   1.0625000000000000        6.2500000000000000E-002   0.0000000000000000     
   1.0937500000000000        6.2500000000000000E-002   0.0000000000000000     
   1.1250000000000000        6.2500000000000000E-002   0.0000000000000000     
   1.0000000000000000        9.3750000000000000E-002   0.0000000000000000     
   1.0312500000000000        9.3750000000000000E-002   0.0000000000000000     
   1.0625000000000000        9.3750000000000000E-002   0.0000000000000000     
   1.0937500000000000        9.3750000000000000E-002   0.0000000000000000     
   1.1250000000000000        9.3750000000000000E-002   0.0000000000000000     
   1.0000000000000000       0.12500000000000000        0.0000000000000000     
   1.0312500000000000       0.12500000000000000        0.0000000000000000     
   1.0625000000000000       0.12500000000000000        0.0000000000000000     
   1.0937500000000000       0.12500000000000000        0.0000000000000000     
   1.1250000000000000       0.12500000000000000        0.0000000000000000     
   1.1250000000000000        0.0000000000000000        0.0000000000000000     
   1.1562500000000000        0.0000000000000000        0.0000000000000000     
   1.1875000000000000        0.0000000000000000        0.0000000000000000     
   1.2187500000000000        0.0000000000000000        0.0000000000000000     
   1.2500000000000000        0.0000000000000000        0.0000000000000000     
   1.1250000000000000        3.1250000000000000E-002   0.0000000000000000     
   1.1562500000000000        3.1250000000000000E-002   0.0000000000000000     
   1.1875000000000000        3.1250000000000000E-002   0.0000000000000000     
   1.2187500000000000        3.1250000000000000E-002   0.0000000000000000     
   1.2500000000000000        3.1250000000000000E-002   0.0000000000000000     
   1.1250000000000000        6.2500000000000000E-002   0.0000000000000000     
   1.1562500000000000        6.2500000000000000E-002   0.0000000000000000     
   1.1875000000000000        6.2500000000000000E-002   0.0000000000000000     
   1.2187500000000000        6.2500000000000000E-002   0.0000000000000000     
   1.2500000000000000        6.2500000000000000E-002   0.0000000000000000     
   1.1250000000000000        9.3750000000000000E-002   0.0000000000000000     
   1.1562500000000000        9.3750000000000000E-002   0.0000000000000000     
   1.1875000000000000        9.3750000000000000E-002   0.0000000000000000     
   1.2187500000000000        9.3750000000000000E-002   0.0000000000000000     
   1.2500000000000000        9.3750000000000000E-002   0.0000000000000000     
   1.1250000000000000       0.12500000000000000        0.0000000000000000     
   1.1562500000000000       0.12500000000000000        0.0000000000000000     
   1.1875000000000000       0.12500000000000000        0.0000000000000000     
   1.2187500000000000       0.12500000000000000        0.0000000000000000     
   1.2500000000000000       0.12500000000000000        0.0000000000000000     
   1.2500000000000000        0.0000000000000000        0.0000000000000000     
   1.2812500000000000        0.0000000000000000        0.0000000000000000     
   1.3125000000000000        0.0000000000000000        0.0000000000000000     
   1.3437500000000000        0.0000000000000000        0.0000000000000000     
   1.3750000000000000        0.0000000000000000        0.0000000000000000     
   1.2500000000000000        3.1250000000000000E-002   0.0000000000000000     
   1.2812500000000000        3.1250000000000000E-002   0.0000000000000000     
   1.3125000000000000        3.1250000000000000E-002   0.0000000000000000     
   1.3437500000000000        3.1250000000000000E-002   0.0000000000000000     
   1.3750000000000000        3.1250000000000000E-002   0.0000000000000000     
   1.2500000000000000        6.2500000000000000E-002   0.0000000000000000     
   1.2812500000000000        6.2500000000000000E-002   0.0000000000000000     
   1.3125000000000000        6.2500000000000000E-002   0.0000000000000000     
   1.3437500000000000        6.2500000000000000E-002   0.0000000000000000     
   1.3750000000000000        6.2500000000000000E-002   0.0000000000000000     
   1.2500000000000000        9.3750000000000000E-002   0.0000000000000000     
   1.2812500000000000        9.3750000000000000E-002   0.0000000000000000     
   1.3125000000000000        9.3750000000000000E-002   0.0000000000000000     
   1.3437500000000000        9.3750000000000000E-002   0.0000000000000000     
   1.3750000000000000        9.3750000000000000E-002   0.0000000000000000     
   1.2500000000000000       0.12500000000000000        0.0000000000000000     
   1.2812500000000000       0.12500000000000000        0.0000000000000000     
   1.3125000000000000       0.12500000000000000        0.0000000000000000     
   1.3437500000000000       0.12500000000000000        0.0000000000000000     
   1.3750000000000000       0.12500000000000000        0.0000000000000000     
   1.3750000000000000        0.0000000000000000        0.0000000000000000     
   1.4062500000000000        0.0000000000000000        0.0000000000000000     
   1.4375000000000000        0.0000000000000000        0.0000000000000000     
   1.4687500000000000        0.0000000000000000        0.0000000000000000     
   1.5000000000000000        0.0000000000000000        0.0000000000000000     
   1.3750000000000000        3.1250000000000000E-002   0.0000000000000000     
   1.4062500000000000        3.1250000000000000E-002   0.0000000000000000     
   1.4375000000000000        3.1250000000000000E-002   0.0000000000000000     
   1.4687500000000000        3.1250000000000000E-002   0.0000000000000000     
   1.5000000000000000        3.1250000000000000E-002   0.0000000000000000     
   1.3750000000000000        6.2500000000000000E-002   0.0000000000000000     
   1.4062500000000000        6.2500000000000000E-002   0.0000000000000000     
   1.4375000000000000        6.2500000000000000E-002   0.0000000000000000     
   1.4687500000000000        6.2500000000000000E-002   0.0000000000000000     
   1.5000000000000000        6.2500000000000000E-002   0.0000000000000000     
   1.3750000000000000        9.3750000000000000E-002   0.0000000000000000     
   1.4062500000000000        9.3750000000000000E-002   0.0000000000000000     
   1.4375000000000000        9.3750000000000000E-002   0.0000000000000000     
   1.4687500000000000        9.3750000000000000E-002   0.0000000000000000     
   1.5000000000000000        9.3750000000000000E-002   0.0000000000000000     
   1.3750000000000000       0.12500000000000000        0.0000000000000000     
   1.4062500000000000       0.12500000000000000        0.0000000000000000     
   1.4375000000000000       0.12500000000000000        0.0000000000000000     
   1.4687500000000000       0.12500000000000000        0.0000000000000000     
   1.5000000000000000       0.12500000000000000        0.0000000000000000     
  0.50000000000000000       0.12500000000000000        0.0000000000000000     
  0.53125000000000000       0.12500000000000000        0.0000000000000000     
  0.56250000000000000       0.12500000000000000        0.0000000000000000     
  0.59375000000000000       0.12500000000000000        0.0000000000000000     
  0.62500000000000000       0.12500000000000000        0.0000000000000000     
  0.50000000000000000       0.15625000000000000        0.0000000000000000     
  0.53125000000000000       0.15625000000000000        0.0000000000000000     
  0.56250000000000000       0.15625000000000000        0.0000000000000000     
  0.59375000000000000       0.15625000000000000        0.0000000000000000     
  0.62500000000000000       0.15625000000000000        0.0000000000000000     
  0.50000000000000000       0.18750000000000000        0.0000000000000000     
  0.53125000000000000       0.18750000000000000        0.0000000000000000     
  0.56250000000000000       0.18750000000000000        0.0000000000000000     
  0.59375000000000000       0.18750000000000000        0.0000000000000000     
  0.62500000000000000       0.18750000000000000        0.0000000000000000     
  0.50000000000000000       0.21875000000000000        0.0000000000000000     
  0.53125000000000000       0.21875000000000000        0.0000000000000000     
  0.56250000000000000       0.21875000000000000        0.0000000000000000     
  0.59375000000000000       0.21875000000000000        0.0000000000000000     
  0.62500000000000000       0.21875000000000000        0.0000000000000000     
  0.50000000000000000       0.25000000000000000        0.0000000000000000     
  0.53125000000000000       0.25000000000000000        0.0000000000000000     
  0.56250000000000000       0.25000000000000000        0.0000000000000000     
  0.59375000000000000       0.25000000000000000        0.0000000000000000     
  0.62500000000000000       0.25000000000000000        0.0000000000000000     
  0.62500000000000000       0.12500000000000000        0.0000000000000000     
  0.65625000000000000       0.12500000000000000        0.0000000000000000     
  0.68750000000000000       0.12500000000000000        0.0000000000000000     
  0.71875000000000000       0.12500000000000000        0.0000000000000000     
  0.75000000000000000       0.12500000000000000        0.0000000000000000     
  0.62500000000000000       0.15625000000000000        0.0000000000000000     
  0.65625000000000000       0.15625000000000000        0.0000000000000000     
  0.68750000000000000       0.15625000000000000        0.0000000000000000     
  0.71875000000000000       0.15625000000000000        0.0000000000000000     
  0.75000000000000000       0.15625000000000000        0.0000000000000000     
  0.62500000000000000       0.18750000000000000        0.0000000000000000     
  0.65625000000000000       0.18750000000000000        0.0000000000000000     
  0.68750000000000000       0.18750000000000000        0.0000000000000000     
  0.71875000000000000       0.18750000000000000        0.0000000000000000     
  0.75000000000000000       0.18750000000000000        0.0000000000000000     
  0.62500000000000000       0.21875000000000000        0.0000000000000000     
  0.65625000000000000       0.21875000000000000        0.0000000000000000     
  0.68750000000000000       0.21875000000000000        0.0000000000000000     
  0.71875000000000000       0.21875000000000000        0.0000000000000000     
  0.75000000000000000       0.21875000000000000        0.0000000000000000     
  0.62500000000000000       0.25000000000000000        0.0000000000000000     
  0.65625000000000000       0.25000000000000000        0.0000000000000000     
  0.68750000000000000       0.25000000000000000        0.0000000000000000     
  0.71875000000000000       0.25000000000000000        0.0000000000000000     
  0.75000000000000000       0.25000000000000000        0.0000000000000000     
  0.75000000000000000       0.12500000000000000        0.0000000000000000     
  0.78125000000000000       0.12500000000000000        0.0000000000000000     
  0.81250000000000000       0.12500000000000000        0.0000000000000000     
  0.84375000000000000       0.12500000000000000        0.0000000000000000     
  0.87500000000000000       0.12500000000000000        0.0000000000000000     
  0.75000000000000000       0.15625000000000000        0.0000000000000000     
  0.78125000000000000       0.15625000000000000        0.0000000000000000     
  0.81250000000000000       0.15625000000000000        0.0000000000000000     
  0.84375000000000000       0.15625000000000000        0.0000000000000000     
  0.87500000000000000       0.15625000000000000        0.0000000000000000     
  0.75000000000000000       0.18750000000000000        0.0000000000000000     
  0.78125000000000000       0.18750000000000000        0.0000000000000000     
  0.81250000000000000       0.18750000000000000        0.0000000000000000     
  0.84375000000000000       0.18750000000000000        0.0000000000000000     
  0.87500000000000000       0.18750000000000000        0.0000000000000000     
  0.75000000000000000       0.21875000000000000        0.0000000000000000     
  0.78125000000000000       0.21875000000000000        0.0000000000000000     
  0.81250000000000000       0.21875000000000000        0.0000000000000000     
  0.84375000000000000       0.21875000000000000        0.0000000000000000     
  0.87500000000000000       0.21875000000000000        0.0000000000000000     
  0.75000000000000000       0.25000000000000000        0.0000000000000000     
  0.78125000000000000       0.25000000000000000        0.0000000000000000     
  0.81250000000000000       0.25000000000000000        0.0000000000000000     
  0.84375000000000000       0.25000000000000000        0.0000000000000000     
  0.87500000000000000       0.25000000000000000        0.0000000000000000     
  0.87500000000000000       0.12500000000000000        0.0000000000000000     
  0.90625000000000000       0.12500000000000000        0.0000000000000000     
  0.93750000000000000       0.12500000000000000        0.0000000000000000     
  0.96875000000000000       0.12500000000000000        0.0000000000000000     
   1.0000000000000000       0.12500000000000000        0.0000000000000000     
  0.87500000000000000       0.15625000000000000        0.0000000000000000     
  0.90625000000000000       0.15625000000000000        0.0000000000000000     
  0.93750000000000000       0.15625000000000000        0.0000000000000000     
  0.96875000000000000       0.15625000000000000        0.0000000000000000     
   1.0000000000000000       0.15625000000000000        0.0000000000000000     
  0.87500000000000000       0.18750000000000000        0.0000000000000000     
  0.90625000000000000       0.18750000000000000        0.0000000000000000     
  0.93750000000000000       0.18750000000000000        0.0000000000000000     
  0.96875000000000000       0.18750000000000000        0.0000000000000000     
   1.0000000000000000       0.18750000000000000        0.0000000000000000     
  0.87500000000000000       0.21875000000000000        0.0000000000000000     
  0.90625000000000000       0.21875000000000000        0.0000000000000000     
  0.93750000000000000       0.21875000000000000        0.0000000000000000     
  0.96875000000000000       0.21875000000000000        0.0000000000000000     
   1.0000000000000000       0.21875000000000000        0.0000000000000000     
  0.87500000000000000       0.25000000000000000        0.0000000000000000     
  0.90625000000000000       0.25000000000000000        0.0000000000000000     
  0.93750000000000000       0.25000000000000000        0.0000000000000000     
  0.96875000000000000       0.25000000000000000        0.0000000000000000     
   1.0000000000000000       0.25000000000000000        0.0000000000000000     
   1.0000000000000000       0.12500000000000000        0.0000000000000000     
   1.0312500000000000       0.12500000000000000        0.0000000000000000     
   1.0625000000000000       0.12500000000000000        0.0000000000000000     
   1.0937500000000000       0.12500000000000000        0.0000000000000000     
   1.1250000000000000       0.12500000000000000        0.0000000000000000     
   1.0000000000000000       0.15625000000000000        0.0000000000000000     
   1.0312500000000000       0.15625000000000000        0.0000000000000000     
   1.0625000000000000       0.15625000000000000        0.0000000000000000     
   1.0937500000000000       0.15625000000000000        0.0000000000000000     
   1.1250000000000000       0.15625000000000000        0.0000000000000000     
   1.0000000000000000       0.18750000000000000        0.0000000000000000     
   1.0312500000000000       0.18750000000000000        0.0000000000000000     
   1.0625000000000000       0.18750000000000000        0.0000000000000000     
   1.0937500000000000       0.18750000000000000        0.0000000000000000     
   1.1250000000000000       0.18750000000000000        0.0000000000000000     
   1.0000000000000000       0.21875000000000000        0.0000000000000000     
   1.0312500000000000       0.21875000000000000        0.0000000000000000     
   1.0625000000000000       0.21875000000000000        0.0000000000000000     
   1.0937500000000000       0.21875000000000000        0.0000000000000000     
   1.1250000000000000       0.21875000000000000        0.0000000000000000     
   1.0000000000000000       0.25000000000000000        0.0000000000000000     
   1.0312500000000000       0.25000000000000000        0.0000000000000000     
   1.0625000000000000       0.25000000000000000        0.0000000000000000     
   1.0937500000000000       0.25000000000000000        0.0000000000000000     
   1.1250000000000000       0.25000000000000000        0.0000000000000000     
   1.1250000000000000       0.12500000000000000        0.0000000000000000     
   1.1562500000000000       0.12500000000000000        0.0000000000000000     
   1.1875000000000000       0.12500000000000000        0.0000000000000000     
   1.2187500000000000       0.12500000000000000        0.0000000000000000     
   1.2500000000000000       0.12500000000000000        0.0000000000000000     
   1.1250000000000000       0.15625000000000000        0.0000000000000000     
   1.1562500000000000       0.15625000000000000        0.0000000000000000     
   1.1875000000000000       0.15625000000000000        0.0000000000000000     
   1.2187500000000000       0.15625000000000000        0.0000000000000000     
   1.2500000000000000       0.15625000000000000        0.0000000000000000     
   1.1250000000000000       0.18750000000000000        0.0000000000000000     
   1.1562500000000000       0.18750000000000000        0.0000000000000000     
   1.1875000000000000       0.18750000000000000        0.0000000000000000     
   1.2187500000000000       0.18750000000000000        0.0000000000000000     
   1.2500000000000000       0.18750000000000000        0.0000000000000000     
   1.1250000000000000       0.21875000000000000        0.0000000000000000     
   1.1562500000000000       0.21875000000000000        0.0000000000000000     
   1.1875000000000000       0.21875000000000000        0.0000000000000000     
   1.2187500000000000       0.21875000000000000        0.0000000000000000     
   1.2500000000000000       0.21875000000000000        0.0000000000000000     
   1.1250000000000000       0.25000000000000000        0.0000000000000000     
   1.1562500000000000       0.25000000000000000        0.0000000000000000     
   1.1875000000000000       0.25000000000000000        0.0000000000000000     
   1.2187500000000000       0.25000000000000000        0.0000000000000000     
   1.2500000000000000       0.25000000000000000        0.0000000000000000     
   1.2500000000000000       0.12500000000000000        0.0000000000000000     
   1.2812500000000000       0.12500000000000000        0.0000000000000000     
   1.3125000000000000       0.12500000000000000        0.0000000000000000     
   1.3437500000000000       0.12500000000000000        0.0000000000000000     
   1.3750000000000000       0.12500000000000000        0.0000000000000000     
   1.2500000000000000       0.15625000000000000        0.0000000000000000     
   1.2812500000000000       0.15625000000000000        0.0000000000000000     
   1.3125000000000000       0.15625000000000000        0.0000000000000000     
   1.3437500000000000       0.15625000000000000        0.0000000000000000     
   1.3750000000000000       0.15625000000000000        0.0000000000000000     
   1.2500000000000000       0.18750000000000000        0.0000000000000000     
   1.2812500000000000       0.18750000000000000        0.0000000000000000     
   1.3125000000000000       0.18750000000000000        0.0000000000000000     
   1.3437500000000000       0.18750000000000000        0.0000000000000000     
   1.3750000000000000       0.18750000000000000        0.0000000000000000     
   1.2500000000000000       0.21875000000000000        0.0000000000000000     
   1.2812500000000000       0.21875000000000000        0.0000000000000000     
   1.3125000000000000       0.21875000000000000        0.0000000000000000     
   1.3437500000000000       0.21875000000000000        0.0000000000000000     
   1.3750000000000000       0.21875000000000000        0.0000000000000000     
   1.2500000000000000       0.25000000000000000        0.0000000000000000     
   1.2812500000000000       0.25000000000000000        0.0000000000000000     
   1.3125000000000000       0.25000000000000000        0.0000000000000000     
   1.3437500000000000       0.25000000000000000        0.0000000000000000     
   1.3750000000000000       0.25000000000000000        0.0000000000000000     
   1.3750000000000000       0.12500000000000000        0.0000000000000000     
   1.4062500000000000       0.12500000000000000        0.0000000000000000     
   1.4375000000000000       0.12500000000000000        0.0000000000000000     
   1.4687500000000000       0.12500000000000000        0.0000000000000000     
   1.5000000000000000       0.12500000000000000        0.0000000000000000     
   1.3750000000000000       0.15625000000000000        0.0000000000000000     
   1.4062500000000000       0.15625000000000000        0.0000000000000000     
   1.4375000000000000       0.15625000000000000        0.0000000000000000     
   1.4687500000000000       0.15625000000000000        0.0000000000000000     
   1.5000000000000000       0.15625000000000000        0.0000000000000000     
   1.3750000000000000       0.18750000000000000        0.0000000000000000     
   1.4062500000000000       0.18750000000000000        0.0000000000000000     
   1.4375000000000000       0.18750000000000000        0.0000000000000000     
   1.4687500000000000       0.18750000000000000        0.0000000000000000     
   1.5000000000000000       0.18750000000000000        0.0000000000000000     
   1.3750000000000000       0.21875000000000000        0.0000000000000000     
   1.4062500000000000       0.21875000000000000        0.0000000000000000     
   1.4375000000000000       0.21875000000000000        0.0000000000000000     
   1.4687500000000000       0.21875000000000000        0.0000000000000000     
   1.5000000000000000       0.21875000000000000        0.0000000000000000     
   1.3750000000000000       0.25000000000000000        0.0000000000000000     
   1.4062500000000000       0.25000000000000000        0.0000000000000000     
   1.4375000000000000       0.25000000000000000        0.0000000000000000     
   1.4687500000000000       0.25000000000000000        0.0000000000000000     
   1.5000000000000000       0.25000000000000000        0.0000000000000000     
  0.50000000000000000       0.25000000000000000        0.0000000000000000     
  0.53125000000000000       0.25000000000000000        0.0000000000000000     
  0.56250000000000000       0.25000000000000000        0.0000000000000000     
  0.59375000000000000       0.25000000000000000        0.0000000000000000     
  0.62500000000000000       0.25000000000000000        0.0000000000000000     
  0.50000000000000000       0.28125000000000000        0.0000000000000000     
  0.53125000000000000       0.28125000000000000        0.0000000000000000     
  0.56250000000000000       0.28125000000000000        0.0000000000000000     
  0.59375000000000000       0.28125000000000000        0.0000000000000000     
  0.62500000000000000       0.28125000000000000        0.0000000000000000     
  0.50000000000000000       0.31250000000000000        0.0000000000000000     
  0.53125000000000000       0.31250000000000000        0.0000000000000000     
  0.56250000000000000       0.31250000000000000        0.0000000000000000     
  0.59375000000000000       0.31250000000000000        0.0000000000000000     
  0.62500000000000000       0.31250000000000000        0.0000000000000000     
  0.50000000000000000       0.34375000000000000        0.0000000000000000     
  0.53125000000000000       0.34375000000000000        0.0000000000000000     
  0.56250000000000000       0.34375000000000000        0.0000000000000000     
  0.59375000000000000       0.34375000000000000        0.0000000000000000     
  0.62500000000000000       0.34375000000000000        0.0000000000000000     
  0.50000000000000000       0.37500000000000000        0.0000000000000000     
  0.53125000000000000       0.37500000000000000        0.0000000000000000     
  0.56250000000000000       0.37500000000000000        0.0000000000000000     
  0.59375000000000000       0.37500000000000000        0.0000000000000000     
  0.62500000000000000       0.37500000000000000        0.0000000000000000     
  0.62500000000000000       0.25000000000000000        0.0000000000000000     
  0.65625000000000000       0.25000000000000000        0.0000000000000000     
  0.68750000000000000       0.25000000000000000        0.0000000000000000     
  0.71875000000000000       0.25000000000000000        0.0000000000000000     
  0.75000000000000000       0.25000000000000000        0.0000000000000000     
  0.62500000000000000       0.28125000000000000        0.0000000000000000     
  0.65625000000000000       0.28125000000000000        0.0000000000000000     
  0.68750000000000000       0.28125000000000000        0.0000000000000000     
  0.71875000000000000       0.28125000000000000        0.0000000000000000     
  0.75000000000000000       0.28125000000000000        0.0000000000000000     
  0.62500000000000000       0.31250000000000000        0.0000000000000000     
  0.65625000000000000       0.31250000000000000        0.0000000000000000     
  0.68750000000000000       0.31250000000000000        0.0000000000000000     
  0.71875000000000000       0.31250000000000000        0.0000000000000000     
  0.75000000000000000       0.31250000000000000        0.0000000000000000     
  0.62500000000000000       0.34375000000000000        0.0000000000000000     
  0.65625000000000000       0.34375000000000000        0.0000000000000000     
  0.68750000000000000       0.34375000000000000        0.0000000000000000     
  0.71875000000000000       0.34375000000000000        0.0000000000000000     
  0.75000000000000000       0.34375000000000000        0.0000000000000000     
  0.62500000000000000       0.37500000000000000        0.0000000000000000     
  0.65625000000000000       0.37500000000000000        0.0000000000000000     
  0.68750000000000000       0.37500000000000000        0.0000000000000000     
  0.71875000000000000       0.37500000000000000        0.0000000000000000     
  0.75000000000000000       0.37500000000000000        0.0000000000000000     
  0.75000000000000000       0.25000000000000000        0.0000000000000000     
  0.78125000000000000       0.25000000000000000        0.0000000000000000     
  0.81250000000000000       0.25000000000000000        0.0000000000000000     
  0.84375000000000000       0.25000000000000000        0.0000000000000000     
  0.87500000000000000       0.25000000000000000        0.0000000000000000     
  0.75000000000000000       0.28125000000000000        0.0000000000000000     
  0.78125000000000000       0.28125000000000000        0.0000000000000000     
  0.81250000000000000       0.28125000000000000        0.0000000000000000     
  0.84375000000000000       0.28125000000000000        0.0000000000000000     
  0.87500000000000000       0.28125000000000000        0.0000000000000000     
  0.75000000000000000       0.31250000000000000        0.0000000000000000     
  0.78125000000000000       0.31250000000000000        0.0000000000000000     
  0.81250000000000000       0.31250000000000000        0.0000000000000000     
  0.84375000000000000       0.31250000000000000        0.0000000000000000     
  0.87500000000000000       0.31250000000000000        0.0000000000000000     
  0.75000000000000000       0.34375000000000000        0.0000000000000000     
  0.78125000000000000       0.34375000000000000        0.0000000000000000     
  0.81250000000000000       0.34375000000000000        0.0000000000000000     
  0.84375000000000000       0.34375000000000000        0.0000000000000000     
  0.87500000000000000       0.34375000000000000        0.0000000000000000     
  0.75000000000000000       0.37500000000000000        0.0000000000000000     
  0.78125000000000000       0.37500000000000000        0.0000000000000000     
  0.81250000000000000       0.37500000000000000        0.0000000000000000     
  0.84375000000000000       0.37500000000000000        0.0000000000000000     
  0.87500000000000000       0.37500000000000000        0.0000000000000000     
  0.87500000000000000       0.25000000000000000        0.0000000000000000     
  0.90625000000000000       0.25000000000000000        0.0000000000000000     
  0.93750000000000000       0.25000000000000000        0.0000000000000000     
  0.96875000000000000       0.25000000000000000        0.0000000000000000     
   1.0000000000000000       0.25000000000000000        0.0000000000000000     
  0.87500000000000000       0.28125000000000000        0.0000000000000000     
  0.90625000000000000       0.28125000000000000        0.0000000000000000     
  0.93750000000000000       0.28125000000000000        0.0000000000000000     
  0.96875000000000000       0.28125000000000000        0.0000000000000000     
   1.0000000000000000       0.28125000000000000        0.0000000000000000     
  0.87500000000000000       0.31250000000000000        0.0000000000000000     
  0.90625000000000000       0.31250000000000000        0.0000000000000000     
  0.93750000000000000       0.31250000000000000        0.0000000000000000     
  0.96875000000000000       0.31250000000000000        0.0000000000000000     
   1.0000000000000000       0.31250000000000000        0.0000000000000000     
  0.87500000000000000       0.34375000000000000        0.0000000000000000     
  0.90625000000000000       0.34375000000000000        0.0000000000000000     
  0.93750000000000000       0.34375000000000000        0.0000000000000000     
  0.96875000000000000       0.34375000000000000        0.0000000000000000     
   1.0000000000000000       0.34375000000000000        0.0000000000000000     
  0.87500000000000000       0.37500000000000000        0.0000000000000000     
  0.90625000000000000       0.37500000000000000        0.0000000000000000     
  0.93750000000000000       0.37500000000000000        0.0000000000000000     
  0.96875000000000000       0.37500000000000000        0.0000000000000000     
   1.0000000000000000       0.37500000000000000        0.0000000000000000     
   1.0000000000000000       0.25000000000000000        0.0000000000000000     
   1.0312500000000000       0.25000000000000000        0.0000000000000000     
   1.0625000000000000       0.25000000000000000        0.0000000000000000     
   1.0937500000000000       0.25000000000000000        0.0000000000000000     
   1.1250000000000000       0.25000000000000000        0.0000000000000000     
   1.0000000000000000       0.28125000000000000        0.0000000000000000     
   1.0312500000000000       0.28125000000000000        0.0000000000000000     
   1.0625000000000000       0.28125000000000000        0.0000000000000000     
   1.0937500000000000       0.28125000000000000        0.0000000000000000     
   1.1250000000000000       0.28125000000000000        0.0000000000000000     
   1.0000000000000000       0.31250000000000000        0.0000000000000000     
   1.0312500000000000       0.31250000000000000        0.0000000000000000     
   1.0625000000000000       0.31250000000000000        0.0000000000000000     
   1.0937500000000000       0.31250000000000000        0.0000000000000000     
   1.1250000000000000       0.31250000000000000        0.0000000000000000     
   1.0000000000000000       0.34375000000000000        0.0000000000000000     
   1.0312500000000000       0.34375000000000000        0.0000000000000000     
   1.0625000000000000       0.34375000000000000        0.0000000000000000     
   1.0937500000000000       0.34375000000000000        0.0000000000000000     
   1.1250000000000000       0.34375000000000000        0.0000000000000000     
   1.0000000000000000       0.37500000000000000        0.0000000000000000     
   1.0312500000000000       0.37500000000000000        0.0000000000000000     
   1.0625000000000000       0.37500000000000000        0.0000000000000000     
   1.0937500000000000       0.37500000000000000        0.0000000000000000     
   1.1250000000000000       0.37500000000000000        0.0000000000000000     
   1.1250000000000000       0.25000000000000000        0.0000000000000000     
   1.1562500000000000       0.25000000000000000        0.0000000000000000     
   1.1875000000000000       0.25000000000000000        0.0000000000000000     
   1.2187500000000000       0.25000000000000000        0.0000000000000000     
   1.2500000000000000       0.25000000000000000        0.0000000000000000     
   1.1250000000000000       0.28125000000000000        0.0000000000000000     
   1.1562500000000000       0.28125000000000000        0.0000000000000000     
   1.1875000000000000       0.28125000000000000        0.0000000000000000     
   1.2187500000000000       0.28125000000000000        0.0000000000000000     
   1.2500000000000000       0.28125000000000000        0.0000000000000000     
   1.1250000000000000       0.31250000000000000        0.0000000000000000     
   1.1562500000000000       0.31250000000000000        0.0000000000000000     
   1.1875000000000000       0.31250000000000000        0.0000000000000000     
   1.2187500000000000       0.31250000000000000        0.0000000000000000     
   1.2500000000000000       0.31250000000000000        0.0000000000000000     
   1.1250000000000000       0.34375000000000000        0.0000000000000000     
   1.1562500000000000       0.34375000000000000        0.0000000000000000     
   1.1875000000000000       0.34375000000000000        0.0000000000000000     
   1.2187500000000000       0.34375000000000000        0.0000000000000000     
   1.2500000000000000       0.34375000000000000        0.0000000000000000     
   1.1250000000000000       0.37500000000000000        0.0000000000000000     
   1.1562500000000000       0.37500000000000000        0.0000000000000000     
   1.1875000000000000       0.37500000000000000        0.0000000000000000     
   1.2187500000000000       0.37500000000000000        0.0000000000000000     
   1.2500000000000000       0.37500000000000000        0.0000000000000000     
   1.2500000000000000       0.25000000000000000        0.0000000000000000     
   1.2812500000000000       0.25000000000000000        0.0000000000000000     
   1.3125000000000000       0.25000000000000000        0.0000000000000000     
   1.3437500000000000       0.25000000000000000        0.0000000000000000     
   1.3750000000000000       0.25000000000000000        0.0000000000000000     
   1.2500000000000000       0.28125000000000000        0.0000000000000000     
   1.2812500000000000       0.28125000000000000        0.0000000000000000     
   1.3125000000000000       0.28125000000000000        0.0000000000000000     
   1.3437500000000000       0.28125000000000000        0.0000000000000000     
   1.3750000000000000       0.28125000000000000        0.0000000000000000     
   1.2500000000000000       0.31250000000000000        0.0000000000000000     
   1.2812500000000000       0.31250000000000000        0.0000000000000000     
   1.3125000000000000       0.31250000000000000        0.0000000000000000     
   1.3437500000000000       0.31250000000000000        0.0000000000000000     
   1.3750000000000000       0.31250000000000000        0.0000000000000000     
   1.2500000000000000       0.34375000000000000        0.0000000000000000     
   1.2812500000000000       0.34375000000000000        0.0000000000000000     
   1.3125000000000000       0.34375000000000000        0.0000000000000000     
   1.3437500000000000       0.34375000000000000        0.0000000000000000     
   1.3750000000000000       0.34375000000000000        0.0000000000000000     
   1.2500000000000000       0.37500000000000000        0.0000000000000000     
   1.2812500000000000       0.37500000000000000        0.0000000000000000     
   1.3125000000000000       0.37500000000000000        0.0000000000000000     
   1.3437500000000000       0.37500000000000000        0.0000000000000000     
   1.3750000000000000       0.37500000000000000        0.0000000000000000     
   1.3750000000000000       0.25000000000000000        0.0000000000000000     
   1.4062500000000000       0.25000000000000000        0.0000000000000000     
   1.4375000000000000       0.25000000000000000        0.0000000000000000     
   1.4687500000000000       0.25000000000000000        0.0000000000000000     
   1.5000000000000000       0.25000000000000000        0.0000000000000000     
   1.3750000000000000       0.28125000000000000        0.0000000000000000     
   1.4062500000000000       0.28125000000000000        0.0000000000000000     
   1.4375000000000000       0.28125000000000000        0.0000000000000000     
   1.4687500000000000       0.28125000000000000        0.0000000000000000     
   1.5000000000000000       0.28125000000000000        0.0000000000000000     
   1.3750000000000000       0.31250000000000000        0.0000000000000000     
   1.4062500000000000       0.31250000000000000        0.0000000000000000     
   1.4375000000000000       0.31250000000000000        0.0000000000000000     
   1.4687500000000000       0.31250000000000000        0.0000000000000000     
   1.5000000000000000       0.31250000000000000        0.0000000000000000     
   1.3750000000000000       0.34375000000000000        0.0000000000000000     
   1.4062500000000000       0.34375000000000000        0.0000000000000000     
   1.4375000000000000       0.34375000000000000        0.0000000000000000     
   1.4687500000000000       0.34375000000000000        0.0000000000000000     
   1.5000000000000000       0.34375000000000000        0.0000000000000000     
   1.3750000000000000       0.37500000000000000        0.0000000000000000     
   1.4062500000000000       0.37500000000000000        0.0000000000000000     
   1.4375000000000000       0.37500000000000000        0.0000000000000000     
   1.4687500000000000       0.37500000000000000        0.0000000000000000     
   1.5000000000000000       0.37500000000000000        0.0000000000000000     
  0.50000000000000000       0.37500000000000000        0.0000000000000000     
  0.53125000000000000       0.37500000000000000        0.0000000000000000     
  0.56250000000000000       0.37500000000000000        0.0000000000000000     
  0.59375000000000000       0.37500000000000000        0.0000000000000000     
  0.62500000000000000       0.37500000000000000        0.0000000000000000     
  0.50000000000000000       0.40625000000000000        0.0000000000000000     
  0.53125000000000000       0.40625000000000000        0.0000000000000000     
  0.56250000000000000       0.40625000000000000        0.0000000000000000     
  0.59375000000000000       0.40625000000000000        0.0000000000000000     
  0.62500000000000000       0.40625000000000000        0.0000000000000000     
  0.50000000000000000       0.43750000000000000        0.0000000000000000     
  0.53125000000000000       0.43750000000000000        0.0000000000000000     
  0.56250000000000000       0.43750000000000000        0.0000000000000000     
  0.59375000000000000       0.43750000000000000        0.0000000000000000     
  0.62500000000000000       0.43750000000000000        0.0000000000000000     
  0.50000000000000000       0.46875000000000000        0.0000000000000000     
  0.53125000000000000       0.46875000000000000        0.0000000000000000     
  0.56250000000000000       0.46875000000000000        0.0000000000000000     
  0.59375000000000000       0.46875000000000000        0.0000000000000000     
  0.62500000000000000       0.46875000000000000        0.0000000000000000     
  0.50000000000000000       0.50000000000000000        0.0000000000000000     
  0.53125000000000000       0.50000000000000000        0.0000000000000000     
  0.56250000000000000       0.50000000000000000        0.0000000000000000     
  0.59375000000000000       0.50000000000000000        0.0000000000000000     
  0.62500000000000000       0.50000000000000000        0.0000000000000000     
  0.62500000000000000       0.37500000000000000        0.0000000000000000     
  0.65625000000000000       0.37500000000000000        0.0000000000000000     
  0.68750000000000000       0.37500000000000000        0.0000000000000000     
  0.71875000000000000       0.37500000000000000        0.0000000000000000     
  0.75000000000000000       0.37500000000000000        0.0000000000000000     
  0.62500000000000000       0.40625000000000000        0.0000000000000000     
  0.65625000000000000       0.40625000000000000        0.0000000000000000     
  0.68750000000000000       0.40625000000000000        0.0000000000000000     
  0.71875000000000000       0.40625000000000000        0.0000000000000000     
  0.75000000000000000       0.40625000000000000        0.0000000000000000     
  0.62500000000000000       0.43750000000000000        0.0000000000000000     
  0.65625000000000000       0.43750000000000000        0.0000000000000000     
  0.68750000000000000       0.43750000000000000        0.0000000000000000     
  0.71875000000000000       0.43750000000000000        0.0000000000000000     
  0.75000000000000000       0.43750000000000000        0.0000000000000000     
  0.62500000000000000       0.46875000000000000        0.0000000000000000     
  0.65625000000000000       0.46875000000000000        0.0000000000000000     
  0.68750000000000000       0.46875000000000000        0.0000000000000000     
  0.71875000000000000       0.46875000000000000        0.0000000000000000     
  0.75000000000000000       0.46875000000000000        0.0000000000000000     
  0.62500000000000000       0.50000000000000000        0.0000000000000000     
  0.65625000000000000       0.50000000000000000        0.0000000000000000     
  0.68750000000000000       0.50000000000000000        0.0000000000000000     
  0.71875000000000000       0.50000000000000000        0.0000000000000000     
  0.75000000000000000       0.50000000000000000        0.0000000000000000     
  0.75000000000000000       0.37500000000000000        0.0000000000000000     
  0.78125000000000000       0.37500000000000000        0.0000000000000000     
  0.81250000000000000       0.37500000000000000        0.0000000000000000     
  0.84375000000000000       0.37500000000000000        0.0000000000000000     
  0.87500000000000000       0.37500000000000000        0.0000000000000000     
  0.75000000000000000       0.40625000000000000        0.0000000000000000     
  0.78125000000000000       0.40625000000000000        0.0000000000000000     
  0.81250000000000000       0.40625000000000000        0.0000000000000000     
  0.84375000000000000       0.40625000000000000        0.0000000000000000     
  0.87500000000000000       0.40625000000000000        0.0000000000000000     
  0.75000000000000000       0.43750000000000000        0.0000000000000000     
  0.78125000000000000       0.43750000000000000        0.0000000000000000     
  0.81250000000000000       0.43750000000000000        0.0000000000000000     
  0.84375000000000000       0.43750000000000000        0.0000000000000000     
  0.87500000000000000       0.43750000000000000        0.0000000000000000     
  0.75000000000000000       0.46875000000000000        0.0000000000000000     
  0.78125000000000000       0.46875000000000000        0.0000000000000000     
  0.81250000000000000       0.46875000000000000        0.0000000000000000     
  0.84375000000000000       0.46875000000000000        0.0000000000000000     
  0.87500000000000000       0.46875000000000000        0.0000000000000000     
  0.75000000000000000       0.50000000000000000        0.0000000000000000     
  0.78125000000000000       0.50000000000000000        0.0000000000000000     
  0.81250000000000000       0.50000000000000000        0.0000000000000000     
  0.84375000000000000       0.50000000000000000        0.0000000000000000     
  0.87500000000000000       0.50000000000000000        0.0000000000000000     
  0.87500000000000000       0.37500000000000000        0.0000000000000000     
  0.90625000000000000       0.37500000000000000        0.0000000000000000     
  0.93750000000000000       0.37500000000000000        0.0000000000000000     
  0.96875000000000000       0.37500000000000000        0.0000000000000000     
   1.0000000000000000       0.37500000000000000        0.0000000000000000     
  0.87500000000000000       0.40625000000000000        0.0000000000000000     
  0.90625000000000000       0.40625000000000000        0.0000000000000000     
  0.93750000000000000       0.40625000000000000        0.0000000000000000     
  0.96875000000000000       0.40625000000000000        0.0000000000000000     
   1.0000000000000000       0.40625000000000000        0.0000000000000000     
  0.87500000000000000       0.43750000000000000        0.0000000000000000     
  0.90625000000000000       0.43750000000000000        0.0000000000000000     
  0.93750000000000000       0.43750000000000000        0.0000000000000000     
  0.96875000000000000       0.43750000000000000        0.0000000000000000     
   1.0000000000000000       0.43750000000000000        0.0000000000000000     
  0.87500000000000000       0.46875000000000000        0.0000000000000000     
  0.90625000000000000       0.46875000000000000        0.0000000000000000     
  0.93750000000000000       0.46875000000000000        0.0000000000000000     
  0.96875000000000000       0.46875000000000000        0.0000000000000000     
   1.0000000000000000       0.46875000000000000        0.0000000000000000     
  0.87500000000000000       0.50000000000000000        0.0000000000000000     
  0.90625000000000000       0.50000000000000000        0.0000000000000000     
  0.93750000000000000       0.50000000000000000        0.0000000000000000     
  0.96875000000000000       0.50000000000000000        0.0000000000000000     
   1.0000000000000000       0.50000000000000000        0.0000000000000000     
   1.0000000000000000       0.37500000000000000        0.0000000000000000     
   1.0312500000000000       0.37500000000000000        0.0000000000000000     
   1.0625000000000000       0.37500000000000000        0.0000000000000000     
   1.0937500000000000       0.37500000000000000        0.0000000000000000     
   1.1250000000000000       0.37500000000000000        0.0000000000000000     
   1.0000000000000000       0.40625000000000000        0.0000000000000000     
   1.0312500000000000       0.40625000000000000        0.0000000000000000     
   1.0625000000000000       0.40625000000000000        0.0000000000000000     
   1.0937500000000000       0.40625000000000000        0.0000000000000000     
   1.1250000000000000       0.40625000000000000        0.0000000000000000     
   1.0000000000000000       0.43750000000000000        0.0000000000000000     
   1.0312500000000000       0.43750000000000000        0.0000000000000000     
   1.0625000000000000       0.43750000000000000        0.0000000000000000     
   1.0937500000000000       0.43750000000000000        0.0000000000000000     
   1.1250000000000000       0.43750000000000000        0.0000000000000000     
   1.0000000000000000       0.46875000000000000        0.0000000000000000     
   1.0312500000000000       0.46875000000000000        0.0000000000000000     
   1.0625000000000000       0.46875000000000000        0.0000000000000000     
   1.0937500000000000       0.46875000000000000        0.0000000000000000     
   1.1250000000000000       0.46875000000000000        0.0000000000000000     
   1.0000000000000000       0.50000000000000000        0.0000000000000000     
   1.0312500000000000       0.50000000000000000        0.0000000000000000     
   1.0625000000000000       0.50000000000000000        0.0000000000000000     
   1.0937500000000000       0.50000000000000000        0.0000000000000000     
   1.1250000000000000       0.50000000000000000        0.0000000000000000     
   1.1250000000000000       0.37500000000000000        0.0000000000000000     
   1.1562500000000000       0.37500000000000000        0.0000000000000000     
   1.1875000000000000       0.37500000000000000        0.0000000000000000     
   1.2187500000000000       0.37500000000000000        0.0000000000000000     
   1.2500000000000000       0.37500000000000000        0.0000000000000000     
   1.1250000000000000       0.40625000000000000        0.0000000000000000     
   1.1562500000000000       0.40625000000000000        0.0000000000000000     
   1.1875000000000000       0.40625000000000000        0.0000000000000000     
   1.2187500000000000       0.40625000000000000        0.0000000000000000     
   1.2500000000000000       0.40625000000000000        0.0000000000000000     
   1.1250000000000000       0.43750000000000000        0.0000000000000000     
   1.1562500000000000       0.43750000000000000        0.0000000000000000     
   1.1875000000000000       0.43750000000000000        0.0000000000000000     
   1.2187500000000000       0.43750000000000000        0.0000000000000000     
   1.2500000000000000       0.43750000000000000        0.0000000000000000     
   1.1250000000000000       0.46875000000000000        0.0000000000000000     
   1.1562500000000000       0.46875000000000000        0.0000000000000000     
   1.1875000000000000       0.46875000000000000        0.0000000000000000     
   1.2187500000000000       0.46875000000000000        0.0000000000000000     
   1.2500000000000000       0.46875000000000000        0.0000000000000000     
   1.1250000000000000       0.50000000000000000        0.0000000000000000     
   1.1562500000000000       0.50000000000000000        0.0000000000000000     
   1.1875000000000000       0.50000000000000000        0.0000000000000000     
   1.2187500000000000       0.50000000000000000        0.0000000000000000     
   1.2500000000000000       0.50000000000000000        0.0000000000000000     
   1.2500000000000000       0.37500000000000000        0.0000000000000000     
   1.2812500000000000       0.37500000000000000        0.0000000000000000     
   1.3125000000000000       0.37500000000000000        0.0000000000000000     
   1.3437500000000000       0.37500000000000000        0.0000000000000000     
   1.3750000000000000       0.37500000000000000        0.0000000000000000     
   1.2500000000000000       0.40625000000000000        0.0000000000000000     
   1.2812500000000000       0.40625000000000000        0.0000000000000000     
   1.3125000000000000       0.40625000000000000        0.0000000000000000     
   1.3437500000000000       0.40625000000000000        0.0000000000000000     
   1.3750000000000000       0.40625000000000000        0.0000000000000000     
   1.2500000000000000       0.43750000000000000        0.0000000000000000     
   1.2812500000000000       0.43750000000000000        0.0000000000000000     
   1.3125000000000000       0.43750000000000000        0.0000000000000000     
   1.3437500000000000       0.43750000000000000        0.0000000000000000     
   1.3750000000000000       0.43750000000000000        0.0000000000000000     
   1.2500000000000000       0.46875000000000000        0.0000000000000000     
   1.2812500000000000       0.46875000000000000        0.0000000000000000     
   1.3125000000000000       0.46875000000000000        0.0000000000000000     
   1.3437500000000000       0.46875000000000000        0.0000000000000000     
   1.3750000000000000       0.46875000000000000        0.0000000000000000     
   1.2500000000000000       0.50000000000000000        0.0000000000000000     
   1.2812500000000000       0.50000000000000000        0.0000000000000000     
   1.3125000000000000       0.50000000000000000        0.0000000000000000     
   1.3437500000000000       0.50000000000000000        0.0000000000000000     
   1.3750000000000000       0.50000000000000000        0.0000000000000000     
   1.3750000000000000       0.37500000000000000        0.0000000000000000     
   1.4062500000000000       0.37500000000000000        0.0000000000000000     
   1.4375000000000000       0.37500000000000000        0.0000000000000000     
   1.4687500000000000       0.37500000000000000        0.0000000000000000     
   1.5000000000000000       0.37500000000000000        0.0000000000000000     
   1.3750000000000000       0.40625000000000000        0.0000000000000000     
   1.4062500000000000       0.40625000000000000        0.0000000000000000     
   1.4375000000000000       0.40625000000000000        0.0000000000000000     
   1.4687500000000000       0.40625000000000000        0.0000000000000000     
   1.5000000000000000       0.40625000000000000        0.0000000000000000     
   1.3750000000000000       0.43750000000000000        0.0000000000000000     
   1.4062500000000000       0.43750000000000000        0.0000000000000000     
   1.4375000000000000       0.43750000000000000        0.0000000000000000     
   1.4687500000000000       0.43750000000000000        0.0000000000000000     
   1.5000000000000000       0.43750000000000000        0.0000000000000000     
   1.3750000000000000       0.46875000000000000        0.0000000000000000     
   1.4062500000000000       0.46875000000000000        0.0000000000000000     
   1.4375000000000000       0.46875000000000000        0.0000000000000000     
   1.4687500000000000       0.46875000000000000        0.0000000000000000     
   1.5000000000000000       0.46875000000000000        0.0000000000000000     
   1.3750000000000000       0.50000000000000000        0.0000000000000000     
   1.4062500000000000       0.50000000000000000        0.0000000000000000     
   1.4375000000000000       0.50000000000000000        0.0000000000000000     
   1.4687500000000000       0.50000000000000000        0.0000000000000000     
   1.5000000000000000       0.50000000000000000        0.0000000000000000     
  0.50000000000000000       0.50000000000000000        0.0000000000000000     
  0.53125000000000000       0.50000000000000000        0.0000000000000000     
  0.56250000000000000       0.50000000000000000        0.0000000000000000     
  0.59375000000000000       0.50000000000000000        0.0000000000000000     
  0.62500000000000000       0.50000000000000000        0.0000000000000000     
  0.50000000000000000       0.53125000000000000        0.0000000000000000     
  0.53125000000000000       0.53125000000000000        0.0000000000000000     
  0.56250000000000000       0.53125000000000000        0.0000000000000000     
  0.59375000000000000       0.53125000000000000        0.0000000000000000     
  0.62500000000000000       0.53125000000000000        0.0000000000000000     
  0.50000000000000000       0.56250000000000000        0.0000000000000000     
  0.53125000000000000       0.56250000000000000        0.0000000000000000     
  0.56250000000000000       0.56250000000000000        0.0000000000000000     
  0.59375000000000000       0.56250000000000000        0.0000000000000000     
  0.62500000000000000       0.56250000000000000        0.0000000000000000     
  0.50000000000000000       0.59375000000000000        0.0000000000000000     
  0.53125000000000000       0.59375000000000000        0.0000000000000000     
  0.56250000000000000       0.59375000000000000        0.0000000000000000     
  0.59375000000000000       0.59375000000000000        0.0000000000000000     
  0.62500000000000000       0.59375000000000000        0.0000000000000000     
  0.50000000000000000       0.62500000000000000        0.0000000000000000     
  0.53125000000000000       0.62500000000000000        0.0000000000000000     
  0.56250000000000000       0.62500000000000000        0.0000000000000000     
  0.59375000000000000       0.62500000000000000        0.0000000000000000     
  0.62500000000000000       0.62500000000000000        0.0000000000000000     
  0.62500000000000000       0.50000000000000000        0.0000000000000000     
  0.65625000000000000       0.50000000000000000        0.0000000000000000     
  0.68750000000000000       0.50000000000000000        0.0000000000000000     
  0.71875000000000000       0.50000000000000000        0.0000000000000000     
  0.75000000000000000       0.50000000000000000        0.0000000000000000     
  0.62500000000000000       0.53125000000000000        0.0000000000000000     
  0.65625000000000000       0.53125000000000000        0.0000000000000000     
  0.68750000000000000       0.53125000000000000        0.0000000000000000     
  0.71875000000000000       0.53125000000000000        0.0000000000000000     
  0.75000000000000000       0.53125000000000000        0.0000000000000000     
  0.62500000000000000       0.56250000000000000        0.0000000000000000     
  0.65625000000000000       0.56250000000000000        0.0000000000000000     
  0.68750000000000000       0.56250000000000000        0.0000000000000000     
  0.71875000000000000       0.56250000000000000        0.0000000000000000     
  0.75000000000000000       0.56250000000000000        0.0000000000000000     
  0.62500000000000000       0.59375000000000000        0.0000000000000000     
  0.65625000000000000       0.59375000000000000        0.0000000000000000     
  0.68750000000000000       0.59375000000000000        0.0000000000000000     
  0.71875000000000000       0.59375000000000000        0.0000000000000000     
  0.75000000000000000       0.59375000000000000        0.0000000000000000     
  0.62500000000000000       0.62500000000000000        0.0000000000000000     
  0.65625000000000000       0.62500000000000000        0.0000000000000000     
  0.68750000000000000       0.62500000000000000        0.0000000000000000     
  0.71875000000000000       0.62500000000000000        0.0000000000000000     
  0.75000000000000000       0.62500000000000000        0.0000000000000000     
  0.75000000000000000       0.50000000000000000        0.0000000000000000     
  0.78125000000000000       0.50000000000000000        0.0000000000000000     
  0.81250000000000000       0.50000000000000000        0.0000000000000000     
  0.84375000000000000       0.50000000000000000        0.0000000000000000     
  0.87500000000000000       0.50000000000000000        0.0000000000000000     
  0.75000000000000000       0.53125000000000000        0.0000000000000000     
  0.78125000000000000       0.53125000000000000        0.0000000000000000     
  0.81250000000000000       0.53125000000000000        0.0000000000000000     
  0.84375000000000000       0.53125000000000000        0.0000000000000000     
  0.87500000000000000       0.53125000000000000        0.0000000000000000     
  0.75000000000000000       0.56250000000000000        0.0000000000000000     
  0.78125000000000000       0.56250000000000000        0.0000000000000000     
  0.81250000000000000       0.56250000000000000        0.0000000000000000     
  0.84375000000000000       0.56250000000000000        0.0000000000000000     
  0.87500000000000000       0.56250000000000000        0.0000000000000000     
  0.75000000000000000       0.59375000000000000        0.0000000000000000     
  0.78125000000000000       0.59375000000000000        0.0000000000000000     
  0.81250000000000000       0.59375000000000000        0.0000000000000000     
  0.84375000000000000       0.59375000000000000        0.0000000000000000     
  0.87500000000000000       0.59375000000000000        0.0000000000000000     
  0.75000000000000000       0.62500000000000000        0.0000000000000000     
  0.78125000000000000       0.62500000000000000        0.0000000000000000     
  0.81250000000000000       0.62500000000000000        0.0000000000000000     
  0.84375000000000000       0.62500000000000000        0.0000000000000000     
  0.87500000000000000       0.62500000000000000        0.0000000000000000     
  0.87500000000000000       0.50000000000000000        0.0000000000000000     
  0.90625000000000000       0.50000000000000000        0.0000000000000000     
  0.93750000000000000       0.50000000000000000        0.0000000000000000     
  0.96875000000000000       0.50000000000000000        0.0000000000000000     
   1.0000000000000000       0.50000000000000000        0.0000000000000000     
  0.87500000000000000       0.53125000000000000        0.0000000000000000     
  0.90625000000000000       0.53125000000000000        0.0000000000000000     
  0.93750000000000000       0.53125000000000000        0.0000000000000000     
  0.96875000000000000       0.53125000000000000        0.0000000000000000     
   1.0000000000000000       0.53125000000000000        0.0000000000000000     
  0.87500000000000000       0.56250000000000000        0.0000000000000000     
  0.90625000000000000       0.56250000000000000        0.0000000000000000     
  0.93750000000000000       0.56250000000000000        0.0000000000000000     
  0.96875000000000000       0.56250000000000000        0.0000000000000000     
   1.0000000000000000       0.56250000000000000        0.0000000000000000     
  0.87500000000000000       0.59375000000000000        0.0000000000000000     
  0.90625000000000000       0.59375000000000000        0.0000000000000000     
  0.93750000000000000       0.59375000000000000        0.0000000000000000     
  0.96875000000000000       0.59375000000000000        0.0000000000000000     
   1.0000000000000000       0.59375000000000000        0.0000000000000000     
  0.87500000000000000       0.62500000000000000        0.0000000000000000     
  0.90625000000000000       0.62500000000000000        0.0000000000000000     
  0.93750000000000000       0.62500000000000000        0.0000000000000000     
  0.96875000000000000       0.62500000000000000        0.0000000000000000     
   1.0000000000000000       0.62500000000000000        0.0000000000000000     
   1.0000000000000000       0.50000000000000000        0.0000000000000000     
   1.0312500000000000       0.50000000000000000        0.0000000000000000     
   1.0625000000000000       0.50000000000000000        0.0000000000000000     
   1.0937500000000000       0.50000000000000000        0.0000000000000000     
   1.1250000000000000       0.50000000000000000        0.0000000000000000     
   1.0000000000000000       0.53125000000000000        0.0000000000000000     
   1.0312500000000000       0.53125000000000000        0.0000000000000000     
   1.0625000000000000       0.53125000000000000        0.0000000000000000     
   1.0937500000000000       0.53125000000000000        0.0000000000000000     
   1.1250000000000000       0.53125000000000000        0.0000000000000000     
   1.0000000000000000       0.56250000000000000        0.0000000000000000     
   1.0312500000000000       0.56250000000000000        0.0000000000000000     
   1.0625000000000000       0.56250000000000000        0.0000000000000000     
   1.0937500000000000       0.56250000000000000        0.0000000000000000     
   1.1250000000000000       0.56250000000000000        0.0000000000000000     
   1.0000000000000000       0.59375000000000000        0.0000000000000000     
   1.0312500000000000       0.59375000000000000        0.0000000000000000     
   1.0625000000000000       0.59375000000000000        0.0000000000000000     
   1.0937500000000000       0.59375000000000000        0.0000000000000000     
   1.1250000000000000       0.59375000000000000        0.0000000000000000     
   1.0000000000000000       0.62500000000000000        0.0000000000000000     
   1.0312500000000000       0.62500000000000000        0.0000000000000000     
   1.0625000000000000       0.62500000000000000        0.0000000000000000     
   1.0937500000000000       0.62500000000000000        0.0000000000000000     
   1.1250000000000000       0.62500000000000000        0.0000000000000000     
   1.1250000000000000       0.50000000000000000        0.0000000000000000     
   1.1562500000000000       0.50000000000000000        0.0000000000000000     
   1.1875000000000000       0.50000000000000000        0.0000000000000000     
   1.2187500000000000       0.50000000000000000        0.0000000000000000     
   1.2500000000000000       0.50000000000000000        0.0000000000000000     
   1.1250000000000000       0.53125000000000000        0.0000000000000000     
   1.1562500000000000       0.53125000000000000        0.0000000000000000     
   1.1875000000000000       0.53125000000000000        0.0000000000000000     
   1.2187500000000000       0.53125000000000000        0.0000000000000000     
   1.2500000000000000       0.53125000000000000        0.0000000000000000     
   1.1250000000000000       0.56250000000000000        0.0000000000000000     
   1.1562500000000000       0.56250000000000000        0.0000000000000000     
   1.1875000000000000       0.56250000000000000        0.0000000000000000     
   1.2187500000000000       0.56250000000000000        0.0000000000000000     
   1.2500000000000000       0.56250000000000000        0.0000000000000000     
   1.1250000000000000       0.59375000000000000        0.0000000000000000     
   1.1562500000000000       0.59375000000000000        0.0000000000000000     
   1.1875000000000000       0.59375000000000000        0.0000000000000000     
   1.2187500000000000       0.59375000000000000        0.0000000000000000     
   1.2500000000000000       0.59375000000000000        0.0000000000000000     
   1.1250000000000000       0.62500000000000000        0.0000000000000000     
   1.1562500000000000       0.62500000000000000        0.0000000000000000     
   1.1875000000000000       0.62500000000000000        0.0000000000000000     
   1.2187500000000000       0.62500000000000000        0.0000000000000000     
   1.2500000000000000       0.62500000000000000        0.0000000000000000     
   1.2500000000000000       0.50000000000000000        0.0000000000000000     
   1.2812500000000000       0.50000000000000000        0.0000000000000000     
   1.3125000000000000       0.50000000000000000        0.0000000000000000     
   1.3437500000000000       0.50000000000000000        0.0000000000000000     
   1.3750000000000000       0.50000000000000000        0.0000000000000000     
   1.2500000000000000       0.53125000000000000        0.0000000000000000     
   1.2812500000000000       0.53125000000000000        0.0000000000000000     
   1.3125000000000000       0.53125000000000000        0.0000000000000000     
   1.3437500000000000       0.53125000000000000        0.0000000000000000     
   1.3750000000000000       0.53125000000000000        0.0000000000000000     
   1.2500000000000000       0.56250000000000000        0.0000000000000000     
   1.2812500000000000       0.56250000000000000        0.0000000000000000     
   1.3125000000000000       0.56250000000000000        0.0000000000000000     
   1.3437500000000000       0.56250000000000000        0.0000000000000000     
   1.3750000000000000       0.56250000000000000        0.0000000000000000     
   1.2500000000000000       0.59375000000000000        0.0000000000000000     
   1.2812500000000000       0.59375000000000000        0.0000000000000000     
   1.3125000000000000       0.59375000000000000        0.0000000000000000     
   1.3437500000000000       0.59375000000000000        0.0000000000000000     
   1.3750000000000000       0.59375000000000000        0.0000000000000000     
   1.2500000000000000       0.62500000000000000        0.0000000000000000     
   1.2812500000000000       0.62500000000000000        0.0000000000000000     
   1.3125000000000000       0.62500000000000000        0.0000000000000000     
   1.3437500000000000       0.62500000000000000        0.0000000000000000     
   1.3750000000000000       0.62500000000000000        0.0000000000000000     
   1.3750000000000000       0.50000000000000000        0.0000000000000000     
   1.4062500000000000       0.50000000000000000        0.0000000000000000     
   1.4375000000000000       0.50000000000000000        0.0000000000000000     
   1.4687500000000000       0.50000000000000000        0.0000000000000000     
   1.5000000000000000       0.50000000000000000        0.0000000000000000     
   1.3750000000000000       0.53125000000000000        0.0000000000000000     
   1.4062500000000000       0.53125000000000000        0.0000000000000000     
   1.4375000000000000       0.53125000000000000        0.0000000000000000     
   1.4687500000000000       0.53125000000000000        0.0000000000000000     
   1.5000000000000000       0.53125000000000000        0.0000000000000000     
   1.3750000000000000       0.56250000000000000        0.0000000000000000     
   1.4062500000000000       0.56250000000000000        0.0000000000000000     
   1.4375000000000000       0.56250000000000000        0.0000000000000000     
   1.4687500000000000       0.56250000000000000        0.0000000000000000     
   1.5000000000000000       0.56250000000000000        0.0000000000000000     
   1.3750000000000000       0.59375000000000000        0.0000000000000000     
   1.4062500000000000       0.59375000000000000        0.0000000000000000     
   1.4375000000000000       0.59375000000000000        0.0000000000000000     
   1.4687500000000000       0.59375000000000000        0.0000000000000000     
   1.5000000000000000       0.59375000000000000        0.0000000000000000     
   1.3750000000000000       0.62500000000000000        0.0000000000000000     
   1.4062500000000000       0.62500000000000000        0.0000000000000000     
   1.4375000000000000       0.62500000000000000        0.0000000000000000     
   1.4687500000000000       0.62500000000000000        0.0000000000000000     
   1.5000000000000000       0.62500000000000000        0.0000000000000000     
  0.50000000000000000       0.62500000000000000        0.0000000000000000     
  0.53125000000000000       0.62500000000000000        0.0000000000000000     
  0.56250000000000000       0.62500000000000000        0.0000000000000000     
  0.59375000000000000       0.62500000000000000        0.0000000000000000     
  0.62500000000000000       0.62500000000000000        0.0000000000000000     
  0.50000000000000000       0.65625000000000000        0.0000000000000000     
  0.53125000000000000       0.65625000000000000        0.0000000000000000     
  0.56250000000000000       0.65625000000000000        0.0000000000000000     
  0.59375000000000000       0.65625000000000000        0.0000000000000000     
  0.62500000000000000       0.65625000000000000        0.0000000000000000     
  0.50000000000000000       0.68750000000000000        0.0000000000000000     
  0.53125000000000000       0.68750000000000000        0.0000000000000000     
  0.56250000000000000       0.68750000000000000        0.0000000000000000     
  0.59375000000000000       0.68750000000000000        0.0000000000000000     
  0.62500000000000000       0.68750000000000000        0.0000000000000000     
  0.50000000000000000       0.71875000000000000        0.0000000000000000     
  0.53125000000000000       0.71875000000000000        0.0000000000000000     
  0.56250000000000000       0.71875000000000000        0.0000000000000000     
  0.59375000000000000       0.71875000000000000        0.0000000000000000     
  0.62500000000000000       0.71875000000000000        0.0000000000000000     
  0.50000000000000000       0.75000000000000000        0.0000000000000000     
  0.53125000000000000       0.75000000000000000        0.0000000000000000     
  0.56250000000000000       0.75000000000000000        0.0000000000000000     
  0.59375000000000000       0.75000000000000000        0.0000000000000000     
  0.62500000000000000       0.75000000000000000        0.0000000000000000     
  0.62500000000000000       0.62500000000000000        0.0000000000000000     
  0.65625000000000000       0.62500000000000000        0.0000000000000000     
  0.68750000000000000       0.62500000000000000        0.0000000000000000     
  0.71875000000000000       0.62500000000000000        0.0000000000000000     
  0.75000000000000000       0.62500000000000000        0.0000000000000000     
  0.62500000000000000       0.65625000000000000        0.0000000000000000     
  0.65625000000000000       0.65625000000000000        0.0000000000000000     
  0.68750000000000000       0.65625000000000000        0.0000000000000000     
  0.71875000000000000       0.65625000000000000        0.0000000000000000     
  0.75000000000000000       0.65625000000000000        0.0000000000000000     
  0.62500000000000000       0.68750000000000000        0.0000000000000000     
  0.65625000000000000       0.68750000000000000        0.0000000000000000     
  0.68750000000000000       0.68750000000000000        0.0000000000000000     
  0.71875000000000000       0.68750000000000000        0.0000000000000000     
  0.75000000000000000       0.68750000000000000        0.0000000000000000     
  0.62500000000000000       0.71875000000000000        0.0000000000000000     
  0.65625000000000000       0.71875000000000000        0.0000000000000000     
  0.68750000000000000       0.71875000000000000        0.0000000000000000     
  0.71875000000000000       0.71875000000000000        0.0000000000000000     
  0.75000000000000000       0.71875000000000000        0.0000000000000000     
  0.62500000000000000       0.75000000000000000        0.0000000000000000     
  0.65625000000000000       0.75000000000000000        0.0000000000000000     
  0.68750000000000000       0.75000000000000000        0.0000000000000000     
  0.71875000000000000       0.75000000000000000        0.0000000000000000     
  0.75000000000000000       0.75000000000000000        0.0000000000000000     
  0.75000000000000000       0.62500000000000000        0.0000000000000000     
  0.78125000000000000       0.62500000000000000        0.0000000000000000     
  0.81250000000000000       0.62500000000000000        0.0000000000000000     
  0.84375000000000000       0.62500000000000000        0.0000000000000000     
  0.87500000000000000       0.62500000000000000        0.0000000000000000     
  0.75000000000000000       0.65625000000000000        0.0000000000000000     
  0.78125000000000000       0.65625000000000000        0.0000000000000000     
  0.81250000000000000       0.65625000000000000        0.0000000000000000     
  0.84375000000000000       0.65625000000000000        0.0000000000000000     
  0.87500000000000000       0.65625000000000000        0.0000000000000000     
  0.75000000000000000       0.68750000000000000        0.0000000000000000     
  0.78125000000000000       0.68750000000000000        0.0000000000000000     
  0.81250000000000000       0.68750000000000000        0.0000000000000000     
  0.84375000000000000       0.68750000000000000        0.0000000000000000     
  0.87500000000000000       0.68750000000000000        0.0000000000000000     
  0.75000000000000000       0.71875000000000000        0.0000000000000000     
  0.78125000000000000       0.71875000000000000        0.0000000000000000     
  0.81250000000000000       0.71875000000000000        0.0000000000000000     
  0.84375000000000000       0.71875000000000000        0.0000000000000000     
  0.87500000000000000       0.71875000000000000        0.0000000000000000     
  0.75000000000000000       0.75000000000000000        0.0000000000000000     
  0.78125000000000000       0.75000000000000000        0.0000000000000000     
  0.81250000000000000       0.75000000000000000        0.0000000000000000     
  0.84375000000000000       0.75000000000000000        0.0000000000000000     
  0.87500000000000000       0.75000000000000000        0.0000000000000000     
  0.87500000000000000       0.62500000000000000        0.0000000000000000     
  0.90625000000000000       0.62500000000000000        0.0000000000000000     
  0.93750000000000000       0.62500000000000000        0.0000000000000000     
  0.96875000000000000       0.62500000000000000        0.0000000000000000     
   1.0000000000000000       0.62500000000000000        0.0000000000000000     
  0.87500000000000000       0.65625000000000000        0.0000000000000000     
  0.90625000000000000       0.65625000000000000        0.0000000000000000     
  0.93750000000000000       0.65625000000000000        0.0000000000000000     
  0.96875000000000000       0.65625000000000000        0.0000000000000000     
   1.0000000000000000       0.65625000000000000        0.0000000000000000     
  0.87500000000000000       0.68750000000000000        0.0000000000000000     
  0.90625000000000000       0.68750000000000000        0.0000000000000000     
  0.93750000000000000       0.68750000000000000        0.0000000000000000     
  0.96875000000000000       0.68750000000000000        0.0000000000000000     
   1.0000000000000000       0.68750000000000000        0.0000000000000000     
  0.87500000000000000       0.71875000000000000        0.0000000000000000     
  0.90625000000000000       0.71875000000000000        0.0000000000000000     
  0.93750000000000000       0.71875000000000000        0.0000000000000000     
  0.96875000000000000       0.71875000000000000        0.0000000000000000     
   1.0000000000000000       0.71875000000000000        0.0000000000000000     
  0.87500000000000000       0.75000000000000000        0.0000000000000000     
  0.90625000000000000       0.75000000000000000        0.0000000000000000     
  0.93750000000000000       0.75000000000000000        0.0000000000000000     
  0.96875000000000000       0.75000000000000000        0.0000000000000000     
   1.0000000000000000       0.75000000000000000        0.0000000000000000     
   1.0000000000000000       0.62500000000000000        0.0000000000000000     
   1.0312500000000000       0.62500000000000000        0.0000000000000000     
   1.0625000000000000       0.62500000000000000        0.0000000000000000     
   1.0937500000000000       0.62500000000000000        0.0000000000000000     
   1.1250000000000000       0.62500000000000000        0.0000000000000000     
   1.0000000000000000       0.65625000000000000        0.0000000000000000     
   1.0312500000000000       0.65625000000000000        0.0000000000000000     
   1.0625000000000000       0.65625000000000000        0.0000000000000000     
   1.0937500000000000       0.65625000000000000        0.0000000000000000     
   1.1250000000000000       0.65625000000000000        0.0000000000000000     
   1.0000000000000000       0.68750000000000000        0.0000000000000000     
   1.0312500000000000       0.68750000000000000        0.0000000000000000     
   1.0625000000000000       0.68750000000000000        0.0000000000000000     
   1.0937500000000000       0.68750000000000000        0.0000000000000000     
   1.1250000000000000       0.68750000000000000        0.0000000000000000     
   1.0000000000000000       0.71875000000000000        0.0000000000000000     
   1.0312500000000000       0.71875000000000000        0.0000000000000000     
   1.0625000000000000       0.71875000000000000        0.0000000000000000     
   1.0937500000000000       0.71875000000000000        0.0000000000000000     
   1.1250000000000000       0.71875000000000000        0.0000000000000000     
   1.0000000000000000       0.75000000000000000        0.0000000000000000     
   1.0312500000000000       0.75000000000000000        0.0000000000000000     
   1.0625000000000000       0.75000000000000000        0.0000000000000000     
   1.0937500000000000       0.75000000000000000        0.0000000000000000     
   1.1250000000000000       0.75000000000000000        0.0000000000000000     
   1.1250000000000000       0.62500000000000000        0.0000000000000000     
   1.1562500000000000       0.62500000000000000        0.0000000000000000     
   1.1875000000000000       0.62500000000000000        0.0000000000000000     
   1.2187500000000000       0.62500000000000000        0.0000000000000000     
   1.2500000000000000       0.62500000000000000        0.0000000000000000     
   1.1250000000000000       0.65625000000000000        0.0000000000000000     
   1.1562500000000000       0.65625000000000000        0.0000000000000000     
   1.1875000000000000       0.65625000000000000        0.0000000000000000     
   1.2187500000000000       0.65625000000000000        0.0000000000000000     
   1.2500000000000000       0.65625000000000000        0.0000000000000000     
   1.1250000000000000       0.68750000000000000        0.0000000000000000     
   1.1562500000000000       0.68750000000000000        0.0000000000000000     
   1.1875000000000000       0.68750000000000000        0.0000000000000000     
   1.2187500000000000       0.68750000000000000        0.0000000000000000     
   1.2500000000000000       0.68750000000000000        0.0000000000000000     
   1.1250000000000000       0.71875000000000000        0.0000000000000000     
   1.1562500000000000       0.71875000000000000        0.0000000000000000     
   1.1875000000000000       0.71875000000000000        0.0000000000000000     
   1.2187500000000000       0.71875000000000000        0.0000000000000000     
   1.2500000000000000       0.71875000000000000        0.0000000000000000     
   1.1250000000000000       0.75000000000000000        0.0000000000000000     
   1.1562500000000000       0.75000000000000000        0.0000000000000000     
   1.1875000000000000       0.75000000000000000        0.0000000000000000     
   1.2187500000000000       0.75000000000000000        0.0000000000000000     
   1.2500000000000000       0.75000000000000000        0.0000000000000000     
   1.2500000000000000       0.62500000000000000        0.0000000000000000     
   1.2812500000000000       0.62500000000000000        0.0000000000000000     
   1.3125000000000000       0.62500000000000000        0.0000000000000000     
   1.3437500000000000       0.62500000000000000        0.0000000000000000     
   1.3750000000000000       0.62500000000000000        0.0000000000000000     
   1.2500000000000000       0.65625000000000000        0.0000000000000000     
   1.2812500000000000       0.65625000000000000        0.0000000000000000     
   1.3125000000000000       0.65625000000000000        0.0000000000000000     
   1.3437500000000000       0.65625000000000000        0.0000000000000000     
   1.3750000000000000       0.65625000000000000        0.0000000000000000     
   1.2500000000000000       0.68750000000000000        0.0000000000000000     
   1.2812500000000000       0.68750000000000000        0.0000000000000000     
   1.3125000000000000       0.68750000000000000        0.0000000000000000     
   1.3437500000000000       0.68750000000000000        0.0000000000000000     
   1.3750000000000000       0.68750000000000000        0.0000000000000000     
   1.2500000000000000       0.71875000000000000        0.0000000000000000     
   1.2812500000000000       0.71875000000000000        0.0000000000000000     
   1.3125000000000000       0.71875000000000000        0.0000000000000000     
   1.3437500000000000       0.71875000000000000        0.0000000000000000     
   1.3750000000000000       0.71875000000000000        0.0000000000000000     
   1.2500000000000000       0.75000000000000000        0.0000000000000000     
   1.2812500000000000       0.75000000000000000        0.0000000000000000     
   1.3125000000000000       0.75000000000000000        0.0000000000000000     
   1.3437500000000000       0.75000000000000000        0.0000000000000000     
   1.3750000000000000       0.75000000000000000        0.0000000000000000     
   1.3750000000000000       0.62500000000000000        0.0000000000000000     
   1.4062500000000000       0.62500000000000000        0.0000000000000000     
   1.4375000000000000       0.62500000000000000        0.0000000000000000     
   1.4687500000000000       0.62500000000000000        0.0000000000000000     
   1.5000000000000000       0.62500000000000000        0.0000000000000000     
   1.3750000000000000       0.65625000000000000        0.0000000000000000     
   1.4062500000000000       0.65625000000000000        0.0000000000000000     
   1.4375000000000000       0.65625000000000000        0.0000000000000000     
   1.4687500000000000       0.65625000000000000        0.0000000000000000     
   1.5000000000000000       0.65625000000000000        0.0000000000000000     
   1.3750000000000000       0.68750000000000000        0.0000000000000000     
   1.4062500000000000       0.68750000000000000        0.0000000000000000     
   1.4375000000000000       0.68750000000000000        0.0000000000000000     
   1.4687500000000000       0.68750000000000000        0.0000000000000000     
   1.5000000000000000       0.68750000000000000        0.0000000000000000     
   1.3750000000000000       0.71875000000000000        0.0000000000000000     
   1.4062500000000000       0.71875000000000000        0.0000000000000000     
   1.4375000000000000       0.71875000000000000        0.0000000000000000     
   1.4687500000000000       0.71875000000000000        0.0000000000000000     
   1.5000000000000000       0.71875000000000000        0.0000000000000000     
   1.3750000000000000       0.75000000000000000        0.0000000000000000     
   1.4062500000000000       0.75000000000000000        0.0000000000000000     
   1.4375000000000000       0.75000000000000000        0.0000000000000000     
   1.4687500000000000       0.75000000000000000        0.0000000000000000     
   1.5000000000000000       0.75000000000000000        0.0000000000000000     
  0.50000000000000000       0.75000000000000000        0.0000000000000000     
  0.53125000000000000       0.75000000000000000        0.0000000000000000     
  0.56250000000000000       0.75000000000000000        0.0000000000000000     
  0.59375000000000000       0.75000000000000000        0.0000000000000000     
  0.62500000000000000       0.75000000000000000        0.0000000000000000     
  0.50000000000000000       0.78125000000000000        0.0000000000000000     
  0.53125000000000000       0.78125000000000000        0.0000000000000000     
  0.56250000000000000       0.78125000000000000        0.0000000000000000     
  0.59375000000000000       0.78125000000000000        0.0000000000000000     
  0.62500000000000000       0.78125000000000000        0.0000000000000000     
  0.50000000000000000       0.81250000000000000        0.0000000000000000     
  0.53125000000000000       0.81250000000000000        0.0000000000000000     
  0.56250000000000000       0.81250000000000000        0.0000000000000000     
  0.59375000000000000       0.81250000000000000        0.0000000000000000     
  0.62500000000000000       0.81250000000000000        0.0000000000000000     
  0.50000000000000000       0.84375000000000000        0.0000000000000000     
  0.53125000000000000       0.84375000000000000        0.0000000000000000     
  0.56250000000000000       0.84375000000000000        0.0000000000000000     
  0.59375000000000000       0.84375000000000000        0.0000000000000000     
  0.62500000000000000       0.84375000000000000        0.0000000000000000     
  0.50000000000000000       0.87500000000000000        0.0000000000000000     
  0.53125000000000000       0.87500000000000000        0.0000000000000000     
  0.56250000000000000       0.87500000000000000        0.0000000000000000     
  0.59375000000000000       0.87500000000000000        0.0000000000000000     
  0.62500000000000000       0.87500000000000000        0.0000000000000000     
  0.62500000000000000       0.75000000000000000        0.0000000000000000     
  0.65625000000000000       0.75000000000000000        0.0000000000000000     
  0.68750000000000000       0.75000000000000000        0.0000000000000000     
  0.71875000000000000       0.75000000000000000        0.0000000000000000     
  0.75000000000000000       0.75000000000000000        0.0000000000000000     
  0.62500000000000000       0.78125000000000000        0.0000000000000000     
  0.65625000000000000       0.78125000000000000        0.0000000000000000     
  0.68750000000000000       0.78125000000000000        0.0000000000000000     
  0.71875000000000000       0.78125000000000000        0.0000000000000000     
  0.75000000000000000       0.78125000000000000        0.0000000000000000     
  0.62500000000000000       0.81250000000000000        0.0000000000000000     
  0.65625000000000000       0.81250000000000000        0.0000000000000000     
  0.68750000000000000       0.81250000000000000        0.0000000000000000     
  0.71875000000000000       0.81250000000000000        0.0000000000000000     
  0.75000000000000000       0.81250000000000000        0.0000000000000000     
  0.62500000000000000       0.84375000000000000        0.0000000000000000     
  0.65625000000000000       0.84375000000000000        0.0000000000000000     
  0.68750000000000000       0.84375000000000000        0.0000000000000000     
  0.71875000000000000       0.84375000000000000        0.0000000000000000     
  0.75000000000000000       0.84375000000000000        0.0000000000000000     
  0.62500000000000000       0.87500000000000000        0.0000000000000000     
  0.65625000000000000       0.87500000000000000        0.0000000000000000     
  0.68750000000000000       0.87500000000000000        0.0000000000000000     
  0.71875000000000000       0.87500000000000000        0.0000000000000000     
  0.75000000000000000       0.87500000000000000        0.0000000000000000     
  0.75000000000000000       0.75000000000000000        0.0000000000000000     
  0.78125000000000000       0.75000000000000000        0.0000000000000000     
  0.81250000000000000       0.75000000000000000        0.0000000000000000     
  0.84375000000000000       0.75000000000000000        0.0000000000000000     
  0.87500000000000000       0.75000000000000000        0.0000000000000000     
  0.75000000000000000       0.78125000000000000        0.0000000000000000     
  0.78125000000000000       0.78125000000000000        0.0000000000000000     
  0.81250000000000000       0.78125000000000000        0.0000000000000000     
  0.84375000000000000       0.78125000000000000        0.0000000000000000     
  0.87500000000000000       0.78125000000000000        0.0000000000000000     
  0.75000000000000000       0.81250000000000000        0.0000000000000000     
  0.78125000000000000       0.81250000000000000        0.0000000000000000     
  0.81250000000000000       0.81250000000000000        0.0000000000000000     
  0.84375000000000000       0.81250000000000000        0.0000000000000000     
  0.87500000000000000       0.81250000000000000        0.0000000000000000     
  0.75000000000000000       0.84375000000000000        0.0000000000000000     
  0.78125000000000000       0.84375000000000000        0.0000000000000000     
  0.81250000000000000       0.84375000000000000        0.0000000000000000     
  0.84375000000000000       0.84375000000000000        0.0000000000000000     
  0.87500000000000000       0.84375000000000000        0.0000000000000000     
  0.75000000000000000       0.87500000000000000        0.0000000000000000     
  0.78125000000000000       0.87500000000000000        0.0000000000000000     
  0.81250000000000000       0.87500000000000000        0.0000000000000000     
  0.84375000000000000       0.87500000000000000        0.0000000000000000     
  0.87500000000000000       0.87500000000000000        0.0000000000000000     
  0.87500000000000000       0.75000000000000000        0.0000000000000000     
  0.90625000000000000       0.75000000000000000        0.0000000000000000     
  0.93750000000000000       0.75000000000000000        0.0000000000000000     
  0.96875000000000000       0.75000000000000000        0.0000000000000000     
   1.0000000000000000       0.75000000000000000        0.0000000000000000     
  0.87500000000000000       0.78125000000000000        0.0000000000000000     
  0.90625000000000000       0.78125000000000000        0.0000000000000000     
  0.93750000000000000       0.78125000000000000        0.0000000000000000     
  0.96875000000000000       0.78125000000000000        0.0000000000000000     
   1.0000000000000000       0.78125000000000000        0.0000000000000000     
  0.87500000000000000       0.81250000000000000        0.0000000000000000     
  0.90625000000000000       0.81250000000000000        0.0000000000000000     
  0.93750000000000000       0.81250000000000000        0.0000000000000000     
  0.96875000000000000       0.81250000000000000        0.0000000000000000     
   1.0000000000000000       0.81250000000000000        0.0000000000000000     
  0.87500000000000000       0.84375000000000000        0.0000000000000000     
  0.90625000000000000       0.84375000000000000        0.0000000000000000     
  0.93750000000000000       0.84375000000000000        0.0000000000000000     
  0.96875000000000000       0.84375000000000000        0.0000000000000000     
   1.0000000000000000       0.84375000000000000        0.0000000000000000     
  0.87500000000000000       0.87500000000000000        0.0000000000000000     
  0.90625000000000000       0.87500000000000000        0.0000000000000000     
  0.93750000000000000       0.87500000000000000        0.0000000000000000     
  0.96875000000000000       0.87500000000000000        0.0000000000000000     
   1.0000000000000000       0.87500000000000000        0.0000000000000000     
   1.0000000000000000       0.75000000000000000        0.0000000000000000     
   1.0312500000000000       0.75000000000000000        0.0000000000000000     
   1.0625000000000000       0.75000000000000000        0.0000000000000000     
   1.0937500000000000       0.75000000000000000        0.0000000000000000     
   1.1250000000000000       0.75000000000000000        0.0000000000000000     
   1.0000000000000000       0.78125000000000000        0.0000000000000000     
   1.0312500000000000       0.78125000000000000        0.0000000000000000     
   1.0625000000000000       0.78125000000000000        0.0000000000000000     
   1.0937500000000000       0.78125000000000000        0.0000000000000000     
   1.1250000000000000       0.78125000000000000        0.0000000000000000     
   1.0000000000000000       0.81250000000000000        0.0000000000000000     
   1.0312500000000000       0.81250000000000000        0.0000000000000000     
   1.0625000000000000       0.81250000000000000        0.0000000000000000     
   1.0937500000000000       0.81250000000000000        0.0000000000000000     
   1.1250000000000000       0.81250000000000000        0.0000000000000000     
   1.0000000000000000       0.84375000000000000        0.0000000000000000     
   1.0312500000000000       0.84375000000000000        0.0000000000000000     
   1.0625000000000000       0.84375000000000000        0.0000000000000000     
   1.0937500000000000       0.84375000000000000        0.0000000000000000     
   1.1250000000000000       0.84375000000000000        0.0000000000000000     
   1.0000000000000000       0.87500000000000000        0.0000000000000000     
   1.0312500000000000       0.87500000000000000        0.0000000000000000     
   1.0625000000000000       0.87500000000000000        0.0000000000000000     
   1.0937500000000000       0.87500000000000000        0.0000000000000000     
   1.1250000000000000       0.87500000000000000        0.0000000000000000     
   1.1250000000000000       0.75000000000000000        0.0000000000000000     
   1.1562500000000000       0.75000000000000000        0.0000000000000000     
   1.1875000000000000       0.75000000000000000        0.0000000000000000     
   1.2187500000000000       0.75000000000000000        0.0000000000000000     
   1.2500000000000000       0.75000000000000000        0.0000000000000000     
   1.1250000000000000       0.78125000000000000        0.0000000000000000     
   1.1562500000000000       0.78125000000000000        0.0000000000000000     
   1.1875000000000000       0.78125000000000000        0.0000000000000000     
   1.2187500000000000       0.78125000000000000        0.0000000000000000     
   1.2500000000000000       0.78125000000000000        0.0000000000000000     
   1.1250000000000000       0.81250000000000000        0.0000000000000000     
   1.1562500000000000       0.81250000000000000        0.0000000000000000     
   1.1875000000000000       0.81250000000000000        0.0000000000000000     
   1.2187500000000000       0.81250000000000000        0.0000000000000000     
   1.2500000000000000       0.81250000000000000        0.0000000000000000     
   1.1250000000000000       0.84375000000000000        0.0000000000000000     
   1.1562500000000000       0.84375000000000000        0.0000000000000000     
   1.1875000000000000       0.84375000000000000        0.0000000000000000     
   1.2187500000000000       0.84375000000000000        0.0000000000000000     
   1.2500000000000000       0.84375000000000000        0.0000000000000000     
   1.1250000000000000       0.87500000000000000        0.0000000000000000     
   1.1562500000000000       0.87500000000000000        0.0000000000000000     
   1.1875000000000000       0.87500000000000000        0.0000000000000000     
   1.2187500000000000       0.87500000000000000        0.0000000000000000     
   1.2500000000000000       0.87500000000000000        0.0000000000000000     
   1.2500000000000000       0.75000000000000000        0.0000000000000000     
   1.2812500000000000       0.75000000000000000        0.0000000000000000     
   1.3125000000000000       0.75000000000000000        0.0000000000000000     
   1.3437500000000000       0.75000000000000000        0.0000000000000000     
   1.3750000000000000       0.75000000000000000        0.0000000000000000     
   1.2500000000000000       0.78125000000000000        0.0000000000000000     
   1.2812500000000000       0.78125000000000000        0.0000000000000000     
   1.3125000000000000       0.78125000000000000        0.0000000000000000     
   1.3437500000000000       0.78125000000000000        0.0000000000000000     
   1.3750000000000000       0.78125000000000000        0.0000000000000000     
   1.2500000000000000       0.81250000000000000        0.0000000000000000     
   1.2812500000000000       0.81250000000000000        0.0000000000000000     
   1.3125000000000000       0.81250000000000000        0.0000000000000000     
   1.3437500000000000       0.81250000000000000        0.0000000000000000     
   1.3750000000000000       0.81250000000000000        0.0000000000000000     
   1.2500000000000000       0.84375000000000000        0.0000000000000000     
   1.2812500000000000       0.84375000000000000        0.0000000000000000     
   1.3125000000000000       0.84375000000000000        0.0000000000000000     
   1.3437500000000000       0.84375000000000000        0.0000000000000000     
   1.3750000000000000       0.84375000000000000        0.0000000000000000     
   1.2500000000000000       0.87500000000000000        0.0000000000000000     
   1.2812500000000000       0.87500000000000000        0.0000000000000000     
   1.3125000000000000       0.87500000000000000        0.0000000000000000     
   1.3437500000000000       0.87500000000000000        0.0000000000000000     
   1.3750000000000000       0.87500000000000000        0.0000000000000000     
   1.3750000000000000       0.75000000000000000        0.0000000000000000     
   1.4062500000000000       0.75000000000000000        0.0000000000000000     
   1.4375000000000000       0.75000000000000000        0.0000000000000000     
   1.4687500000000000       0.75000000000000000        0.0000000000000000     
   1.5000000000000000       0.75000000000000000        0.0000000000000000     
   1.3750000000000000       0.78125000000000000        0.0000000000000000     
   1.4062500000000000       0.78125000000000000        0.0000000000000000     
   1.4375000000000000       0.78125000000000000        0.0000000000000000     
   1.4687500000000000       0.78125000000000000        0.0000000000000000     
   1.5000000000000000       0.78125000000000000        0.0000000000000000     
   1.3750000000000000       0.81250000000000000        0.0000000000000000     
   1.4062500000000000       0.81250000000000000        0.0000000000000000     
   1.4375000000000000       0.81250000000000000        0.0000000000000000     
   1.4687500000000000       0.81250000000000000        0.0000000000000000     
   1.5000000000000000       0.81250000000000000        0.0000000000000000     
   1.3750000000000000       0.84375000000000000        0.0000000000000000     
   1.4062500000000000       0.84375000000000000        0.0000000000000000     
   1.4375000000000000       0.84375000000000000        0.0000000000000000     
   1.4687500000000000       0.84375000000000000        0.0000000000000000     
   1.5000000000000000       0.84375000000000000        0.0000000000000000     
   1.3750000000000000       0.87500000000000000        0.0000000000000000     
   1.4062500000000000       0.87500000000000000        0.0000000000000000     
   1.4375000000000000       0.87500000000000000        0.0000000000000000     
   1.4687500000000000       0.87500000000000000        0.0000000000000000     
   1.5000000000000000       0.87500000000000000        0.0000000000000000     
  0.50000000000000000       0.87500000000000000        0.0000000000000000     
  0.53125000000000000       0.87500000000000000        0.0000000000000000     
  0.56250000000000000       0.87500000000000000        0.0000000000000000     
  0.59375000000000000       0.87500000000000000        0.0000000000000000     
  0.62500000000000000       0.87500000000000000        0.0000000000000000     
  0.50000000000000000       0.90625000000000000        0.0000000000000000     
  0.53125000000000000       0.90625000000000000        0.0000000000000000     
  0.56250000000000000       0.90625000000000000        0.0000000000000000     
  0.59375000000000000       0.90625000000000000        0.0000000000000000     
  0.62500000000000000       0.90625000000000000        0.0000000000000000     
  0.50000000000000000       0.93750000000000000        0.0000000000000000     
  0.53125000000000000       0.93750000000000000        0.0000000000000000     
  0.56250000000000000       0.93750000000000000        0.0000000000000000     
  0.59375000000000000       0.93750000000000000        0.0000000000000000     
  0.62500000000000000       0.93750000000000000        0.0000000000000000     
  0.50000000000000000       0.96875000000000000        0.0000000000000000     
  0.53125000000000000       0.96875000000000000        0.0000000000000000     
  0.56250000000000000       0.96875000000000000        0.0000000000000000     
  0.59375000000000000       0.96875000000000000        0.0000000000000000     
  0.62500000000000000       0.96875000000000000        0.0000000000000000     
  0.50000000000000000        1.0000000000000000        0.0000000000000000     
  0.53125000000000000        1.0000000000000000        0.0000000000000000     
  0.56250000000000000        1.0000000000000000        0.0000000000000000     
  0.59375000000000000        1.0000000000000000        0.0000000000000000     
  0.62500000000000000        1.0000000000000000        0.0000000000000000     
  0.62500000000000000       0.87500000000000000        0.0000000000000000     
  0.65625000000000000       0.87500000000000000        0.0000000000000000     
  0.68750000000000000       0.87500000000000000        0.0000000000000000     
  0.71875000000000000       0.87500000000000000        0.0000000000000000     
  0.75000000000000000       0.87500000000000000        0.0000000000000000     
  0.62500000000000000       0.90625000000000000        0.0000000000000000     
  0.65625000000000000       0.90625000000000000        0.0000000000000000     
  0.68750000000000000       0.90625000000000000        0.0000000000000000     
  0.71875000000000000       0.90625000000000000        0.0000000000000000     
  0.75000000000000000       0.90625000000000000        0.0000000000000000     
  0.62500000000000000       0.93750000000000000        0.0000000000000000     
  0.65625000000000000       0.93750000000000000        0.0000000000000000     
  0.68750000000000000       0.93750000000000000        0.0000000000000000     
  0.71875000000000000       0.93750000000000000        0.0000000000000000     
  0.75000000000000000       0.93750000000000000        0.0000000000000000     
  0.62500000000000000       0.96875000000000000        0.0000000000000000     
  0.65625000000000000       0.96875000000000000        0.0000000000000000     
  0.68750000000000000       0.96875000000000000        0.0000000000000000     
  0.71875000000000000       0.96875000000000000        0.0000000000000000     
  0.75000000000000000       0.96875000000000000        0.0000000000000000     
  0.62500000000000000        1.0000000000000000        0.0000000000000000     
  0.65625000000000000        1.0000000000000000        0.0000000000000000     
  0.68750000000000000        1.0000000000000000        0.0000000000000000     
  0.71875000000000000        1.0000000000000000        0.0000000000000000     
  0.75000000000000000        1.0000000000000000        0.0000000000000000     
  0.75000000000000000       0.87500000000000000        0.0000000000000000     
  0.78125000000000000       0.87500000000000000        0.0000000000000000     
  0.81250000000000000       0.87500000000000000        0.0000000000000000     
  0.84375000000000000       0.87500000000000000        0.0000000000000000     
  0.87500000000000000       0.87500000000000000        0.0000000000000000     
  0.75000000000000000       0.90625000000000000        0.0000000000000000     
  0.78125000000000000       0.90625000000000000        0.0000000000000000     
  0.81250000000000000       0.90625000000000000        0.0000000000000000     
  0.84375000000000000       0.90625000000000000        0.0000000000000000     
  0.87500000000000000       0.90625000000000000        0.0000000000000000     
  0.75000000000000000       0.93750000000000000        0.0000000000000000     
  0.78125000000000000       0.93750000000000000        0.0000000000000000     
  0.81250000000000000       0.93750000000000000        0.0000000000000000     
  0.84375000000000000       0.93750000000000000        0.0000000000000000     
  0.87500000000000000       0.93750000000000000        0.0000000000000000     
  0.75000000000000000       0.96875000000000000        0.0000000000000000     
  0.78125000000000000       0.96875000000000000        0.0000000000000000     
  0.81250000000000000       0.96875000000000000        0.0000000000000000     
  0.84375000000000000       0.96875000000000000        0.0000000000000000     
  0.87500000000000000       0.96875000000000000        0.0000000000000000     
  0.75000000000000000        1.0000000000000000        0.0000000000000000     
  0.78125000000000000        1.0000000000000000        0.0000000000000000     
  0.81250000000000000        1.0000000000000000        0.0000000000000000     
  0.84375000000000000        1.0000000000000000        0.0000000000000000     
  0.87500000000000000        1.0000000000000000        0.0000000000000000     
  0.87500000000000000       0.87500000000000000        0.0000000000000000     
  0.90625000000000000       0.87500000000000000        0.0000000000000000     
  0.93750000000000000       0.87500000000000000        0.0000000000000000     
  0.96875000000000000       0.87500000000000000        0.0000000000000000     
   1.0000000000000000       0.87500000000000000        0.0000000000000000     
  0.87500000000000000       0.90625000000000000        0.0000000000000000     
  0.90625000000000000       0.90625000000000000        0.0000000000000000     
  0.93750000000000000       0.90625000000000000        0.0000000000000000     
  0.96875000000000000       0.90625000000000000        0.0000000000000000     
   1.0000000000000000       0.90625000000000000        0.0000000000000000     
  0.87500000000000000       0.93750000000000000        0.0000000000000000     
  0.90625000000000000       0.93750000000000000        0.0000000000000000     
  0.93750000000000000       0.93750000000000000        0.0000000000000000     
  0.96875000000000000       0.93750000000000000        0.0000000000000000     
   1.0000000000000000       0.93750000000000000        0.0000000000000000     
  0.87500000000000000       0.96875000000000000        0.0000000000000000     
  0.90625000000000000       0.96875000000000000        0.0000000000000000     
  0.93750000000000000       0.96875000000000000        0.0000000000000000     
  0.96875000000000000       0.96875000000000000        0.0000000000000000     
   1.0000000000000000       0.96875000000000000        0.0000000000000000     
  0.87500000000000000        1.0000000000000000        0.0000000000000000     
  0.90625000000000000        1.0000000000000000        0.0000000000000000     
  0.93750000000000000        1.0000000000000000        0.0000000000000000     
  0.96875000000000000        1.0000000000000000        0.0000000000000000     
   1.0000000000000000        1.0000000000000000        0.0000000000000000     
   1.0000000000000000       0.87500000000000000        0.0000000000000000     
   1.0312500000000000       0.87500000000000000        0.0000000000000000     
   1.0625000000000000       0.87500000000000000        0.0000000000000000     
   1.0937500000000000       0.87500000000000000        0.0000000000000000     
   1.1250000000000000       0.87500000000000000        0.0000000000000000     
   1.0000000000000000       0.90625000000000000        0.0000000000000000     
   1.0312500000000000       0.90625000000000000        0.0000000000000000     
   1.0625000000000000       0.90625000000000000        0.0000000000000000     
   1.0937500000000000       0.90625000000000000        0.0000000000000000     
   1.1250000000000000       0.90625000000000000        0.0000000000000000     
   1.0000000000000000       0.93750000000000000        0.0000000000000000     
   1.0312500000000000       0.93750000000000000        0.0000000000000000     
   1.0625000000000000       0.93750000000000000        0.0000000000000000     
   1.0937500000000000       0.93750000000000000        0.0000000000000000     
   1.1250000000000000       0.93750000000000000        0.0000000000000000     
   1.0000000000000000       0.96875000000000000        0.0000000000000000     
   1.0312500000000000       0.96875000000000000        0.0000000000000000     
   1.0625000000000000       0.96875000000000000        0.0000000000000000     
   1.0937500000000000       0.96875000000000000        0.0000000000000000     
   1.1250000000000000       0.96875000000000000        0.0000000000000000     
   1.0000000000000000        1.0000000000000000        0.0000000000000000     
   1.0312500000000000        1.0000000000000000        0.0000000000000000     
   1.0625000000000000        1.0000000000000000        0.0000000000000000     
   1.0937500000000000        1.0000000000000000        0.0000000000000000     
   1.1250000000000000        1.0000000000000000        0.0000000000000000     
   1.1250000000000000       0.87500000000000000        0.0000000000000000     
   1.1562500000000000       0.87500000000000000        0.0000000000000000     
   1.1875000000000000       0.87500000000000000        0.0000000000000000     
   1.2187500000000000       0.87500000000000000        0.0000000000000000     
   1.2500000000000000       0.87500000000000000        0.0000000000000000     
   1.1250000000000000       0.90625000000000000        0.0000000000000000     
   1.1562500000000000       0.90625000000000000        0.0000000000000000     
   1.1875000000000000       0.90625000000000000        0.0000000000000000     
   1.2187500000000000       0.90625000000000000        0.0000000000000000     
   1.2500000000000000       0.90625000000000000        0.0000000000000000     
   1.1250000000000000       0.93750000000000000        0.0000000000000000     
   1.1562500000000000       0.93750000000000000        0.0000000000000000     
   1.1875000000000000       0.93750000000000000        0.0000000000000000     
   1.2187500000000000       0.93750000000000000        0.0000000000000000     
   1.2500000000000000       0.93750000000000000        0.0000000000000000     
   1.1250000000000000       0.96875000000000000        0.0000000000000000     
   1.1562500000000000       0.96875000000000000        0.0000000000000000     
   1.1875000000000000       0.96875000000000000        0.0000000000000000     
   1.2187500000000000       0.96875000000000000        0.0000000000000000     
   1.2500000000000000       0.96875000000000000        0.0000000000000000     
   1.1250000000000000        1.0000000000000000        0.0000000000000000     
   1.1562500000000000        1.0000000000000000        0.0000000000000000     
   1.1875000000000000        1.0000000000000000        0.0000000000000000     
   1.2187500000000000        1.0000000000000000        0.0000000000000000     
   1.2500000000000000        1.0000000000000000        0.0000000000000000     
   1.2500000000000000       0.87500000000000000        0.0000000000000000     
   1.2812500000000000       0.87500000000000000        0.0000000000000000     
   1.3125000000000000       0.87500000000000000        0.0000000000000000     
   1.3437500000000000       0.87500000000000000        0.0000000000000000     
   1.3750000000000000       0.87500000000000000        0.0000000000000000     
   1.2500000000000000       0.90625000000000000        0.0000000000000000     
   1.2812500000000000       0.90625000000000000        0.0000000000000000     
   1.3125000000000000       0.90625000000000000        0.0000000000000000     
   1.3437500000000000       0.90625000000000000        0.0000000000000000     
   1.3750000000000000       0.90625000000000000        0.0000000000000000     
   1.2500000000000000       0.93750000000000000        0.0000000000000000     
   1.2812500000000000       0.93750000000000000        0.0000000000000000     
   1.3125000000000000       0.93750000000000000        0.0000000000000000     
   1.3437500000000000       0.93750000000000000        0.0000000000000000     
   1.3750000000000000       0.93750000000000000        0.0000000000000000     
   1.2500000000000000       0.96875000000000000        0.0000000000000000     
   1.2812500000000000       0.96875000000000000        0.0000000000000000     
   1.3125000000000000       0.96875000000000000        0.0000000000000000     
   1.3437500000000000       0.96875000000000000        0.0000000000000000     
   1.3750000000000000       0.96875000000000000        0.0000000000000000     
   1.2500000000000000        1.0000000000000000        0.0000000000000000     
   1.2812500000000000        1.0000000000000000        0.0000000000000000     
   1.3125000000000000        1.0000000000000000        0.0000000000000000     
   1.3437500000000000        1.0000000000000000        0.0000000000000000     
   1.3750000000000000        1.0000000000000000        0.0000000000000000     
   1.3750000000000000       0.87500000000000000        0.0000000000000000     
   1.4062500000000000       0.87500000000000000        0.0000000000000000     
   1.4375000000000000       0.87500000000000000        0.0000000000000000     
   1.4687500000000000       0.87500000000000000        0.0000000000000000     
   1.5000000000000000       0.87500000000000000        0.0000000000000000     
   1.3750000000000000       0.90625000000000000        0.0000000000000000     
   1.4062500000000000       0.90625000000000000        0.0000000000000000     
   1.4375000000000000       0.90625000000000000        0.0000000000000000     
   1.4687500000000000       0.90625000000000000        0.0000000000000000     
   1.5000000000000000       0.90625000000000000        0.0000000000000000     
   1.3750000000000000       0.93750000000000000        0.0000000000000000     
   1.4062500000000000       0.93750000000000000        0.0000000000000000     
   1.4375000000000000       0.93750000000000000        0.0000000000000000     
   1.4687500000000000       0.93750000000000000        0.0000000000000000     
   1.5000000000000000       0.93750000000000000        0.0000000000000000     
   1.3750000000000000       0.96875000000000000        0.0000000000000000     
   1.4062500000000000       0.96875000000000000        0.0000000000000000     
   1.4375000000000000       0.96875000000000000        0.0000000000000000     
   1.4687500000000000       0.96875000000000000        0.0000000000000000     
   1.5000000000000000       0.96875000000000000        0.0000000000000000     
   1.3750000000000000        1.0000000000000000        0.0000000000000000     
   1.4062500000000000        1.0000000000000000        0.0000000000000000     
   1.4375000000000000        1.0000000000000000        0.0000000000000000     
   1.4687500000000000        1.0000000000000000        0.0000000000000000     
   1.5000000000000000        1.0000000000000000        0.0000000000000000     
 </DataArray>
 </Points>
 <Cells>
 <DataArray  type="Int32"  Name="connectivity"  format="ascii">
           0           1           6           5
           1           2           7           6
           2           3           8           7
           3           4           9           8
           5           6          11          10
           6           7          12          11
           7           8          13          12
           8           9          14          13
          10          11          16          15
          11          12          17          16
          12          13          18          17
          13          14          19          18
          15          16          21          20
          16          17          22          21
          17          18          23          22
          18          19          24          23
          25          26          31          30
          26          27          32          31
          27          28          33          32
          28          29          34          33
          30          31          36          35
          31          32          37          36
          32          33          38          37
          33          34          39          38
          35          36          41          40
          36          37          42          41
          37          38          43          42
          38          39          44          43
          40          41          46          45
          41          42          47          46
          42          43          48          47
          43          44          49          48
          50          51          56          55
          51          52          57          56
          52          53          58          57
          53          54          59          58
          55          56          61          60
          56          57          62          61
          57          58          63          62
          58          59          64          63
          60          61          66          65
          61          62          67          66
          62          63          68          67
          63          64          69          68
          65          66          71          70
          66          67          72          71
          67          68          73          72
          68          69          74          73
          75          76          81          80
          76          77          82          81
          77          78          83          82
          78          79          84          83
          80          81          86          85
          81          82          87          86
          82          83          88          87
          83          84          89          88
          85          86          91          90
          86          87          92          91
          87          88          93          92
          88          89          94          93
          90          91          96          95
          91          92          97          96
          92          93          98          97
          93          94          99          98
         100         101         106         105
         101         102         107         106
         102         103         108         107
         103         104         109         108
         105         106         111         110
         106         107         112         111
         107         108         113         112
         108         109         114         113
         110         111         116         115
         111         112         117         116
         112         113         118         117
         113         114         119         118
         115         116         121         120
         116         117         122         121
         117         118         123         122
         118         119         124         123
         125         126         131         130
         126         127         132         131
         127         128         133         132
         128         129         134         133
         130         131         136         135
         131         132         137         136
         132         133         138         137
         133         134         139         138
         135         136         141         140
         136         137         142         141
         137         138         143         142
         138         139         144         143
         140         141         146         145
         141         142         147         146
         142         143         148         147
         143         144         149         148
         150         151         156         155
         151         152         157         156
         152         153         158         157
         153         154         159         158
         155         156         161         160
         156         157         162         161
         157         158         163         162
         158         159         164         163
         160         161         166         165
         161         162         167         166
         162         163         168         167
         163         164         169         168
         165         166         171         170
         166         167         172         171
         167         168         173         172
         168         169         174         173
         175         176         181         180
         176         177         182         181
         177         178         183         182
         178         179         184         183
         180         181         186         185
         181         182         187         186
         182         183         188         187
         183         184         189         188
         185         186         191         190
         186         187         192         191
         187         188         193         192
         188         189         194         193
         190         191         196         195
         191         192         197         196
         192         193         198         197
         193         194         199         198
         200         201         206         205
         201         202         207         206
         202         203         208         207
         203         204         209         208
         205         206         211         210
         206         207         212         211
         207         208         213         212
         208         209         214         213
         210         211         216         215
         211         212         217         216
         212         213         218         217
         213         214         219         218
         215         216         221         220
         216         217         222         221
         217         218         223         222
         218         219         224         223
         225         226         231         230
         226         227         232         231
         227         228         233         232
         228         229         234         233
         230         231         236         235
         231         232         237         236
         232         233         238         237
         233         234         239         238
         235         236         241         240
         236         237         242         241
         237         238         243         242
         238         239         244         243
         240         241         246         245
         241         242         247         246
         242         243         248         247
         243         244         249         248
         250         251         256         255
         251         252         257         256
         252         253         258         257
         253         254         259         258
         255         256         261         260
         256         257         262         261
         257         258         263         262
         258         259         264         263
         260         261         266         265
         261         262         267         266
         262         263         268         267
         263         264         269         268
         265         266         271         270
         266         267         272         271
         267         268         273         272
         268         269         274         273
         275         276         281         280
         276         277         282         281
         277         278         283         282
         278         279         284         283
         280         281         286         285
         281         282         287         286
         282         283         288         287
         283         284         289         288
         285         286         291         290
         286         287         292         291
         287         288         293         292
         288         289         294         293
         290         291         296         295
         291         292         297         296
         292         293         298         297
         293         294         299         298
         300         301         306         305
         301         302         307         306
         302         303         308         307
         303         304         309         308
         305         306         311         310
         306         307         312         311
         307         308         313         312
         308         309         314         313
         310         311         316         315
         311         312         317         316
         312         313         318         317
         313         314         319         318
         315         316         321         320
         316         317         322         321
         317         318         323         322
         318         319         324         323
         325         326         331         330
         326         327         332         331
         327         328         333         332
         328         329         334         333
         330         331         336         335
         331         332         337         336
         332         333         338         337
         333         334         339         338
         335         336         341         340
         336         337         342         341
         337         338         343         342
         338         339         344         343
         340         341         346         345
         341         342         347         346
         342         343         348         347
         343         344         349         348
         350         351         356         355
         351         352         357         356
         352         353         358         357
         353         354         359         358
         355         356         361         360
         356         357         362         361
         357         358         363         362
         358         359         364         363
         360         361         366         365
         361         362         367         366
         362         363         368         367
         363         364         369         368
         365         366         371         370
         366         367         372         371
         367         368         373         372
         368         369         374         373
         375         376         381         380
         376         377         382         381
         377         378         383         382
         378         379         384         383
         380         381         386         385
         381         382         387         386
         382         383         388         387
         383         384         389         388
         385         386         391         390
         386         387         392         391
         387         388         393         392
         388         389         394         393
         390         391         396         395
         391         392         397         396
         392         393         398         397
         393         394         399         398
         400         401         406         405
         401         402         407         406
         402         403         408         407
         403         404         409         408
         405         406         411         410
         406         407         412         411
         407         408         413         412
         408         409         414         413
         410         411         416         415
         411         412         417         416
         412         413         418         417
         413         414         419         418
         415         416         421         420
         416         417         422         421
         417         418         423         422
         418         419         424         423
         425         426         431         430
         426         427         432         431
         427         428         433         432
         428         429         434         433
         430         431         436         435
         431         432         437         436
         432         433         438         437
         433         434         439         438
         435         436         441         440
         436         437         442         441
         437         438         443         442
         438         439         444         443
         440         441         446         445
         441         442         447         446
         442         443         448         447
         443         444         449         448
         450         451         456         455
         451         452         457         456
         452         453         458         457
         453         454         459         458
         455         456         461         460
         456         457         462         461
         457         458         463         462
         458         459         464         463
         460         461         466         465
         461         462         467         466
         462         463         468         467
         463         464         469         468
         465         466         471         470
         466         467         472         471
         467         468         473         472
         468         469         474         473
         475         476         481         480
         476         477         482         481
         477         478         483         482
         478         479         484         483
         480         481         486         485
         481         482         487         486
         482         483         488         487
         483         484         489         488
         485         486         491         490
         486         487         492         491
         487         488         493         492
         488         489         494         493
         490         491         496         495
         491         492         497         496
         492         493         498         497
         493         494         499         498
         500         501         506         505
         501         502         507         506
         502         503         508         507
         503         504         509         508
         505         506         511         510
         506         507         512         511
         507         508         513         512
         508         509         514         513
         510         511         516         515
         511         512         517         516
         512         513         518         517
         513         514         519         518
         515         516         521         520
         516         517         522         521
         517         518         523         522
         518         519         524         523
         525         526         531         530
         526         527         532         531
         527         528         533         532
         528         529         534         533
         530         531         536         535
         531         532         537         536
         532         533         538         537
         533         534         539         538
         535         536         541         540
         536         537         542         541
         537         538         543         542
         538         539         544         543
         540         541         546         545
         541         542         547         546
         542         543         548         547
         543         544         549         548
         550         551         556         555
         551         552         557         556
         552         553         558         557
         553         554         559         558
         555         556         561         560
         556         557         562         561
         557         558         563         562
         558         559         564         563
         560         561         566         565
         561         562         567         566
         562         563         568         567
         563         564         569         568
         565         566         571         570
         566         567         572         571
         567         568         573         572
         568         569         574         573
         575         576         581         580
         576         577         582         581
         577         578         583         582
         578         579         584         583
         580         581         586         585
         581         582         587         586
         582         583         588         587
         583         584         589         588
         585         586         591         590
         586         587         592         591
         587         588         593         592
         588         589         594         593
         590         591         596         595
         591         592         597         596
         592         593         598         597
         593         594         599         598
         600         601         606         605
         601         602         607         606
         602         603         608         607
         603         604         609         608
         605         606         611         610
         606         607         612         611
         607         608         613         612
         608         609         614         613
         610         611         616         615
         611         612         617         616
         612         613         618         617
         613         614         619         618
         615         616         621         620
         616         617         622         621
         617         618         623         622
         618         619         624         623
         625         626         631         630
         626         627         632         631
         627         628         633         632
         628         629         634         633
         630         631         636         635
         631         632         637         636
         632         633         638         637
         633         634         639         638
         635         636         641         640
         636         637         642         641
         637         638         643         642
         638         639         644         643
         640         641         646         645
         641         642         647         646
         642         643         648         647
         643         644         649         648
         650         651         656         655
         651         652         657         656
         652         653         658         657
         653         654         659         658
         655         656         661         660
         656         657         662         661
         657         658         663         662
         658         659         664         663
         660         661         666         665
         661         662         667         666
         662         663         668         667
         663         664         669         668
         665         666         671         670
         666         667         672         671
         667         668         673         672
         668         669         674         673
         675         676         681         680
         676         677         682         681
         677         678         683         682
         678         679         684         683
         680         681         686         685
         681         682         687         686
         682         683         688         687
         683         684         689         688
         685         686         691         690
         686         687         692         691
         687         688         693         692
         688         689         694         693
         690         691         696         695
         691         692         697         696
         692         693         698         697
         693         694         699         698
         700         701         706         705
         701         702         707         706
         702         703         708         707
         703         704         709         708
         705         706         711         710
         706         707         712         711
         707         708         713         712
         708         709         714         713
         710         711         716         715
         711         712         717         716
         712         713         718         717
         713         714         719         718
         715         716         721         720
         716         717         722         721
         717         718         723         722
         718         719         724         723
         725         726         731         730
         726         727         732         731
         727         728         733         732
         728         729         734         733
         730         731         736         735
         731         732         737         736
         732         733         738         737
         733         734         739         738
         735         736         741         740
         736         737         742         741
         737         738         743         742
         738         739         744         743
         740         741         746         745
         741         742         747         746
         742         743         748         747
         743         744         749         748
         750         751         756         755
         751         752         757         756
         752         753         758         757
         753         754         759         758
         755         756         761         760
         756         757         762         761
         757         758         763         762
         758         759         764         763
         760         761         766         765
         761         762         767         766
         762         763         768         767
         763         764         769         768
         765         766         771         770
         766         767         772         771
         767         768         773         772
         768         769         774         773
         775         776         781         780
         776         777         782         781
         777         778         783         782
         778         779         784         783
         780         781         786         785
         781         782         787         786
         782         783         788         787
         783         784         789         788
         785         786         791         790
         786         787         792         791
         787         788         793         792
         788         789         794         793
         790         791         796         795
         791         792         797         796
         792         793         798         797
         793         794         799         798
         800         801         806         805
         801         802         807         806
         802         803         808         807
         803         804         809         808
         805         806         811         810
         806         807         812         811
         807         808         813         812
         808         809         814         813
         810         811         816         815
         811         812         817         816
         812         813         818         817
         813         814         819         818
         815         816         821         820
         816         817         822         821
         817         818         823         822
         818         819         824         823
         825         826         831         830
         826         827         832         831
         827         828         833         832
         828         829         834         833
         830         831         836         835
         831         832         837         836
         832         833         838         837
         833         834         839         838
         835         836         841         840
         836         837         842         841
         837         838         843         842
         838         839         844         843
         840         841         846         845
         841         842         847         846
         842         843         848         847
         843         844         849         848
         850         851         856         855
         851         852         857         856
         852         853         858         857
         853         854         859         858
         855         856         861         860
         856         857         862         861
         857         858         863         862
         858         859         864         863
         860         861         866         865
         861         862         867         866
         862         863         868         867
         863         864         869         868
         865         866         871         870
         866         867         872         871
         867         868         873         872
         868         869         874         873
         875         876         881         880
         876         877         882         881
         877         878         883         882
         878         879         884         883
         880         881         886         885
         881         882         887         886
         882         883         888         887
         883         884         889         888
         885         886         891         890
         886         887         892         891
         887         888         893         892
         888         889         894         893
         890         891         896         895
         891         892         897         896
         892         893         898         897
         893         894         899         898
         900         901         906         905
         901         902         907         906
         902         903         908         907
         903         904         909         908
         905         906         911         910
         906         907         912         911
         907         908         913         912
         908         909         914         913
         910         911         916         915
         911         912         917         916
         912         913         918         917
         913         914         919         918
         915         916         921         920
         916         917         922         921
         917         918         923         922
         918         919         924         923
         925         926         931         930
         926         927         932         931
         927         928         933         932
         928         929         934         933
         930         931         936         935
         931         932         937         936
         932         933         938         937
         933         934         939         938
         935         936         941         940
         936         937         942         941
         937         938         943         942
         938         939         944         943
         940         941         946         945
         941         942         947         946
         942         943         948         947
         943         944         949         948
         950         951         956         955
         951         952         957         956
         952         953         958         957
         953         954         959         958
         955         956         961         960
         956         957         962         961
         957         958         963         962
         958         959         964         963
         960         961         966         965
         961         962         967         966
         962         963         968         967
         963         964         969         968
         965         966         971         970
         966         967         972         971
         967         968         973         972
         968         969         974         973
         975         976         981         980
         976         977         982         981
         977         978         983         982
         978         979         984         983
         980         981         986         985
         981         982         987         986
         982         983         988         987
         983         984         989         988
         985         986         991         990
         986         987         992         991
         987         988         993         992
         988         989         994         993
         990         991         996         995
         991         992         997         996
         992         993         998         997
         993         994         999         998
        1000        1001        1006        1005
        1001        1002        1007        1006
        1002        1003        1008        1007
        1003        1004        1009        1008
        1005        1006        1011        1010
        1006        1007        1012        1011
        1007        1008        1013        1012
        1008        1009        1014        1013
        1010        1011        1016        1015
        1011        1012        1017        1016
        1012        1013        1018        1017
        1013        1014        1019        1018
        1015        1016        1021        1020
        1016        1017        1022        1021
        1017        1018        1023        1022
        1018        1019        1024        1023
        1025        1026        1031        1030
        1026        1027        1032        1031
        1027        1028        1033        1032
        1028        1029        1034        1033
        1030        1031        1036        1035
        1031        1032        1037        1036
        1032        1033        1038        1037
        1033        1034        1039        1038
        1035        1036        1041        1040
        1036        1037        1042        1041
        1037        1038        1043        1042
        1038        1039        1044        1043
        1040        1041        1046        1045
        1041        1042        1047        1046
        1042        1043        1048        1047
        1043        1044        1049        1048
        1050        1051        1056        1055
        1051        1052        1057        1056
        1052        1053        1058        1057
        1053        1054        1059        1058
        1055        1056        1061        1060
        1056        1057        1062        1061
        1057        1058        1063        1062
        1058        1059        1064        1063
        1060        1061        1066        1065
        1061        1062        1067        1066
        1062        1063        1068        1067
        1063        1064        1069        1068
        1065        1066        1071        1070
        1066        1067        1072        1071
        1067        1068        1073        1072
        1068        1069        1074        1073
        1075        1076        1081        1080
        1076        1077        1082        1081
        1077        1078        1083        1082
        1078        1079        1084        1083
        1080        1081        1086        1085
        1081        1082        1087        1086
        1082        1083        1088        1087
        1083        1084        1089        1088
        1085        1086        1091        1090
        1086        1087        1092        1091
        1087        1088        1093        1092
        1088        1089        1094        1093
        1090        1091        1096        1095
        1091        1092        1097        1096
        1092        1093        1098        1097
        1093        1094        1099        1098
        1100        1101        1106        1105
        1101        1102        1107        1106
        1102        1103        1108        1107
        1103        1104        1109        1108
        1105        1106        1111        1110
        1106        1107        1112        1111
        1107        1108        1113        1112
        1108        1109        1114        1113
        1110        1111        1116        1115
        1111        1112        1117        1116
        1112        1113        1118        1117
        1113        1114        1119        1118
        1115        1116        1121        1120
        1116        1117        1122        1121
        1117        1118        1123        1122
        1118        1119        1124        1123
        1125        1126        1131        1130
        1126        1127        1132        1131
        1127        1128        1133        1132
        1128        1129        1134        1133
        1130        1131        1136        1135
        1131        1132        1137        1136
        1132        1133        1138        1137
        1133        1134        1139        1138
        1135        1136        1141        1140
        1136        1137        1142        1141
        1137        1138        1143        1142
        1138        1139        1144        1143
        1140        1141        1146        1145
        1141        1142        1147        1146
        1142        1143        1148        1147
        1143        1144        1149        1148
        1150        1151        1156        1155
        1151        1152        1157        1156
        1152        1153        1158        1157
        1153        1154        1159        1158
        1155        1156        1161        1160
        1156        1157        1162        1161
        1157        1158        1163        1162
        1158        1159        1164        1163
        1160        1161        1166        1165
        1161        1162        1167        1166
        1162        1163        1168        1167
        1163        1164        1169        1168
        1165        1166        1171        1170
        1166        1167        1172        1171
        1167        1168        1173        1172
        1168        1169        1174        1173
        1175        1176        1181        1180
        1176        1177        1182        1181
        1177        1178        1183        1182
        1178        1179        1184        1183
        1180        1181        1186        1185
        1181        1182        1187        1186
        1182        1183        1188        1187
        1183        1184        1189        1188
        1185        1186        1191        1190
        1186        1187        1192        1191
        1187        1188        1193        1192
        1188        1189        1194        1193
        1190        1191        1196        1195
        1191        1192        1197        1196
        1192        1193        1198        1197
        1193        1194        1199        1198
        1200        1201        1206        1205
        1201        1202        1207        1206
        1202        1203        1208        1207
        1203        1204        1209        1208
        1205        1206        1211        1210
        1206        1207        1212        1211
        1207        1208        1213        1212
        1208        1209        1214        1213
        1210        1211        1216        1215
        1211        1212        1217        1216
        1212        1213        1218        1217
        1213        1214        1219        1218
        1215        1216        1221        1220
        1216        1217        1222        1221
        1217        1218        1223        1222
        1218        1219        1224        1223
        1225        1226        1231        1230
        1226        1227        1232        1231
        1227        1228        1233        1232
        1228        1229        1234        1233
        1230        1231        1236        1235
        1231        1232        1237        1236
        1232        1233        1238        1237
        1233        1234        1239        1238
        1235        1236        1241        1240
        1236        1237        1242        1241
        1237        1238        1243        1242
        1238        1239        1244        1243
        1240        1241        1246        1245
        1241        1242        1247        1246
        1242        1243        1248        1247
        1243        1244        1249        1248
        1250        1251        1256        1255
        1251        1252        1257        1256
        1252        1253        1258        1257
        1253        1254        1259        1258
        1255        1256        1261        1260
        1256        1257        1262        1261
        1257        1258        1263        1262
        1258        1259        1264        1263
        1260        1261        1266        1265
        1261        1262        1267        1266
        1262        1263        1268        1267
        1263        1264        1269        1268
        1265        1266        1271        1270
        1266        1267        1272        1271
        1267        1268        1273        1272
        1268        1269        1274        1273
        1275        1276        1281        1280
        1276        1277        1282        1281
        1277        1278        1283        1282
        1278        1279        1284        1283
        1280        1281        1286        1285
        1281        1282        1287        1286
        1282        1283        1288        1287
        1283        1284        1289        1288
        1285        1286        1291        1290
        1286        1287        1292        1291
        1287        1288        1293        1292
        1288        1289        1294        1293
        1290        1291        1296        1295
        1291        1292        1297        1296
        1292        1293        1298        1297
        1293        1294        1299        1298
        1300        1301        1306        1305
        1301        1302        1307        1306
        1302        1303        1308        1307
        1303        1304        1309        1308
        1305        1306        1311        1310
        1306        1307        1312        1311
        1307        1308        1313        1312
        1308        1309        1314        1313
        1310        1311        1316        1315
        1311        1312        1317        1316
        1312        1313        1318        1317
        1313        1314        1319        1318
        1315        1316        1321        1320
        1316        1317        1322        1321
        1317        1318        1323        1322
        1318        1319        1324        1323
        1325        1326        1331        1330
        1326        1327        1332        1331
        1327        1328        1333        1332
        1328        1329        1334        1333
        1330        1331        1336        1335
        1331        1332        1337        1336
        1332        1333        1338        1337
        1333        1334        1339        1338
        1335        1336        1341        1340
        1336        1337        1342        1341
        1337        1338        1343        1342
        1338        1339        1344        1343
        1340        1341        1346        1345
        1341        1342        1347        1346
        1342        1343        1348        1347
        1343        1344        1349        1348
        1350        1351        1356        1355
        1351        1352        1357        1356
        1352        1353        1358        1357
        1353        1354        1359        1358
        1355        1356        1361        1360
        1356        1357        1362        1361
        1357        1358        1363        1362
        1358        1359        1364        1363
        1360        1361        1366        1365
        1361        1362        1367        1366
        1362        1363        1368        1367
        1363        1364        1369        1368
        1365        1366        1371        1370
        1366        1367        1372        1371
        1367        1368        1373        1372
        1368        1369        1374        1373
        1375        1376        1381        1380
        1376        1377        1382        1381
        1377        1378        1383        1382
        1378        1379        1384        1383
        1380        1381        1386        1385
        1381        1382        1387        1386
        1382        1383        1388        1387
        1383        1384        1389        1388
        1385        1386        1391        1390
        1386        1387        1392        1391
        1387        1388        1393        1392
        1388        1389        1394        1393
        1390        1391        1396        1395
        1391        1392        1397        1396
        1392        1393        1398        1397
        1393        1394        1399        1398
        1400        1401        1406        1405
        1401        1402        1407        1406
        1402        1403        1408        1407
        1403        1404        1409        1408
        1405        1406        1411        1410
        1406        1407        1412        1411
        1407        1408        1413        1412
        1408        1409        1414        1413
        1410        1411        1416        1415
        1411        1412        1417        1416
        1412        1413        1418        1417
        1413        1414        1419        1418
        1415        1416        1421        1420
        1416        1417        1422        1421
        1417        1418        1423        1422
        1418        1419        1424        1423
        1425        1426        1431        1430
        1426        1427        1432        1431
        1427        1428        1433        1432
        1428        1429        1434        1433
        1430        1431        1436        1435
        1431        1432        1437        1436
        1432        1433        1438        1437
        1433        1434        1439        1438
        1435        1436        1441        1440
        1436        1437        1442        1441
        1437        1438        1443        1442
        1438        1439        1444        1443
        1440        1441        1446        1445
        1441        1442        1447        1446
        1442        1443        1448        1447
        1443        1444        1449        1448
        1450        1451        1456        1455
        1451        1452        1457        1456
        1452        1453        1458        1457
        1453        1454        1459        1458
        1455        1456        1461        1460
        1456        1457        1462        1461
        1457        1458        1463        1462
        1458        1459        1464        1463
        1460        1461        1466        1465
        1461        1462        1467        1466
        1462        1463        1468        1467
        1463        1464        1469        1468
        1465        1466        1471        1470
        1466        1467        1472        1471
        1467        1468        1473        1472
        1468        1469        1474        1473
        1475        1476        1481        1480
        1476        1477        1482        1481
        1477        1478        1483        1482
        1478        1479        1484        1483
        1480        1481        1486        1485
        1481        1482        1487        1486
        1482        1483        1488        1487
        1483        1484        1489        1488
        1485        1486        1491        1490
        1486        1487        1492        1491
        1487        1488        1493        1492
        1488        1489        1494        1493
        1490        1491        1496        1495
        1491        1492        1497        1496
        1492        1493        1498        1497
        1493        1494        1499        1498
        1500        1501        1506        1505
        1501        1502        1507        1506
        1502        1503        1508        1507
        1503        1504        1509        1508
        1505        1506        1511        1510
        1506        1507        1512        1511
        1507        1508        1513        1512
        1508        1509        1514        1513
        1510        1511        1516        1515
        1511        1512        1517        1516
        1512        1513        1518        1517
        1513        1514        1519        1518
        1515        1516        1521        1520
        1516        1517        1522        1521
        1517        1518        1523        1522
        1518        1519        1524        1523
        1525        1526        1531        1530
        1526        1527        1532        1531
        1527        1528        1533        1532
        1528        1529        1534        1533
        1530        1531        1536        1535
        1531        1532        1537        1536
        1532        1533        1538        1537
        1533        1534        1539        1538
        1535        1536        1541        1540
        1536        1537        1542        1541
        1537        1538        1543        1542
        1538        1539        1544        1543
        1540        1541        1546        1545
        1541        1542        1547        1546
        1542        1543        1548        1547
        1543        1544        1549        1548
        1550        1551        1556        1555
        1551        1552        1557        1556
        1552        1553        1558        1557
        1553        1554        1559        1558
        1555        1556        1561        1560
        1556        1557        1562        1561
        1557        1558        1563        1562
        1558        1559        1564        1563
        1560        1561        1566        1565
        1561        1562        1567        1566
        1562        1563        1568        1567
        1563        1564        1569        1568
        1565        1566        1571        1570
        1566        1567        1572        1571
        1567        1568        1573        1572
        1568        1569        1574        1573
        1575        1576        1581        1580
        1576        1577        1582        1581
        1577        1578        1583        1582
        1578        1579        1584        1583
        1580        1581        1586        1585
        1581        1582        1587        1586
        1582        1583        1588        1587
        1583        1584        1589        1588
        1585        1586        1591        1590
        1586        1587        1592        1591
        1587        1588        1593        1592
        1588        1589        1594        1593
        1590        1591        1596        1595
        1591        1592        1597        1596
        1592        1593        1598        1597
        1593        1594        1599        1598
 </DataArray>
 <DataArray  type="Int32"  Name="offsets"  format="ascii"> 
           4
           8
          12
          16
          20
          24
          28
          32
          36
          40
          44
          48
          52
          56
          60
          64
          68
          72
          76
          80
          84
          88
          92
          96
         100
         104
         108
         112
         116
         120
         124
         128
         132
         136
         140
         144
         148
         152
         156
         160
         164
         168
         172
         176
         180
         184
         188
         192
         196
         200
         204
         208
         212
         216
         220
         224
         228
         232
         236
         240
         244
         248
         252
         256
         260
         264
         268
         272
         276
         280
         284
         288
         292
         296
         300
         304
         308
         312
         316
         320
         324
         328
         332
         336
         340
         344
         348
         352
         356
         360
         364
         368
         372
         376
         380
         384
         388
         392
         396
         400
         404
         408
         412
         416
         420
         424
         428
         432
         436
         440
         444
         448
         452
         456
         460
         464
         468
         472
         476
         480
         484
         488
         492
         496
         500
         504
         508
         512
         516
         520
         524
         528
         532
         536
         540
         544
         548
         552
         556
         560
         564
         568
         572
         576
         580
         584
         588
         592
         596
         600
         604
         608
         612
         616
         620
         624
         628
         632
         636
         640
         644
         648
         652
         656
         660
         664
         668
         672
         676
         680
         684
         688
         692
         696
         700
         704
         708
         712
         716
         720
         724
         728
         732
         736
         740
         744
         748
         752
         756
         760
         764
         768
         772
         776
         780
         784
         788
         792
         796
         800
         804
         808
         812
         816
         820
         824
         828
         832
         836
         840
         844
         848
         852
         856
         860
         864
         868
         872
         876
         880
         884
         888
         892
         896
         900
         904
         908
         912
         916
         920
         924
         928
         932
         936
         940
         944
         948
         952
         956
         960
         964
         968
         972
         976
         980
         984
         988
         992
         996
        1000
        1004
        1008
        1012
        1016
        1020
        1024
        1028
        1032
        1036
        1040
        1044
        1048
        1052
        1056
        1060
        1064
        1068
        1072
        1076
        1080
        1084
        1088
        1092
        1096
        1100
        1104
        1108
        1112
        1116
        1120
        1124
        1128
        1132
        1136
        1140
        1144
        1148
        1152
        1156
        1160
        1164
        1168
        1172
        1176
        1180
        1184
        1188
        1192
        1196
        1200
        1204
        1208
        1212
        1216
        1220
        1224
        1228
        1232
        1236
        1240
        1244
        1248
        1252
        1256
        1260
        1264
        1268
        1272
        1276
        1280
        1284
        1288
        1292
        1296
        1300
        1304
        1308
        1312
        1316
        1320
        1324
        1328
        1332
        1336
        1340
        1344
        1348
        1352
        1356
        1360
        1364
        1368
        1372
        1376
        1380
        1384
        1388
        1392
        1396
        1400
        1404
        1408
        1412
        1416
        1420
        1424
        1428
        1432
        1436
        1440
        1444
        1448
        1452
        1456
        1460
        1464
        1468
        1472
        1476
        1480
        1484
        1488
        1492
        1496
        1500
        1504
        1508
        1512
        1516
        1520
        1524
        1528
        1532
        1536
        1540
        1544
        1548
        1552
        1556
        1560
        1564
        1568
        1572
        1576
        1580
        1584
        1588
        1592
        1596
        1600
        1604
        1608
        1612
        1616
        1620
        1624
        1628
        1632
        1636
        1640
        1644
        1648
        1652
        1656
        1660
        1664
        1668
        1672
        1676
        1680
        1684
        1688
        1692
        1696
        1700
        1704
        1708
        1712
        1716
        1720
        1724
        1728
        1732
        1736
        1740
        1744
        1748
        1752
        1756
        1760
        1764
        1768
        1772
        1776
        1780
        1784
        1788
        1792
        1796
        1800
        1804
        1808
        1812
        1816
        1820
        1824
        1828
        1832
        1836
        1840
        1844
        1848
        1852
        1856
        1860
        1864
        1868
        1872
        1876
        1880
        1884
        1888
        1892
        1896
        1900
        1904
        1908
        1912
        1916
        1920
        1924
        1928
        1932
        1936
        1940
        1944
        1948
        1952
        1956
        1960
        1964
        1968
        1972
        1976
        1980
        1984
        1988
        1992
        1996
        2000
        2004
        2008
        2012
        2016
        2020
        2024
        2028
        2032
        2036
        2040
        2044
        2048
        2052
        2056
        2060
        2064
        2068
        2072
        2076
        2080
        2084
        2088
        2092
        2096
        2100
        2104
        2108
        2112
        2116
        2120
        2124
        2128
        2132
        2136
        2140
        2144
        2148
        2152
        2156
        2160
        2164
        2168
        2172
        2176
        2180
        2184
        2188
        2192
        2196
        2200
        2204
        2208
        2212
        2216
        2220
        2224
        2228
        2232
        2236
        2240
        2244
        2248
        2252
        2256
        2260
        2264
        2268
        2272
        2276
        2280
        2284
        2288
        2292
        2296
        2300
        2304
        2308
        2312
        2316
        2320
        2324
        2328
        2332
        2336
        2340
        2344
        2348
        2352
        2356
        2360
        2364
        2368
        2372
        2376
        2380
        2384
        2388
        2392
        2396
        2400
        2404
        2408
        2412
        2416
        2420
        2424
        2428
        2432
        2436
        2440
        2444
        2448
        2452
        2456
        2460
        2464
        2468
        2472
        2476
        2480
        2484
        2488
        2492
        2496
        2500
        2504
        2508
        2512
        2516
        2520
        2524
        2528
        2532
        2536
        2540
        2544
        2548
        2552
        2556
        2560
        2564
        2568
        2572
        2576
        2580
        2584
        2588
        2592
        2596
        2600
        2604
        2608
        2612
        2616
        2620
        2624
        2628
        2632
        2636
        2640
        2644
        2648
        2652
        2656
        2660
        2664
        2668
        2672
        2676
        2680
        2684
        2688
        2692
        2696
        2700
        2704
        2708
        2712
        2716
        2720
        2724
        2728
        2732
        2736
        2740
        2744
        2748
        2752
        2756
        2760
        2764
        2768
        2772
        2776
        2780
        2784
        2788
        2792
        2796
        2800
        2804
        2808
        2812
        2816
        2820
        2824
        2828
        2832
        2836
        2840
        2844
        2848
        2852
        2856
        2860
        2864
        2868
        2872
        2876
        2880
        2884
        2888
        2892
        2896
        2900
        2904
        2908
        2912
        2916
        2920
        2924
        2928
        2932
        2936
        2940
        2944
        2948
        2952
        2956
        2960
        2964
        2968
        2972
        2976
        2980
        2984
        2988
        2992
        2996
        3000
        3004
        3008
        3012
        3016
        3020
        3024
        3028
        3032
        3036
        3040
        3044
        3048
        3052
        3056
        3060
        3064
        3068
        3072
        3076
        3080
        3084
        3088
        3092
        3096
        3100
        3104
        3108
        3112
        3116
        3120
        3124
        3128
        3132
        3136
        3140
        3144
        3148
        3152
        3156
        3160
        3164
        3168
        3172
        3176
        3180
        3184
        3188
        3192
        3196
        3200
        3204
        3208
        3212
        3216
        3220
        3224
        3228
        3232
        3236
        3240
        3244
        3248
        3252
        3256
        3260
        3264
        3268
        3272
        3276
        3280
        3284
        3288
        3292
        3296
        3300
        3304
        3308
        3312
        3316
        3320
        3324
        3328
        3332
        3336
        3340
        3344
        3348
        3352
        3356
        3360
        3364
        3368
        3372
        3376
        3380
        3384
        3388
        3392
        3396
        3400
        3404
        3408
        3412
        3416
        3420
        3424
        3428
        3432
        3436
        3440
        3444
        3448
        3452
        3456
        3460
        3464
        3468
        3472
        3476
        3480
        3484
        3488
        3492
        3496
        3500
        3504
        3508
        3512
        3516
        3520
        3524
        3528
        3532
        3536
        3540
        3544
        3548
        3552
        3556
        3560
        3564
        3568
        3572
        3576
        3580
        3584
        3588
        3592
        3596
        3600
        3604
        3608
        3612
        3616
        3620
        3624
        3628
        3632
        3636
        3640
        3644
        3648
        3652
        3656
        3660
        3664
        3668
        3672
        3676
        3680
        3684
        3688
        3692
        3696
        3700
        3704
        3708
        3712
        3716
        3720
        3724
        3728
        3732
        3736
        3740
        3744
        3748
        3752
        3756
        3760
        3764
        3768
        3772
        3776
        3780
        3784
        3788
        3792
        3796
        3800
        3804
        3808
        3812
        3816
        3820
        3824
        3828
        3832
        3836
        3840
        3844
        3848
        3852
        3856
        3860
        3864
        3868
        3872
        3876
        3880
        3884
        3888
        3892
        3896
        3900
        3904
        3908
        3912
        3916
        3920
        3924
        3928
        3932
        3936
        3940
        3944
        3948
        3952
        3956
        3960
        3964
        3968
        3972
        3976
        3980
        3984
        3988
        3992
        3996
        4000
        4004
        4008
        4012
        4016
        4020
        4024
        4028
        4032
        4036
        4040
        4044
        4048
        4052
        4056
        4060
        4064
        4068
        4072
        4076
        4080
        4084
        4088
        4092
        4096
 </DataArray>
 <DataArray  type="UInt8"  Name="types"  format="ascii">
 9
 9
 9
 9
 9
 9
 9
 9
 9
 9
 9
 9
 9
 9
 9
 9
 9
 9
 9
 9
 9
 9
 9
 9
 9
 9
 9
 9
 9
 9
 9
 9
 9
 9
 9
 9
 9
 9
 9
 9
 9
 9
 9
 9
 9
 9
 9
 9
 9
 9
 9
 9
 9
 9
 9
 9
 9
 9
 9
 9
 9
 9
 9
 9
 9
 9
 9
 9
 9
 9
 9
 9
 9
 9
 9
 9
 9
 9
 9
 9
 9
 9
 9
 9
 9
 9
 9
 9
 9
 9
 9
 9
 9
 9
 9
 9
 9
 9
 9
 9
 9
 9
 9
 9
 9
 9
 9
 9
 9
 9
 9
 9
 9
 9
 9
 9
 9
 9
 9
 9
 9
 9
 9
 9
 9
 9
 9
 9
 9
 9
 9
 9
 9
 9
 9
 9
 9
 9
 9
 9
 9
 9
 9
 9
 9
 9
 9
 9
 9
 9
 9
 9
 9
 9
 9
 9
 9
 9
 9
 9
 9
 9
 9
 9
 9
 9
 9
 9
 9
 9
 9
 9
 9
 9
 9
 9
 9
 9
 9
 9
 9
 9
 9
 9
 9
 9
 9
 9
 9
 9
 9
 9
 9
 9
 9
 9
 9
 9
 9
 9
 9
 9
 9
 9
 9
 9
 9
 9
 9
 9
 9
 9
 9
 9
 9
 9
 9
 9
 9
 9
 9
 9
 9
 9
 9
 9
 9
 9
 9
 9
 9
 9
 9
 9
 9
 9
 9
 9
 9
 9
 9
 9
 9
 9
 9
 9
 9
 9
 9
 9
 9
 9
 9
 9
 9
 9
 9
 9
 9
 9
 9
 9
 9
 9
 9
 9
 9
 9
 9
 9
 9
 9
 9
 9
 9
 9
 9
 9
 9
 9
 9
 9
 9
 9
 9
 9
 9
 9
 9
 9
 9
 9
 9
 9
 9
 9
 9
 9
 9
 9
 9
 9
 9
 9
 9
 9
 9
 9
 9
 9
 9
 9
 9
 9
 9
 9
 9
 9
 9
 9
 9
 9
 9
 9
 9
 9
 9
 9
 9
 9
 9
 9
 9
 9
 9
 9
 9
 9
 9
 9
 9
 9
 9
 9
 9
 9
 9
 9
 9
 9
 9
 9
 9
 9
 9
 9
 9
 9
 9
 9
 9
 9
 9
 9
 9
 9
 9
 9
 9
 9
 9
 9
 9
 9
 9
 9
 9
 9
 9
 9
 9
 9
 9
 9
 9
 9
 9
 9
 9
 9
 9
 9
 9
 9
 9
 9
 9
 9
 9
 9
 9
 9
 9
 9
 9
 9
 9
 9
 9
 9
 9
 9
 9
 9
 9
 9
 9
 9
 9
 9
 9
 9
 9
 9
 9
 9
 9
 9
 9
 9
 9
 9
 9
 9
 9
 9
 9
 9
 9
 9
 9
 9
 9
 9
 9
 9
 9
 9
 9
 9
 9
 9
 9
 9
 9
 9
 9
 9
 9
 9
 9
 9
 9
 9
 9
 9
 9
 9
 9
 9
 9
 9
 9
 9
 9
 9
 9
 9
 9
 9
 9
 9
 9
 9
 9
 9
 9
 9
 9
 9
 9
 9
 9
 9
 9
 9
 9
 9
 9
 9
 9
 9
 9
 9
 9
 9
 9
 9
 9
 9
 9
 9
 9
 9
 9
 9
 9
 9
 9
 9
 9
 9
 9
 9
 9
 9
 9
 9
 9
 9
 9
 9
 9
 9
 9
 9
 9
 9
 9
 9
 9
 9
 9
 9
 9
 9
 9
 9
 9
 9
 9
 9
 9
 9
 9
 9
 9
 9
 9
 9
 9
 9
 9
 9
 9
 9
 9
 9
 9
 9
 9
 9
 9
 9
 9
 9
 9
 9
 9
 9
 9
 9
 9
 9
 9
 9
 9
 9
 9
 9
 9
 9
 9
 9
 9
 9
 9
 9
 9
 9
 9
 9
 9
 9
 9
 9
 9
 9
 9
 9
 9
 9
 9
 9
 9
 9
 9
 9
 9
 9
 9
 9
 9
 9
 9
 9
 9
 9
 9
 9
 9
 9
 9
 9
 9
 9
 9
 9
 9
 9
 9
 9
 9
 9
 9
 9
 9
 9
 9
 9
 9
 9
 9
 9
 9
 9
 9
 9
 9
 9
 9
 9
 9
 9
 9
 9
 9
 9
 9
 9
 9
 9
 9
 9
 9
 9
 9
 9
 9
 9
 9
 9
 9
 9
 9
 9
 9
 9
 9
 9
 9
 9
 9
 9
 9
 9
 9
 9
 9
 9
 9
 9
 9
 9
 9
 9
 9
 9
 9
 9
 9
 9
 9
 9
 9
 9
 9
 9
 9
 9
 9
 9
 9
 9
 9
 9
 9
 9
 9
 9
 9
 9
 9
 9
 9
 9
 9
 9
 9
 9
 9
 9
 9
 9
 9
 9
 9
 9
 9
 9
 9
 9
 9
 9
 9
 9
 9
 9
 9
 9
 9
 9
 9
 9
 9
 9
 9
 9
 9
 9
 9
 9
 9
 9
 9
 9
 9
 9
 9
 9
 9
 9
 9
 9
 9
 9
 9
 9
 9
 9
 9
 9
 9
 9
 9
 9
 9
 9
 9
 9
 9
 9
 9
 9
 9
 9
 9
 9
 9
 9
 9
 9
 9
 9
 9
 9
 9
 9
 9
 9
 9
 9
 9
 9
 9
 9
 9
 9
 9
 9
 9
 9
 9
 9
 9
 9
 9
 9
 9
 9
 9
 9
 9
 9
 9
 9
 9
 9
 9
 9
 9
 9
 9
 9
 9
 9
 9
 9
 9
 9
 9
 9
 9
 9
 9
 9
 9
 9
 9
 9
 9
 9
 9
 9
 9
 9
 9
 9
 9
 9
 9
 9
 9
 9
 9
 9
 9
 9
 9
 9
 9
 9
 9
 9
 9
 9
 9
 9
 9
 9
 9
 9
 9
 9
 9
 9
 9
 9
 9
 9
 9
 9
 9
 9
 9
 9
 9
 9
 9
 9
 9
 9
 9
 9
 9
 9
 9
 9
 9
 9
 9
 9
 9
 9
 9
 9
 9
 9
 9
 9
 9
 9
 9
 9
 9
 9
 9
 9
 9
 9
 9
 9
 9
 9
 9
 9
 9
 9
 9
 9
 9
 9
 9
 9
 9
 9
 9
 9
 9
 9
 9
 9
 9
 9
 9
 9
 9
 9
 9
 9
 9
 9
 9
 9
 9
 9
 9
 9
 9
 9
 9
 9
 9
 9
 9
 9
 9
 9
 9
 9
 9
 9
 9
 9
 9
 9
 9
 9
 9
 9
 9
 9
 9
 9
 9
 9
 9
 9
 9
 9
 9
 9
 9
 9
 </DataArray>
 </Cells> 
 <PointData>
 <DataArray  type="Float64" Name="disp" NumberOfComponents="3" format="ascii">
   6.5424651803407591E-002   6.3050399577273417E-002   0.0000000000000000     
   6.8473088514844738E-002   6.8243070580748078E-002   0.0000000000000000     
   7.1419213121844655E-002   7.3688616763834078E-002   0.0000000000000000     
   7.4263025624407300E-002   7.9387038126531431E-002   0.0000000000000000     
   7.7004526022532702E-002   8.5338334668840152E-002   0.0000000000000000     
   6.0107373239645351E-002   6.1895762936403698E-002   0.0000000000000000     
   6.3000433757893076E-002   6.7264715564179914E-002   0.0000000000000000     
   6.5789707933090941E-002   7.2834046536244215E-002   0.0000000000000000     
   6.8475195765238903E-002   7.8603755852596643E-002   0.0000000000000000     
   7.1056897254337004E-002   8.4573843513237157E-002   0.0000000000000000     
   5.5061945220077749E-002   6.0917438621694256E-002   0.0000000000000000     
   5.7783643430577264E-002   6.6401868675643322E-002   0.0000000000000000     
   6.0403412293049248E-002   7.2053756235887181E-002   0.0000000000000000     
   6.2921251807493681E-002   7.7873101302425890E-002   0.0000000000000000     
   6.5337161973910568E-002   8.3859903875259365E-002   0.0000000000000000     
   5.0288367744704812E-002   6.0115426633145098E-002   0.0000000000000000     
   5.2822717532897315E-002   6.5654529915138302E-002   0.0000000000000000     
   5.5260326201719577E-002   7.1347745862762976E-002   0.0000000000000000     
   5.7601193751171613E-002   7.7195074476019143E-002   0.0000000000000000     
   5.9845320181253422E-002   8.3196515754906733E-002   0.0000000000000000     
   4.5786640813526527E-002   5.9489726970756204E-002   0.0000000000000000     
   4.8117656064853201E-002   6.5022699282664867E-002   0.0000000000000000     
   5.0360449659101934E-002   7.0716015416871614E-002   0.0000000000000000     
   5.2515021596272714E-002   7.6569675373376403E-002   0.0000000000000000     
   5.4581371876365539E-002   8.2583679152179304E-002   0.0000000000000000     
   7.7004526022532702E-002   8.5338334668840152E-002   0.0000000000000000     
   7.9654693353579414E-002   9.1485795921305735E-002   0.0000000000000000     
   8.2224506654905993E-002   9.7772711414473704E-002   0.0000000000000000     
   8.4713965926512438E-002  0.10419908114834406        0.0000000000000000     
   8.7123071168398736E-002  0.11076490512291681        0.0000000000000000     
   7.1056897254337004E-002   8.4573843513237157E-002   0.0000000000000000     
   7.3548915263987186E-002   9.0719416822558921E-002   0.0000000000000000     
   7.5965352657791432E-002   9.7015583084955018E-002   0.0000000000000000     
   7.8306209435749716E-002  0.10346234230042546        0.0000000000000000     
   8.0571485597862064E-002  0.11005969446897022        0.0000000000000000     
   6.5337161973910568E-002   8.3859903875259365E-002   0.0000000000000000     
   6.7666714097163114E-002   9.0009685490977973E-002   0.0000000000000000     
   6.9925479482114472E-002   9.6317967686171985E-002   0.0000000000000000     
   7.2113458128764657E-002  0.10278475046084143        0.0000000000000000     
   7.4230650037113668E-002  0.10941003381498625        0.0000000000000000     
   5.9845320181253422E-002   8.3196515754906733E-002   0.0000000000000000     
   6.2008089853107191E-002   8.9356601926562904E-002   0.0000000000000000     
   6.4104887127875154E-002   9.5679865218124618E-002   0.0000000000000000     
   6.6135712005557262E-002  0.10216630562959196        0.0000000000000000     
   6.8100564486153564E-002  0.10881592316096488        0.0000000000000000     
   5.4581371876365539E-002   8.2583679152179304E-002   0.0000000000000000     
   5.6573042531819447E-002   8.8760166129313672E-002   0.0000000000000000     
   5.8503575595073444E-002   9.5101275680812919E-002   0.0000000000000000     
   6.0372971066127545E-002  0.10160700780667707        0.0000000000000000     
   6.2181228944981751E-002  0.10827736250690609        0.0000000000000000     
   8.7123071168398736E-002  0.11076490512291681        0.0000000000000000     
   8.9438936976912020E-002  0.11746818854014235        0.0000000000000000     
   9.1648677948399412E-002  0.12430693660197117        0.0000000000000000     
   9.3752294082860899E-002  0.13128114930840318        0.0000000000000000     
   9.5749785380296465E-002  0.13839082665943847        0.0000000000000000     
   8.0571485597862064E-002  0.11005969446897022        0.0000000000000000     
   8.2748729782130603E-002  0.11679924621834027        0.0000000000000000     
   8.4825490626557504E-002  0.12367260417628650        0.0000000000000000     
   8.6801768131142737E-002  0.13067976834280889        0.0000000000000000     
   8.8677562295886303E-002  0.13782073871790751        0.0000000000000000     
   7.4230650037113668E-002  0.10941003381498625        0.0000000000000000     
   7.6265317405611405E-002  0.11618100794549030        0.0000000000000000     
   7.8205722432707805E-002  0.12308486304923731        0.0000000000000000     
   8.0051865118402843E-002  0.13012159912622731        0.0000000000000000     
   8.1803745462696517E-002  0.13729121617646028        0.0000000000000000     
   6.8100564486153564E-002  0.10881592316096488        0.0000000000000000     
   6.9988699847354452E-002  0.11561347372159239        0.0000000000000000     
   7.1789373366850331E-002  0.12254371322082357        0.0000000000000000     
   7.3502585044641203E-002  0.12960664165865837        0.0000000000000000     
   7.5128334880727066E-002  0.13680225903509677        0.0000000000000000     
   6.2181228944981751E-002  0.10827736250690609        0.0000000000000000     
   6.3918877107359703E-002  0.11509664354664660        0.0000000000000000     
   6.5576443428985068E-002  0.12204915469104528        0.0000000000000000     
   6.7153927909857844E-002  0.12913489594010208        0.0000000000000000     
   6.8651330549978018E-002  0.13635386729381702        0.0000000000000000     
   9.5749785380296465E-002  0.13839082665943847        0.0000000000000000     
   9.7649979069200532E-002  0.14562433328556434        0.0000000000000000     
   9.9461702378067382E-002  0.15297003381726831        0.0000000000000000     
  0.10118495530689711       0.16042792825455029        0.0000000000000000     
  0.10281973785568965       0.16799801659741032        0.0000000000000000     
   8.8677562295886303E-002  0.13782073871790751        0.0000000000000000     
   9.0461367018575684E-002  0.14508375594834308        0.0000000000000000     
   9.2161676196998360E-002  0.15245706068087636        0.0000000000000000     
   9.3778489831154291E-002  0.15994065291550735        0.0000000000000000     
   9.5311807921043518E-002  0.16753453265223608        0.0000000000000000     
   8.1803745462696517E-002  0.13729121617646028        0.0000000000000000     
   8.3469070172086823E-002  0.14458172513348827        0.0000000000000000     
   8.5055545953071771E-002  0.15198113693086324        0.0000000000000000     
   8.6563172805651359E-002  0.15948945156858516        0.0000000000000000     
   8.7991950729825602E-002  0.16710666904665411        0.0000000000000000     
   7.5128334880727066E-002  0.13680225903509677        0.0000000000000000     
   7.6673088529733896E-002  0.14411824084099994        0.0000000000000000     
   7.8143311646287641E-002  0.15154226256722889        0.0000000000000000     
   7.9539004230388316E-002  0.15907432421378376        0.0000000000000000     
   8.0860166282035906E-002  0.16671442578066437        0.0000000000000000     
   6.8651330549978018E-002  0.13635386729381702        0.0000000000000000     
   7.0073422091516943E-002  0.14369330307087813        0.0000000000000000     
   7.1424973276645973E-002  0.15114043758997345        0.0000000000000000     
   7.2705984105365148E-002  0.15869527085110302        0.0000000000000000     
   7.3916454577674415E-002  0.16635780285426685        0.0000000000000000     
  0.10281973785568965       0.16799801659741032        0.0000000000000000     
  0.10436718509534418       0.17566795530036408        0.0000000000000000     
  0.10582843209675978       0.18342540081792738        0.0000000000000000     
  0.10720347885993647       0.19127035315010008        0.0000000000000000     
  0.10849232538487427       0.19920281229688230        0.0000000000000000     
   9.5311807921043518E-002  0.16753453265223608        0.0000000000000000     
   9.6761225096827094E-002  0.17522807465371398        0.0000000000000000     
   9.8126335988666102E-002  0.18301065368259251        0.0000000000000000     
   9.9407140596560500E-002  0.19088226973887160        0.0000000000000000     
  0.10060363892051033       0.19884292282255131        0.0000000000000000     
   8.7991950729825602E-002  0.16710666904665411        0.0000000000000000     
   8.9340435900705034E-002  0.17482338498339875        0.0000000000000000     
   9.0607184493400189E-002  0.18263019499714789        0.0000000000000000     
   9.1792196507911109E-002  0.19052709908790164        0.0000000000000000     
   9.2895471944237737E-002  0.19851409725565972        0.0000000000000000     
   8.0860166282035906E-002  0.16671442578066437        0.0000000000000000     
   8.2104817506977956E-002  0.17445388628941846        0.0000000000000000     
   8.3270977610962083E-002  0.18228402476159367        0.0000000000000000     
   8.4358646593988257E-002  0.19020484119719003        0.0000000000000000     
   8.5367824456056493E-002  0.19821633559620749        0.0000000000000000     
   7.3916454577674415E-002  0.16635780285426685        0.0000000000000000     
   7.5054369915645916E-002  0.17411957857177301        0.0000000000000000     
   7.6117715341351769E-002  0.18197214297592970        0.0000000000000000     
   7.7106490854792001E-002  0.18991549606673694        0.0000000000000000     
   7.8020696455966571E-002  0.19794963784419467        0.0000000000000000     
  0.10849232538487427       0.19920281229688230        0.0000000000000000     
  0.10970044098156619       0.20722026659985757        0.0000000000000000     
  0.11083329496000531       0.21532020440060942        0.0000000000000000     
  0.11189088732019162       0.22350262569913787        0.0000000000000000     
  0.11287321806212514       0.23176753049544291        0.0000000000000000     
  0.10060363892051033       0.19884292282255131        0.0000000000000000     
  0.10172132161227522       0.20688702289272493        0.0000000000000000     
  0.10276567932361483       0.21500897990848578        0.0000000000000000     
  0.10373671205452914       0.22320879386983380        0.0000000000000000     
  0.10463441980501816       0.23148646477676904        0.0000000000000000     
   9.2895471944237737E-002  0.19851409725565972        0.0000000000000000     
   9.3921696552252021E-002  0.20658367415521212        0.0000000000000000     
   9.4875556081825824E-002  0.21472831444134866        0.0000000000000000     
   9.5757050532959076E-002  0.22294801811406920        0.0000000000000000     
   9.6566179905651917E-002  0.23124278517337388        0.0000000000000000     
   8.5367824456056493E-002  0.19821633559620749        0.0000000000000000     
   8.6301565801496533E-002  0.20631022038731914        0.0000000000000000     
   8.7162925234638228E-002  0.21447820799919795        0.0000000000000000     
   8.7951902755481523E-002  0.22272029843184404        0.0000000000000000     
   8.8668498364026446E-002  0.23103649168525731        0.0000000000000000     
   7.8020696455966571E-002  0.19794963784419467        0.0000000000000000     
   7.8860929360008852E-002  0.20606666158904599        0.0000000000000000     
   7.9627786782052123E-002  0.21425866058203388        0.0000000000000000     
   8.0321268722096412E-002  0.22252563482315837        0.0000000000000000     
   8.0941375180141717E-002  0.23086758431241944        0.0000000000000000     
  0.11287321806212514       0.23176753049544291        0.0000000000000000     
  0.11380833657987095       0.24013100109768518        0.0000000000000000     
  0.11472429226749421       0.24860911981402531        0.0000000000000000     
  0.11562108512499493       0.25720188664446331        0.0000000000000000     
  0.11649871515237309       0.26590930158899917        0.0000000000000000     
  0.10463441980501816       0.23148646477676904        0.0000000000000000     
  0.10546389919079709       0.23986528308489513        0.0000000000000000     
  0.10623024682758120       0.24836853924981567        0.0000000000000000     
  0.10693346271537049       0.25699623327153065        0.0000000000000000     
  0.10757354685416493       0.26574836515004013        0.0000000000000000     
   9.6566179905651917E-002  0.23124278517337388        0.0000000000000000     
   9.7293963595279878E-002  0.23963910201417030        0.0000000000000000     
   9.7931420997218563E-002  0.24816345503136636        0.0000000000000000     
   9.8478552111468026E-002  0.25681584422496195        0.0000000000000000     
   9.8935356938028240E-002  0.26559626959495702        0.0000000000000000     
   8.8668498364026446E-002  0.23103649168525731        0.0000000000000000     
   8.9298529793319273E-002  0.23945245788551078        0.0000000000000000     
   8.9827814776406306E-002  0.24799386715867733        0.0000000000000000     
   9.0256353313287560E-002  0.25666071950475705        0.0000000000000000     
   9.0584145403963021E-002  0.26545301492374990        0.0000000000000000     
   8.0941375180141717E-002  0.23086758431241944        0.0000000000000000     
   8.1477597784915312E-002  0.23930535069891645        0.0000000000000000     
   8.1919428165144442E-002  0.24785977563174866        0.0000000000000000     
   8.2266866320829093E-002  0.25653085911091611        0.0000000000000000     
   8.2519912251969293E-002  0.26531860113641875        0.0000000000000000     
  0.11649871515237309       0.26590930158899917        0.0000000000000000     
  0.11729761973082523       0.27489610588040980        0.0000000000000000     
  0.11795823624154796       0.28432704075147219        0.0000000000000000     
  0.11848056468454121       0.29420210620218623        0.0000000000000000     
  0.11886460505980503       0.30452130223255203        0.0000000000000000     
  0.10757354685416493       0.26574836515004013        0.0000000000000000     
  0.10813150517351862       0.27475709832637096        0.0000000000000000     
  0.10858834360298564       0.28415459624155015        0.0000000000000000     
  0.10894406214256604       0.29394085889557753        0.0000000000000000     
  0.10919866079225973       0.30411588628845332        0.0000000000000000     
   9.8935356938028240E-002  0.26559626959495702        0.0000000000000000     
   9.9312778966291343E-002  0.27460296128164746        0.0000000000000000     
   9.9621761685649471E-002  0.28393414942532891        0.0000000000000000     
   9.9862305096102666E-002  0.29358983402600136        0.0000000000000000     
  0.10003440919765091       0.30357001508366477        0.0000000000000000     
   9.0584145403963021E-002  0.26545301492374990        0.0000000000000000     
   9.0841441109143425E-002  0.27443369474623924        0.0000000000000000     
   9.1058490489539484E-002  0.28366570030280847        0.0000000000000000     
   9.1235293545151169E-002  0.29314903159345757        0.0000000000000000     
   9.1371850275978536E-002  0.30288368861818643        0.0000000000000000     
   8.2519912251969293E-002  0.26531860113641875        0.0000000000000000     
   8.2717491602074866E-002  0.27424929872014642        0.0000000000000000     
   8.2898530014655580E-002  0.28334924887398888        0.0000000000000000     
   8.3063027489711519E-002  0.29261845159794619        0.0000000000000000     
   8.3210984027242613E-002  0.30205690689201825        0.0000000000000000     
   4.5786640813526527E-002   5.9489726970756204E-002   0.0000000000000000     
   4.8117656064853201E-002   6.5022699282664867E-002   0.0000000000000000     
   5.0360449659101934E-002   7.0716015416871614E-002   0.0000000000000000     
   5.2515021596272714E-002   7.6569675373376403E-002   0.0000000000000000     
   5.4581371876365539E-002   8.2583679152179304E-002   0.0000000000000000     
   4.1463278416073557E-002   5.8943224412733322E-002   0.0000000000000000     
   4.3586966062603330E-002   6.4450429998156963E-002   0.0000000000000000     
   4.5632143260477702E-002   7.0131238712879962E-002   0.0000000000000000     
   4.7598810009696679E-002   7.5985650556902318E-002   0.0000000000000000     
   4.9486966310260255E-002   8.2013665530223989E-002   0.0000000000000000     
   3.7224794541876549E-002   5.8378803737282152E-002   0.0000000000000000     
   3.9149154562306047E-002   6.3881775281548606E-002   0.0000000000000000     
   4.1003767601128269E-002   6.9566089565455000E-002   0.0000000000000000     
   4.2788633658343213E-002   7.5431746589001397E-002   0.0000000000000000     
   4.4503752733950873E-002   8.1478746352187770E-002   0.0000000000000000     
   3.3071189190935511E-002   5.7796464944402708E-002   0.0000000000000000     
   3.4804221563961367E-002   6.3316735132839738E-002   0.0000000000000000     
   3.6475322681053628E-002   6.9020567974596742E-002   0.0000000000000000     
   3.8084492542212307E-002   7.4907963469673711E-002   0.0000000000000000     
   3.9631731147437420E-002   8.0978921618070673E-002   0.0000000000000000     
   2.9002462363250443E-002   5.7196208034094975E-002   0.0000000000000000     
   3.0552167067569275E-002   6.2755309552030403E-002   0.0000000000000000     
   3.2046808500253786E-002   6.8494673940305159E-002   0.0000000000000000     
   3.3486386661303991E-002   7.4414301198919244E-002   0.0000000000000000     
   3.4870901550719868E-002   8.0514191327872658E-002   0.0000000000000000     
   5.4581371876365539E-002   8.2583679152179304E-002   0.0000000000000000     
   5.6573042531819447E-002   8.8760166129313672E-002   0.0000000000000000     
   5.8503575595073444E-002   9.5101275680812919E-002   0.0000000000000000     
   6.0372971066127545E-002  0.10160700780667707        0.0000000000000000     
   6.2181228944981751E-002  0.10827736250690609        0.0000000000000000     
   4.9486966310260255E-002   8.2013665530223989E-002   0.0000000000000000     
   5.1307643185305139E-002   8.8210537828448121E-002   0.0000000000000000     
   5.3071871657968048E-002   9.4571521647177817E-002   0.0000000000000000     
   5.4779651728248974E-002  0.10109661698641309        0.0000000000000000     
   5.6430983396147910E-002  0.10778582384615387        0.0000000000000000     
   4.4503752733950873E-002   8.1478746352187770E-002   0.0000000000000000     
   4.6157962865569571E-002   8.7697876753184079E-002   0.0000000000000000     
   4.7760102090817616E-002   9.4079925690160257E-002   0.0000000000000000     
   4.9310170409695001E-002  0.10062489316311629        0.0000000000000000     
   5.0808167822201739E-002  0.10733277917205222        0.0000000000000000     
   3.9631731147437420E-002   8.0978921618070673E-002   0.0000000000000000     
   4.1124001572612770E-002   8.7222182903521531E-002   0.0000000000000000     
   4.2568266893622177E-002   9.3626487809760212E-002   0.0000000000000000     
   4.3964527110465661E-002  0.10019183633678673        0.0000000000000000     
   4.5312782223143208E-002  0.10691822848460110        0.0000000000000000     
   3.4870901550719868E-002   8.0514191327872658E-002   0.0000000000000000     
   3.6205759306434701E-002   8.6783456279460450E-002   0.0000000000000000     
   3.7496366066381716E-002   9.3211208005977694E-002   0.0000000000000000     
   3.8742721830560933E-002   9.9797446507424406E-002   0.0000000000000000     
   3.9944826598972347E-002  0.10654217178380056        0.0000000000000000     
   6.2181228944981751E-002  0.10827736250690609        0.0000000000000000     
   6.3918877107359703E-002  0.11509664354664660        0.0000000000000000     
   6.5576443428985068E-002  0.12204915469104528        0.0000000000000000     
   6.7153927909857844E-002  0.12913489594010208        0.0000000000000000     
   6.8651330549978018E-002  0.13635386729381702        0.0000000000000000     
   5.6430983396147910E-002  0.10778582384615387        0.0000000000000000     
   5.8017718052906703E-002  0.11462408990048001        0.0000000000000000     
   5.9531707089767120E-002  0.12159636282347119        0.0000000000000000     
   6.0972950506729198E-002  0.12870264261512748        0.0000000000000000     
   6.2341448303792929E-002  0.13594292927544882        0.0000000000000000     
   5.0808167822201739E-002  0.10733277917205222        0.0000000000000000     
   5.2247091551274896E-002  0.11418938526291959        0.0000000000000000     
   5.3619938819851554E-002  0.12118051298167003        0.0000000000000000     
   5.4926709627931732E-002  0.12830616232830350        0.0000000000000000     
   5.6167403975515423E-002  0.13556633330282000        0.0000000000000000     
   4.5312782223143208E-002  0.10691822848460110        0.0000000000000000     
   4.6606997602464291E-002  0.11379252963396541        0.0000000000000000     
   4.7841138619238374E-002  0.12080160516564177        0.0000000000000000     
   4.9015205273465444E-002  0.12794545507963018        0.0000000000000000     
   5.0129197565145507E-002  0.13522407937593064        0.0000000000000000     
   3.9944826598972347E-002  0.10654217178380056        0.0000000000000000     
   4.1097436206474908E-002  0.11343352301361746        0.0000000000000000     
   4.2195306487927561E-002  0.12045963937538645        0.0000000000000000     
   4.3238437443330315E-002  0.12762052086910750        0.0000000000000000     
   4.4226829072683160E-002  0.13491616749478066        0.0000000000000000     
   6.8651330549978018E-002  0.13635386729381702        0.0000000000000000     
   7.0073422091516943E-002  0.14369330307087813        0.0000000000000000     
   7.1424973276645973E-002  0.15114043758997345        0.0000000000000000     
   7.2705984105365148E-002  0.15869527085110302        0.0000000000000000     
   7.3916454577674415E-002  0.16635780285426685        0.0000000000000000     
   6.2341448303792929E-002  0.13594292927544882        0.0000000000000000     
   6.3640348092195237E-002  0.14330412610851323        0.0000000000000000     
   6.4872797483173039E-002  0.15077313641839885        0.0000000000000000     
   6.6038796476726350E-002  0.15834996020510553        0.0000000000000000     
   6.7138345072855155E-002  0.16603459746863344        0.0000000000000000     
   5.6167403975515423E-002  0.13556633330282000        0.0000000000000000     
   5.7344143766528057E-002  0.14294792423929578        0.0000000000000000     
   5.8459050904895074E-002  0.15043783347180703        0.0000000000000000     
   5.9512125390616434E-002  0.15803606100035378        0.0000000000000000     
   6.0503367223692171E-002  0.16574260682493602        0.0000000000000000     
   5.0129197565145507E-002  0.13522407937593064        0.0000000000000000     
   5.1184809114515423E-002  0.14262469746322570        0.0000000000000000     
   5.2183733541812057E-002  0.15013452875019806        0.0000000000000000     
   5.3125970847035416E-002  0.15775357323684769        0.0000000000000000     
   5.4011521030185472E-002  0.16548183092317462        0.0000000000000000     
   4.4226829072683160E-002  0.13491616749478066        0.0000000000000000     
   4.5162344136157329E-002  0.14233444578030308        0.0000000000000000     
   4.6046845393924021E-002  0.14986322225357199        0.0000000000000000     
   4.6880332845983259E-002  0.15750249691458734        0.0000000000000000     
   4.7662806492335022E-002  0.16525226976334920        0.0000000000000000     
   7.3916454577674415E-002  0.16635780285426685        0.0000000000000000     
   7.5054369915645916E-002  0.17411957857177301        0.0000000000000000     
   7.6117715341351769E-002  0.18197214297592970        0.0000000000000000     
   7.7106490854792001E-002  0.18991549606673694        0.0000000000000000     
   7.8020696455966571E-002  0.19794963784419467        0.0000000000000000     
   6.7138345072855155E-002  0.16603459746863344        0.0000000000000000     
   6.8169553001048142E-002  0.17381842769051703        0.0000000000000000     
   6.9130529990793957E-002  0.18169283035229072        0.0000000000000000     
   7.0021276042092628E-002  0.18965780545395475        0.0000000000000000     
   7.0841791154944114E-002  0.19771335299550891        0.0000000000000000     
   6.0503367223692171E-002  0.16574260682493602        0.0000000000000000     
   6.1430826637523944E-002  0.17354839950570486        0.0000000000000000     
   6.2292553865513377E-002  0.18144436760281149        0.0000000000000000     
   6.3088548907660483E-002  0.18943051111625578        0.0000000000000000     
   6.3818811763965241E-002  0.19750683004603786        0.0000000000000000     
   5.4011521030185472E-002  0.16548183092317462        0.0000000000000000     
   5.4838190825073324E-002  0.17330949401733672        0.0000000000000000     
   5.5603786965510014E-002  0.18122675472749186        0.0000000000000000     
   5.6308309451495557E-002  0.18923361305364014        0.0000000000000000     
   5.6951758283029952E-002  0.19733006899578154        0.0000000000000000     
   4.7662806492335022E-002  0.16525226976334920        0.0000000000000000     
   4.8391645563696253E-002  0.17310171122541246        0.0000000000000000     
   4.9064229290783877E-002  0.18103999172633195        0.0000000000000000     
   4.9680557673597872E-002  0.18906711126610778        0.0000000000000000     
   5.0240630712138253E-002  0.19718306984473991        0.0000000000000000     
   7.8020696455966571E-002  0.19794963784419467        0.0000000000000000     
   7.8860929360008852E-002  0.20606666158904599        0.0000000000000000     
   7.9627786782052123E-002  0.21425866058203388        0.0000000000000000     
   8.0321268722096412E-002  0.22252563482315837        0.0000000000000000     
   8.0941375180141717E-002  0.23086758431241944        0.0000000000000000     
   7.0841791154944114E-002  0.19771335299550891        0.0000000000000000     
   7.1590353469398696E-002  0.20585224124808058        0.0000000000000000     
   7.2265241125506627E-002  0.21406723848279705        0.0000000000000000     
   7.2866454123267893E-002  0.22235834469965823        0.0000000000000000     
   7.3393992462682495E-002  0.23072555989866428        0.0000000000000000     
   6.3818811763965241E-002  0.19750683004603786        0.0000000000000000     
   6.4480404371275959E-002  0.20566620285211093        0.0000000000000000     
   6.5070388666440895E-002  0.21390150799442831        0.0000000000000000     
   6.5588764649460105E-002  0.22221274547298994        0.0000000000000000     
   6.6035532320333518E-002  0.23059991528779589        0.0000000000000000     
   5.6951758283029952E-002  0.19733006899578154        0.0000000000000000     
   5.7531082065640615E-002  0.20550854640113703        0.0000000000000000     
   5.8043229404854971E-002  0.21376146911692764        0.0000000000000000     
   5.8488200300673018E-002  0.22208883714315342        0.0000000000000000     
   5.8865994753094758E-002  0.23049065047981432        0.0000000000000000     
   5.0240630712138253E-002  0.19718306984473991        0.0000000000000000     
   5.0742386552492677E-002  0.20537927189515884        0.0000000000000000     
   5.1183763340748818E-002  0.21364712185029505        0.0000000000000000     
   5.1564761076906676E-002  0.22198661971014863        0.0000000000000000     
   5.1885379760966237E-002  0.23039776547471949        0.0000000000000000     
   8.0941375180141717E-002  0.23086758431241944        0.0000000000000000     
   8.1477597784915312E-002  0.23930535069891645        0.0000000000000000     
   8.1919428165144442E-002  0.24785977563174866        0.0000000000000000     
   8.2266866320829093E-002  0.25653085911091611        0.0000000000000000     
   8.2519912251969293E-002  0.26531860113641875        0.0000000000000000     
   7.3393992462682495E-002  0.23072555989866428        0.0000000000000000     
   7.3844584845684708E-002  0.23918277384720416        0.0000000000000000     
   7.4214959974208808E-002  0.24774387631266701        0.0000000000000000     
   7.4505117848254754E-002  0.25640886729505280        0.0000000000000000     
   7.4715058467822601E-002  0.26517774679436168        0.0000000000000000     
   6.6035532320333518E-002  0.23059991528779589        0.0000000000000000     
   6.6412908251244213E-002  0.23906972072319080        0.0000000000000000     
   6.6723109014375295E-002  0.24762886506351928        0.0000000000000000     
   6.6966134609726724E-002  0.25627734830878124        0.0000000000000000     
   6.7141985037298513E-002  0.26501517045897682        0.0000000000000000     
   5.8865994753094758E-002  0.23049065047981432        0.0000000000000000     
   5.9182568001593827E-002  0.23896619132687624        0.0000000000000000     
   5.9443875285643905E-002  0.24751474188430519        0.0000000000000000     
   5.9649916605244956E-002  0.25613630215210120        0.0000000000000000     
   5.9800691960397015E-002  0.26483087213026418        0.0000000000000000     
   5.1885379760966237E-002  0.23039776547471949        0.0000000000000000     
   5.2153564096733551E-002  0.23887218565826063        0.0000000000000000     
   5.2377258788014622E-002  0.24740150677502507        0.0000000000000000     
   5.2556463834809490E-002  0.25598572882501275        0.0000000000000000     
   5.2691179237118128E-002  0.26462485180822376        0.0000000000000000     
   8.2519912251969293E-002  0.26531860113641875        0.0000000000000000     
   8.2717491602074866E-002  0.27424929872014642        0.0000000000000000     
   8.2898530014655580E-002  0.28334924887398888        0.0000000000000000     
   8.3063027489711519E-002  0.29261845159794619        0.0000000000000000     
   8.3210984027242613E-002  0.30205690689201825        0.0000000000000000     
   7.4715058467822601E-002  0.26517774679436168        0.0000000000000000     
   7.4885724854017580E-002  0.27404410042809035        0.0000000000000000     
   7.5058060027944920E-002  0.28300151381373589        0.0000000000000000     
   7.5232063989604664E-002  0.29204998695129830        0.0000000000000000     
   7.5407736738996783E-002  0.30118951984077752        0.0000000000000000     
   6.7141985037298513E-002  0.26501517045897682        0.0000000000000000     
   6.7290935273903493E-002  0.27381242709479259        0.0000000000000000     
   6.7453260296354511E-002  0.28263921379691531        0.0000000000000000     
   6.7628960104651553E-002  0.29149553056534494        0.0000000000000000     
   6.7818034698794660E-002  0.30038137740008136        0.0000000000000000     
   5.9800691960397015E-002  0.26483087213026418        0.0000000000000000     
   5.9933122861732635E-002  0.27355427872025312        0.0000000000000000     
   6.0084130819884361E-002  0.28226234882352713        0.0000000000000000     
   6.0253715834852228E-002  0.29095508244008605        0.0000000000000000     
   6.0441877906636202E-002  0.29963247956992994        0.0000000000000000     
   5.2691179237118128E-002  0.26462485180822376        0.0000000000000000     
   5.2812287617504977E-002  0.27326965530447189        0.0000000000000000     
   5.2950671598534477E-002  0.28187091889357124        0.0000000000000000     
   5.3106331180206634E-002  0.29042864257552159        0.0000000000000000     
   5.3279266362521449E-002  0.29894282635032315        0.0000000000000000     
   2.9002462363250443E-002   5.7196208034094975E-002   0.0000000000000000     
   3.0552167067569275E-002   6.2755309552030403E-002   0.0000000000000000     
   3.2046808500253786E-002   6.8494673940305159E-002   0.0000000000000000     
   3.3486386661303991E-002   7.4414301198919244E-002   0.0000000000000000     
   3.4870901550719868E-002   8.0514191327872658E-002   0.0000000000000000     
   2.5043163095525872E-002   5.6648384292852239E-002   0.0000000000000000     
   2.6410723964272576E-002   6.2246471829431015E-002   0.0000000000000000     
   2.7729549931963061E-002   6.8020885194605099E-002   0.0000000000000000     
   2.8999640998597313E-002   7.3971624388374471E-002   0.0000000000000000     
   3.0220997164175332E-002   8.0098689410739179E-002   0.0000000000000000     
   2.1217840424466311E-002   5.6223345007167788E-002   0.0000000000000000     
   2.2397625145214060E-002   6.1839195255351996E-002   0.0000000000000000     
   2.3534871849415745E-002   6.7631679469521366E-002   0.0000000000000000     
   2.4629580537071358E-002   7.3600797649675920E-002   0.0000000000000000     
   2.5681751208180899E-002   7.9746549795815649E-002   0.0000000000000000     
   1.7526494350071770E-002   5.5921090177041624E-002   0.0000000000000000     
   1.8512870610393729E-002   6.1533479829793354E-002   0.0000000000000000     
   1.9462774252611847E-002   6.7327056765054016E-002   0.0000000000000000     
   2.0376205276726123E-002   7.3301820982823590E-002   0.0000000000000000     
   2.1253163682736567E-002   7.9457772483102096E-002   0.0000000000000000     
   1.3969124872342243E-002   5.5741619802473732E-002   0.0000000000000000     
   1.4756460359811575E-002   6.1329325552755082E-002   0.0000000000000000     
   1.5513257141551363E-002   6.7107017081203008E-002   0.0000000000000000     
   1.6239515217561621E-002   7.3074694387817482E-002   0.0000000000000000     
   1.6935234587842331E-002   7.9232357472598505E-002   0.0000000000000000     
   3.4870901550719868E-002   8.0514191327872658E-002   0.0000000000000000     
   3.6205759306434701E-002   8.6783456279460450E-002   0.0000000000000000     
   3.7496366066381716E-002   9.3211208005977694E-002   0.0000000000000000     
   3.8742721830560933E-002   9.9797446507424406E-002   0.0000000000000000     
   3.9944826598972347E-002  0.10654217178380056        0.0000000000000000     
   3.0220997164175332E-002   8.0098689410739179E-002   0.0000000000000000     
   3.1397925716424302E-002   8.6391970946732524E-002   0.0000000000000000     
   3.2534733943071395E-002   9.2841359681387847E-002   0.0000000000000000     
   3.3631421844116598E-002   9.9446855614705190E-002   0.0000000000000000     
   3.4687989419559924E-002  0.10620845874668451        0.0000000000000000     
   2.5681751208180899E-002   7.9746549795815649E-002   0.0000000000000000     
   2.6695190451970517E-002   8.6058000971069332E-002   0.0000000000000000     
   2.7673704857666365E-002   9.2524216238565771E-002   0.0000000000000000     
   2.8617294425268437E-002   9.9145195598304980E-002   0.0000000000000000     
   2.9525959154776734E-002  0.10592093905028692        0.0000000000000000     
   2.1253163682736567E-002   7.9457772483102096E-002   0.0000000000000000     
   2.2097553513073343E-002   8.5781546352470942E-002   0.0000000000000000     
   2.2913278810166634E-002   9.2259777677511479E-002   0.0000000000000000     
   2.3700339574016446E-002   9.8892466458223791E-002   0.0000000000000000     
   2.4458735804622770E-002  0.10567961269460781        0.0000000000000000     
   1.6935234587842331E-002   7.9232357472598505E-002   0.0000000000000000     
   1.7605014899732773E-002   8.5562607090937298E-002   0.0000000000000000     
   1.8253455800572201E-002   9.2048043998224985E-002   0.0000000000000000     
   1.8880557290360624E-002   9.8688668194461607E-002   0.0000000000000000     
   1.9486319369098032E-002  0.10548447967964716        0.0000000000000000     
   3.9944826598972347E-002  0.10654217178380056        0.0000000000000000     
   4.1097436206474908E-002  0.11343352301361746        0.0000000000000000     
   4.2195306487927561E-002  0.12045963937538645        0.0000000000000000     
   4.3238437443330315E-002  0.12762052086910750        0.0000000000000000     
   4.4226829072683160E-002  0.13491616749478066        0.0000000000000000     
   3.4687989419559924E-002  0.10620845874668451        0.0000000000000000     
   3.5699786906141583E-002  0.11311548708697923        0.0000000000000000     
   3.6662164540601776E-002  0.12015725864524271        0.0000000000000000     
   3.7575122322940510E-002  0.12733377342147500        0.0000000000000000     
   3.8438660253157786E-002  0.13464503141567608        0.0000000000000000     
   2.9525959154776734E-002  0.10592093905028692        0.0000000000000000     
   3.0395429244299162E-002  0.11284154353915415        0.0000000000000000     
   3.1221434891943647E-002  0.11989710600954923        0.0000000000000000     
   3.2003976097710184E-002  0.12708762646147212        0.0000000000000000     
   3.2743052861598759E-002  0.13441310489492286        0.0000000000000000     
   2.4458735804622770E-002  0.10567961269460781        0.0000000000000000     
   2.5184363220947657E-002  0.11261169237014232        0.0000000000000000     
   2.5873117541953178E-002  0.11967918146830599        0.0000000000000000     
   2.6524998767639318E-002  0.12688207998909889        0.0000000000000000     
   2.7140006898006084E-002  0.13422038793252100        0.0000000000000000     
   1.9486319369098032E-002  0.10548447967964716        0.0000000000000000     
   2.0066588836087064E-002  0.11242593357994365        0.0000000000000000     
   2.0617212490630369E-002  0.11950348502151302        0.0000000000000000     
   2.1138190332727937E-002  0.12671713400435530        0.0000000000000000     
   2.1629522362379767E-002  0.13406688052847049        0.0000000000000000     
   4.4226829072683160E-002  0.13491616749478066        0.0000000000000000     
   4.5162344136157329E-002  0.14233444578030308        0.0000000000000000     
   4.6046845393924021E-002  0.14986322225357199        0.0000000000000000     
   4.6880332845983259E-002  0.15750249691458734        0.0000000000000000     
   4.7662806492335022E-002  0.16525226976334920        0.0000000000000000     
   3.8438660253157786E-002  0.13464503141567608        0.0000000000000000     
   3.9254959862789679E-002  0.14207951734346524        0.0000000000000000     
   4.0026202683372286E-002  0.14962571592046195        0.0000000000000000     
   4.0752388714905594E-002  0.15728362714666602        0.0000000000000000     
   4.1433517957389615E-002  0.16505325102207757        0.0000000000000000     
   3.2743052861598759E-002  0.13441310489492286        0.0000000000000000     
   3.3440867325748420E-002  0.14186226030564977        0.0000000000000000     
   3.4099621632298176E-002  0.14942381168940119        0.0000000000000000     
   3.4719315781248039E-002  0.15709775904617709        0.0000000000000000     
   3.5299949772598004E-002  0.16488410237597750        0.0000000000000000     
   2.7140006898006084E-002  0.13422038793252100        0.0000000000000000     
   2.7720066525033529E-002  0.14168267466685650        0.0000000000000000     
   2.8267102240701687E-002  0.14925750956038969        0.0000000000000000     
   2.8781114045010575E-002  0.15694489261312058        0.0000000000000000     
   2.9262101937960187E-002  0.16474482382504907        0.0000000000000000     
   2.1629522362379767E-002  0.13406688052847049        0.0000000000000000     
   2.2092557460645014E-002  0.14154076042708558        0.0000000000000000     
   2.2528644508582833E-002  0.14912680953342755        0.0000000000000000     
   2.2937783506193216E-002  0.15682502784749641        0.0000000000000000     
   2.3319974453476167E-002  0.16463541536929219        0.0000000000000000     
   4.7662806492335022E-002  0.16525226976334920        0.0000000000000000     
   4.8391645563696253E-002  0.17310171122541246        0.0000000000000000     
   4.9064229290783877E-002  0.18103999172633195        0.0000000000000000     
   4.9680557673597872E-002  0.18906711126610778        0.0000000000000000     
   5.0240630712138253E-002  0.19718306984473991        0.0000000000000000     
   4.1433517957389615E-002  0.16505325102207757        0.0000000000000000     
   4.2066632548506094E-002  0.17292278260984337        0.0000000000000000     
   4.2648774625936789E-002  0.18088041697311030        0.0000000000000000     
   4.3179944189681706E-002  0.18892615411187835        0.0000000000000000     
   4.3660141239740831E-002  0.19705999402614752        0.0000000000000000     
   3.5299949772598004E-002  0.16488410237597750        0.0000000000000000     
   3.5838593474616161E-002  0.17277043965054084        0.0000000000000000     
   3.6332316755570623E-002  0.18074436884160552        0.0000000000000000     
   3.6781119615461363E-002  0.18880588994917158        0.0000000000000000     
   3.7185002054288416E-002  0.19695500297323895        0.0000000000000000     
   2.9262101937960187E-002  0.16474482382504907        0.0000000000000000     
   2.9707528342026467E-002  0.17264468234750482        0.0000000000000000     
   3.0114855679685356E-002  0.18063184733181767        0.0000000000000000     
   3.0484083950936870E-002  0.18870631877798741        0.0000000000000000     
   3.0815213155780986E-002  0.19686809668601415        0.0000000000000000     
   2.3319974453476167E-002  0.16463541536929219        0.0000000000000000     
   2.3673437150736994E-002  0.17254551070073540        0.0000000000000000     
   2.3996391398281001E-002  0.18054285244374663        0.0000000000000000     
   2.4288837196108189E-002  0.18862744059832584        0.0000000000000000     
   2.4550774544218560E-002  0.19679927516447310        0.0000000000000000     
   5.0240630712138253E-002  0.19718306984473991        0.0000000000000000     
   5.0742386552492677E-002  0.20537927189515884        0.0000000000000000     
   5.1183763340748818E-002  0.21364712185029505        0.0000000000000000     
   5.1564761076906676E-002  0.22198661971014863        0.0000000000000000     
   5.1885379760966237E-002  0.23039776547471949        0.0000000000000000     
   4.3660141239740831E-002  0.19705999402614752        0.0000000000000000     
   4.4088629481128842E-002  0.20527197468198424        0.0000000000000000     
   4.4464672618860404E-002  0.21355213404545489        0.0000000000000000     
   4.4788270652935516E-002  0.22190047211655944        0.0000000000000000     
   4.5059423583354172E-002  0.23031698889529792        0.0000000000000000     
   3.7185002054288416E-002  0.19695500297323895        0.0000000000000000     
   3.7544122500845829E-002  0.20518025010942109        0.0000000000000000     
   3.7858639383927695E-002  0.21347017355333134        0.0000000000000000     
   3.8128552703533998E-002  0.22182477330496969        0.0000000000000000     
   3.8353862459664753E-002  0.23024404936433621        0.0000000000000000     
   3.0815213155780986E-002  0.19686809668601415        0.0000000000000000     
   3.1108865611643628E-002  0.20510409817746930        0.0000000000000000     
   3.1365663635950669E-002  0.21340124037392441        0.0000000000000000     
   3.1585607228702128E-002  0.22175952327537934        0.0000000000000000     
   3.1768696389898002E-002  0.23017894688183424        0.0000000000000000     
   2.4550774544218560E-002  0.19679927516447310        0.0000000000000000     
   2.4782858813522241E-002  0.20504351888612901        0.0000000000000000     
   2.4985745374929359E-002  0.21334533450723414        0.0000000000000000     
   2.5159434228439911E-002  0.22170472202778846        0.0000000000000000     
   2.5303925374053904E-002  0.23012168144779205        0.0000000000000000     
   5.1885379760966237E-002  0.23039776547471949        0.0000000000000000     
   5.2153564096733551E-002  0.23887218565826063        0.0000000000000000     
   5.2377258788014622E-002  0.24740150677502507        0.0000000000000000     
   5.2556463834809490E-002  0.25598572882501275        0.0000000000000000     
   5.2691179237118128E-002  0.26462485180822376        0.0000000000000000     
   4.5059423583354172E-002  0.23031698889529792        0.0000000000000000     
   4.5286810589476013E-002  0.23878628080028075        0.0000000000000000     
   4.5479110850660705E-002  0.24729294425011814        0.0000000000000000     
   4.5636324366908246E-002  0.25583697924481019        0.0000000000000000     
   4.5758451138218637E-002  0.26441838578435684        0.0000000000000000     
   3.8353862459664753E-002  0.23024404936433621        0.0000000000000000     
   3.8543221532633891E-002  0.23870705383587337        0.0000000000000000     
   3.8705282802755377E-002  0.24719283882402396        0.0000000000000000     
   3.8840046270029190E-002  0.25570140432878768        0.0000000000000000     
   3.8947511934455337E-002  0.26423275035016475        0.0000000000000000     
   3.1768696389898002E-002  0.23017894688183424        0.0000000000000000     
   3.1922796926207198E-002  0.23863450476503870        0.0000000000000000     
   3.2055774644298637E-002  0.24710119049674231        0.0000000000000000     
   3.2167629544172321E-002  0.25557900407694528        0.0000000000000000     
   3.2258361625828257E-002  0.26406794550564738        0.0000000000000000     
   2.5303925374053904E-002  0.23012168144779205        0.0000000000000000     
   2.5425536770195913E-002  0.23856863358777652        0.0000000000000000     
   2.5530586375290487E-002  0.24701799926827347        0.0000000000000000     
   2.5619074189337641E-002  0.25546977848928293        0.0000000000000000     
   2.5691000212337368E-002  0.26392397125080480        0.0000000000000000     
   5.2691179237118128E-002  0.26462485180822376        0.0000000000000000     
   5.2812287617504977E-002  0.27326965530447189        0.0000000000000000     
   5.2950671598534477E-002  0.28187091889357124        0.0000000000000000     
   5.3106331180206634E-002  0.29042864257552159        0.0000000000000000     
   5.3279266362521449E-002  0.29894282635032315        0.0000000000000000     
   4.5758451138218637E-002  0.26441838578435684        0.0000000000000000     
   4.5869668668460623E-002  0.27298724680823255        0.0000000000000000     
   4.5994154461502998E-002  0.28149364525591181        0.0000000000000000     
   4.6131908517345756E-002  0.28993758112739443        0.0000000000000000     
   4.6282930835988889E-002  0.29831905442268059        0.0000000000000000     
   3.8947511934455337E-002  0.26423275035016475        0.0000000000000000     
   3.9046505141839674E-002  0.27273574319231858        0.0000000000000000     
   3.9155851237988065E-002  0.28115924915941265        0.0000000000000000     
   3.9275550222900510E-002  0.28950326825144701        0.0000000000000000     
   3.9405602096577001E-002  0.29776780046842172        0.0000000000000000     
   3.2258361625828257E-002  0.26406794550564738        0.0000000000000000     
   3.2342797037642139E-002  0.27251514445672992        0.0000000000000000     
   3.2435761927989692E-002  0.28086773060407394        0.0000000000000000     
   3.2537256296870917E-002  0.28912570394767956        0.0000000000000000     
   3.2647280144285806E-002  0.29728906448754661        0.0000000000000000     
   2.5691000212337368E-002  0.26392397125080480        0.0000000000000000     
   2.5758544355868003E-002  0.27232545060146662        0.0000000000000000     
   2.5833886531507862E-002  0.28061908958989562        0.0000000000000000     
   2.5917026739256957E-002  0.28880488821609185        0.0000000000000000     
   2.6007964979115283E-002  0.29688284648005525        0.0000000000000000     
   1.3969124872342243E-002   5.5741619802473732E-002   0.0000000000000000     
   1.4756460359811575E-002   6.1329325552755082E-002   0.0000000000000000     
   1.5513257141551363E-002   6.7107017081203008E-002   0.0000000000000000     
   1.6239515217561621E-002   7.3074694387817482E-002   0.0000000000000000     
   1.6935234587842331E-002   7.9232357472598505E-002   0.0000000000000000     
   1.0480570325110402E-002   5.5629461163573868E-002   0.0000000000000000     
   1.1066932667187383E-002   6.1191082648462798E-002   0.0000000000000000     
   1.1629088258416119E-002   6.6950721476932012E-002   0.0000000000000000     
   1.2167037098796615E-002   7.2908377648981559E-002   0.0000000000000000     
   1.2680779188328870E-002   7.9064051164611376E-002   0.0000000000000000     
   6.9956690422089182E-003   5.5529141540451785E-002   0.0000000000000000     
   7.3828258062409386E-003   6.1083101341142122E-002   0.0000000000000000     
   7.7530353453879337E-003   6.6837331011204801E-002   0.0000000000000000     
   8.1062976596499008E-003   7.2791830550639841E-002   0.0000000000000000     
   8.4426127490268444E-003   7.8946599959447208E-002   0.0000000000000000     
   3.5144210236377881E-003   5.5440660933107469E-002   0.0000000000000000     
   3.7041397769722408E-003   6.1005381630793033E-002   0.0000000000000000     
   3.8850984024668017E-003   6.6766845684021303E-002   0.0000000000000000     
   4.0572969001214732E-003   7.2725053092792299E-002   0.0000000000000000     
   4.2207352699362537E-003   7.8880003857106029E-002   0.0000000000000000     
   3.6826269397015332E-005   5.5364019341540942E-002   0.0000000000000000     
   3.0874579381288784E-005   6.0957923517415538E-002   0.0000000000000000     
   2.5277429652727766E-005   6.6739265495381533E-002   0.0000000000000000     
   2.0034820211330785E-005   7.2708045275438962E-002   0.0000000000000000     
   1.5146751057100579E-005   7.8864262857587797E-002   0.0000000000000000     
   1.6935234587842331E-002   7.9232357472598505E-002   0.0000000000000000     
   1.7605014899732773E-002   8.5562607090937298E-002   0.0000000000000000     
   1.8253455800572201E-002   9.2048043998224985E-002   0.0000000000000000     
   1.8880557290360624E-002   9.8688668194461607E-002   0.0000000000000000     
   1.9486319369098032E-002  0.10548447967964716        0.0000000000000000     
   1.2680779188328870E-002   7.9064051164611376E-002   0.0000000000000000     
   1.3175395859606542E-002   8.5396947357464142E-002   0.0000000000000000     
   1.3655968445223298E-002   9.1886271561182495E-002   0.0000000000000000     
   1.4122496945179136E-002   9.8532023775766475E-002   0.0000000000000000     
   1.4574981359474055E-002  0.10533420400121600        0.0000000000000000     
   8.4426127490268444E-003   7.8946599959447208E-002   0.0000000000000000     
   8.7665176403523854E-003   8.5280331323047256E-002   0.0000000000000000     
   9.0825493604601536E-003   9.1771716726860297E-002   0.0000000000000000     
   9.3907079093501541E-003   9.8420756170886317E-002   0.0000000000000000     
   9.6909932870223748E-003  0.10522744965512530        0.0000000000000000     
   4.2207352699362537E-003   7.8880003857106029E-002   0.0000000000000000     
   4.3783802419703009E-003   8.5212758987686668E-002   0.0000000000000000     
   4.5331985462827738E-003   9.1704379495258379E-002   0.0000000000000000     
   4.6851901828736690E-003   9.8354865379821202E-002   0.0000000000000000     
   4.8343551517429908E-003  0.10516421664137512        0.0000000000000000     
   1.5146751057100579E-005   7.8864262857587797E-002   0.0000000000000000     
   1.0983664460289307E-005   8.5194230351382308E-002   0.0000000000000000     
   7.9160026911518906E-006   9.1684259866376738E-002   0.0000000000000000     
   5.9437657496898337E-006   9.8334351402571102E-002   0.0000000000000000     
   5.0669536359009004E-006  0.10514450495996540        0.0000000000000000     
   1.9486319369098032E-002  0.10548447967964716        0.0000000000000000     
   2.0066588836087064E-002  0.11242593357994365        0.0000000000000000     
   2.0617212490630369E-002  0.11950348502151302        0.0000000000000000     
   2.1138190332727937E-002  0.12671713400435530        0.0000000000000000     
   2.1629522362379767E-002  0.13406688052847049        0.0000000000000000     
   1.4574981359474055E-002  0.10533420400121600        0.0000000000000000     
   1.5009374882194858E-002  0.11228298085881593        0.0000000000000000     
   1.5421630707428333E-002  0.11936852296985102        0.0000000000000000     
   1.5811748835174489E-002  0.12659083033432128        0.0000000000000000     
   1.6179729265433321E-002  0.13394990295222672        0.0000000000000000     
   9.6909932870223748E-003  0.10522744965512530        0.0000000000000000     
   9.9799901517484985E-003  0.11218154789701694        0.0000000000000000     
   1.0254283161800186E-002  0.11927280161400072        0.0000000000000000     
   1.0513872317177443E-002  0.12650121080607679        0.0000000000000000     
   1.0758757617880269E-002  0.13386677547324505        0.0000000000000000     
   4.8343551517429908E-003  0.10516421664137512        0.0000000000000000     
   4.9784346447479932E-003  0.11212163469454663        0.0000000000000000     
   5.1151698537459300E-003  0.11921632095396217        0.0000000000000000     
   5.2445607787368030E-003  0.12644827541962181        0.0000000000000000     
   5.3666074197206105E-003  0.13381749809152546        0.0000000000000000     
   5.0669536359009004E-006  0.10514450495996540        0.0000000000000000     
   4.7083611933410475E-006  0.11210324125140501        0.0000000000000000     
   4.2907832655621116E-006  0.11919908098973531        0.0000000000000000     
   3.8142198525647976E-006  0.12643202417495633        0.0000000000000000     
   3.2786709543487259E-006  0.13380207080706802        0.0000000000000000     
   2.1629522362379767E-002  0.13406688052847049        0.0000000000000000     
   2.2092557460645014E-002  0.14154076042708558        0.0000000000000000     
   2.2528644508582833E-002  0.14912680953342755        0.0000000000000000     
   2.2937783506193216E-002  0.15682502784749641        0.0000000000000000     
   2.3319974453476167E-002  0.16463541536929219        0.0000000000000000     
   1.6179729265433321E-002  0.13394990295222672        0.0000000000000000     
   1.6526295951382504E-002  0.14143317146447892        0.0000000000000000     
   1.6852172846199720E-002  0.14902806651198947        0.0000000000000000     
   1.7157359949884956E-002  0.15673458809475835        0.0000000000000000     
   1.7441857262438226E-002  0.16455273621278566        0.0000000000000000     
   1.0758757617880269E-002  0.13386677547324505        0.0000000000000000     
   1.0989237816045622E-002  0.14135656165717853        0.0000000000000000     
   1.1205611663810471E-002  0.14895763539955018        0.0000000000000000     
   1.1407879161174812E-002  0.15666999670036011        0.0000000000000000     
   1.1596040308138643E-002  0.16449364555960819        0.0000000000000000     
   5.3666074197206105E-003  0.13381749809152546        0.0000000000000000     
   5.4813830546343676E-003  0.14131093100518444        0.0000000000000000     
   5.5889609614150886E-003  0.14891551619610979        0.0000000000000000     
   5.6893411400627727E-003  0.15663125366430158        0.0000000000000000     
   5.7825235905774180E-003  0.16445814340975975        0.0000000000000000     
   3.2786709543487259E-006  0.13380207080706802        0.0000000000000000     
   2.7316671487420240E-006  0.14129627950849658        0.0000000000000000     
   2.2207390135730361E-006  0.14890170890166821        0.0000000000000000     
   1.7458865488432260E-006  0.15661835898658280        0.0000000000000000     
   1.3071097545503708E-006  0.16444622976324047        0.0000000000000000     
   2.3319974453476167E-002  0.16463541536929219        0.0000000000000000     
   2.3673437150736994E-002  0.17254551070073540        0.0000000000000000     
   2.3996391398281001E-002  0.18054285244374663        0.0000000000000000     
   2.4288837196108189E-002  0.18862744059832584        0.0000000000000000     
   2.4550774544218560E-002  0.19679927516447310        0.0000000000000000     
   1.7441857262438226E-002  0.16455273621278566        0.0000000000000000     
   1.7704705329245521E-002  0.17247034557735330        0.0000000000000000     
   1.7944944695692848E-002  0.18047525089974337        0.0000000000000000     
   1.8162575361780196E-002  0.18856745217995577        0.0000000000000000     
   1.8357597327507576E-002  0.19674694941799065        0.0000000000000000     
   1.1596040308138643E-002  0.16449364555960819        0.0000000000000000     
   1.1769718306049818E-002  0.17241660784447940        0.0000000000000000     
   1.1928536356256184E-002  0.18042690942215869        0.0000000000000000     
   1.2072494458757743E-002  0.18852455029264603        0.0000000000000000     
   1.2201592613554494E-002  0.19670953045594144        0.0000000000000000     
   5.7825235905774180E-003  0.16445814340975975        0.0000000000000000     
   5.8684760811498820E-003  0.17238429750211370        0.0000000000000000     
   5.9471663799710184E-003  0.18039782801099263        0.0000000000000000     
   6.0185944870408282E-003  0.18849873493639663        0.0000000000000000     
   6.0827604023593104E-003  0.19668701827832558        0.0000000000000000     
   1.3071097545503708E-006  0.16444622976324047        0.0000000000000000     
   9.7865454571190516E-007  0.17237341455025626        0.0000000000000000     
   8.3476683734472115E-007  0.18038800666624527        0.0000000000000000     
   8.7544662945030958E-007  0.18849000611120750        0.0000000000000000     
   1.1006939220274507E-006  0.19667941288514301        0.0000000000000000     
   2.4550774544218560E-002  0.19679927516447310        0.0000000000000000     
   2.4782858813522241E-002  0.20504351888612901        0.0000000000000000     
   2.4985745374929359E-002  0.21334533450723414        0.0000000000000000     
   2.5159434228439911E-002  0.22170472202778846        0.0000000000000000     
   2.5303925374053904E-002  0.23012168144779205        0.0000000000000000     
   1.8357597327507576E-002  0.19674694941799065        0.0000000000000000     
   1.8530479442845759E-002  0.20499731164949483        0.0000000000000000     
   1.8681690557765526E-002  0.21330210791011542        0.0000000000000000     
   1.8811230672266872E-002  0.22166133819985237        0.0000000000000000     
   1.8919099786349806E-002  0.23007500251870566        0.0000000000000000     
   1.2201592613554494E-002  0.19670953045594144        0.0000000000000000     
   1.2316104835978288E-002  0.20496427588166166        0.0000000000000000     
   1.2416305141360972E-002  0.21327121253942330        0.0000000000000000     
   1.2502193529702551E-002  0.22163034042922641        0.0000000000000000     
   1.2573770001003022E-002  0.23004165955107103        0.0000000000000000     
   6.0827604023593104E-003  0.19668701827832558        0.0000000000000000     
   6.1397349929198149E-003  0.20494441158262935        0.0000000000000000     
   6.1895891257156910E-003  0.21325264839515770        0.0000000000000000     
   6.2323228007469403E-003  0.22161172871591067        0.0000000000000000     
   6.2679360180135585E-003  0.23002165254488821        0.0000000000000000     
   1.1006939220274507E-006  0.19667941288514301        0.0000000000000000     
   1.3699136703485600E-006  0.20493771875239800        0.0000000000000000     
   1.5425108296875708E-006  0.21324641547731865        0.0000000000000000     
   1.6184854000433446E-006  0.22160550305990506        0.0000000000000000     
   1.5978373814175620E-006  0.23001498150015715        0.0000000000000000     
   2.5303925374053904E-002  0.23012168144779205        0.0000000000000000     
   2.5425536770195913E-002  0.23856863358777652        0.0000000000000000     
   2.5530586375290487E-002  0.24701799926827347        0.0000000000000000     
   2.5619074189337641E-002  0.25546977848928293        0.0000000000000000     
   2.5691000212337368E-002  0.26392397125080480        0.0000000000000000     
   1.8919099786349806E-002  0.23007500251870566        0.0000000000000000     
   1.9009778592119535E-002  0.23851392029823792        0.0000000000000000     
   1.9087747781681281E-002  0.24694891097001193        0.0000000000000000     
   1.9153007355035050E-002  0.25537997453402755        0.0000000000000000     
   1.9205557312180842E-002  0.26380711099028487        0.0000000000000000     
   1.2573770001003022E-002  0.23004165955107103        0.0000000000000000     
   1.2633859919497573E-002  0.23847484489057408        0.0000000000000000     
   1.2685288649421386E-002  0.24689957143335248        0.0000000000000000     
   1.2728056190774467E-002  0.25531583917940620        0.0000000000000000     
   1.2762162543556816E-002  0.26372364812873533        0.0000000000000000     
   6.2679360180135585E-003  0.23002165254488821        0.0000000000000000     
   6.2977807523300205E-003  0.23845140736478482        0.0000000000000000     
   6.3232089785107979E-003  0.24686998065829505        0.0000000000000000     
   6.3442206965558896E-003  0.25527737242541881        0.0000000000000000     
   6.3608159064652949E-003  0.26367358266615620        0.0000000000000000     
   1.5978373814175620E-006  0.23001498150015715        0.0000000000000000     
   1.5410906168823561E-006  0.23844360772087025        0.0000000000000000     
   1.5087689495151728E-006  0.24686013864483972        0.0000000000000000     
   1.5008723793137624E-006  0.25526457427206545        0.0000000000000000     
   1.5174009062790192E-006  0.26365691460254748        0.0000000000000000     
   2.5691000212337368E-002  0.26392397125080480        0.0000000000000000     
   2.5758544355868003E-002  0.27232545060146662        0.0000000000000000     
   2.5833886531507862E-002  0.28061908958989562        0.0000000000000000     
   2.5917026739256957E-002  0.28880488821609185        0.0000000000000000     
   2.6007964979115283E-002  0.29688284648005525        0.0000000000000000     
   1.9205557312180842E-002  0.26380711099028487        0.0000000000000000     
   1.9255337728829688E-002  0.27217299259885747        0.0000000000000000     
   1.9312288680692645E-002  0.28042029161981885        0.0000000000000000     
   1.9376410167769698E-002  0.28854900805316913        0.0000000000000000     
   1.9447702190060853E-002  0.29655914189890836        0.0000000000000000     
   1.2762162543556816E-002  0.26372364812873533        0.0000000000000000     
   1.2794767788839621E-002  0.27206410142123116        0.0000000000000000     
   1.2833032007694077E-002  0.28027830219678496        0.0000000000000000     
   1.2876955200120183E-002  0.28836625045539677        0.0000000000000000     
   1.2926537366117943E-002  0.29632794619706665        0.0000000000000000     
   6.3608159064652949E-003  0.26367358266615620        0.0000000000000000     
   6.3768345358977945E-003  0.27199877706858772        0.0000000000000000     
   6.3961165125121676E-003  0.28019312132079383        0.0000000000000000     
   6.4186618363084157E-003  0.28825661542277459        0.0000000000000000     
   6.4444705072865356E-003  0.29618925937453011        0.0000000000000000     
   1.5174009062790192E-006  0.26365691460254748        0.0000000000000000     
   1.5379700042128259E-006  0.27197701954092718        0.0000000000000000     
   1.5421951469176071E-006  0.28016474899184551        0.0000000000000000     
   1.5300763343940405E-006  0.28822010295530270        0.0000000000000000     
   1.5016135666411773E-006  0.29614308143129880        0.0000000000000000     
   3.6826269397015332E-005   5.5364019341540942E-002   0.0000000000000000     
   3.0874579381288784E-005   6.0957923517415538E-002   0.0000000000000000     
   2.5277429652727766E-005   6.6739265495381533E-002   0.0000000000000000     
   2.0034820211330785E-005   7.2708045275438962E-002   0.0000000000000000     
   1.5146751057100579E-005   7.8864262857587797E-002   0.0000000000000000     
  -3.4484684809870324E-003   5.5336379732241474E-002   0.0000000000000000     
  -3.6488818667743668E-003   6.0959782927311371E-002   0.0000000000000000     
  -3.8399099072891608E-003   6.6761011324415143E-002   0.0000000000000000     
  -4.0215526025314174E-003   7.2740064923552797E-002   0.0000000000000000     
  -4.1938099525011367E-003   7.8896943724724333E-002   0.0000000000000000     
  -6.9528164879879865E-003   5.5394905071698350E-002   0.0000000000000000     
  -7.3470416417371742E-003   6.1030015786782271E-002   0.0000000000000000     
  -7.7239459425937360E-003   6.6838504050251754E-002   0.0000000000000000     
  -8.0835293905576703E-003   7.2820369862106812E-002   0.0000000000000000     
  -8.4257919856289762E-003   7.8975613222347432E-002   0.0000000000000000     
  -1.0476217751605845E-002   5.5539595359911584E-002   0.0000000000000000     
  -1.1063604745507138E-002   6.1168622095828240E-002   0.0000000000000000     
  -1.1626830676260995E-002   6.6971743672891368E-002   0.0000000000000000     
  -1.2165895543867428E-002   7.2948960091100981E-002   0.0000000000000000     
  -1.2680799348326423E-002   7.9100271350457094E-002   0.0000000000000000     
  -1.4018672271840612E-002   5.5770450596881169E-002   0.0000000000000000     
  -1.4798571178084252E-002   6.1375601854449270E-002   0.0000000000000000     
  -1.5548564108290941E-002   6.7160730192333984E-002   0.0000000000000000     
  -1.6268651062460684E-002   7.3125835610535345E-002   0.0000000000000000     
  -1.6958832040593470E-002   7.9270918109053304E-002   0.0000000000000000     
   1.5146751057100579E-005   7.8864262857587797E-002   0.0000000000000000     
   1.0983664460289307E-005   8.5194230351382308E-002   0.0000000000000000     
   7.9160026911518906E-006   9.1684259866376738E-002   0.0000000000000000     
   5.9437657496898337E-006   9.8334351402571102E-002   0.0000000000000000     
   5.0669536359009004E-006  0.10514450495996540        0.0000000000000000     
  -4.1938099525011367E-003   7.8896943724724333E-002   0.0000000000000000     
  -4.3589583976921618E-003   8.5223202916343763E-002   0.0000000000000000     
  -4.5192743785983421E-003   9.1710397686825096E-002   0.0000000000000000     
  -4.6747578952196743E-003   9.8358528036168333E-002   0.0000000000000000     
  -4.8254089475561609E-003  0.10516759396437352        0.0000000000000000     
  -8.4257919856289762E-003   7.8975613222347432E-002   0.0000000000000000     
  -8.7547322500015675E-003   8.5298134184780564E-002   0.0000000000000000     
  -9.0743487058693416E-003   9.1781832803213184E-002   0.0000000000000000     
  -9.3846413532323088E-003   9.8426709077645266E-002   0.0000000000000000     
  -9.6856101920904641E-003  0.10523276300807684        0.0000000000000000     
  -1.2680799348326423E-002   7.9100271350457094E-002   0.0000000000000000     
  -1.3176337892467921E-002   8.5419024156692724E-002   0.0000000000000000     
  -1.3657306979121851E-002   9.1898565215540989E-002   0.0000000000000000     
  -1.4123706608288215E-002   9.8538894527001861E-002   0.0000000000000000     
  -1.4575536779967008E-002  0.10534001209107535        0.0000000000000000     
  -1.6958832040593470E-002   7.9270918109053304E-002   0.0000000000000000     
  -1.7623775325091226E-002   8.5585872832080259E-002   0.0000000000000000     
  -1.8268149198355867E-002   9.2060594923808539E-002   0.0000000000000000     
  -1.8891953660387387E-002   9.8695084384238130E-002   0.0000000000000000     
  -1.9495188711185791E-002  0.10548934121336909        0.0000000000000000     
   5.0669536359009004E-006  0.10514450495996540        0.0000000000000000     
   4.7083611933410475E-006  0.11210324125140501        0.0000000000000000     
   4.2907832655621116E-006  0.11919908098973531        0.0000000000000000     
   3.8142198525647976E-006  0.12643202417495633        0.0000000000000000     
   3.2786709543487259E-006  0.13380207080706802        0.0000000000000000     
  -4.8254089475561609E-003  0.10516759396437352        0.0000000000000000     
  -4.9700351300436384E-003  0.11212553570251321        0.0000000000000000     
  -5.1074440371179442E-003  0.11922029348166004        0.0000000000000000     
  -5.2376356687790834E-003  0.12645186730181404        0.0000000000000000     
  -5.3606100250270473E-003  0.13382025716297516        0.0000000000000000     
  -9.6856101920904641E-003  0.10523276300807684        0.0000000000000000     
  -9.9746422600911280E-003  0.11218768618279232        0.0000000000000000     
  -1.0249124594881627E-002  0.11927917019007628        0.0000000000000000     
  -1.0509057196461950E-002  0.12650721502992857        0.0000000000000000     
  -1.0754440064832107E-002  0.13387182070234932        0.0000000000000000     
  -1.4575536779967008E-002  0.10534001209107535        0.0000000000000000     
  -1.5009113028949131E-002  0.11228969269224240        0.0000000000000000     
  -1.5420750890025477E-002  0.11937571111498395        0.0000000000000000     
  -1.5810450363196036E-002  0.12659806735930001        0.0000000000000000     
  -1.6178211448460825E-002  0.13395676142519056        0.0000000000000000     
  -1.9495188711185791E-002  0.10548934121336909        0.0000000000000000     
  -2.0073447436617643E-002  0.11243155523086337        0.0000000000000000     
  -2.0622322922549494E-002  0.11950991625638312        0.0000000000000000     
  -2.1141815168981355E-002  0.12672442428992828        0.0000000000000000     
  -2.1631924175913218E-002  0.13407507933149884        0.0000000000000000     
   3.2786709543487259E-006  0.13380207080706802        0.0000000000000000     
   2.7316671487420240E-006  0.14129627950849658        0.0000000000000000     
   2.2207390135730361E-006  0.14890170890166821        0.0000000000000000     
   1.7458865488432260E-006  0.15661835898658280        0.0000000000000000     
   1.3071097545503708E-006  0.16444622976324047        0.0000000000000000     
  -5.3606100250270473E-003  0.13382025716297516        0.0000000000000000     
  -5.4763443628773386E-003  0.14131272588655830        0.0000000000000000     
  -5.5848159393454468E-003  0.14891653629397827        0.0000000000000000     
  -5.6860247544313746E-003  0.15663168838523514        0.0000000000000000     
  -5.7799708081351184E-003  0.16445818216032887        0.0000000000000000     
  -1.0754440064832107E-002  0.13387182070234932        0.0000000000000000     
  -1.0985473051909951E-002  0.14136038885881269        0.0000000000000000     
  -1.1202356009613338E-002  0.14896032115079288        0.0000000000000000     
  -1.1405088937942271E-002  0.15667161757828987        0.0000000000000000     
  -1.1593671836896748E-002  0.16449427814130368        0.0000000000000000     
  -1.6178211448460825E-002  0.13395676142519056        0.0000000000000000     
  -1.6524654399949098E-002  0.14143926842525981        0.0000000000000000     
  -1.6850399471790102E-002  0.14903306347211195        0.0000000000000000     
  -1.7155446663983855E-002  0.15673814656574692        0.0000000000000000     
  -1.7439795976530333E-002  0.16455451770616483        0.0000000000000000     
  -2.1631924175913218E-002  0.13407507933149884        0.0000000000000000     
  -2.2093888406994781E-002  0.14154936458589965        0.0000000000000000     
  -2.2528946325875751E-002  0.14913476325793551        0.0000000000000000     
  -2.2937097932556116E-002  0.15683127534760644        0.0000000000000000     
  -2.3318343227035885E-002  0.16463890085491240        0.0000000000000000     
   1.3071097545503708E-006  0.16444622976324047        0.0000000000000000     
   9.7865454571190516E-007  0.17237341455025626        0.0000000000000000     
   8.3476683734472115E-007  0.18038800666624527        0.0000000000000000     
   8.7544662945030958E-007  0.18849000611120750        0.0000000000000000     
   1.1006939220274507E-006  0.19667941288514301        0.0000000000000000     
  -5.7799708081351184E-003  0.16445818216032887        0.0000000000000000     
  -5.8664894737330310E-003  0.17238408834934302        0.0000000000000000     
  -5.9454161245014632E-003  0.18039747768236117        0.0000000000000000     
  -6.0167507604404090E-003  0.18849835015938332        0.0000000000000000     
  -6.0804933815498717E-003  0.19668670578040950        0.0000000000000000     
  -1.1593671836896748E-002  0.16449427814130368        0.0000000000000000     
  -1.1767643803656693E-002  0.17241644825981012        0.0000000000000000     
  -1.1926543935402033E-002  0.18042627335378517        0.0000000000000000     
  -1.2070372232132769E-002  0.18852375342322877        0.0000000000000000     
  -1.2199128693848900E-002  0.19670888846814094        0.0000000000000000     
  -1.7439795976530333E-002  0.16455451770616483        0.0000000000000000     
  -1.7702484335225272E-002  0.17247049428165762        0.0000000000000000     
  -1.7942548665864373E-002  0.18047439368051721        0.0000000000000000     
  -1.8159988968447633E-002  0.18856621590274381        0.0000000000000000     
  -1.8354805242975052E-002  0.19674596094833721        0.0000000000000000     
  -2.3318343227035885E-002  0.16463890085491240        0.0000000000000000     
  -2.3671011068438764E-002  0.17254622641488537        0.0000000000000000     
  -2.3993430315888468E-002  0.18054183866255741        0.0000000000000000     
  -2.4285600969384997E-002  0.18862573759792842        0.0000000000000000     
  -2.4547523028928341E-002  0.19679792322099837        0.0000000000000000     
   1.1006939220274507E-006  0.19667941288514301        0.0000000000000000     
   1.3699136703485600E-006  0.20493771875239800        0.0000000000000000     
   1.5425108296875708E-006  0.21324641547731865        0.0000000000000000     
   1.6184854000433446E-006  0.22160550305990506        0.0000000000000000     
   1.5978373814175620E-006  0.23001498150015715        0.0000000000000000     
  -6.0804933815498717E-003  0.19668670578040950        0.0000000000000000     
  -6.1369692435499857E-003  0.20494421332378693        0.0000000000000000     
  -6.1865036021608814E-003  0.21325254156786283        0.0000000000000000     
  -6.2290964573825562E-003  0.22161169051263724        0.0000000000000000     
  -6.2647478092150190E-003  0.23002166015811015        0.0000000000000000     
  -1.2199128693848900E-002  0.19670888846814094        0.0000000000000000     
  -1.2313261320521050E-002  0.20496391122961566        0.0000000000000000     
  -1.2413218112119847E-002  0.21327105444874703        0.0000000000000000     
  -1.2498999068645284E-002  0.22163031812553496        0.0000000000000000     
  -1.2570604190097366E-002  0.23004170225997952        0.0000000000000000     
  -1.8354805242975052E-002  0.19674596094833721        0.0000000000000000     
  -1.8527506317242849E-002  0.20499681246988410        0.0000000000000000     
  -1.8678601019047204E-002  0.21330195411997108        0.0000000000000000     
  -1.8808089348388131E-002  0.22166138589859810        0.0000000000000000     
  -1.8915971305265625E-002  0.23007510780576526        0.0000000000000000     
  -2.4547523028928341E-002  0.19679792322099837        0.0000000000000000     
  -2.4779704233715377E-002  0.20504291704459235        0.0000000000000000     
  -2.4982652322942969E-002  0.21334524058153514        0.0000000000000000     
  -2.5156367296611106E-002  0.22170489383182682        0.0000000000000000     
  -2.5300849154719796E-002  0.23012187679546731        0.0000000000000000     
   1.5978373814175620E-006  0.23001498150015715        0.0000000000000000     
   1.5410906168823561E-006  0.23844360772087025        0.0000000000000000     
   1.5087689495151728E-006  0.24686013864483972        0.0000000000000000     
   1.5008723793137624E-006  0.25526457427206545        0.0000000000000000     
   1.5174009062790192E-006  0.26365691460254748        0.0000000000000000     
  -6.2647478092150190E-003  0.23002166015811015        0.0000000000000000     
  -6.2946978306501495E-003  0.23845144399466925        0.0000000000000000     
  -6.3201866946798356E-003  0.24687003551270220        0.0000000000000000     
  -6.3412144013040772E-003  0.25527743471220898        0.0000000000000000     
  -6.3577809505228726E-003  0.26367364159318962        0.0000000000000000     
  -1.2570604190097366E-002  0.23004170225997952        0.0000000000000000     
  -1.2630774776479389E-002  0.23847491422202063        0.0000000000000000     
  -1.2682252127794632E-002  0.24689966138159825        0.0000000000000000     
  -1.2725036244043104E-002  0.25531594373871236        0.0000000000000000     
  -1.2759127125224800E-002  0.26372376129336289        0.0000000000000000     
  -1.8915971305265625E-002  0.23007510780576526        0.0000000000000000     
  -1.9006689746870829E-002  0.23851401840292449        0.0000000000000000     
  -1.9084687530394873E-002  0.24694901625152793        0.0000000000000000     
  -1.9149964655837768E-002  0.25538010135157552        0.0000000000000000     
  -1.9202521123199503E-002  0.26380727370306734        0.0000000000000000     
  -2.5300849154719796E-002  0.23012187679546731        0.0000000000000000     
  -2.5422442741824473E-002  0.23856875653738077        0.0000000000000000     
  -2.5527492902480558E-002  0.24701810012249117        0.0000000000000000     
  -2.5615999636688067E-002  0.25546990755079863        0.0000000000000000     
  -2.5687962944446984E-002  0.26392417882230296        0.0000000000000000     
   1.5174009062790192E-006  0.26365691460254748        0.0000000000000000     
   1.5379700042128259E-006  0.27197701954092718        0.0000000000000000     
   1.5421951469176071E-006  0.28016474899184551        0.0000000000000000     
   1.5300763343940405E-006  0.28822010295530270        0.0000000000000000     
   1.5016135666411773E-006  0.29614308143129880        0.0000000000000000     
  -6.3577809505228726E-003  0.26367364159318962        0.0000000000000000     
  -6.3737638181076868E-003  0.27199883500471178        0.0000000000000000     
  -6.3930404798299839E-003  0.28019319379584301        0.0000000000000000     
  -6.4156109356897587E-003  0.28825671796658342        0.0000000000000000     
  -6.4414751856870173E-003  0.29618940751693296        0.0000000000000000     
  -1.2759127125224800E-002  0.26372376129336289        0.0000000000000000     
  -1.2791712737704467E-002  0.27206422962640386        0.0000000000000000     
  -1.2829981047846840E-002  0.28027846431868914        0.0000000000000000     
  -1.2873932055651920E-002  0.28836646537021887        0.0000000000000000     
  -1.2923565761119710E-002  0.29632823278099285        0.0000000000000000     
  -1.9202521123199503E-002  0.26380727370306734        0.0000000000000000     
  -1.9252308788786122E-002  0.27217320340600348        0.0000000000000000     
  -1.9309279508903650E-002  0.28042056056038400        0.0000000000000000     
  -1.9373433283552094E-002  0.28854934516620906        0.0000000000000000     
  -1.9444770112731439E-002  0.29655955722347849        0.0000000000000000     
  -2.5687962944446984E-002  0.26392417882230296        0.0000000000000000     
  -2.5755551971352656E-002  0.27232575634351053        0.0000000000000000     
  -2.5830935863000417E-002  0.28061948252092755        0.0000000000000000     
  -2.5914114619390267E-002  0.28880535735455398        0.0000000000000000     
  -2.6005088240522209E-002  0.29688338084438987        0.0000000000000000     
  -1.4018672271840612E-002   5.5770450596881169E-002   0.0000000000000000     
  -1.4798571178084252E-002   6.1375601854449270E-002   0.0000000000000000     
  -1.5548564108290941E-002   6.7160730192333984E-002   0.0000000000000000     
  -1.6268651062460684E-002   7.3125835610535345E-002   0.0000000000000000     
  -1.6958832040593470E-002   7.9270918109053304E-002   0.0000000000000000     
  -1.7617519613861148E-002   5.6063781149454844E-002   0.0000000000000000     
  -1.8589891867413097E-002   6.1640789144428033E-002   0.0000000000000000     
  -1.9526809608813762E-002   6.7404506656760566E-002   0.0000000000000000     
  -2.0428272838063141E-002   7.3354933686452489E-002   0.0000000000000000     
  -2.1294281555161235E-002   7.9492070233503756E-002   0.0000000000000000     
  -2.1310099342836328E-002   5.6395897384480378E-002   0.0000000000000000     
  -2.2475517741438251E-002   6.1954018047547223E-002   0.0000000000000000     
  -2.3599230547959652E-002   6.7702116114352104E-002   0.0000000000000000     
  -2.4681237762400509E-002   7.3640191584895084E-002   0.0000000000000000     
  -2.5721539384760839E-002   7.9768244459176102E-002   0.0000000000000000     
  -2.5096411458766135E-002   5.6766799301957743E-002   0.0000000000000000     
  -2.6455448800159723E-002   6.2315288563806803E-002   0.0000000000000000     
  -2.7765826925728598E-002   6.8053558565108585E-002   0.0000000000000000     
  -2.9027545835472787E-002   7.3981609305863075E-002   0.0000000000000000     
  -3.0240605529392273E-002   8.0099440786070286E-002   0.0000000000000000     
  -2.8976455961650584E-002   5.7176486901886966E-002   0.0000000000000000     
  -3.0529685043577493E-002   6.2724600693206789E-002   0.0000000000000000     
  -3.2026598742120625E-002   6.8458834009029981E-002   0.0000000000000000     
  -3.3467197057279970E-002   7.4379186849356516E-002   0.0000000000000000     
  -3.4851479989055537E-002   8.0485659214186406E-002   0.0000000000000000     
  -1.6958832040593470E-002   7.9270918109053304E-002   0.0000000000000000     
  -1.7623775325091226E-002   8.5585872832080259E-002   0.0000000000000000     
  -1.8268149198355867E-002   9.2060594923808539E-002   0.0000000000000000     
  -1.8891953660387387E-002   9.8695084384238130E-002   0.0000000000000000     
  -1.9495188711185791E-002  0.10548934121336909        0.0000000000000000     
  -2.1294281555161235E-002   7.9492070233503756E-002   0.0000000000000000     
  -2.2129176296879154E-002   8.5801831906567427E-002   0.0000000000000000     
  -2.2937297599987975E-002   9.2270134314296468E-002   0.0000000000000000     
  -2.3718645464487712E-002   9.8896977456690960E-002   0.0000000000000000     
  -2.4473219890378366E-002  0.10568236133375083        0.0000000000000000     
  -2.5721539384760839E-002   7.9768244459176102E-002   0.0000000000000000     
  -2.6724672556839347E-002   8.6070053075778460E-002   0.0000000000000000     
  -2.7695174420434752E-002   9.2529395773285492E-002   0.0000000000000000     
  -2.8633044975547060E-002   9.9146272551697168E-002   0.0000000000000000     
  -2.9538284222176268E-002  0.10592068341101353        0.0000000000000000     
  -3.0240605529392273E-002   8.0099440786070286E-002   0.0000000000000000     
  -3.1410264104971830E-002   8.6390536339713400E-002   0.0000000000000000     
  -3.2541779659696214E-002   9.2838379300775584E-002   0.0000000000000000     
  -3.3635152193565450E-002   9.9442969669256823E-002   0.0000000000000000     
  -3.4690381706579503E-002  0.10620430744515709        0.0000000000000000     
  -3.4851479989055537E-002   8.0485659214186406E-002   0.0000000000000000     
  -3.6185950941276572E-002   8.6763281698372247E-002   0.0000000000000000     
  -3.7477113317772349E-002   9.3197084896766744E-002   0.0000000000000000     
  -3.8724967118542848E-002   9.9787068809369842E-002   0.0000000000000000     
  -3.9929512343588075E-002  0.10653323343618158        0.0000000000000000     
  -1.9495188711185791E-002  0.10548934121336909        0.0000000000000000     
  -2.0073447436617643E-002  0.11243155523086337        0.0000000000000000     
  -2.0622322922549494E-002  0.11950991625638312        0.0000000000000000     
  -2.1141815168981355E-002  0.12672442428992828        0.0000000000000000     
  -2.1631924175913218E-002  0.13407507933149884        0.0000000000000000     
  -2.4473219890378366E-002  0.10568236133375083        0.0000000000000000     
  -2.5196102094579207E-002  0.11261497999697719        0.0000000000000000     
  -2.5882373294009497E-002  0.11968352749787099        0.0000000000000000     
  -2.6532033488669254E-002  0.12688800383643226        0.0000000000000000     
  -2.7145082678558464E-002  0.13422840901266103        0.0000000000000000     
  -2.9538284222176268E-002  0.10592068341101353        0.0000000000000000     
  -3.0405533614316353E-002  0.11284167318890569        0.0000000000000000     
  -3.1229434605961306E-002  0.11989828672304481        0.0000000000000000     
  -3.2009987197111116E-002  0.12709052401343093        0.0000000000000000     
  -3.2747191387765780E-002  0.13441838506006404        0.0000000000000000     
  -3.4690381706579503E-002  0.10620430744515709        0.0000000000000000     
  -3.5701741995829102E-002  0.11311163480664888        0.0000000000000000     
  -3.6663506858404908E-002  0.12015419393190459        0.0000000000000000     
  -3.7575676294306908E-002  0.12733198482092425        0.0000000000000000     
  -3.8438250303535149E-002  0.13464500747370781        0.0000000000000000     
  -3.9929512343588075E-002  0.10653323343618158        0.0000000000000000     
  -4.1084727239117429E-002  0.11342486485020679        0.0000000000000000     
  -4.2184590051340294E-002  0.12045124912445031        0.0000000000000000     
  -4.3229100780256678E-002  0.12761238625891216        0.0000000000000000     
  -4.4218259425866574E-002  0.13490827625359242        0.0000000000000000     
  -2.1631924175913218E-002  0.13407507933149884        0.0000000000000000     
  -2.2093888406994781E-002  0.14154936458589965        0.0000000000000000     
  -2.2528946325875751E-002  0.14913476325793551        0.0000000000000000     
  -2.2937097932556116E-002  0.15683127534760644        0.0000000000000000     
  -2.3318343227035885E-002  0.16463890085491240        0.0000000000000000     
  -2.7145082678558464E-002  0.13422840901266103        0.0000000000000000     
  -2.7723355674802313E-002  0.14169224583875731        0.0000000000000000     
  -2.8268687288525975E-002  0.14926701712692120        0.0000000000000000     
  -2.8781077519729453E-002  0.15695272287715267        0.0000000000000000     
  -2.9260526368412750E-002  0.16474936308945173        0.0000000000000000     
  -3.2747191387765780E-002  0.13441838506006404        0.0000000000000000     
  -3.3443236805127001E-002  0.14186948068185798        0.0000000000000000     
  -3.4100313076396493E-002  0.14943142169772669        0.0000000000000000     
  -3.4718420201574250E-002  0.15710420810767012        0.0000000000000000     
  -3.5297558180660278E-002  0.16488783991168832        0.0000000000000000     
  -3.8438250303535149E-002  0.13464500747370781        0.0000000000000000     
  -3.9253531797968852E-002  0.14208106911520163        0.0000000000000000     
  -4.0023823689487308E-002  0.14962797697035191        0.0000000000000000     
  -4.0749125978090515E-002  0.15728573103915874        0.0000000000000000     
  -4.1429438663778469E-002  0.16505433132162206        0.0000000000000000     
  -4.4218259425866574E-002  0.13490827625359242        0.0000000000000000     
  -4.5154240653327862E-002  0.14232701113878823        0.0000000000000000     
  -4.6039219127798424E-002  0.14985668294479690        0.0000000000000000     
  -4.6873194849278238E-002  0.15749729167161855        0.0000000000000000     
  -4.7656167817767325E-002  0.16524883731925302        0.0000000000000000     
  -2.3318343227035885E-002  0.16463890085491240        0.0000000000000000     
  -2.3671011068438764E-002  0.17254622641488537        0.0000000000000000     
  -2.3993430315888468E-002  0.18054183866255741        0.0000000000000000     
  -2.4285600969384997E-002  0.18862573759792842        0.0000000000000000     
  -2.4547523028928341E-002  0.19679792322099837        0.0000000000000000     
  -2.9260526368412750E-002  0.16474936308945173        0.0000000000000000     
  -2.9704696301633676E-002  0.17264576860109035        0.0000000000000000     
  -3.0111249786450078E-002  0.18063077024934054        0.0000000000000000     
  -3.0480186822861934E-002  0.18870436803420224        0.0000000000000000     
  -3.0811507410869257E-002  0.19686656195567553        0.0000000000000000     
  -3.5297558180660278E-002  0.16488783991168832        0.0000000000000000     
  -3.5835012333146517E-002  0.17277124478186942        0.0000000000000000     
  -3.6328067978524940E-002  0.18074335039030170        0.0000000000000000     
  -3.6776725116795521E-002  0.18880415673698514        0.0000000000000000     
  -3.7180983747958286E-002  0.19695366382191973        0.0000000000000000     
  -4.1429438663778469E-002  0.16505433132162206        0.0000000000000000     
  -4.2061959162977267E-002  0.17292265495722253        0.0000000000000000     
  -4.2643884892113029E-002  0.18087957908544086        0.0000000000000000     
  -4.3175215851185750E-002  0.18892510370627696        0.0000000000000000     
  -4.3655952040195435E-002  0.19705922881973092        0.0000000000000000     
  -4.7656167817767325E-002  0.16524883731925302        0.0000000000000000     
  -4.8385536791125949E-002  0.17309999912714974        0.0000000000000000     
  -4.9058700527214387E-002  0.18103945633475801        0.0000000000000000     
  -4.9675659026032638E-002  0.18906720894207782        0.0000000000000000     
  -5.0236412287580703E-002  0.19718325694910915        0.0000000000000000     
  -2.4547523028928341E-002  0.19679792322099837        0.0000000000000000     
  -2.4779704233715377E-002  0.20504291704459235        0.0000000000000000     
  -2.4982652322942969E-002  0.21334524058153514        0.0000000000000000     
  -2.5156367296611106E-002  0.22170489383182682        0.0000000000000000     
  -2.5300849154719796E-002  0.23012187679546731        0.0000000000000000     
  -3.0811507410869257E-002  0.19686656195567553        0.0000000000000000     
  -3.1105527340418444E-002  0.20510347195541542        0.0000000000000000     
  -3.1362562401455914E-002  0.21340121797507683        0.0000000000000000     
  -3.1582612593981665E-002  0.22175980001465986        0.0000000000000000     
  -3.1765677917995699E-002  0.23017921807416444        0.0000000000000000     
  -3.7180983747958286E-002  0.19695366382191973        0.0000000000000000     
  -3.7540647907831848E-002  0.20517972420402833        0.0000000000000000     
  -3.7855521632234858E-002  0.21347019044223378        0.0000000000000000     
  -3.8125604921167289E-002  0.22182506253653619        0.0000000000000000     
  -3.8350897774629168E-002  0.23024434048693543        0.0000000000000000     
  -4.3655952040195435E-002  0.19705922881973092        0.0000000000000000     
  -4.4085065935955597E-002  0.20527167379043113        0.0000000000000000     
  -4.4461530015279777E-002  0.21355215798300611        0.0000000000000000     
  -4.4785344278167966E-002  0.22190068139745578        0.0000000000000000     
  -4.5056508724620192E-002  0.23031724403378023        0.0000000000000000     
  -5.0236412287580703E-002  0.19718325694910915        0.0000000000000000     
  -5.0738781424789686E-002  0.20537932071462384        0.0000000000000000     
  -5.1180587550590691E-002  0.21364712059739371        0.0000000000000000     
  -5.1561830664983717E-002  0.22198665659741870        0.0000000000000000     
  -5.1882510767968765E-002  0.23039792871469886        0.0000000000000000     
  -2.5300849154719796E-002  0.23012187679546731        0.0000000000000000     
  -2.5422442741824473E-002  0.23856875653738077        0.0000000000000000     
  -2.5527492902480558E-002  0.24701810012249117        0.0000000000000000     
  -2.5615999636688067E-002  0.25546990755079863        0.0000000000000000     
  -2.5687962944446984E-002  0.26392417882230296        0.0000000000000000     
  -3.1765677917995699E-002  0.23017921807416444        0.0000000000000000     
  -3.1919711815846595E-002  0.23863465726181801        0.0000000000000000     
  -3.2052667729882960E-002  0.24710130268584793        0.0000000000000000     
  -3.2164545660104772E-002  0.25557915434625406        0.0000000000000000     
  -3.2255345606512061E-002  0.26406821224303650        0.0000000000000000     
  -3.8350897774629168E-002  0.23024434048693543        0.0000000000000000     
  -3.8540175023443507E-002  0.23870724921266495        0.0000000000000000     
  -3.8702211498433357E-002  0.24719301363295801        0.0000000000000000     
  -3.8837007199598692E-002  0.25570163374781468        0.0000000000000000     
  -3.8944562126939544E-002  0.26423310955723489        0.0000000000000000     
  -4.5056508724620192E-002  0.23031724403378023        0.0000000000000000     
  -4.5283832364615181E-002  0.23878653238992145        0.0000000000000000     
  -4.5476124208131720E-002  0.24729323296382147        0.0000000000000000     
  -4.5633384255169801E-002  0.25583734575548039        0.0000000000000000     
  -4.5755612505729445E-002  0.26441887076489801        0.0000000000000000     
  -5.1882510767968765E-002  0.23039792871469886        0.0000000000000000     
  -5.2150683839361625E-002  0.23887250679358762        0.0000000000000000     
  -5.2374405858978075E-002  0.24740196067843834        0.0000000000000000     
  -5.2553676826818115E-002  0.25598629036925102        0.0000000000000000     
  -5.2688496742881751E-002  0.26462549586602579        0.0000000000000000     
  -2.5687962944446984E-002  0.26392417882230296        0.0000000000000000     
  -2.5755551971352656E-002  0.27232575634351053        0.0000000000000000     
  -2.5830935863000417E-002  0.28061948252092755        0.0000000000000000     
  -2.5914114619390267E-002  0.28880535735455398        0.0000000000000000     
  -2.6005088240522209E-002  0.29688338084438987        0.0000000000000000     
  -3.2255345606512061E-002  0.26406821224303650        0.0000000000000000     
  -3.2339862005727991E-002  0.27251555194488575        0.0000000000000000     
  -3.2432889294375773E-002  0.28086824902049229        0.0000000000000000     
  -3.2534427472455406E-002  0.28912630346985602        0.0000000000000000     
  -3.2644476539966896E-002  0.29728971529297710        0.0000000000000000     
  -3.8944562126939544E-002  0.26423310955723489        0.0000000000000000     
  -3.9043658612236042E-002  0.27273625371608984        0.0000000000000000     
  -3.9153078987268358E-002  0.28115987887925076        0.0000000000000000     
  -3.9272823252036466E-002  0.28950398504671754        0.0000000000000000     
  -3.9402891406540373E-002  0.29776857221849024        0.0000000000000000     
  -4.5755612505729445E-002  0.26441887076489801        0.0000000000000000     
  -4.5866941790876824E-002  0.27298786165712263        0.0000000000000000     
  -4.5991504941678155E-002  0.28149437209720285        0.0000000000000000     
  -4.6129301958133424E-002  0.28993840208513838        0.0000000000000000     
  -4.6280332840242654E-002  0.29831995162092922        0.0000000000000000     
  -5.2688496742881751E-002  0.26462549586602579        0.0000000000000000     
  -5.2809711541650317E-002  0.27327037576798446        0.0000000000000000     
  -5.2948167157605176E-002  0.28187172867434868        0.0000000000000000     
  -5.3103863590746307E-002  0.29042955458511860        0.0000000000000000     
  -5.3276800841073724E-002  0.29894385350029418        0.0000000000000000     
  -2.8976455961650584E-002   5.7176486901886966E-002   0.0000000000000000     
  -3.0529685043577493E-002   6.2724600693206789E-002   0.0000000000000000     
  -3.2026598742120625E-002   6.8458834009029981E-002   0.0000000000000000     
  -3.3467197057279970E-002   7.4379186849356516E-002   0.0000000000000000     
  -3.4851479989055537E-002   8.0485659214186406E-002   0.0000000000000000     
  -3.2972028843397706E-002   5.7643200964305821E-002   0.0000000000000000     
  -3.4719327294349928E-002   6.3192010807126692E-002   0.0000000000000000     
  -3.6402509531155522E-002   6.8922001118081042E-002   0.0000000000000000     
  -3.8021575553814496E-002   7.4833171897168885E-002   0.0000000000000000     
  -3.9576525362326836E-002   8.0925523144390221E-002   0.0000000000000000     
  -3.7104926095915536E-002   5.8185182269252116E-002   0.0000000000000000     
  -3.9045476375135370E-002   6.3727575276945947E-002   0.0000000000000000     
  -4.0914522826853116E-002   6.9447118564226459E-002   0.0000000000000000     
  -4.2712065451068801E-002   7.5343812131093646E-002   0.0000000000000000     
  -4.4438104247782391E-002   8.1417655977547548E-002   0.0000000000000000     
  -4.1375147719204065E-002   5.8802430816725856E-002   0.0000000000000000     
  -4.3508132285933816E-002   6.4331294102664555E-002   0.0000000000000000     
  -4.5562638629213427E-002   7.0034186347466235E-002   0.0000000000000000     
  -4.7538666749042884E-002   7.5911107551130827E-002   0.0000000000000000     
  -4.9436216645422193E-002   8.1962057713658415E-002   0.0000000000000000     
  -4.5782693713263309E-002   5.9494946606727030E-002   0.0000000000000000     
  -4.8107295026745281E-002   6.5003167284282529E-002   0.0000000000000000     
  -5.0346856938236421E-002   7.0683204467800340E-002   0.0000000000000000     
  -5.2501379447736744E-002   7.6535058157280428E-002   0.0000000000000000     
  -5.4570862555246243E-002   8.2558728352722807E-002   0.0000000000000000     
  -3.4851479989055537E-002   8.0485659214186406E-002   0.0000000000000000     
  -3.6185950941276572E-002   8.6763281698372247E-002   0.0000000000000000     
  -3.7477113317772349E-002   9.3197084896766744E-002   0.0000000000000000     
  -3.8724967118542848E-002   9.9787068809369842E-002   0.0000000000000000     
  -3.9929512343588075E-002  0.10653323343618158        0.0000000000000000     
  -3.9576525362326836E-002   8.0925523144390221E-002   0.0000000000000000     
  -4.1075297322168275E-002   8.7186510096536787E-002   0.0000000000000000     
  -4.2525829798814516E-002   9.3603587990400500E-002   0.0000000000000000     
  -4.3928122792265545E-002  0.10017675682598125        0.0000000000000000     
  -4.5282176302521383E-002  0.10690601660327911        0.0000000000000000     
  -4.4438104247782391E-002   8.1417655977547548E-002   0.0000000000000000     
  -4.6101867504061589E-002   8.7658442478988866E-002   0.0000000000000000     
  -4.7712583506974049E-002   9.4055964010818366E-002   0.0000000000000000     
  -4.9270252256519813E-002  0.10061022057303602        0.0000000000000000     
  -5.0774873752698846E-002  0.10732121216564189        0.0000000000000000     
  -4.9436216645422193E-002   8.1962057713658415E-002   0.0000000000000000     
  -5.1265661486956493E-002   8.8179078845728398E-002   0.0000000000000000     
  -5.3037374442250991E-002   9.4554212958020328E-002   0.0000000000000000     
  -5.4751355511305624E-002  0.10108746005053412        0.0000000000000000     
  -5.6407604694120428E-002  0.10777882012326988        0.0000000000000000     
  -5.4570862555246243E-002   8.2558728352722807E-002   0.0000000000000000     
  -5.6566679270853043E-002   8.8748419196755454E-002   0.0000000000000000     
  -5.8500202604645300E-002   9.5098334832006415E-002   0.0000000000000000     
  -6.0371432556623000E-002  0.10160847525847561        0.0000000000000000     
  -6.2180369126786171E-002  0.10827884047616310        0.0000000000000000     
  -3.9929512343588075E-002  0.10653323343618158        0.0000000000000000     
  -4.1084727239117429E-002  0.11342486485020679        0.0000000000000000     
  -4.2184590051340294E-002  0.12045124912445031        0.0000000000000000     
  -4.3229100780256678E-002  0.12761238625891216        0.0000000000000000     
  -4.4218259425866574E-002  0.13490827625359242        0.0000000000000000     
  -4.5282176302521383E-002  0.10690601660327911        0.0000000000000000     
  -4.6581587236576030E-002  0.11378046202508948        0.0000000000000000     
  -4.7819952501423471E-002  0.12078918779420782        0.0000000000000000     
  -4.8997272097063740E-002  0.12793219391063410        0.0000000000000000     
  -5.0113546023496783E-002  0.13520948037436831        0.0000000000000000     
  -5.0774873752698846E-002  0.10732121216564189        0.0000000000000000     
  -5.2219419880599562E-002  0.11417752503680709        0.0000000000000000     
  -5.3596862525310415E-002  0.12116774543470288        0.0000000000000000     
  -5.4907201686831414E-002  0.12829187335932918        0.0000000000000000     
  -5.6150437365162523E-002  0.13554990881068602        0.0000000000000000     
  -5.6407604694120428E-002  0.10777882012326988        0.0000000000000000     
  -5.7998225171188050E-002  0.11461605388535963        0.0000000000000000     
  -5.9515320123001147E-002  0.12158692204593549        0.0000000000000000     
  -6.0958889549559719E-002  0.12869142460499750        0.0000000000000000     
  -6.2328933450863745E-002  0.13592956156254563        0.0000000000000000     
  -6.2180369126786171E-002  0.10827884047616310        0.0000000000000000     
  -6.3918003108341476E-002  0.11509604857074705        0.0000000000000000     
  -6.5575325294495640E-002  0.12204671762790568        0.0000000000000000     
  -6.7152335685248629E-002  0.12913084764763902        0.0000000000000000     
  -6.8649034280600485E-002  0.13634843862994703        0.0000000000000000     
  -4.4218259425866574E-002  0.13490827625359242        0.0000000000000000     
  -4.5154240653327862E-002  0.14232701113878823        0.0000000000000000     
  -4.6039219127798424E-002  0.14985668294479690        0.0000000000000000     
  -4.6873194849278238E-002  0.15749729167161855        0.0000000000000000     
  -4.7656167817767325E-002  0.16524883731925302        0.0000000000000000     
  -5.0113546023496783E-002  0.13520948037436831        0.0000000000000000     
  -5.1170945168626442E-002  0.14260935420619830        0.0000000000000000     
  -5.2171640420356463E-002  0.15012012242691189        0.0000000000000000     
  -5.3115631778686848E-002  0.15774178503650907        0.0000000000000000     
  -5.4002919243617595E-002  0.16547434203498984        0.0000000000000000     
  -5.6150437365162523E-002  0.13554990881068602        0.0000000000000000     
  -5.7329227141286992E-002  0.14293014577101235        0.0000000000000000     
  -5.8446228596188067E-002  0.15042087822254696        0.0000000000000000     
  -5.9501441729865739E-002  0.15802210616528986        0.0000000000000000     
  -6.0494866542320030E-002  0.16573382959924110        0.0000000000000000     
  -6.2328933450863745E-002  0.13592956156254563        0.0000000000000000     
  -6.3629086571309501E-002  0.14328938583323031        0.0000000000000000     
  -6.4862983655293235E-002  0.15075895033170209        0.0000000000000000     
  -6.6030624702814955E-002  0.15833825505796092        0.0000000000000000     
  -6.7132009713874619E-002  0.16602730001200680        0.0000000000000000     
  -6.8649034280600485E-002  0.13634843862994703        0.0000000000000000     
  -7.0070523458693995E-002  0.14368707439285228        0.0000000000000000     
  -7.1421905597671975E-002  0.15113433875437737        0.0000000000000000     
  -7.2703180697534439E-002  0.15869023171452229        0.0000000000000000     
  -7.3914348758281373E-002  0.16635475327328703        0.0000000000000000     
  -4.7656167817767325E-002  0.16524883731925302        0.0000000000000000     
  -4.8385536791125949E-002  0.17309999912714974        0.0000000000000000     
  -4.9058700527214387E-002  0.18103945633475801        0.0000000000000000     
  -4.9675659026032638E-002  0.18906720894207782        0.0000000000000000     
  -5.0236412287580703E-002  0.19718325694910915        0.0000000000000000     
  -5.4002919243617595E-002  0.16547434203498984        0.0000000000000000     
  -5.4831172695432681E-002  0.17330639611412829        0.0000000000000000     
  -5.5598062014416055E-002  0.18122654996569854        0.0000000000000000     
  -5.6303587200567724E-002  0.18923480358970063        0.0000000000000000     
  -5.6947748253887681E-002  0.19733115698613451        0.0000000000000000     
  -6.0494866542320030E-002  0.16573382959924110        0.0000000000000000     
  -6.1424294353737592E-002  0.17354496474063549        0.0000000000000000     
  -6.2287516484305090E-002  0.18144442780570796        0.0000000000000000     
  -6.3084532934022539E-002  0.18943221879445843        0.0000000000000000     
  -6.3815343702889937E-002  0.19750833770688692        0.0000000000000000     
  -6.7132009713874619E-002  0.16602730001200680        0.0000000000000000     
  -6.8164901766040689E-002  0.17381570500667137        0.0000000000000000     
  -6.9127063936881505E-002  0.18169308985478613        0.0000000000000000     
  -7.0018496226397123E-002  0.18965945455635119        0.0000000000000000     
  -7.0839198634587500E-002  0.19771479911136650        0.0000000000000000     
  -7.3914348758281373E-002  0.16635475327328703        0.0000000000000000     
  -7.5052994932341938E-002  0.17411861691223590        0.0000000000000000     
  -7.6116704372145280E-002  0.18197253611293321        0.0000000000000000     
  -7.7105477077691428E-002  0.18991651087537897        0.0000000000000000     
  -7.8019313048980340E-002  0.19795054119957323        0.0000000000000000     
  -5.0236412287580703E-002  0.19718325694910915        0.0000000000000000     
  -5.0738781424789686E-002  0.20537932071462384        0.0000000000000000     
  -5.1180587550590691E-002  0.21364712059739371        0.0000000000000000     
  -5.1561830664983717E-002  0.22198665659741870        0.0000000000000000     
  -5.1882510767968765E-002  0.23039792871469886        0.0000000000000000     
  -5.6947748253887681E-002  0.19733115698613451        0.0000000000000000     
  -5.7527573965171518E-002  0.20550893365966094        0.0000000000000000     
  -5.8040093125214812E-002  0.21376145711494074        0.0000000000000000     
  -5.8485305734017570E-002  0.22208872735197396        0.0000000000000000     
  -5.8863211791579786E-002  0.23049074437076056        0.0000000000000000     
  -6.3815343702889937E-002  0.19750833770688692        0.0000000000000000     
  -6.4477223147938481E-002  0.20566678130859678        0.0000000000000000     
  -6.5067445626199344E-002  0.21390154636519132        0.0000000000000000     
  -6.5586011137672554E-002  0.22221263287667056        0.0000000000000000     
  -6.6032919682358110E-002  0.23060004084303445        0.0000000000000000     
  -7.0839198634587500E-002  0.19771479911136650        0.0000000000000000     
  -7.1587728973090597E-002  0.20585286366143146        0.0000000000000000     
  -7.2262645053544336E-002  0.21406738834814548        0.0000000000000000     
  -7.2863946875948687E-002  0.22235837317150856        0.0000000000000000     
  -7.3391634440303721E-002  0.23072581813152068        0.0000000000000000     
  -7.8019313048980340E-002  0.19795054119957323        0.0000000000000000     
  -7.8859091440627832E-002  0.20606718071816493        0.0000000000000000     
  -7.9625691407249719E-002  0.21425898306380317        0.0000000000000000     
  -8.0319112948845986E-002  0.22252594823648791        0.0000000000000000     
  -8.0939356065416634E-002  0.23086807623621913        0.0000000000000000     
  -5.1882510767968765E-002  0.23039792871469886        0.0000000000000000     
  -5.2150683839361625E-002  0.23887250679358762        0.0000000000000000     
  -5.2374405858978075E-002  0.24740196067843834        0.0000000000000000     
  -5.2553676826818115E-002  0.25598629036925102        0.0000000000000000     
  -5.2688496742881751E-002  0.26462549586602579        0.0000000000000000     
  -5.8863211791579786E-002  0.23049074437076056        0.0000000000000000     
  -5.9179838375386255E-002  0.23896659497714151        0.0000000000000000     
  -5.9441212562921744E-002  0.24751536597695797        0.0000000000000000     
  -5.9647334354186288E-002  0.25613705737020981        0.0000000000000000     
  -5.9798203749179858E-002  0.26483166915689715        0.0000000000000000     
  -6.6032919682358110E-002  0.23060004084303445        0.0000000000000000     
  -6.6410404900392433E-002  0.23907021949406143        0.0000000000000000     
  -6.6720700431912069E-002  0.24762961805952977        0.0000000000000000     
  -6.6963806276916948E-002  0.25627823653943954        0.0000000000000000     
  -6.7139722435407154E-002  0.26501607493379070        0.0000000000000000     
  -7.3391634440303721E-002  0.23072581813152068        0.0000000000000000     
  -7.3842383414380208E-002  0.23918338034434722        0.0000000000000000     
  -7.4212869465949016E-002  0.24774471692615374        0.0000000000000000     
  -7.4503092595010159E-002  0.25640982787694011        0.0000000000000000     
  -7.4713052801563623E-002  0.26517871319670638        0.0000000000000000     
  -8.0939356065416634E-002  0.23086807623621913        0.0000000000000000     
  -8.1475773917349545E-002  0.23930607752799909        0.0000000000000000     
  -8.1917719665032640E-002  0.24786066257682993        0.0000000000000000     
  -8.2265193308465864E-002  0.25653183138271163        0.0000000000000000     
  -8.2518194847649273E-002  0.26531958394564426        0.0000000000000000     
  -5.2688496742881751E-002  0.26462549586602579        0.0000000000000000     
  -5.2809711541650317E-002  0.27327037576798446        0.0000000000000000     
  -5.2948167157605176E-002  0.28187172867434868        0.0000000000000000     
  -5.3103863590746307E-002  0.29042955458511860        0.0000000000000000     
  -5.3276800841073724E-002  0.29894385350029418        0.0000000000000000     
  -5.9798203749179858E-002  0.26483166915689715        0.0000000000000000     
  -5.9930721058930866E-002  0.27355509549630780        0.0000000000000000     
  -6.0081786594467661E-002  0.28226323054772934        0.0000000000000000     
  -6.0251400355790255E-002  0.29095607431116216        0.0000000000000000     
  -6.0439562342898649E-002  0.29963362678660593        0.0000000000000000     
  -6.7139722435407154E-002  0.26501607493379070        0.0000000000000000     
  -6.7288723537092740E-002  0.27381332028972544        0.0000000000000000     
  -6.7451084211683818E-002  0.28264015965438627        0.0000000000000000     
  -6.7626804459180401E-002  0.29149659302777292        0.0000000000000000     
  -6.7815884279582489E-002  0.30038262040988545        0.0000000000000000     
  -7.4713052801563623E-002  0.26517871319670638        0.0000000000000000     
  -7.4883718976135938E-002  0.27404505014823771        0.0000000000000000     
  -7.5056060009253647E-002  0.28300251599431919        0.0000000000000000     
  -7.5230075900916724E-002  0.29205111073495083        0.0000000000000000     
  -7.5405766651125222E-002  0.30119083437013278        0.0000000000000000     
  -8.2518194847649273E-002  0.26531958394564426        0.0000000000000000     
  -8.2715707376060488E-002  0.27425028507184429        0.0000000000000000     
  -8.2896713987177156E-002  0.28335029956752816        0.0000000000000000     
  -8.3061214680999293E-002  0.29261962743269604        0.0000000000000000     
  -8.3209209457526884E-002  0.30205826866734775        0.0000000000000000     
  -4.5782693713263309E-002   5.9494946606727030E-002   0.0000000000000000     
  -4.8107295026745281E-002   6.5003167284282529E-002   0.0000000000000000     
  -5.0346856938236421E-002   7.0683204467800340E-002   0.0000000000000000     
  -5.2501379447736744E-002   7.6535058157280428E-002   0.0000000000000000     
  -5.4570862555246243E-002   8.2558728352722807E-002   0.0000000000000000     
  -5.0361381829139136E-002   6.0250462663076702E-002   0.0000000000000000     
  -5.2876730603775596E-002   6.5729589916310838E-002   0.0000000000000000     
  -5.5300650129123108E-002   7.1381265858596110E-002   0.0000000000000000     
  -5.7633140405181672E-002   7.7205490489932485E-002   0.0000000000000000     
  -5.9874201431951282E-002   8.3202263810319990E-002   0.0000000000000000     
  -5.5145029817877438E-002   6.1056712009595941E-002   0.0000000000000000     
  -5.7850205023230628E-002   6.6496957093260450E-002   0.0000000000000000     
  -6.0457490577074460E-002   7.2115463453220827E-002   0.0000000000000000     
  -6.2966886479408943E-002   7.7912231089477077E-002   0.0000000000000000     
  -6.5378392730234075E-002   8.3887260002029201E-002   0.0000000000000000     
  -6.0133637679478207E-002   6.1913694646284732E-002   0.0000000000000000     
  -6.3027718285110362E-002   6.7305268815131353E-002   0.0000000000000000     
  -6.5817378282090472E-002   7.2885797251674517E-002   0.0000000000000000     
  -6.8502617670418570E-002   7.8655279955914217E-002   0.0000000000000000     
  -7.1083436450094614E-002   8.4613716927850441E-002   0.0000000000000000     
  -6.5327205413941450E-002   6.2821410573143097E-002   0.0000000000000000     
  -6.8409270389414800E-002   6.8154525081923545E-002   0.0000000000000000     
  -7.1380313244171156E-002   7.3692267253957153E-002   0.0000000000000000     
  -7.4240333978210546E-002   7.9434637089243865E-002   0.0000000000000000     
  -7.6989332591532927E-002   8.5381634587783722E-002   0.0000000000000000     
  -5.4570862555246243E-002   8.2558728352722807E-002   0.0000000000000000     
  -5.6566679270853043E-002   8.8748419196755454E-002   0.0000000000000000     
  -5.8500202604645300E-002   9.5098334832006415E-002   0.0000000000000000     
  -6.0371432556623000E-002  0.10160847525847561        0.0000000000000000     
  -6.2180369126786171E-002  0.10827884047616310        0.0000000000000000     
  -5.9874201431951282E-002   8.3202263810319990E-002   0.0000000000000000     
  -6.2036105130885796E-002   8.9365962754509698E-002   0.0000000000000000     
  -6.4131123423439060E-002   9.5690964257252695E-002   0.0000000000000000     
  -6.6159256309611086E-002  0.10217726831854901        0.0000000000000000     
  -6.8120503789401876E-002  0.10882487493839858        0.0000000000000000     
  -6.5378392730234075E-002   8.3887260002029201E-002   0.0000000000000000     
  -6.7705123342189380E-002   9.0031208741430779E-002   0.0000000000000000     
  -6.9960192327914367E-002   9.6334735858235307E-002   0.0000000000000000     
  -7.2143599687409063E-002  0.10279784135244285        0.0000000000000000     
  -7.4255345420673413E-002  0.10942052522405338        0.0000000000000000     
  -7.1083436450094614E-002   8.4613716927850441E-002   0.0000000000000000     
  -7.3573733904763794E-002   9.0744157157518643E-002   0.0000000000000000     
  -7.5987409318071214E-002   9.7029649634954238E-002   0.0000000000000000     
  -7.8324462690016861E-002  0.10347019436015717        0.0000000000000000     
  -8.0584894020600761E-002  0.11006579133312748        0.0000000000000000     
  -7.6989332591532927E-002   8.5381634587783722E-002   0.0000000000000000     
  -7.9641936818609052E-002   9.1504808002773386E-002   0.0000000000000000     
  -8.2212774393909588E-002   9.7775705587409431E-002   0.0000000000000000     
  -8.4701845317434549E-002  0.10419432734169196        0.0000000000000000     
  -8.7109149589183921E-002  0.11076067326562090        0.0000000000000000     
  -6.2180369126786171E-002  0.10827884047616310        0.0000000000000000     
  -6.3918003108341476E-002  0.11509604857074705        0.0000000000000000     
  -6.5575325294495640E-002  0.12204671762790568        0.0000000000000000     
  -6.7152335685248629E-002  0.12913084764763902        0.0000000000000000     
  -6.8649034280600485E-002  0.13634843862994703        0.0000000000000000     
  -6.8120503789401876E-002  0.10882487493839858        0.0000000000000000     
  -7.0004798892225911E-002  0.11561983671428720        0.0000000000000000     
  -7.1802074647497646E-002  0.12254820624370061        0.0000000000000000     
  -7.3512331055217123E-002  0.12960998352663874        0.0000000000000000     
  -7.5135568115384299E-002  0.13680516856310165        0.0000000000000000     
  -7.4255345420673413E-002  0.10942052522405338        0.0000000000000000     
  -7.6284657723007396E-002  0.11618974593729788        0.0000000000000000     
  -7.8220764789710961E-002  0.12309246195640727        0.0000000000000000     
  -8.0063666620784082E-002  0.13012867328138158        0.0000000000000000     
  -8.1813363216226759E-002  0.13729837991222082        0.0000000000000000     
  -8.0584894020600761E-002  0.11006579133312748        0.0000000000000000     
  -8.2757579600685985E-002  0.11680577623977907        0.0000000000000000     
  -8.4831395721135544E-002  0.12367948476602579        0.0000000000000000     
  -8.6806342381949536E-002  0.13068691691186760        0.0000000000000000     
  -8.8682419583127878E-002  0.13782807267730454        0.0000000000000000     
  -8.7109149589183921E-002  0.11076067326562090        0.0000000000000000     
  -8.9423564525261595E-002  0.11746792762173078        0.0000000000000000     
  -9.1633967441771436E-002  0.12430927467255606        0.0000000000000000     
  -9.3740358338713442E-002  0.13128471441809675        0.0000000000000000     
  -9.5742737216087628E-002  0.13839424685835289        0.0000000000000000     
  -6.8649034280600485E-002  0.13634843862994703        0.0000000000000000     
  -7.0070523458693995E-002  0.14368707439285228        0.0000000000000000     
  -7.1421905597671975E-002  0.15113433875437737        0.0000000000000000     
  -7.2703180697534439E-002  0.15869023171452229        0.0000000000000000     
  -7.3914348758281373E-002  0.16635475327328703        0.0000000000000000     
  -7.5135568115384299E-002  0.13680516856310165        0.0000000000000000     
  -7.6678281020061426E-002  0.14412099807439424        0.0000000000000000     
  -7.8146964961310669E-002  0.15154470878182136        0.0000000000000000     
  -7.9541619939132044E-002  0.15907630068538312        0.0000000000000000     
  -8.0862245953525549E-002  0.16671577378507940        0.0000000000000000     
  -8.1813363216226759E-002  0.13729837991222082        0.0000000000000000     
  -8.3477102472032716E-002  0.14458894350237214        0.0000000000000000     
  -8.5062132284195652E-002  0.15198772570528271        0.0000000000000000     
  -8.6568452652715525E-002  0.15949472652095262        0.0000000000000000     
  -8.7996063577592390E-002  0.16710994594938172        0.0000000000000000     
  -8.8682419583127878E-002  0.13782807267730454        0.0000000000000000     
  -9.0466987814607921E-002  0.14509091067678606        0.0000000000000000     
  -9.2167407566326923E-002  0.15246338952476146        0.0000000000000000     
  -9.3783678838284923E-002  0.15994550922123074        0.0000000000000000     
  -9.5315801630481922E-002  0.16753726976619393        0.0000000000000000     
  -9.5742737216087628E-002  0.13839424685835289        0.0000000000000000     
  -9.7647937047786987E-002  0.14562689959763594        0.0000000000000000     
  -9.9462790807704510E-002  0.15297170024025750        0.0000000000000000     
 -0.10118729849584022       0.16042864878621757        0.0000000000000000     
 -0.10282146011219409       0.16799774523551614        0.0000000000000000     
  -7.3914348758281373E-002  0.16635475327328703        0.0000000000000000     
  -7.5052994932341938E-002  0.17411861691223590        0.0000000000000000     
  -7.6116704372145280E-002  0.18197253611293321        0.0000000000000000     
  -7.7105477077691428E-002  0.18991651087537897        0.0000000000000000     
  -7.8019313048980340E-002  0.19795054119957323        0.0000000000000000     
  -8.0862245953525549E-002  0.16671577378507940        0.0000000000000000     
  -8.2106536078932146E-002  0.17445463197398717        0.0000000000000000     
  -8.3272183389792823E-002  0.18228437914518325        0.0000000000000000     
  -8.4359187886107495E-002  0.19020501529866773        0.0000000000000000     
  -8.5367549567876233E-002  0.19821654043444059        0.0000000000000000     
  -8.7996063577592390E-002  0.16710994594938172        0.0000000000000000     
  -8.9343487432102062E-002  0.17482468170858331        0.0000000000000000     
  -9.0609246589520367E-002  0.18263023151657057        0.0000000000000000     
  -9.1793341049847363E-002  0.19052659537334349        0.0000000000000000     
  -9.2895770813082951E-002  0.19851377327890216        0.0000000000000000     
  -9.5315801630481922E-002  0.16753726976619393        0.0000000000000000     
  -9.6763848991851670E-002  0.17522876611602436        0.0000000000000000     
  -9.8127893971328026E-002  0.18301009322709508        0.0000000000000000     
  -9.9407936568910948E-002  0.19088125109940632        0.0000000000000000     
 -0.10060397678460047       0.19884223973295787        0.0000000000000000     
 -0.10282146011219409       0.16799774523551614        0.0000000000000000     
 -0.10436762075818100       0.17566688519631024        0.0000000000000000     
 -0.10582812553521574       0.18342396427675689        0.0000000000000000     
 -0.10720297444329836       0.19126898247685609        0.0000000000000000     
 -0.10849216748242879       0.19920193979660780        0.0000000000000000     
  -7.8019313048980340E-002  0.19795054119957323        0.0000000000000000     
  -7.8859091440627832E-002  0.20606718071816493        0.0000000000000000     
  -7.9625691407249719E-002  0.21425898306380317        0.0000000000000000     
  -8.0319112948845986E-002  0.22252594823648791        0.0000000000000000     
  -8.0939356065416634E-002  0.23086807623621913        0.0000000000000000     
  -8.5367549567876233E-002  0.19821654043444059        0.0000000000000000     
  -8.6300537785623022E-002  0.20631055976351928        0.0000000000000000     
  -8.7161421889871818E-002  0.21447867849692137        0.0000000000000000     
  -8.7950201880622664E-002  0.22272089663464678        0.0000000000000000     
  -8.8666877757875545E-002  0.23103721417669562        0.0000000000000000     
  -9.2895770813082951E-002  0.19851377327890216        0.0000000000000000     
  -9.3921295243148878E-002  0.20658382808221656        0.0000000000000000     
  -9.4874673703966919E-002  0.21472882263225704        0.0000000000000000     
  -9.5755906195536977E-002  0.22294875692902344        0.0000000000000000     
  -9.6564992717859108E-002  0.23124363097251585        0.0000000000000000     
 -0.10060397678460047       0.19884223973295787        0.0000000000000000     
 -0.10172136381320548       0.20688698567425681        0.0000000000000000     
 -0.10276544684953498       0.21500941546981012        0.0000000000000000     
 -0.10373622589358891       0.22320952911961778        0.0000000000000000     
 -0.10463370094536732       0.23148732662367977        0.0000000000000000     
 -0.10849216748242879       0.19920193979660780        0.0000000000000000     
 -0.10970074349579281       0.20722003253964003        0.0000000000000000     
 -0.11083374132657602       0.21532045700958075        0.0000000000000000     
 -0.11189116097477851       0.22350321320642985        0.0000000000000000     
 -0.11287300244040020       0.23176830113018743        0.0000000000000000     
  -8.0939356065416634E-002  0.23086807623621913        0.0000000000000000     
  -8.1475773917349545E-002  0.23930607752799909        0.0000000000000000     
  -8.1917719665032640E-002  0.24786066257682993        0.0000000000000000     
  -8.2265193308465864E-002  0.25653183138271163        0.0000000000000000     
  -8.2518194847649273E-002  0.26531958394564426        0.0000000000000000     
  -8.8666877757875545E-002  0.23103721417669562        0.0000000000000000     
  -8.9297083727613136E-002  0.23945328816329020        0.0000000000000000     
  -8.9826453995818151E-002  0.24799477563465291        0.0000000000000000     
  -9.0254988562490590E-002  0.25666167659078382        0.0000000000000000     
  -9.0582687427630482E-002  0.26545399103168293        0.0000000000000000     
  -9.6564992717859108E-002  0.23124363097251585        0.0000000000000000     
  -9.7292820163483618E-002  0.23963998936849390        0.0000000000000000     
  -9.7930275424960869E-002  0.24816437672271749        0.0000000000000000     
  -9.8477358502290835E-002  0.25681679303518651        0.0000000000000000     
  -9.8934069395473556E-002  0.26559723830590093        0.0000000000000000     
 -0.10463370094536732       0.23148732662367977        0.0000000000000000     
 -0.10546298322496098       0.23986618114361033        0.0000000000000000     
 -0.10622918395246075       0.24836946584102354        0.0000000000000000     
 -0.10693230312786661       0.25699718071591959        0.0000000000000000     
 -0.10757234075117855       0.26574932576829841        0.0000000000000000     
 -0.11287300244040020       0.23176830113018743        0.0000000000000000     
 -0.11380757291204527       0.24013186348863927        0.0000000000000000     
 -0.11472317957831783       0.24861004298957115        0.0000000000000000     
 -0.11561982243921788       0.25720283963298313        0.0000000000000000     
 -0.11649750149474544       0.26591025341887520        0.0000000000000000     
  -8.2518194847649273E-002  0.26531958394564426        0.0000000000000000     
  -8.2715707376060488E-002  0.27425028507184429        0.0000000000000000     
  -8.2896713987177156E-002  0.28335029956752816        0.0000000000000000     
  -8.3061214680999293E-002  0.29261962743269604        0.0000000000000000     
  -8.3209209457526884E-002  0.30205826866734775        0.0000000000000000     
  -9.0582687427630482E-002  0.26545399103168293        0.0000000000000000     
  -9.0839872144417994E-002  0.27443470024298261        0.0000000000000000     
  -9.1056864266033474E-002  0.28366678551031516        0.0000000000000000     
  -9.1233663792476868E-002  0.29315024683368068        0.0000000000000000     
  -9.1370270723748204E-002  0.30288508421307914        0.0000000000000000     
  -9.8934069395473556E-002  0.26559723830590093        0.0000000000000000     
  -9.9311396688760128E-002  0.27460397084408983        0.0000000000000000     
  -9.9620328966401744E-002  0.28393524895898181        0.0000000000000000     
  -9.9860866228398376E-002  0.29359107265057705        0.0000000000000000     
 -0.10003300847475000       0.30357144191887553        0.0000000000000000     
 -0.10757234075117855       0.26574932576829841        0.0000000000000000     
 -0.10813028100908689       0.27475809687516595        0.0000000000000000     
 -0.10858710808828195       0.28415568991352813        0.0000000000000000     
 -0.10894282198876376       0.29394210488338512        0.0000000000000000     
 -0.10919742271053227       0.30411734178473676        0.0000000000000000     
 -0.11649750149474544       0.26591025341887520        0.0000000000000000     
 -0.11729652510539826       0.27489707833621096        0.0000000000000000     
 -0.11795720163167411       0.28432810837395417        0.0000000000000000     
 -0.11847953107357304       0.29420334353210492        0.0000000000000000     
 -0.11886351343109500       0.30452278381066311        0.0000000000000000     
 </DataArray>
 <DataArray  type="Float64" Name="stress" NumberOfComponents="3" format="ascii">
   5753153243.0153532       -660216210.67912030       -285762773.30997813     
   5668109928.8826590       -288896456.05638528       -207860956.42283481     
   5543642368.1815853       -48990856.661559343       -132277802.00716610     
   5379750560.9121513        59500587.505387306       -59013310.062962338     
   5176434507.0743361        36577876.444396257        11932519.409760470     
   5538481680.3920231       -386098013.23838735        64549044.160419837     
   5411840831.9094419       -144001579.32772613        91878836.519281566     
   5258166697.8058138        7983902.5127334595        119349954.32172699     
   5077459278.0811281        69858432.283004999        146962397.56775227     
   4869718572.7353687        41622009.983048201        174716166.25736383     
   5286566904.3154135       -123152779.83363771        362731239.38317853     
   5125357058.3831377       -8171105.5649995804        353945128.31895155     
   4949504887.7770996        58002819.791148663        347760330.61336589     
   4759010392.4973106        75368996.234776497        344176846.26642030     
   4553873572.5437832        43927423.765927792        343194675.27810764     
   4997408914.7855549        128619489.53513885        608783812.35829961     
   4808658608.3037119        118594965.23179460        578337918.97618127     
   4617656938.0954323        101065895.17366195        552953326.86775851     
   4424403904.1607094        76032279.360730171        532630036.03303266     
   4228899506.4995494        43494117.793000221        517368046.47199565     
   4671007711.8024368        369218794.86793733        802706763.08578086     
   4461745481.6711884        236296633.06266117        765057208.49096525     
   4262622848.7608166        137173128.66030288        734928943.08490169     
   4073639813.0713139        71848281.660843849        712321966.86759150     
   3894796374.6026812        40322092.064285040        697236279.83902955     
   5176434507.0743361        36577876.444396257        11932519.409760470     
   5003771966.2158508       -24698136.208365202       -279270.02550754719     
   4839182448.5286417       -59064071.623526096       -8973632.7243487090     
   4682665954.0127077       -66519929.801106691       -14150568.686768143     
   4534222482.6680536       -47065710.741098881       -15810077.912773531     
   4869718572.7353687        41622009.983048201        174716166.25736383     
   4710986135.5844488       -3770172.4393155575        167542270.26518694     
   4558281550.7045364       -29069513.958307505        163900912.64308456     
   4411604818.0956621       -34276014.573835373        163792093.39106113     
   4270955937.7578039       -19389674.286000013        167215812.50910962     
   4553873572.5437832        43927423.765927792        343194675.27810764     
   4409114415.1965771        14432024.402779818        338672640.01204455     
   4268337939.2201481       -1787770.3911328316        337698254.74971926     
   4131544144.6144853       -4731960.6158099174        340271519.49113381     
   3998733031.3795938        5599453.7287340164        346392434.23628014     
   4228899506.4995494        43494117.793000221        517368046.47199565     
   4098156805.0522413        29908454.317935944        513111839.21509421     
   3969351614.0754542        22781159.077939510        512418393.59558183     
   3842483933.5691729        22112232.072964907        515287709.61346596     
   3717553763.5334167        27901673.303072929        521719787.26874554     
   3894796374.6026812        40322092.064285040        697236279.83902955     
   3778113305.1514397        42659117.306165457        690859867.87431753     
   3661322575.2704563        44637274.448909760        688061329.18065369     
   3544424184.9597373        46256563.492538214        688840663.75804794     
   3427418134.2192740        47516984.437011957        693197871.60649478     
   4534222482.6680536       -47065710.741098881       -15810077.912773531     
   4334801060.8180599       -32604826.608620167       -16681007.546106061     
   4134097857.7027874       -22416546.693740845       -13599878.184091294     
   3932112873.3222170       -16500870.996510744       -6566689.8266940014     
   3728846107.6763735       -14857799.516880274        4418557.5260569956     
   4270955937.7578039       -19389674.286000013        167215812.50910962     
   4080370127.7888126       -11582332.529342890        162199434.83654588     
   3888966628.4222941       -6500622.0978035927        161563055.54843959     
   3696745439.6582432       -4144542.9913749695        165306674.64477029     
   3503706561.4966531       -4514095.2100560665        173430292.12557507     
   3998733031.3795938        5599453.7287340164        346392434.23628014     
   3818205517.2604170        7120058.3001646996        337772049.03688252     
   3637324405.6114674        7462004.4390218258        333959601.61102021     
   3456089696.4327397        6625292.1452884674        334955091.95869011     
   3274501389.7242417        4609921.4189810753        340758520.07990134     
   3717553763.5334167        27901673.303072929        521719787.26874554     
   3548307229.2328734        23502345.879947424        510036835.05488950     
   3379171189.2703099        19471332.916754007        503589760.00365651     
   3210145643.6457253        15808634.413498878        502378562.11503756     
   3041230592.3591266        12514250.370183587        506403241.38904381     
   3427418134.2192740        47516984.437011957        693197871.60649478     
   3270675263.7061806        37564530.209975004        678993792.89056516     
   3114506979.3988233        29527363.335394263        670453530.72634268     
   2958913281.2971954        23405483.813251138        667577085.11381948     
   2803894169.4013157        19198891.643587351        670364456.05300283     
   3728846107.6763735       -14857799.516880274        4418557.5260569956     
   3561501508.9879856       -6462696.2403378487        2092745.5178659365     
   3392785097.0877552       -2640303.6699159145        3561847.2758390210     
   3222696871.9756784       -3390621.8056533337        8825862.7999378182     
   3051236833.6517615       -8713650.6475356817        17884792.090182822     
   3503706561.4966531       -4514095.2100560665        173430292.12557507     
   3345580436.5600581        2770304.9749660492        168152516.62344235     
   3186412743.7261472        6582812.1689465046        166427277.10842401     
   3026203482.9949474        6923426.3719478846        168254573.58055586     
   2864952654.3664513        3792147.5839716196        173634406.03980720     
   3274501389.7242417        4609921.4189810753        340758520.07990134     
   3124901230.5993805        10575866.130418301        332914067.28411329     
   2974589748.8917646        14170735.565998554        328379772.69644809     
   2823566944.6013923        15394529.725728989        327155636.31688744     
   2671832817.7282696        14247248.609617591        329241658.14543623     
   3041230592.3591266        12514250.370183587        506403241.38904381     
   2899463891.1059690        16953987.226050615        496377397.49991298     
   2757316112.5846014        20123466.521218896        489419334.03987473     
   2614787256.7950125        22022688.255649090        485529051.00893283     
   2471877323.7372165        22651652.429389000        484706548.40710127     
   2803894169.4013157        19198891.643587351        670364456.05300283     
   2669268418.0798140        21904668.261869550        658542507.27082324     
   2534591834.8046455        24441005.034588814        649545961.13872576     
   2399864419.5758009        26807901.961713433        643374817.65670443     
   2265086172.3932915        29005359.043312073        640029076.82477224     
   3051236833.6517615       -8713650.6475356817        17884792.090182822     
   2884439799.7499118       -13022238.924705029        11185263.170909731     
   2718761088.4475985       -13603085.203374743        5634838.4199937759     
   2554200699.7448945       -10456189.483368278        1233517.8374528892     
   2390758633.6417537       -3581551.7648175955       -2018698.5767206140     
   2864952654.3664513        3792147.5839716196        173634406.03980720     
   2701879883.1116920       -223539.35323083401        165921908.57252029     
   2539625937.7577925       -1509806.6209241152        159857531.74081036     
   2378190818.3047352       -66654.219138503075        155441275.54465371     
   2217574524.7524996        4105917.8520526886        152673139.98406768     
   2671832817.7282696        14247248.609617591        329241658.14543623     
   2513910070.4554882        10952191.412937880        320166779.31495970     
   2356506652.3847928        9388231.5565550327        313239037.58725250     
   2199622563.5162182        9555369.0405572653        308458432.96228582     
   2043257803.8497226        11453603.864846230        305824965.44008201     
   2471877323.7372165        22651652.429389000        484706548.40710127     
   2320530361.7812362        20504953.373647213        473919875.39823365     
   2169403232.3286104        19091029.329099417        465779355.95931768     
   2018495935.3793521        18409880.295748234        460284990.09035540     
   1867808470.9334486        18461506.273600578        457436777.79134154     
   2265086172.3932915        29005359.043312073        640029076.82477224     
   2121740757.0889561        28434746.528954864        627181196.82232141     
   1978315677.5892408        27598586.696675897        617478486.85701489     
   1834810933.8941433        26496879.546453714        610920946.92885971     
   1691226526.0036666        25129625.078295946        607508577.03784764     
   2390758633.6417537       -3581551.7648175955       -2018698.5767206140     
   2249200731.3922038        6233130.8879787922       -7510502.4452549480     
   2104134262.0011878        4352589.7359105349       -11211532.837715689     
   1955559225.4687033       -9223175.2210582495       -13121789.754066970     
   1803475621.7947605       -34494163.982899427       -13241273.194354907     
   2217574524.7524996        4105917.8520526886        152673139.98406768     
   2079362816.3982737        12680098.059862733        143007750.13671100     
   1938802765.1611438        13426468.657974124        134411851.91237962     
   1795894371.0411108        6345029.6464291811        126885445.31104667     
   1650637634.0381732       -8564218.9748313427        120428530.33272623     
   2043257803.8497226        11453603.864846230        305824965.44008201     
   1906331484.0963402        18169040.039345622        293339584.58224428     
   1768217045.7185991        20924080.799317837        281202413.49432856     
   1628914488.7165084        19718726.144801080        269413452.17636013     
   1488423813.0900667        14552976.075754344        257972700.62830654     
   1867808470.9334486        18461506.273600578        457436777.79134154     
   1730106734.4863937        22699956.826411366        443485000.89131325     
   1592377103.6735468        26845426.159894049        429160151.90814173     
   1454619578.4948978        30897914.274050236        414462230.84184146     
   1316834158.9504633        34857421.168904364        399391237.69239283     
   1691226526.0036666        25129625.078295946        607508577.03784764     
   1550688567.5684526        26272848.421095371        593443999.06394649     
   1411282939.0259898        31190504.739720583        578285067.15382707     
   1273009640.3762896        39882594.034227073        562031781.30749476     
   1135868671.6193473        52349116.304593980        544684141.52495193     
   1803475621.7947605       -34494163.982899427       -13241273.194354907     
   1772078046.6730449       -16510634.937608004       -8044524.2296479391     
   1748836539.2915354        28659786.575059295       -41510748.036284357     
   1733751099.6502552        101017100.55514669       -113639944.61429234     
   1726821727.7491615        200561307.00252247       -224432113.96365395     
   1650637634.0381732       -8564218.9748313427        120428530.33272623     
   1527831874.2947836       -13873557.885836005        135766703.42973197     
   1409263215.5875499       -5059226.6763369441        124829138.34826684     
   1294931657.9164550        17878774.653621435        87615835.088325053     
   1184837201.2814832        54940446.104011834        24126793.649921380     
   1488423813.0900667        14552976.075754344        257972700.62830654     
   1309601967.5618570       -3431601.1404335499        278880170.03618401     
   1131098256.3657086       -20355730.583078265        285899135.85847783     
   952912679.50163043       -36219412.252158403        279029598.09518385     
   775045236.96961081       -51022646.147710323        258271556.74630812     
   1316834158.9504633        34857421.168904364        399391237.69239283     
   1117388326.4742332        14815235.298531413        421295875.58970946     
   914341661.62600553       -17229725.145184040        441699244.49434167     
   707694164.40576005       -61277460.162278414        460601344.40627301     
   497445834.81351268       -117327969.75272354        478002175.32549888     
   1135868671.6193473        52349116.304593980        544684141.52495193     
   951190951.03192866        40866951.431085408        563013820.09030962     
   758993431.36843324        4318789.6373328865        592229464.25584841     
   559276112.62885940       -57295369.076681674        632331074.02159786     
   352038994.81319916       -143975524.71099478        683318649.38753116     
   1726821727.7491615        200561307.00252247       -224432113.96365395     
   1456515590.9875822        184584484.59903252       -96693526.973381862     
   1153982178.0949326        61183408.425319254        60149288.649474345     
   819221489.07128692       -169641921.51840943        246096332.90498000     
   452233523.91657996       -507891505.23229700        461147605.79308259     
   1184837201.2814832        54940446.104011834        24126793.649921380     
   977779378.48829257        11914998.734640956        155590274.57579830     
   732859327.86401629       -157317874.73831576        312844066.45222163     
   450077049.40865874       -452758174.31488192        495888169.27925545     
   129432543.12221962       -874405899.99507582        704722583.05686641     
   775045236.96961081       -51022646.147710323        258271556.74630812     
   621767391.91041434       -123937219.35330060        386885821.29106641     
   424992367.32009989       -341842390.99594235        537976479.10437882     
   184720163.19868034       -704738161.07561886        711543530.18622983     
  -99049220.453878224       -1212624529.5923760        907586974.53663552     
   497445834.81351268       -117327969.75272354        478002175.32549888     
   388479631.25393957       -222972169.66482100        597193113.17246020     
   230381296.46321797       -492390140.34741282        735546526.60591507     
   23150830.441330671       -925581881.80056429        893062415.62590528     
  -233211766.81170005       -1522547394.0241799        1069740780.2323887     
   352038994.81319916       -143975524.71099478        683318649.38753116     
   277916096.51886058       -285189852.19994938        786512150.21994829     
   149026115.29335400       -608961122.79280281        905554208.95685899     
  -34630948.863349915       -1115289336.4896584        1040444825.5982419     
  -273055095.95125568       -1804174493.2905040        1191184000.1441092     
   4671007711.8024368        369218794.86793733        802706763.08578086     
   4461745481.6711884        236296633.06266117        765057208.49096525     
   4262622848.7608166        137173128.66030288        734928943.08490169     
   4073639813.0713139        71848281.660843849        712321966.86759150     
   3894796374.6026812        40322092.064285040        697236279.83902955     
   4211982880.0063987        197108559.86682272        841462807.34694839     
   4036839712.4247203        115764872.65579677        819512417.57519436     
   3868342356.0457592        56573889.453805208        804383446.43877161     
   3706490810.8695030        19535610.260857821        796075893.93766868     
   3551285076.8959627        4650035.0769360065        794589760.07189643     
   3770836939.2180257        30361992.168014288        898157953.38641512     
   3627813204.0332842       -3109.4945559501648        887830644.74987161     
   3487941494.0330887       -19861460.541965723        883624884.19522893     
   3351221809.2174459       -29213060.974206924        885540671.72248900     
   3217654149.5863514       -28057910.791282773        893578007.33164954     
   3347569889.4373240       -131020908.22849584        972792201.20418894     
   3234665956.4968739       -111007313.38840175        970011890.01499355     
   3121420262.7228098       -92132921.327021360        972653256.35428047     
   3007832808.1151333       -74397732.044340491        980716300.22204363     
   2893903592.6738482       -57801745.540368199        994201021.61828542     
   2942181730.6642847       -287040141.32270718        1065365550.8002598     
   2857397969.8154874       -217247739.02574396        1066056153.3705657     
   2768778662.1149135       -160240492.90136778        1071468562.9159232     
   2676323807.5625734       -116018402.94955266        1081602779.4363394     
   2580033406.1584544       -84581469.170320749        1096458802.9318066     
   3894796374.6026812        40322092.064285040        697236279.83902955     
   3778113305.1514397        42659117.306165457        690859867.87431753     
   3661322575.2704563        44637274.448909760        688061329.18065369     
   3544424184.9597373        46256563.492538214        688840663.75804794     
   3427418134.2192740        47516984.437011957        693197871.60649478     
   3551285076.8959627        4650035.0769360065        794589760.07189643     
   3445681091.7298446        13906526.434549332        791178997.18300128     
   3339537806.5034132        21365350.924455404        791115933.67721236     
   3232855221.2166767        27026508.546672225        794400569.55452752     
   3125633335.8696256        30889999.301179886        801032904.81494761     
   3217654149.5863514       -28057910.791282773        893578007.33164954     
   3122471609.0255060       -12079245.221891642        892629313.94957209     
   3026318128.7737784        662954.71122372150        894798146.06265450     
   2929193708.8311720        10168689.008076549        900084503.67089295     
   2831098349.1976800        16437957.668647289        908488386.77428317     
   2893903592.6738482       -57801745.540368199        994201021.61828542     
   2808484857.0384235       -35298197.663151741        995210818.17402506     
   2721663542.0815458       -17469914.190780997        999107966.33697867     
   2633439647.8032150       -4316895.1232504845        1005892466.1071376     
   2543813174.2034302        4160859.5394290686        1015564317.4845015     
   2580033406.1584544       -84581469.170320749        1096458802.9318066     
   2503720835.7685966       -55750330.889240026        1098923509.8563673     
   2425574046.4267139       -33033255.781577826        1104045394.5001869     
   2345593038.1328063       -16430243.847324729        1111824456.8632643     
   2263777810.8868766       -5941295.0864833593        1122260696.9456038     
   3427418134.2192740        47516984.437011957        693197871.60649478     
   3270675263.7061806        37564530.209975004        678993792.89056516     
   3114506979.3988233        29527363.335394263        670453530.72634268     
   2958913281.2971954        23405483.813251138        667577085.11381948     
   2803894169.4013157        19198891.643587351        670364456.05300283     
   3125633335.8696256        30889999.301179886        801032904.81494761     
   2983960835.3418255        24220298.224606395        789693570.91661108     
   2842697080.6258621        18913083.187515974        783525454.34361029     
   2701842071.7217364        14968354.189876318        782528555.09593391     
   2561395808.6294556        12386111.231713653        786702873.17359900     
   2831098349.1976800        16437957.668647289        908488386.77428317     
   2703088792.2941017        12628781.834238887        899820317.23399556     
   2575322140.8084617        9629290.7262991667        895830865.79266381     
   2447798394.7407703        7439484.3448426723        896520032.45029116     
   2320517554.0910158        6059362.6898609400        901887817.20687783     
   2543813174.2034302        4160859.5394290686        1015564317.4845015     
   2428059134.5630078        2789981.0388528109        1009374031.8427148     
   2312382159.9466262        1675985.9517500401        1007369765.0735135     
   2196782250.3542943        818874.27814781666        1009551517.1768931     
   2081259405.7860122        218646.01803839207        1015919288.1528636     
   2263777810.8868766       -5941295.0864833593        1122260696.9456038     
   2158871862.1485434       -5296104.1615426540        1118354714.7427726     
   2053877138.0403547       -4946831.1361187696        1118142152.1861479     
   1948793638.5623200       -4893476.0101829767        1121623009.2757406     
   1843621363.7144346       -5136038.7837498188        1128797286.0115402     
   2803894169.4013157        19198891.643587351        670364456.05300283     
   2669268418.0798140        21904668.261869550        658542507.27082324     
   2534591834.8046455        24441005.034588814        649545961.13872576     
   2399864419.5758009        26807901.961713433        643374817.65670443     
   2265086172.3932915        29005359.043312073        640029076.82477224     
   2561395808.6294556        12386111.231713653        786702873.17359900     
   2434534185.3947153        14796577.299365878        775727563.55488694     
   2307868640.7889452        17860638.796917796        767967406.09528637     
   2181399174.8121505        21578295.724370599        763422400.79479718     
   2055125787.4643178        25949548.081727386        762092547.65341890     
   2320517554.0910158        6059362.6898609400        901887817.20687783     
   2202533628.9688401        8508589.2146306038        892047209.09805059     
   2084992693.0582721        12434446.444767833        885811502.65736675     
   1967894746.3593144        17836934.380258560        883180697.88482201     
   1851239788.8719630        24716053.021121621        884154794.78041649     
   2081259405.7860122        218646.01803839207        1015919288.1528636     
   1973266748.8021929        3040704.0076630116        1007501443.9003302     
   1865963991.6126223        8162427.9781248569        1003078250.8249714     
   1759351134.2172918        15583817.929387450        1002649708.9267778     
   1653428176.6162176        25304873.861505389        1006215818.2057509     
   1843621363.7144346       -5136038.7837498188        1128797286.0115402     
   1746733544.8947678       -1607078.3215346336        1122090267.9617169     
   1650782536.4519906        5044583.3969792128        1119767650.5980926     
   1555768338.3860955        14818946.371772110        1121829433.9206681     
   1461690950.6970916        27716010.602868199        1128275617.9294367     
   2265086172.3932915        29005359.043312073        640029076.82477224     
   2121740757.0889561        28434746.528954864        627181196.82232141     
   1978315677.5892408        27598586.696675897        617478486.85701489     
   1834810933.8941433        26496879.546453714        610920946.92885971     
   1691226526.0036666        25129625.078295946        607508577.03784764     
   2055125787.4643178        25949548.081727386        762092547.65341890     
   1920876868.3446455        27931157.077983856        751270008.19766903     
   1786433859.2798271        29265799.590430498        743710629.26744771     
   1651796760.2698643        29953475.619062126        739414410.86275363     
   1516965571.3147581        29994185.163871825        738381352.98359573     
   1851239788.8719630        24716053.021121621        884154794.78041649     
   1726424481.6180484        29351018.232337236        875224099.16330612     
   1601300658.6692250        32957597.793847740        869674554.56010926     
   1475868320.0254850        35535791.705646873        867506160.97082293     
   1350127465.6868436        37085599.967762649        868718918.39545262     
   1653428176.6162176        25304873.861505389        1006215818.2057509     
   1538383596.9091554        32694329.991973281        999043469.71922517     
   1422916075.7574160        38673981.306879938        995370262.73499620     
   1307025613.1610076        43243827.806205690        995196197.25306344     
   1190712209.1199222        46403869.489946425        998521273.27342105     
   1461690950.6970916        27716010.602868199        1128275617.9294367     
   1356754214.2179780        37961092.356957555        1122728119.8654327     
   1251280110.5444210        46414950.129584730        1120797753.7921097     
   1145268639.6764235        53077583.920729518        1122484519.7094665     
   1038719801.6139860        57948993.730419159        1127788417.6174941     
   1691226526.0036666        25129625.078295946        607508577.03784764     
   1550688567.5684526        26272848.421095371        593443999.06394649     
   1411282939.0259898        31190504.739720583        578285067.15382707     
   1273009640.3762896        39882594.034227073        562031781.30749476     
   1135868671.6193473        52349116.304593980        544684141.52495193     
   1516965571.3147581        29994185.163871825        738381352.98359573     
   1374922918.1348529        28036487.982814014        728625414.85117161     
   1233183167.5648582        27088466.168107271        719521970.20300686     
   1091746319.6047721        27150119.719770014        711071019.03911412     
   950612374.25458741        28221448.637773633        703272561.35947859     
   1350127465.6868436        37085599.967762649        868718918.39545262     
   1211571110.3921907        33524280.051832318        862303954.94117773     
   1072488230.4245944        28207877.892753661        858288332.39164591     
   932878825.78405869        21136393.490547240        856672050.74685717     
   792742896.47058463        12309826.845197022        857455110.00681365     
   1190712209.1199222        46403869.489946425        998521273.27342105     
   1060633144.3404599        42736224.628130734        994479619.33396828     
   929198127.60520566        34548739.913662791        994584153.71974003     
   796407158.91416156        21841415.346579492        998834876.43073833     
   662260238.26732945        4614250.9268464744        1007231787.4669527     
   1038719801.6139860        57948993.730419159        1127788417.6174941     
   922109019.97965443        55672321.711693555        1125152408.0295446     
   803312859.10668981        46111052.230852157        1128409434.1872971     
   682331318.99507165        29265185.287838459        1137559496.0907466     
   559164399.64481962        5134720.8827062249        1152602593.7399035     
   1135868671.6193473        52349116.304593980        544684141.52495193     
   951190951.03192866        40866951.431085408        563013820.09030962     
   758993431.36843324        4318789.6373328865        592229464.25584841     
   559276112.62885940       -57295369.076681674        632331074.02159786     
   352038994.81319916       -143975524.71099478        683318649.38753116     
   950612374.25458741        28221448.637773633        703272561.35947859     
   791502613.24863410        11246007.277938932        721339155.81476104     
   623746636.06282735       -34550154.681400865        749455125.07552612     
   447344442.69714451       -109167037.24033684        787620469.14176190     
   262296033.15160483       -212604640.39878401        835835188.01346135     
   792742896.47058463        12309826.845197022        857455110.00681365     
   656810835.63261163       -10875968.825002611        873944467.06428814     
   511106141.51099241       -66637208.774021745        899646608.13250721     
   355628814.10572445       -154973893.00186986        934561533.21148622     
   190378853.41680706       -275886021.50855094        978689242.30121231     
   662260238.26732945        4614250.9268464744        1007231787.4669527     
   547115618.18384588       -25498976.877778769        1020829753.8388579     
   421071947.71293581       -91942372.640493274        1042803913.4268054     
   284129226.85459119       -194715936.36132705        1073154266.2307843     
   136287455.60881692       -333819668.04026061        1111880812.2507868     
   559164399.64481962        5134720.8827062249        1152602593.7399035     
   462416960.90234238       -32623016.880379617        1161995016.1385002     
   353644054.66864902       -110465646.28085215        1178927040.9584141     
   232845680.94374087       -228393167.31870729        1203398668.1996393     
   100021839.72762123       -386405579.99394524        1235409897.8621702     
   352038994.81319916       -143975524.71099478        683318649.38753116     
   277916096.51886058       -285189852.19994938        786512150.21994829     
   149026115.29335400       -608961122.79280281        905554208.95685899     
  -34630948.863349915       -1115289336.4896584        1040444825.5982419     
  -273055095.95125568       -1804174493.2905040        1191184000.1441092     
   262296033.15160483       -212604640.39878401        835835188.01346135     
   223585131.44563416       -352321220.90597951        885123947.52106214     
   140654360.40265328       -639437365.86985040        945458512.58099115     
   13503720.022665381       -1073953075.2904129        1016838883.1932302     
  -157866789.69433331       -1655868349.1677003        1099265059.3577807     
   190378853.41680706       -275886021.50855094        978689242.30121231     
   173357798.72157627       -418221499.90728569        986378343.01054382     
   122664088.28352326       -672799164.11542106        1000310496.9200319     
   38297722.102635443       -1039619014.1329944        1020485704.0296607     
  -79741299.821070910       -1518681049.9599810        1046903964.3394407     
   136287455.60881692       -333819668.04026061        1111880812.2507868     
   127234098.34670979       -482890689.20381445        1090275336.6883883     
   95055298.935951531       -709046517.52952695        1070110161.9739823     
   39751057.376554728       -1012287153.0173712        1051385288.1075468     
  -38678626.331485927       -1392612595.6673784        1034100715.0891094     
   100021839.72762123       -386405579.99394524        1235409897.8621702     
   85214030.321021765       -546328788.79560316        1196814928.5545895     
   57827992.359952599       -748179426.11215436        1154857507.7428355     
   17863725.844422758       -991957491.94357479        1109537635.4268954     
  -34678769.225569189       -1277662986.2898631        1060855311.6067770     
   2942181730.6642847       -287040141.32270718        1065365550.8002598     
   2857397969.8154874       -217247739.02574396        1066056153.3705657     
   2768778662.1149135       -160240492.90136778        1071468562.9159232     
   2676323807.5625734       -116018402.94955266        1081602779.4363394     
   2580033406.1584544       -84581469.170320749        1096458802.9318066     
   2628920682.6951995       -145272301.04153323        1194545466.7488372     
   2544055434.6552944       -116253094.41468537        1188169469.3160527     
   2458041698.2044096       -91062182.491109848        1186418181.4543104     
   2370879473.3425350       -69699565.270832300        1189291603.1636126     
   2282568760.0696821       -52165242.753817201        1196789734.4439597     
   2303914785.0180779       -7027915.6727714539        1306485335.9738345     
   2218690628.6327572       -18865131.062326908        1296177640.0522094     
   2135005042.2772424       -25573779.685866356        1290397556.2976198     
   2052858025.9515305       -27153861.543390274        1289145084.7100658     
   1972249579.6556230       -23605376.634906650        1292420225.2895460     
   1967164037.6329205        127693014.78358024        1401185158.4752507     
   1881303551.7478724        74916151.031326532        1390080665.5790391     
   1799668694.3334174        36224715.514384389        1383406687.4458563     
   1722259465.3895552        11618708.232751131        1381163224.0756996     
   1649075864.9162862        1098129.1864224672        1383350275.4685690     
   1618668440.5397289        258890490.32752162        1478644934.2530851     
   1531894204.0006406        165090751.86627746        1469878545.8965442     
   1452032654.3729341        94333303.109637499        1465445574.8990209     
   1379083791.6566110        46618144.057609677        1465346021.2605104     
   1313047615.8516653        21945274.710169673        1469579884.9810212     
   2580033406.1584544       -84581469.170320749        1096458802.9318066     
   2503720835.7685966       -55750330.889240026        1098923509.8563673     
   2425574046.4267139       -33033255.781577826        1104045394.5001869     
   2345593038.1328063       -16430243.847324729        1111824456.8632643     
   2263777810.8868766       -5941295.0864833593        1122260696.9456038     
   2282568760.0696821       -52165242.753817201        1196789734.4439597     
   2211270526.2896442       -33055938.168571711        1193391292.1296663     
   2138794124.8021626       -17873859.274803638        1193436354.1873162     
   2065139555.6072488       -6619006.0724736452        1196924920.6169169     
   1990306818.7048929        708621.43837857246        1203856991.4184690     
   1972249579.6556230       -23605376.634906650        1292420225.2895460     
   1908212330.0645185       -13543911.471766353        1283924026.8550792     
   1843652964.0105586       -5222834.5181359053        1279657659.4452467     
   1778571481.4937501        1357854.2259880304        1279621123.0600562     
   1712967882.5140858        6198154.7606019974        1283814417.6995039     
   1649075864.9162862        1098129.1864224672        1383350275.4685690     
   1594546247.0932250        2785749.2011908293        1370521714.0326087     
   1540150564.0518980        4919818.4884034991        1362709310.2739797     
   1485888815.7923045        7500337.0480626822        1359913064.1926756     
   1431761002.3144460        10527304.880171239        1362132975.7887051     
   1313047615.8516653        21945274.710169673        1469579884.9810212     
   1270272277.3757665        15933043.850305140        1453184353.6622586     
   1228286924.9261839        12554099.744830132        1442591306.6735129     
   1187091558.5029266        11808442.393769979        1437800744.0147846     
   1146686178.1059835        13696071.797093928        1438812665.6860771     
   2263777810.8868766       -5941295.0864833593        1122260696.9456038     
   2158871862.1485434       -5296104.1615426540        1118354714.7427726     
   2053877138.0403547       -4946831.1361187696        1118142152.1861479     
   1948793638.5623200       -4893476.0101829767        1121623009.2757406     
   1843621363.7144346       -5136038.7837498188        1128797286.0115402     
   1990306818.7048929        708621.43837857246        1203856991.4184690     
   1895294535.7744460        288065.24756610394        1198815853.4335248     
   1800343286.5558822        70954.763032317162        1197937749.6043854     
   1705453071.0492077        57289.984795808792        1201222679.9310386     
   1610623889.2544167        247070.91283613443        1208670644.4134936     
   1712967882.5140858        6198154.7606019974        1283814417.6995039     
   1629191021.1331975        5114378.1765270829        1277812901.1944802     
   1545625002.5459323        4733410.9045297503        1276444033.3548460     
   1462269826.7522955        5055252.9446246624        1279707814.1805944     
   1379125493.7522817        6079904.2968002558        1287604243.6717291     
   1431761002.3144460        10527304.880171239        1362132975.7887051     
   1360561318.2247982        9182834.6253440380        1355345858.0256317     
   1289722286.0105104        9040537.2883891463        1353661003.4375319     
   1219243905.6715877        10100412.869319856        1357078412.0244019     
   1149126177.2080300        12362461.368129432        1365598083.7862430     
   1146686178.1059835        13696071.797093928        1438812665.6860771     
   1089405427.0492487        12493434.594014227        1431414723.9269800     
   1032635136.9496169        12992333.914612114        1429588659.8524430     
   976375307.80708349        15192769.758871615        1433334473.4624610     
   920625939.62165546        19094742.126815081        1442652164.7570419     
   1843621363.7144346       -5136038.7837498188        1128797286.0115402     
   1746733544.8947678       -1607078.3215346336        1122090267.9617169     
   1650782536.4519906        5044583.3969792128        1119767650.5980926     
   1555768338.3860955        14818946.371772110        1121829433.9206681     
   1461690950.6970916        27716010.602868199        1128275617.9294367     
   1610623889.2544167        247070.91283613443        1208670644.4134936     
   1525331116.8195248        4301279.3786734939        1203399764.0776360     
   1440638962.1429534        10357547.038913310        1202542538.4276528     
   1356547425.2247062        18415873.893565655        1206098967.4635363     
   1273056506.0647779        28476259.942614913        1214069051.1852920     
   1379125493.7522817        6079904.2968002558        1287604243.6717291     
   1305511350.5583704        10684435.623106539        1283377276.3281820     
   1232161632.5042188        16170384.081938922        1283593217.6701763     
   1159076339.5898242        22537749.673301458        1288252067.6977141     
   1086255471.8151908        29786532.397192776        1297353826.4108038     
   1149126177.2080300        12362461.368129432        1365598083.7862430     
   1087274246.1113100        17542390.411768556        1362022804.7133489     
   1025350547.5357864        22483094.526061475        1362919688.3256688     
   963355081.48145509        27184573.710996151        1368288734.6232057     
   901287847.94831741        31646827.966574818        1378129943.6059620     
   920625939.62165546        19094742.126815081        1442652164.7570419     
   870619803.47833741        24875143.744650275        1439336349.2331374     
   820205707.23764956        29295678.371256083        1440521950.3941238     
   769383650.89959610        32356346.006642967        1446208968.2400022     
   718153634.46417093        34057146.650788277        1456397402.7707729     
   1461690950.6970916        27716010.602868199        1128275617.9294367     
   1356754214.2179780        37961092.356957555        1122728119.8654327     
   1251280110.5444210        46414950.129584730        1120797753.7921097     
   1145268639.6764235        53077583.920729518        1122484519.7094665     
   1038719801.6139860        57948993.730419159        1127788417.6174941     
   1273056506.0647779        28476259.942614913        1214069051.1852920     
   1177187020.0464592        35135394.137232363        1208903579.7979081     
   1080922840.3597541        40478882.770568550        1207923310.8264880     
   984263967.00467074        44506725.842640221        1211128244.2710385     
   887210399.98120761        47218923.353446692        1218518380.1315544     
   1086255471.8151908        29786532.397192776        1297353826.4108038     
   1001076294.6156280        33346636.539707005        1292736834.1471026     
   915645097.27374625        36066673.541162610        1292873114.7246611     
   829961879.78954160        37946643.401541263        1297762668.1434674     
   744026642.16301703        38986546.120850623        1307405494.4035401     
   901287847.94831741        31646827.966574818        1378129943.6059620     
   828422037.92548430        32594819.564397812        1374227882.9130199     
   755446881.28638959        33178322.441349149        1375647165.4866164     
   682362378.03103542        33397336.597434193        1382387791.3267634     
   609168528.15941393        33251862.032630742        1394449760.4334455     
   718153634.46417093        34057146.650788277        1456397402.7707729     
   659224249.97602618        32879943.211284220        1453376726.0956557     
   600328192.39768624        31813829.471129924        1456245463.1123681     
   541465461.72914290        30858805.430292547        1465003613.8209162     
   482636057.97039759        30014871.088786945        1479651178.2212906     
   1038719801.6139860        57948993.730419159        1127788417.6174941     
   922109019.97965443        55672321.711693555        1125152408.0295446     
   803312859.10668981        46111052.230852157        1128409434.1872971     
   682331318.99507165        29265185.287838459        1137559496.0907466     
   559164399.64481962        5134720.8827062249        1152602593.7399035     
   887210399.98120761        47218923.353446692        1218518380.1315544     
   785749285.34319890        44663871.294706583        1216200357.2900212     
   682081775.17454624        34754167.467158735        1219707130.2476583     
   576207869.47524166        17489811.870772511        1229038699.0044582     
   468127568.24531841       -7129195.4943504632        1244195063.5604181     
   744026642.16301703        38986546.120850623        1307405494.4035401     
   657520223.24550402        36094622.639337778        1305380939.3010981     
   568786392.50534582        25777993.082349062        1309112940.0512829     
   477825149.94254833        8036657.4498877823        1318601496.6540949     
   384636495.55710948       -17129384.258036107        1333846609.1095383     
   609168528.15941393        33251862.032630742        1394449760.4334455     
   537421833.68657303        29964575.745596439        1392694154.0627651     
   463426711.09909010        19182529.076415718        1396626863.5981708     
   387183160.39696711        905722.02510990202        1406247889.0396626     
   308691181.58021021       -24865845.408313870        1421557230.3872514     
   482636057.97039759        30014871.088786945        1479651178.2212906     
   425454116.66641217        26273730.613496184        1478140001.5750287     
   366002730.95578384        14967775.449390575        1482248900.8883204     
   304281900.83851480       -3902994.4035134315        1491977876.1611643     
   240291626.31460702       -30338578.945216089        1507326927.3935580     
   559164399.64481962        5134720.8827062249        1152602593.7399035     
   462416960.90234238       -32623016.880379617        1161995016.1385002     
   353644054.66864902       -110465646.28085215        1178927040.9584141     
   232845680.94374087       -228393167.31870729        1203398668.1996393     
   100021839.72762123       -386405579.99394524        1235409897.8621702     
   468127568.24531841       -7129195.4943504632        1244195063.5604181     
   390485507.43600249       -41380897.260933548        1242687799.6506679     
   302677864.22704411       -109517873.69299936        1247528292.6536164     
   204704638.61844212       -211540124.79054415        1258716542.5692625     
   96565830.610182926       -347447650.55360448        1276252549.3976042     
   384636495.55710948       -17129384.258036107        1333846609.1095383     
   322694539.79921901       -48896631.892612189        1323609524.8315938     
   252446886.73324221       -108349537.22079983        1318528351.9577367     
   173893536.35918719       -195488100.24258140        1318603090.4879634     
   87034488.677052602       -310312320.95797127        1323833740.4222820     
   308691181.58021021       -24865845.408313870        1421557230.3872514     
   259044057.99198136       -55170220.775441244        1404760191.6812758     
   202951122.18724000       -106960636.86427663        1391927218.8707767     
   140412374.16599163       -180237093.67480078        1383058311.9557540     
   71427813.928223684       -274999591.20705438        1378153470.9362006     
   240291626.31460702       -30338578.945216089        1507326927.3935580     
   199534062.01430175       -60201663.909382924        1486139800.1997159     
   154190570.58904678       -105351172.62338741        1467724893.3927414     
   104261152.03885391       -165787105.08718359        1452082206.9726274     
   49745806.363704801       -241509461.30083114        1439211740.9393756     
   100021839.72762123       -386405579.99394524        1235409897.8621702     
   85214030.321021765       -546328788.79560316        1196814928.5545895     
   57827992.359952599       -748179426.11215436        1154857507.7428355     
   17863725.844422758       -991957491.94357479        1109537635.4268954     
  -34678769.225569189       -1277662986.2898631        1060855311.6067770     
   96565830.610182926       -347447650.55360448        1276252549.3976042     
   79679672.585523576       -488651725.89157236        1221960736.9438581     
   51416891.749511272       -667777877.26737773        1165112846.2580097     
   11777488.102165878       -884826104.68095171        1105708877.3400617     
  -39238538.356513500       -1139796408.1323335        1043748830.1900072     
   87034488.677052602       -310312320.95797127        1323833740.4222820     
   70373905.668854833       -432106085.74188602        1255246958.1893344     
   43538305.592423260       -587816574.08658171        1184910470.9963665     
   6527688.4477846622       -777443785.99197268        1112824278.8433981     
  -40657945.765084088       -1000987721.4581186        1038988381.7303838     
   71427813.928223684       -274999591.20705438        1378153470.9362006     
   57296729.571011022       -376691868.34656894        1296673592.2910328     
   34192233.888693213       -508295516.56976497        1214250381.9579351     
   2114326.8812689185       -669810535.87665069        1130883839.9368882     
  -38936991.451242566       -861236926.26716006        1046573966.2279282     
   49745806.363704801       -241509461.30083114        1439211740.9393756     
   40448144.291999117       -322409073.70558906        1346240639.2489498     
   23378676.638299435       -429214704.71699071        1253132579.1426871     
  -1462596.5973590612       -561926354.33492315        1159887560.6205726     
  -34075675.415010095       -720544022.55949748        1066505583.6825958     
   1618668440.5397289        258890490.32752162        1478644934.2530851     
   1531894204.0006406        165090751.86627746        1469878545.8965442     
   1452032654.3729341        94333303.109637499        1465445574.8990209     
   1379083791.6566110        46618144.057609677        1465346021.2605104     
   1313047615.8516653        21945274.710169673        1469579884.9810212     
   1195451030.9228520        154656177.73578903        1459115001.6237192     
   1133697409.9219296        103733979.82813111        1457584895.9215455     
   1075198534.2696528        63660933.082626462        1461073183.1465826     
   1019954403.9660208        34437037.499274075        1469579863.2988181     
   967965019.01103616        16062293.078075886        1483104936.3782606     
   774984457.64481640        51247116.045705378        1455323235.8901026     
   740208525.23402166        43789580.607223898        1456761814.3524427     
   705029396.60913742        34988057.788443655        1463903761.3101768     
   669447071.77016342        24842547.589366585        1476749076.7633026     
   633461550.71710062        13353050.009990156        1495297760.7118185     
   357268720.70562607       -51336694.742724627        1467269637.0522399     
   351427549.93692183       -14742445.796437517        1467409301.1892335     
   341525241.39139056        8314677.2270904630        1473937309.3898118     
   327561795.06903732        17834674.327879354        1486853661.6539617     
   309537210.96985888        13817545.505915880        1506158357.9816957     
  -57696179.894723050       -153095254.62949896        1494954205.1101217     
  -32645515.969376087       -71862099.382865012        1489527356.4319177     
  -15313931.383587832       -16359208.601428822        1491173827.3854780     
  -5701426.1373604080        13413417.714805638        1499893617.9708021     
  -3808000.2306923745        17455779.565842126        1515686728.1878943     
   1313047615.8516653        21945274.710169673        1469579884.9810212     
   1270272277.3757665        15933043.850305140        1453184353.6622586     
   1228286924.9261839        12554099.744830132        1442591306.6735129     
   1187091558.5029266        11808442.393769979        1437800744.0147846     
   1146686178.1059835        13696071.797093928        1438812665.6860771     
   967965019.01103616        16062293.078075886        1483104936.3782606     
   939435456.55640459        10845899.792512178        1470913158.3473516     
   911686580.21611047        8231793.5547373295        1463693530.4087131     
   884718389.99015677        8219974.3647650480        1461446052.5623479     
   858530885.87854254        10810442.222591817        1464170724.8082564     
   633461550.71710062        13353050.009990156        1495297760.7118185     
   616805380.74732113        8220779.2378076911        1487298886.0714507     
   600920596.97990036        5659795.8068167865        1483441827.2856104     
   585807199.41483283        5670099.7170037329        1483726584.3542936     
   571465188.05212259        8251690.9683827460        1488153157.2775068     
   309537210.96985888        13817545.505915880        1506158357.9816957     
   302382049.94851363        8057682.1861834824        1502341536.8345587     
   295988975.21754444        4838106.5010358095        1501836197.3042006     
   290357986.77695036        4158818.4504715800        1504642339.3906243     
   285489084.62673032        6019818.0344885886        1510759963.0938275     
  -3808000.2306923745        17455779.565842126        1515686728.1878943     
  -3834535.8400170719        10356608.637644002        1516041110.6366730     
  -3108285.0709470250        5766725.6374283638        1518876640.4644861     
  -1629247.9234878712        3686130.5651762369        1524193317.6713338     
   602575.60236357979        4114823.4208987840        1531991142.2572181     
   1146686178.1059835        13696071.797093928        1438812665.6860771     
   1089405427.0492487        12493434.594014227        1431414723.9269800     
   1032635136.9496169        12992333.914612114        1429588659.8524430     
   976375307.80708349        15192769.758871615        1433334473.4624610     
   920625939.62165546        19094742.126815081        1442652164.7570419     
   858530885.87854254        10810442.222591817        1464170724.8082564     
   815824502.58594465        10137095.166130394        1457619797.2786870     
   773452937.90869367        10579810.160822898        1456585900.3108296     
   731416191.84678829        12138587.206667185        1461069033.9046884     
   689714264.40021825        14813426.303631812        1471069198.0602534     
   571465188.05212259        8251690.9683827460        1488153157.2775068     
   543176466.45838892        8060622.2389685512        1482244327.9120829     
   515046921.13823903        8400141.0881700218        1481797681.9855235     
   487076552.09167469        9270247.5159870088        1486813219.4978294     
   459265359.31869614        10670941.522426426        1497290940.4489963     
   285489084.62673032        6019818.0344885886        1510759963.0938275     
   271461318.66657734        6264015.8125228882        1505288315.8271608     
   257417086.63825685        6453326.6966643333        1505224004.8765128     
   243356388.54175755        6587750.6868775636        1510567030.2418840     
   229279224.37709025        6667287.7831975818        1521317391.9232678     
   602575.60236357979        4114823.4208987840        1531991142.2572181     
   679059.21052042593        4747275.8868202660        1526751761.0239265     
   563434.40874381177        4739366.9862968782        1526864868.9838061     
   255701.19703435455        4091096.7193306824        1532330466.1368566     
  -244140.42460595549        2802465.0859283106        1543148552.4830749     
   920625939.62165546        19094742.126815081        1442652164.7570419     
   870619803.47833741        24875143.744650275        1439336349.2331374     
   820205707.23764956        29295678.371256083        1440521950.3941238     
   769383650.89959610        32356346.006642967        1446208968.2400022     
   718153634.46417093        34057146.650788277        1456397402.7707729     
   689714264.40021825        14813426.303631812        1471069198.0602534     
   651095155.82693338        18497727.637305796        1467634676.3680081     
   612197019.78645527        21251937.413666844        1468941705.4180069     
   573019856.27879429        23076055.632753402        1474990285.2102582     
   533563665.30394328        23970082.294536024        1485780415.7447565     
   459265359.31869614        10670941.522426426        1497290940.4489963     
   432719375.62217712        12464971.763942286        1493888133.9902818     
   406023297.08865285        13758685.882108524        1495467012.3311772     
   379177123.71811730        14552083.876901329        1502027575.4716773     
   352180855.51057810        14845165.748352498        1513569823.4117813     
   229279224.37709025        6667287.7831975818        1521317391.9232678     
   215492462.86407813        6776876.1245959476        1518096722.0999672     
   201684539.14423198        6815923.7765479907        1520097871.1336305     
   187855453.21756914        6784430.7391111851        1527320839.0242615     
   174005205.08407053        6682397.0122212991        1539765625.7718506     
  -244140.42460595549        2802465.0859283106        1543148552.4830749     
  -585582.44738028443        1433440.7192118168        1540260440.6970618     
  -819254.04679941968        423651.09701263584        1542834281.8253734     
  -945155.22287113883       -226903.78069446440        1550870075.8680027     
  -963285.97557759914       -518223.91385208943        1564367822.8249576     
   718153634.46417093        34057146.650788277        1456397402.7707729     
   659224249.97602618        32879943.211284220        1453376726.0956557     
   600328192.39768624        31813829.471129924        1456245463.1123681     
   541465461.72914290        30858805.430292547        1465003613.8209162     
   482636057.97039759        30014871.088786945        1479651178.2212906     
   533563665.30394328        23970082.294536024        1485780415.7447565     
   489933970.68429768        23233449.199542344        1483863080.2229636     
   446333671.44611460        22594800.709421918        1487723653.1363745     
   402762767.58939618        22054136.824184552        1497362134.4849925     
   359221259.11414766        21611457.543844372        1512778524.2688100     
   352180855.51057810        14845165.748352498        1513569823.4117813     
   323532264.31191278        14453527.063575163        1512751242.2602596     
   294909136.96638668        14146767.889261127        1517599064.2873147     
   266311473.47399256        13924888.225386396        1528113289.4929459     
   237739273.83473507        13787888.071966298        1544293917.8771558     
   174005205.08407053        6682397.0122212991        1539765625.7718506     
   160019130.85888848        6540176.8034403250        1540041212.2075450     
   146054588.95850006        6469731.0106390044        1545871696.5651896     
   132111579.38292432        6471059.6338787526        1557257078.8447838     
   118190102.13215387        6544162.6731376685        1574197359.0463276     
  -963285.97557759914       -518223.91385208943        1564367822.8249576     
  -605429.67479407752       -506601.58092530206        1565732990.0648170     
  -229972.57752787243       -436309.92638887541        1572541549.9700003     
   163085.31619857551       -307348.95031865302        1584793502.5405033     
   573744.00640519068       -119718.65264787289        1602488847.7763288     
   482636057.97039759        30014871.088786945        1479651178.2212906     
   425454116.66641217        26273730.613496184        1478140001.5750287     
   366002730.95578384        14967775.449390575        1482248900.8883204     
   304281900.83851480       -3902994.4035134315        1491977876.1611643     
   240291626.31460702       -30338578.945216089        1507326927.3935580     
   359221259.11414766        21611457.543844372        1512778524.2688100     
   316821445.89124179        18973149.478703409        1509564743.8452358     
   272718740.12610143        10658532.939442292        1511847255.4298334     
   226913141.81872562       -3332392.0739343613        1519626059.0225961     
   179404650.96911028       -22999625.561442710        1532901154.6235287     
   237739273.83473507        13787888.071966298        1544293917.8771558     
   209767920.26038647        12146311.887226827        1540038510.8514061     
   180660226.00820425        6716933.4430379122        1541155611.8824487     
   150416191.07819375       -2500247.2605776340        1547645220.9702702     
   119035815.47034663       -15505230.223649397        1559507338.1148789     
   118190102.13215387        6544162.6731376685        1574197359.0463276     
   104293539.77383415        5793217.8390269987        1569561302.5935462     
   89827188.602091655        3142976.9601747394        1570173970.2461648     
   74791048.616917565       -1406559.9634477645        1576035362.0041878     
   59185119.818315111       -7855392.9318330958        1587145477.8676014     
   573744.00640519068       -119718.65264787289        1602488847.7763288     
   398304.43159417750       -86132.665865819785        1598133119.0716507     
   219627.90775561854       -63336.509172116173        1598902330.5209882     
   37714.434897337356       -51330.182546928962        1604796482.1243403     
  -147435.98698858102       -50113.686011783982        1615815573.8817079     
   240291626.31460702       -30338578.945216089        1507326927.3935580     
   199534062.01430175       -60201663.909382924        1486139800.1997159     
   154190570.58904678       -105351172.62338741        1467724893.3927414     
   104261152.03885391       -165787105.08718359        1452082206.9726274     
   49745806.363704801       -241509461.30083114        1439211740.9393756     
   179404650.96911028       -22999625.561442710        1532901154.6235287     
   148231792.00430769       -45567611.713042513        1507285514.0706229     
   113618017.51830269       -79605316.268650368        1484587019.0475700     
   75563327.511089414       -125112739.22828716        1464805669.5543718     
   34067721.982670061       -182089880.59194145        1447941465.5910277     
   119035815.47034663       -15505230.223649397        1559507338.1148789     
   97861733.678169996       -30653896.011538528        1530799031.0739360     
   74391747.968529359       -53455574.857640386        1505152794.7058411     
   48625858.341427669       -83910266.761946157        1482568629.0105934     
   20564064.796864629       -122017971.72445634        1463046533.9881933     
   59185119.818315111       -7855392.9318330958        1587145477.8676014     
   48423887.035881184       -15460516.804893211        1556680351.2096565     
   36511761.939732954       -26901948.390334833        1529422220.3675530     
   23448744.529871471       -42179687.688153699        1505371085.3412888     
   9234834.8062737025       -61293734.698426872        1484526946.1308663     
  -147435.98698858102       -50113.686011783982        1615815573.8817079     
  -81747.922545330250        12525.906934115828        1584929474.4777927     
  -21940.568079209341        55563.133290970676        1557395296.0327077     
   31986.076397589135        78997.993016403751        1533213038.5464568     
   80032.010907002739        82830.486183193367        1512382702.0190446     
   49745806.363704801       -241509461.30083114        1439211740.9393756     
   40448144.291999117       -322409073.70558906        1346240639.2489498     
   23378676.638299435       -429214704.71699071        1253132579.1426871     
  -1462596.5973590612       -561926354.33492315        1159887560.6205726     
  -34075675.415010095       -720544022.55949748        1066505583.6825958     
   34067721.982670061       -182089880.59194145        1447941465.5910277     
   29883021.828030854       -241930306.47766185        1347472269.2328432     
   19871178.204981178       -321194543.92475325        1246213266.6454012     
   4032191.1135326326       -419882592.93317145        1144164457.8286974     
  -17633939.446315050       -537994453.50292563        1041325842.7827246     
   20564064.796864629       -122017971.72445634        1463046533.9881933     
   19627047.092401326       -161358794.93123305        1357348015.4280879     
   14807548.033107698       -213641222.65410736        1250206842.8253074     
   6105567.6189928502       -278865254.89305198        1141623016.1798627     
  -6478894.1499451101       -357030891.64807796        1031596535.4917428     
   9234834.8062737025       -61293734.698426872        1484526946.1308663     
   9680220.0851027369       -80694539.066318303        1375867877.8346694     
   8187786.1226941794       -106554740.90500435        1265113307.6823859     
   4757532.9190252945       -138874340.21455944        1152263235.6740394     
  -610539.52588143945       -177653336.99490213        1037317661.8096064     
   80032.010907002739        82830.486183193367        1512382702.0190446     
   42540.806153284488        62461.117134480606        1403031856.4525976     
   11892.473727679100        64901.322512810715        1290932661.2166662     
  -11912.986373953881        90151.102301953535        1176085116.3112545     
  -28875.574134343486        138210.45656537710        1058489221.7363353     
  -57696179.894723050       -153095254.62949896        1494954205.1101217     
  -32645515.969376087       -71862099.382865012        1489527356.4319177     
  -15313931.383587832       -16359208.601428822        1491173827.3854780     
  -5701426.1373604080        13413417.714805638        1499893617.9708021     
  -3808000.2306923745        17455779.565842126        1515686728.1878943     
  -422976419.65712559       -97242624.946025908        1506217266.7277246     
  -390133182.05760640       -47831376.025211513        1494171829.3126936     
  -361739782.99356776       -13252922.222660124        1488390876.5519869     
  -337796222.46500492        6492736.4616359323        1488874408.4456043     
  -318302500.47191995        11405600.027673930        1495622424.9935479     
  -785729904.62238455       -40631968.823408097        1502434933.3526669     
  -747405050.42710054       -23735913.351937979        1487585021.4722376     
  -710260793.96321118       -10775183.651787132        1478190759.2686934     
  -674297135.23071742       -1749779.7229524851        1474252146.7420292     
  -639514074.22961998        3340298.4345606863        1475769183.8922520     
  -1145956634.7905061        16736713.738350928        1483607204.9849379     
  -1104461121.0778558        424288.63695764542        1469766932.9105396     
  -1060876964.2925197       -8925992.8888120055        1460573475.5355875     
  -1015204164.4344976       -11314130.838963807        1456026832.8600762     
  -967442721.50378907       -6740125.2134916186        1456127004.8840070     
  -1503656610.1614850        74863422.739251137        1449734081.6245463     
  -1461301394.0098743        24649229.941472590        1440717563.6276095     
  -1413588293.9814932       -7705349.9337380528        1435539025.3526766     
  -1360517310.0763464       -22200316.886393547        1434198466.7997439     
  -1302088442.2944300       -18835670.916485429        1436695887.9688127     
  -3808000.2306923745        17455779.565842126        1515686728.1878943     
  -3834535.8400170719        10356608.637644002        1516041110.6366730     
  -3108285.0709470250        5766725.6374283638        1518876640.4644861     
  -1629247.9234878712        3686130.5651762369        1524193317.6713338     
   602575.60236357979        4114823.4208987840        1531991142.2572181     
  -318302500.47191995        11405600.027673930        1495622424.9935479     
  -310463236.30177468        6608709.1718079448        1494549432.9743643     
  -302270892.10716027        2988751.7308374345        1496514613.3898199     
  -293725467.88807112        545727.70478342474        1501517966.2399094     
  -284826963.64451247       -720362.90637210011        1509559491.5246329     
  -639514074.22961998        3340298.4345606863        1475769183.8922520     
  -622217510.12114918        1323137.6986726820        1472802493.3255353     
  -604967572.34212697       -849444.13537657261        1473431000.2490551     
  -587764260.89255285       -3177447.0675856769        1477654704.6628089     
  -570607575.77242756       -5660871.0979596972        1485473606.5668004     
  -967442721.50378907       -6740125.2134916186        1456127004.8840070     
  -939097357.29813325       -5500105.7817383409        1450800291.6901822     
  -911198325.77584255       -5747861.9612051249        1449625801.0421946     
  -883745626.93692696       -7483393.7519190907        1452603532.9400401     
  -856739260.78137910       -10706701.153858960        1459733487.3837221     
  -1302088442.2944300       -18835670.916485429        1436695887.9688127     
  -1261102777.8327301       -13861021.269433260        1428542828.0683050     
  -1220963152.4083195       -11706501.746682048        1425099015.7692344     
  -1181669566.0211973       -12372112.348220587        1426364451.0716000     
  -1143222018.6713645       -15857853.074061871        1432339133.9754026     
   602575.60236357979        4114823.4208987840        1531991142.2572181     
   679059.21052042593        4747275.8868202660        1526751761.0239265     
   563434.40874381177        4739366.9862968782        1526864868.9838061     
   255701.19703435455        4091096.7193306824        1532330466.1368566     
  -244140.42460595549        2802465.0859283106        1543148552.4830749     
  -284826963.64451247       -720362.90637210011        1509559491.5246329     
  -270806094.21951973       -174694.13402116299        1504005746.2161458     
  -256956953.28333381       -201453.65769420564        1503845989.3490355     
  -243279540.83595958       -800641.47740596533        1509080220.9232979     
  -229773856.87740049       -1972257.5931674987        1519708440.9389358     
  -570607575.77242756       -5660871.0979596972        1485473606.5668004     
  -542523751.25000834       -5166415.2349804938        1479629273.7577615     
  -514591275.29528064       -5176454.5976397991        1479220428.6382976     
  -486810147.90824527       -5690989.1859402359        1484247071.2084131     
  -459180369.08890331       -6710018.9998857677        1494709201.4681063     
  -856739260.78137910       -10706701.153858960        1459733487.3837221     
  -814473911.88095379       -10227887.416086853        1453622343.6487689     
  -772339531.62709939       -10185635.833550096        1452988186.8515930     
  -730336120.01981926       -10579946.406259298        1457831016.9922001     
  -688463677.05911005       -11410819.134206951        1468150834.0705879     
  -1143222018.6713645       -15857853.074061871        1432339133.9754026     
  -1086656576.1123519       -15359110.677323937        1425984955.8891692     
  -1030201722.2787876       -15228997.365416288        1425149263.9889226     
  -973857457.17067933       -15467513.138359606        1429832058.2746620     
  -917623780.78802574       -16074657.996154070        1440033338.7463868     
  -244140.42460595549        2802465.0859283106        1543148552.4830749     
  -585582.44738028443        1433440.7192118168        1540260440.6970618     
  -819254.04679941968        423651.09701263584        1542834281.8253734     
  -945155.22287113883       -226903.78069446440        1550870075.8680027     
  -963285.97557759914       -518223.91385208943        1564367822.8249576     
  -229773856.87740049       -1972257.5931674987        1519708440.9389358     
  -216235367.97212192       -3325634.0882001072        1516827475.1794810     
  -202651481.47688732       -4527685.2833779082        1519157815.4030569     
  -189022197.39171380       -5578411.1787584946        1526699461.6096492     
  -175347515.71658993       -6477811.7743076086        1539452413.7992651     
  -459180369.08890331       -6710018.9998857677        1494709201.4681063     
  -432478083.34499401       -8262587.8500394970        1491762613.4295795     
  -405792772.84454405       -9871740.8450565934        1493776684.4427710     
  -379124437.58755285       -11537477.984934956        1500751414.5076833     
  -352473077.57402128       -13259799.269682199        1512686803.6243217     
  -688463677.05911005       -11410819.134206951        1468150834.0705879     
  -649313728.56600296       -13377420.566325814        1465065855.4473426     
  -610243128.14976227       -15608515.587998271        1466690888.9445143     
  -571251875.81038237       -18104104.199205130        1473025934.5621097     
  -532339971.54787254       -20864186.399982750        1484070992.3001299     
  -917623780.78802574       -16074657.996154070        1440033338.7463868     
  -866742303.63514757       -18670132.237059474        1436737201.2327778     
  -816002547.39254129       -21738009.512201577        1437900428.9082897     
  -765404512.06020546       -25278289.821580052        1443523021.7729266     
  -714948197.63814497       -29290973.165209621        1453604979.8266819     
  -963285.97557759914       -518223.91385208943        1564367822.8249576     
  -605429.67479407752       -506601.58092530206        1565732990.0648170     
  -229972.57752787243       -436309.92638887541        1572541549.9700003     
   163085.31619857551       -307348.95031865302        1584793502.5405033     
   573744.00640519068       -119718.65264787289        1602488847.7763288     
  -175347515.71658993       -6477811.7743076086        1539452413.7992651     
  -160916258.63754135       -6962516.4195054471        1539940823.5679679     
  -146406625.52480969       -7185967.6190944389        1545926070.5726569     
  -131818616.37840122       -7148165.3730933443        1557408154.8133299     
  -117152231.19830728       -6849109.6814739332        1574387076.2899966     
  -352473077.57402128       -13259799.269682199        1512686803.6243217     
  -323815720.94338310       -14195021.261027262        1512369360.3652787     
  -295019213.04185164       -14666405.682728037        1517602198.9128819     
  -266083553.86943167       -14673952.534800544        1528385319.2671435     
  -237008743.42612329       -14217661.817247711        1544718721.4280550     
  -532339971.54787254       -20864186.399982750        1484070992.3001299     
  -489303816.59230870       -22204116.105457544        1483018600.4567411     
  -446067735.12865245       -22877624.117289290        1487569934.9906819     
  -402631727.15689296       -22884710.435445309        1497724995.9019341     
  -358995792.67703176       -22225375.059927568        1513483783.1905074     
  -714948197.63814497       -29290973.165209621        1453604979.8266819     
  -657380545.58432889       -30989800.952829540        1451888543.8423705     
  -599552191.78521359       -31819622.922780305        1455829278.8060465     
  -541463136.24077952       -31780439.075001448        1465427184.7177060     
  -483113378.95104504       -30872249.409558877        1480682261.5773501     
   573744.00640519068       -119718.65264787289        1602488847.7763288     
   398304.43159417750       -86132.665865819785        1598133119.0716507     
   219627.90775561854       -63336.509172116173        1598902330.5209882     
   37714.434897337356       -51330.182546928962        1604796482.1243403     
  -147435.98698858102       -50113.686011783982        1615815573.8817079     
  -117152231.19830728       -6849109.6814739332        1574387076.2899966     
  -103545470.71194835       -5918863.0846018679        1569675527.3582540     
  -89391320.338360548       -3163983.5302974880        1570233808.9479847     
  -74689780.077538878        1415528.9814515263        1576061921.0591977     
  -59440849.929491214        7819674.4506236650        1587159863.6918855     
  -237008743.42612329       -14217661.817247711        1544718721.4280550     
  -209205810.40013072       -12266562.866746530        1540293750.2448766     
  -180304860.65064919       -6655408.1712829396        1541283499.9506347     
  -150305894.17768109        2615802.2691377774        1547687970.5453365     
  -119208910.98122804        15547068.454505518        1559507162.0289798     
  -358995792.67703176       -22225375.059927568        1513483783.1905074     
  -316582714.63293731       -19129232.012246802        1509987787.7315259     
  -272520993.02910626       -10537610.432108104        1512051403.5289454     
  -226810627.86552712        3549489.6805197299        1519674630.5827689     
  -179451619.14221177        23132068.325608291        1532857468.8929982     
  -483113378.95104504       -30872249.409558877        1480682261.5773501     
  -425676183.41039193       -26506870.521181449        1478757639.8181939     
  -366039717.47373772       -14810590.312802210        1482537519.6829073     
  -304203981.14108515        4216591.2155739367        1492021901.1714842     
  -240168974.41243717        30574674.063931912        1507210784.2839308     
  -147435.98698858102       -50113.686011783982        1615815573.8817079     
  -81747.922545330250        12525.906934115828        1584929474.4777927     
  -21940.568079209341        55563.133290970676        1557395296.0327077     
   31986.076397589135        78997.993016403751        1533213038.5464568     
   80032.010907002739        82830.486183193367        1512382702.0190446     
  -59440849.929491214        7819674.4506236650        1587159863.6918855     
  -48576986.499903627        15481145.154400293        1556698887.6907408     
  -36564131.473959863        26972587.846031860        1529438703.0629845     
  -23402284.851665039        42294002.525503099        1505379309.8086245     
  -9091446.6330044717        61445389.192856289        1484520707.9276519     
  -119208910.98122804        15547068.454505518        1559507162.0289798     
  -97978671.002049282        30677830.624415278        1530818660.4546580     
  -74444567.120171756        53488139.136654228        1505179820.6682978     
  -48606599.335595243        83977993.991223067        1482590642.6698897     
  -20464767.648324281        122147395.18810689        1463051126.4594350     
  -179451619.14221177        23132068.325608291        1532857468.8929982     
  -148286801.42897931        45602582.316995785        1507288792.7695699     
  -113663247.50670478        79602217.005189836        1484618648.8486576     
  -75580957.375391290        125130972.39017984        1464847037.1302664     
  -34039931.035048313        182188848.47193620        1447973957.6143830     
  -240168974.41243717        30574674.063931912        1507210784.2839308     
  -199501377.78068519        60255400.232160181        1486109284.6354558     
  -154220172.63356003        105314821.45163377        1467755187.6040618     
  -104325358.97105184        165752937.72238517        1452148493.1897433     
  -49816936.793182895        241569749.04433572        1439289201.3924966     
   80032.010907002739        82830.486183193367        1512382702.0190446     
   42540.806153284488        62461.117134480606        1403031856.4525976     
   11892.473727679100        64901.322512810715        1290932661.2166662     
  -11912.986373953881        90151.102301953535        1176085116.3112545     
  -28875.574134343486        138210.45656537710        1058489221.7363353     
  -9091446.6330044717        61445389.192856289        1484520707.9276519     
  -9596311.5577228367        80842788.590341210        1375865167.3642063     
  -8157383.2393727601        106719498.79805359        1265117434.6626124     
  -4774661.6779408455        139075519.81603616        1152277509.8228693     
   551853.12655048817        177910851.64422268        1037345392.8449751     
  -20464767.648324281        122147395.18810689        1463051126.4594350     
  -19562270.489175007        161524984.09327179        1357350666.3315117     
  -14779029.716206327        213838385.04450110        1250214171.5967894     
  -6115045.3294285983        279087598.04175746        1141641642.2552528     
   6429682.6711602807        357272623.08505744        1031633078.3069295     
  -34039931.035048313        182188848.47193620        1447973957.6143830     
  -29855335.988201082        242109047.62593189        1347488353.3545175     
  -19853046.956784427        321421560.06181848        1246222872.0191896     
  -4033063.9408296049        420126385.77950317        1144177513.6084068     
   17604613.059691817        538223524.77907538        1041352278.1221491     
  -49816936.793182895        241569749.04433572        1439289201.3924966     
  -40475508.054797739        322594979.18832749        1346278228.4332304     
  -23379434.961112738        429469023.84998596        1253143535.9298327     
   1471282.4878706038        562191883.02930295        1159885123.8823223     
   34076644.292143345        720763556.72625613        1066502992.2906846     
  -1503656610.1614850        74863422.739251137        1449734081.6245463     
  -1461301394.0098743        24649229.941472590        1440717563.6276095     
  -1413588293.9814932       -7705349.9337380528        1435539025.3526766     
  -1360517310.0763464       -22200316.886393547        1434198466.7997439     
  -1302088442.2944300       -18835670.916485429        1436695887.9688127     
  -1891057564.4575849        33111646.757966042        1357247779.0490992     
  -1831136847.8486810        5938491.0194234848        1352779917.7667928     
  -1768051193.7173908       -10684872.977825403        1352668837.7928920     
  -1701800602.0637083       -16758445.233773947        1356914539.1273887     
  -1632385072.8876398       -12282225.748432457        1365517021.7702885     
  -2280408204.1672325       -9225034.8473867178        1272875843.9965401     
  -2201439696.8541861       -12912466.452640891        1270398202.0154259     
  -2121499198.3731232       -13359927.497859120        1272796142.9291127     
  -2040586708.7240562       -10567417.983052135        1280069666.7376006     
  -1958702227.9069800       -4534937.9082150459        1292218773.4408853     
  -2671708529.2904339       -52146622.076805830        1196618276.4668806     
  -2572209941.0263777       -31903642.474700809        1193572416.3735096     
  -2473932307.9486971       -15730513.493840575        1195920940.7613444     
  -2376875630.0573869       -3627235.1342225075        1203663849.6303751     
  -2281039907.3524504        4406192.6041615009        1216801142.9806035     
  -3064958539.8271775       -95653114.930283904        1128475076.4601092     
  -2943447580.3652706       -51035037.046786308        1122302560.8410451     
  -2825350522.4441118       -17796630.965785146        1122043231.2895808     
  -2710667366.0637050        4062103.3127099276        1127697087.8057132     
  -2599398111.2240515        14541165.788695693        1139264130.3894420     
  -1302088442.2944300       -18835670.916485429        1436695887.9688127     
  -1261102777.8327301       -13861021.269433260        1428542828.0683050     
  -1220963152.4083195       -11706501.746682048        1425099015.7692344     
  -1181669566.0211973       -12372112.348220587        1426364451.0716000     
  -1143222018.6713645       -15857853.074061871        1432339133.9754026     
  -1632385072.8876398       -12282225.748432457        1365517021.7702885     
  -1580056585.5478945       -9203941.7140944004        1357723144.2626216     
  -1528434896.9833601       -8481653.5971277952        1354382890.3549492     
  -1477520007.1940360       -10115361.397532105        1355496260.0472705     
  -1427311916.1799242       -14105065.115304708        1361063253.3395889     
  -1958702227.9069800       -4534937.9082150459        1292218773.4408853     
  -1895761271.9790268       -3572125.7735507488        1284946525.2984865     
  -1833387874.5642064       -4501175.3493252993        1281872276.7546382     
  -1771582035.6625156       -7322086.6355360746        1282996027.8093426     
  -1710343755.2739573       -12034859.632186055        1288317778.4625952     
  -2281039907.3524504        4406192.6041615009        1216801142.9806035     
  -2208216837.1261253        3034426.5522071123        1210212971.1758947     
  -2135822085.1508512        234932.99674403667        1207567174.9682984     
  -2063855651.4266288       -3992288.0622248650        1208863754.3578088     
  -1992317535.9534633       -9647236.6247093678        1214102709.3444276     
  -2599398111.2240515        14541165.788695693        1139264130.3894420     
  -2517423280.9891896        10615715.263171911        1133522481.8948524     
  -2435737528.7433000        5726671.4410674572        1131467584.9959300     
  -2354340854.4863844       -125965.67761361599        1133099439.6926739     
  -2273233258.2184434       -6942196.0928752422        1138418045.9850836     
  -1143222018.6713645       -15857853.074061871        1432339133.9754026     
  -1086656576.1123519       -15359110.677323937        1425984955.8891692     
  -1030201722.2787876       -15228997.365416288        1425149263.9889226     
  -973857457.17067933       -15467513.138359606        1429832058.2746620     
  -917623780.78802574       -16074657.996154070        1440033338.7463868     
  -1427311916.1799242       -14105065.115304708        1361063253.3395889     
  -1356783841.2853930       -13321912.665010095        1354737225.7556040     
  -1286421366.9537115       -13090762.090880156        1353567565.3082881     
  -1216224493.1848736       -13411613.392894685        1357554271.9976451     
  -1146193219.9788873       -14284466.571084321        1366697345.8236651     
  -1710343755.2739573       -12034859.632186055        1288317778.4625952     
  -1626887673.8991032       -11277684.884901166        1281955720.9039009     
  -1543652204.9244876       -11255884.805085599        1280387911.4325588     
  -1460637348.3501167       -11969459.392750978        1283614350.0485711     
  -1377843104.1759872       -13418408.647882819        1291635036.7519314     
  -1992317535.9534633       -9647236.6247093678        1214102709.3444276     
  -1896968073.9534745       -9226427.3369866610        1207640441.3340640     
  -1801894236.1911223       -9724365.5080556870        1205610302.3617337     
  -1707096022.6664081       -11141051.137911677        1208012292.4274385     
  -1612573433.3793299       -13476484.226562440        1214846411.5311787     
  -2273233258.2184434       -6942196.0928752422        1138418045.9850836     
  -2167025041.4485135       -7168140.0212776661        1131791387.0460899     
  -2061147460.7536144       -8496204.1997821331        1129234738.0958121     
  -1955600516.1337481       -10926388.628396869        1130748099.1342537     
  -1850384207.5889077       -14458693.307099342        1136331470.1614106     
  -917623780.78802574       -16074657.996154070        1440033338.7463868     
  -866742303.63514757       -18670132.237059474        1436737201.2327778     
  -816002547.39254129       -21738009.512201577        1437900428.9082897     
  -765404512.06020546       -25278289.821580052        1443523021.7729266     
  -714948197.63814497       -29290973.165209621        1453604979.8266819     
  -1146193219.9788873       -14284466.571084321        1366697345.8236651     
  -1084029659.2668233       -17897445.660051584        1362188202.8780124     
  -1021950923.5936280       -21793174.878574729        1362133029.3690856     
  -959957012.95929348       -25971654.226638198        1366531825.2968867     
  -898047927.36383533       -30432883.704286516        1375384590.6614134     
  -1377843104.1759872       -13418408.647882819        1291635036.7519314     
  -1304412876.3401499       -18053517.515525639        1285979266.8908694     
  -1231010577.6717751       -22781723.608052671        1284772070.7141411     
  -1157636208.1708560       -27603026.925435305        1288013448.2217453     
  -1084289767.8374119       -32517427.467719316        1295703399.4136827     
  -1612573433.3793299       -13476484.226562440        1214846411.5311787     
  -1527891954.8551288       -19138347.803502023        1208110393.2713485     
  -1443181509.6269906       -24703655.700654447        1205817552.9434583     
  -1358442097.6949043       -30172407.917976558        1207967890.5475056     
  -1273673719.0588853       -35544604.455526233        1214561406.0834894     
  -1850384207.5889077       -14458693.307099342        1136331470.1614106     
  -1754466894.8117619       -21151936.523977876        1128581582.0194504     
  -1658463719.4592729       -27558971.156379580        1125269476.0570345     
  -1562374681.5314281       -33679797.204262912        1126395152.2741606     
  -1466199781.0282505       -39514414.667700469        1131958610.6708298     
  -714948197.63814497       -29290973.165209621        1453604979.8266819     
  -657380545.58432889       -30989800.952829540        1451888543.8423705     
  -599552191.78521359       -31819622.922780305        1455829278.8060465     
  -541463136.24077952       -31780439.075001448        1465427184.7177060     
  -483113378.95104504       -30872249.409558877        1480682261.5773501     
  -898047927.36383533       -30432883.704286516        1375384590.6614134     
  -826251858.92795098       -31857925.373719484        1372580638.2206995     
  -754324750.31731391       -32846166.460634261        1375001269.0986240     
  -682266601.53194022       -33397606.965098709        1382646483.2951887     
  -610077412.57182169       -33512246.887084961        1395516280.8103905     
  -1084289767.8374119       -32517427.467719316        1295703399.4136827     
  -999501247.67472816       -34039472.415525854        1291660658.6842399     
  -914711348.90786541       -35556922.016069353        1292409913.6440945     
  -829920071.53681397       -37069776.269319654        1297951164.2932389     
  -745127415.56158638       -38578035.175310731        1308284410.6316831     
  -1273673719.0588853       -35544604.455526233        1214561406.0834894     
  -1177128711.8246739       -37534442.078294516        1209128605.2329946     
  -1080711987.5568466       -39951889.589010417        1208055212.4424522     
  -984423546.25540066       -42796946.987656236        1211341227.7118573     
  -888263387.92033052       -46069614.274235398        1218986651.0412080     
  -1466199781.0282505       -39514414.667700469        1131958610.6708298     
  -1359134251.3777871       -42342834.362026691        1124984477.8669677     
  -1252326666.2642684       -46031069.179490447        1121937165.4937043     
  -1145777025.6876879       -50579119.120081365        1122816673.5510447     
  -1039485329.6480572       -55986984.183848143        1127623002.0389876     
  -483113378.95104504       -30872249.409558877        1480682261.5773501     
  -425676183.41039193       -26506870.521181449        1478757639.8181939     
  -366039717.47373772       -14810590.312802210        1482537519.6829073     
  -304203981.14108515        4216591.2155739367        1492021901.1714842     
  -240168974.41243717        30574674.063931912        1507210784.2839308     
  -610077412.57182169       -33512246.887084961        1395516280.8103905     
  -538035526.42377508       -30075784.868600786        1393370712.1051555     
  -463754157.73569363       -19174381.050000340        1396969384.5978742     
  -387233306.50756913       -808035.43125869334        1406312298.2885447     
  -308472972.73941720        25023251.987578705        1421399453.1771588     
  -745127415.56158638       -38578035.175310731        1308284410.6316831     
  -658367297.16590118       -36036427.534639657        1305964809.1484082     
  -569327484.08614159       -25895837.613731116        1309429188.4371710     
  -478007976.32231003       -8156265.4125746489        1318677548.4979677     
  -384408773.87440425        17182289.068823367        1333709889.3308015     
  -888263387.92033052       -46069614.274235398        1218986651.0412080     
  -786671495.63675654       -44388798.519285619        1216539930.9479382     
  -682759696.52508557       -34974960.004014850        1219916931.2007968     
  -576527990.58529866       -17828098.728355110        1229117651.7997715     
  -467976377.81740409        7051785.3076608777        1244142092.7448683     
  -1039485329.6480572       -55986984.183848143        1127623002.0389876     
  -922948121.83636177       -55132897.822579890        1125096077.5037673     
  -804050795.05252743       -46411748.220854610        1128432612.8887539     
  -682793349.29653740       -29823535.378607273        1137632608.1939445     
  -559175784.56841040       -5368259.2959035337        1152696063.4193408     
  -240168974.41243717        30574674.063931912        1507210784.2839308     
  -199501377.78068519        60255400.232160181        1486109284.6354558     
  -154220172.63356003        105314821.45163377        1467755187.6040618     
  -104325358.97105184        165752937.72238517        1452148493.1897433     
  -49816936.793182895        241569749.04433572        1439289201.3924966     
  -308472972.73941720        25023251.987578705        1421399453.1771588     
  -258927833.98892197        55274618.076159269        1404683937.2545476     
  -202929010.41033453        107038266.92505716        1391918211.1322732     
  -140476502.00362962        180314198.53434241        1383102274.8103342     
  -71570308.768810421        275102412.90400654        1378236128.2887363     
  -384408773.87440425        17182289.068823367        1333709889.3308015     
  -322550701.05300337        49034912.663383365        1323527112.8322427     
  -252398867.09075812        108533406.72741333        1318496513.3172767     
  -173953271.98767710        195677771.26089892        1318618090.7859104     
  -87213915.743759632        310468006.26384425        1323891845.2381427     
  -467976377.81740409        7051785.3076608777        1244142092.7448683     
  -390369978.97290999        41536283.993870646        1242638811.3685346     
  -302629742.67484957        109800240.85864539        1247490094.1590681     
  -204755668.92321557        211843655.90199465        1258695941.1164517     
  -96747757.718006730        347666529.12392420        1276256352.2406976     
  -559175784.56841040       -5368259.2959035337        1152696063.4193408     
  -462385667.74865425        32778732.067606688        1162019032.8634322     
  -353621637.16259092        110838769.31880748        1178898953.6576431     
  -232883692.81023970        228811852.45763600        1203335825.8019743     
  -100171834.69157684        386697981.48416722        1235329649.2964239     
  -49816936.793182895        241569749.04433572        1439289201.3924966     
  -40475508.054797739        322594979.18832749        1346278228.4332304     
  -23379434.961112738        429469023.84998596        1253143535.9298327     
   1471282.4878706038        562191883.02930295        1159885123.8823223     
   34076644.292143345        720763556.72625613        1066502992.2906846     
  -71570308.768810421        275102412.90400654        1378236128.2887363     
  -57383183.567396119        376862522.60590249        1296712665.8113308     
  -34229337.210172445        508511702.82716823        1214255409.4900951     
  -2108769.6971252561        670049953.56783581        1130864359.3250368     
   38978518.971721530        861477274.82784426        1046539515.3161267     
  -87213915.743759632        310468006.26384425        1323891845.2381427     
  -70495592.078479528        432268646.12392199        1255269982.8432057     
  -43598470.456872463        587998612.50508416        1184904252.3047261     
  -6522550.8789488375        777657905.40732324        1112794653.6226997     
   40732166.655315161        1001246524.8306637        1038941186.7971427     
  -96747757.718006730        347666529.12392420        1276256352.2406976     
  -79812733.588050246        488813349.74237376        1221950179.5288301     
  -51486834.701240331        667929752.88367343        1165090064.3737094     
  -11770061.057585776        885015738.54777193        1105676006.7753472     
   39337587.342899084        1140071306.7346601        1043708006.7337180     
  -100171834.69157684        386697981.48416722        1235329649.2964239     
  -85334608.096094042        546496633.46131015        1196753255.8682292     
  -57894429.943247855        748305123.96299756        1154812845.6970739     
  -17851300.233061373        992123452.98916245        1109508418.7829516     
   34794781.034494877        1277951620.5398738        1060839975.1258712     
  -3064958539.8271775       -95653114.930283904        1128475076.4601092     
  -2943447580.3652706       -51035037.046786308        1122302560.8410451     
  -2825350522.4441118       -17796630.965785146        1122043231.2895808     
  -2710667366.0637050        4062103.3127099276        1127697087.8057132     
  -2599398111.2240515        14541165.788695693        1139264130.3894420     
  -3435011346.8218217       -62155851.375996709        1029403969.1975271     
  -3301543714.4292660       -27607513.939206481        1020187872.8187121     
  -3170914700.2081318       -2521237.0738306046        1016579817.3451146     
  -3043124304.1584301        13102979.220117927        1018579802.7767370     
  -2918172526.2801499        19265134.942650080        1026187829.1135755     
  -3802903310.9968271       -28010334.975816250        924744686.76723719     
  -3658350848.9947062       -3793290.9820601940        913156173.55955005     
  -3516061721.7946825        12879303.671361685        906870556.09469843     
  -3376035929.3967633        22007448.984446526        905887834.37268817     
  -3238273471.8009453        23591144.957194090        910208008.39351761     
  -4168634432.3521934        6783434.2702553272        814497229.16923594     
  -4013868984.0615869        20407631.824654102        801207463.06355131     
  -3860791587.2037625        28404991.269793749        792915447.53832829     
  -3709402241.7787104        30775512.605688095        789621182.59356642     
  -3559700947.7864337        27519195.832330942        791324668.22926474     
  -4532204710.8879185        42225456.362219095        698661596.40352142     
  -4368098119.6299181        44995254.480926275        684341741.33072484     
  -4205104296.4353666        44055825.721473217        674714491.67600691     
  -4043223241.3042622        39407170.083853245        669779847.43937278     
  -3882454954.2366128        31049287.568057060        669537808.62081850     
  -2599398111.2240515        14541165.788695693        1139264130.3894420     
  -2517423280.9891896        10615715.263171911        1133522481.8948524     
  -2435737528.7433000        5726671.4410674572        1131467584.9959300     
  -2354340854.4863844       -125965.67761361599        1133099439.6926739     
  -2273233258.2184434       -6942196.0928752422        1138418045.9850836     
  -2918172526.2801499        19265134.942650080        1026187829.1135755     
  -2828050499.1325111        10939199.652179241        1019870135.3447196     
  -2737753040.0511184        3198037.4742070436        1017148261.0127075     
  -2647280149.0359774       -3958351.5912598372        1018022206.1175365     
  -2556631826.0870857       -10529967.544231653        1022491970.6592110     
  -3238273471.8009453        23591144.957194090        910208008.39351761     
  -3140264053.9085894        10786783.051362872        903856197.59356952     
  -3041614694.1597581        115560.66711711884        901009274.07164204     
  -2942325392.5544615       -8422522.1955734491        901667237.82773590     
  -2842396149.0926857       -14827465.536677361        905830088.86184847     
  -3559700947.7864337        27519195.832330942        791324668.22926474     
  -3454063945.3174272        10158465.460720301        785480668.64140272     
  -3347322491.0692272       -3520758.9802434444        783050624.17273688     
  -3239476585.0418301       -13518477.490542412        784034534.82326698     
  -3130526227.2352381       -19834690.070209384        788432400.59299827     
  -3882454954.2366128        31049287.568057060        669537808.62081850     
  -3769450173.3590279        9054246.8802404404        664743548.48821628     
  -3654876430.7795129       -7710921.4678220749        663272311.31599069     
  -3538733726.4980931       -19246217.476195097        665124097.10413575     
  -3421022060.5147510       -25551641.144825935        670298905.85265815     
  -2273233258.2184434       -6942196.0928752422        1138418045.9850836     
  -2167025041.4485135       -7168140.0212776661        1131791387.0460899     
  -2061147460.7536144       -8496204.1997821331        1129234738.0958121     
  -1955600516.1337481       -10926388.628396869        1130748099.1342537     
  -1850384207.5889077       -14458693.307099342        1136331470.1614106     
  -2556631826.0870857       -10529967.544231653        1022491970.6592110     
  -2439009909.0166082       -9149193.5686779022        1014822849.0264208     
  -2321655526.0609493       -8660199.9758462906        1011492705.8121111     
  -2204568677.2201061       -9062986.7657352686        1012501541.0162833     
  -2087749362.4940720       -10357553.938325644        1017849354.6389376     
  -2842396149.0926857       -14827465.536677361        905830088.86184847     
  -2712592050.4937620       -11609429.288798451        897192123.48884428     
  -2582992384.0494432       -9072833.5562582016        893162104.96408951     
  -2453597149.7597213       -7217678.3390375376        893740033.28757977     
  -2324406347.6245995       -6043963.6371607780        898925908.45931649     
  -3130526227.2352381       -19834690.070209384        788432400.59299827     
  -2987771465.8799753       -14548847.181643963        778899210.43336987     
  -2845158034.7190957       -9734104.9410108328        774242935.55175292     
  -2702685933.7526011       -5390463.3483327627        774463575.94814622     
  -2560355162.9804878       -1517922.4036042690        779561131.62255168     
  -3421022060.5147510       -25551641.144825935        670298905.85265815     
  -3264548155.1752458       -17967447.247191548        659944109.85998809     
  -3108152478.0699110       -10644014.130123258        654735197.57509744     
  -2951835029.1987405       -3581341.7935980558        654672168.99797738     
  -2795595808.5617414        3220569.7623459101        659755024.12863231     
  -1850384207.5889077       -14458693.307099342        1136331470.1614106     
  -1754466894.8117619       -21151936.523977876        1128581582.0194504     
  -1658463719.4592729       -27558971.156379580        1125269476.0570345     
  -1562374681.5314281       -33679797.204262912        1126395152.2741606     
  -1466199781.0282505       -39514414.667700469        1131958610.6708298     
  -2087749362.4940720       -10357553.938325644        1017849354.6389376     
  -1980294337.2579479       -15079054.242229104        1010088208.4619554     
  -1872979017.2153659       -20266238.524603963        1006309425.9401053     
  -1765803402.3663120       -25919106.785405755        1006513007.0733924     
  -1658767492.7108090       -32037659.024701238        1010698951.8618181     
  -2324406347.6245995       -6043963.6371607780        898925908.45931649     
  -2206714805.7135177       -9184079.7632967234        890890341.85027575     
  -2089388536.7648587       -13541772.430841446        886381720.37196624     
  -1972427540.7786186       -19117041.639781833        885400044.02438998     
  -1855831817.7548003       -25909887.390131712        887945312.80753863     
  -2560355162.9804878       -1517922.4036042690        779561131.62255168     
  -2433728300.1784687       -3467013.0871813297        770987982.18442321     
  -2307692278.1077523       -7385572.8751091957        765486359.35262430     
  -2182247096.7683392       -13273601.767368913        763056263.12714505     
  -2057392756.1602316       -21131099.763994217        763697693.50799286     
  -2795595808.5617414        3220569.7623459101        659755024.12863231     
  -2661334820.6527987        2072145.7861336470        650381129.46439373     
  -2527890241.2440476       -1797639.8573932648        643623342.88206863     
  -2395262070.3354769       -8388787.1681884527        639481664.38166380     
  -2263450307.9270992       -17701296.146294236        637956093.96317673     
  -1466199781.0282505       -39514414.667700469        1131958610.6708298     
  -1359134251.3777871       -42342834.362026691        1124984477.8669677     
  -1252326666.2642684       -46031069.179490447        1121937165.4937043     
  -1145777025.6876879       -50579119.120081365        1122816673.5510447     
  -1039485329.6480572       -55986984.183848143        1127623002.0389876     
  -1658767492.7108090       -32037659.024701238        1010698951.8618181     
  -1541963695.9149661       -35422119.828156173        1001889366.6820025     
  -1425149605.8198447       -38772269.634016693        996772252.97783148     
  -1308325222.4254332       -42088108.442243040        995347610.74930096     
  -1191490545.7317376       -45369636.252855957        997615439.99641359     
  -1855831817.7548003       -25909887.390131712        887945312.80753863     
  -1729959322.2563248       -30051259.835556269        877613219.39403832     
  -1603808295.6223402       -33264195.162612200        870739248.50121868     
  -1477378737.8528433       -35548693.371287584        867323400.12908423     
  -1350670648.9478328       -36904754.461598039        867365674.27762461     
  -2057392756.1602316       -21131099.763994217        763697693.50799286     
  -1923121130.4018676       -26230254.384199858        752156036.00306940     
  -1788302735.6717668       -29506845.765290260        743838152.06386995     
  -1652937571.9699194       -30960873.907236934        738744041.69038987     
  -1517025639.2963469       -30592338.810070932        736873704.88263488     
  -2263450307.9270992       -17701296.146294236        637956093.96317673     
  -2121449120.3515890       -23959103.474110484        625517816.50909853     
  -1978632925.9681153       -27500221.442048311        616068963.66578090     
  -1835001724.7766705       -28324650.050082803        609609535.43322301     
  -1690555516.7772651       -26432389.298251748        606139531.81143200     
  -1039485329.6480572       -55986984.183848143        1127623002.0389876     
  -922948121.83636177       -55132897.822579890        1125096077.5037673     
  -804050795.05252743       -46411748.220854610        1128432612.8887539     
  -682793349.29653740       -29823535.378607273        1137632608.1939445     
  -559175784.56841040       -5368259.2959035337        1152696063.4193408     
  -1191490545.7317376       -45369636.252855957        997615439.99641359     
  -1061387280.6701502       -42454013.987019241        993916949.78122401     
  -929832831.83131063       -34701112.463668287        994314689.24468613     
  -796827199.21521032       -22110931.682784528        998808658.38680732     
  -662370382.82185447       -4683471.6443837583        1007398857.2075745     
  -1350670648.9478328       -36904754.461598039        867365674.27762461     
  -1212050555.8979354       -33442365.069659293        861435193.98842967     
  -1072888214.2656645       -28172480.403166473        857833713.13633907     
  -933183624.05102181       -21095100.462090015        856561231.72134995     
  -792936785.25401938       -12210225.246476889        857617749.74346054     
  -1517025639.2963469       -30592338.810070932        736873704.88263488     
  -1374937947.5197058       -28097951.070504069        727650810.12539637     
  -1233216942.3555832       -26825852.039320707        718989684.56370544     
  -1091862623.8039861       -26776041.716567993        710890328.19756901     
  -950874991.86490071       -27948520.102186620        703352741.02698040     
  -1690555516.7772651       -26432389.298251748        606139531.81143200     
  -1550049455.5354667       -26420771.989529431        592563798.19211388     
  -1410819016.1010690       -30661227.372156858        577782603.52679455     
  -1272864198.4740818       -39153755.446151674        561795947.81547654     
  -1136185002.6545084       -51898356.211514294        544603831.05815470     
  -559175784.56841040       -5368259.2959035337        1152696063.4193408     
  -462385667.74865425        32778732.067606688        1162019032.8634322     
  -353621637.16259092        110838769.31880748        1178898953.6576431     
  -232883692.81023970        228811852.45763600        1203335825.8019743     
  -100171834.69157684        386697981.48416722        1235329649.2964239     
  -662370382.82185447       -4683471.6443837583        1007398857.2075745     
  -547186244.78223515        25648319.020180434        1020886355.1384395     
  -421132762.52055299        92211257.091618687        1042769656.6649824     
  -284209936.03684276        195005342.56982720        1073048761.7872092     
  -136417765.33105937        334030575.45493948        1111723670.5051227     
  -792936785.25401938       -12210225.246476889        857617749.74346054     
  -656961905.29292071        11025380.929636210        873981111.69279540     
  -511222250.65401888        66810236.031759590        899579129.48338282     
  -355717821.33732235        155144340.05986899        934411803.11521626     
  -190448617.34281439        276027693.01400983        978479132.58829761     
  -950874991.86490071       -27948520.102186620        703352741.02698040     
  -791712649.28071952       -11090082.204048723        721303302.52650797     
  -623890101.56297410        34635706.139269978        749327372.11284220     
  -447407348.71169096        109228844.92773727        787424949.78599501     
  -262264390.72684973        212689334.16138619        835596035.54595053     
  -1136185002.6545084       -51898356.211514294        544603831.05815470     
  -951438476.74561930       -40698070.380857229        562852927.63957286     
  -759136315.24743056       -4312332.5858800411        592014384.55336571     
  -559278518.15994453        57258857.173427552        632088201.79954040     
  -351865085.48314589        144015498.89711094        683074379.37809360     
  -100171834.69157684        386697981.48416722        1235329649.2964239     
  -85334608.096094042        546496633.46131015        1196753255.8682292     
  -57894429.943247855        748305123.96299756        1154812845.6970739     
  -17851300.233061373        992123452.98916245        1109508418.7829516     
   34794781.034494877        1277951620.5398738        1060839975.1258712     
  -136417765.33105937        334030575.45493948        1111723670.5051227     
  -127331328.80752119        483027342.22919470        1090172084.4516311     
  -95103299.707904905        709162750.92370474        1070053573.2095147     
  -39733678.032224596        1012436801.5384719        1051368136.7787488     
   38777536.219547272        1392849494.0734847        1034115775.1593567     
  -190448617.34281439        276027693.01400983        978479132.58829761     
  -173406995.02172759        418334367.34621209        986247435.09802294     
  -122685139.10583436        672908486.99443007        1000245903.9734370     
  -38283049.595142663        1039750051.9586318        1020474539.2145512     
   79799273.510342777        1518859062.2388186        1046933340.8213339     
  -262264390.72684973        212689334.16138619        835596035.54595053     
  -223561606.73868755        352417708.81243348        884979307.80740011     
  -140639948.13700879        639542332.17520213        945389837.98886669     
  -13499414.921825469        1074063204.2496669        1016827626.0903376     
   157859992.90689224        1655980325.0358853        1099292672.1118352     
  -351865085.48314589        144015498.89711094        683074379.37809360     
  -277795163.95842606        285277366.62779456        786367702.57975566     
  -148967726.80146146        609064286.46596062        905485375.25576735     
   34617225.987739503        1115376258.4115927        1040427397.4061223     
   272959694.40918148        1804213282.4646609        1191193769.0308242     
  -4532204710.8879185        42225456.362219095        698661596.40352142     
  -4368098119.6299181        44995254.480926275        684341741.33072484     
  -4205104296.4353666        44055825.721473217        674714491.67600691     
  -4043223241.3042622        39407170.083853245        669779847.43937278     
  -3882454954.2366128        31049287.568057060        669537808.62081850     
  -4909289330.3221474        26507987.657510757        525551893.95804280     
  -4737896816.4823942        12669171.674074650        512452873.48949695     
  -4564464639.0645332        5629234.2843141556        504098560.53548753     
  -4388992798.0685806        5388175.4882156849        500488955.09600484     
  -4211481293.4945250        11945995.285780907        501624057.17105728     
  -5284505108.3111887        11351171.386355400        343374661.17935222     
  -5105677808.7569628       -19051599.759404421        335174312.23020607     
  -4921658413.9830837       -32147386.839653969        331770772.89203674     
  -4732446923.9895620       -27936189.854418039        333164043.16485369     
  -4538043338.7763863       -6418008.8036782742        339354123.04865038     
  -5657852044.8550396       -3244992.4512407780        152129898.06745175     
  -5471441096.4536285       -50167059.819501162        152506057.55283949     
  -5276685621.1910133       -69274037.650433779        157731128.74565753     
  -5073585619.0672035       -60565925.944041014        167805111.64591169     
  -4862141090.0821905       -24042724.700308084        182728006.25359932     
  -6029330139.9537048       -17280503.855281830       -48182395.377662264     
  -5835186679.5723886       -80677208.506256104       -35551890.542594276     
  -5629546260.6883163       -105750718.14802599       -18020371.903645489     
  -5412408883.3015137       -92501032.780679941        4412160.5391836083     
  -5183774547.4119473       -40928152.404143333        31745706.785900861     
  -3882454954.2366128        31049287.568057060        669537808.62081850     
  -3769450173.3590279        9054246.8802404404        664743548.48821628     
  -3654876430.7795129       -7710921.4678220749        663272311.31599069     
  -3538733726.4980931       -19246217.476195097        665124097.10413575     
  -3421022060.5147510       -25551641.144825935        670298905.85265815     
  -4211481293.4945250        11945995.285780907        501624057.17105728     
  -4084837058.1997700        6026845.4283430576        498556200.22019851     
  -3958397402.2223816       -574235.48697972298        498947387.36131150     
  -3832162325.5623517       -7857247.4601655006        502797618.59440088     
  -3706131828.2196898       -15822190.491236925        510106893.91946483     
  -4538043338.7763863       -6418008.8036782742        339354123.04865038     
  -4397371017.2598925        3855321.7106282711        335943538.09037381     
  -4258676816.0800509        7534917.7694325447        336128018.35567081     
  -4121960735.2368441        4620779.3727872372        339907563.84454536     
  -3987222774.7302818       -4887093.4793334007        347282174.55699348     
  -4862141090.0821905       -24042724.700308084        182728006.25359932     
  -4707052050.5393953        2539675.7270832062        176905562.09874508     
  -4555714672.3525200        16616538.301413059        174814204.29906422     
  -4408128955.5215635        18187863.022680044        176453932.85456139     
  -4264294900.0465345        7253649.8908517361        181824747.76523179     
  -5183774547.4119473       -40928152.404143333        31745706.785900861     
  -5013880158.0382547        2079907.4777736664        21442272.245314475     
  -4849510971.0397978        26670626.108929396        15005945.191495784     
  -4690666986.4165134        32844003.489498615        12436725.624458080     
  -4537348204.1684389        20600039.619364738        13734613.544190954     
  -3421022060.5147510       -25551641.144825935        670298905.85265815     
  -3264548155.1752458       -17967447.247191548        659944109.85998809     
  -3108152478.0699110       -10644014.130123258        654735197.57509744     
  -2951835029.1987405       -3581341.7935980558        654672168.99797738     
  -2795595808.5617414        3220569.7623459101        659755024.12863231     
  -3706131828.2196898       -15822190.491236925        510106893.91946483     
  -3537717782.6431932       -11365862.904168844        500926778.08101249     
  -3369292867.9814386       -6873305.0329184532        496507317.09644461     
  -3200857084.2344251       -2344516.8774685860        496848510.96576649     
  -3032410431.4021482        2220501.5621978045        501950359.68897831     
  -3987222774.7302818       -4887093.4793334007        347282174.55699348     
  -3807969242.7850409       -3888828.3633284569        339380685.74541306     
  -3628615744.4351120       -2557341.8983504772        335854622.93383873     
  -3449162279.6805081       -892634.08444499969        336703986.12226945     
  -3269608848.5211983        1105295.0784547329        341928775.31069362     
  -4264294900.0465345        7253649.8908517361        181824747.76523179     
  -4075302535.6008010        4463656.3753407001        175305832.85319763     
  -3886121107.4309506        2303875.2735443115        172777115.08727971     
  -3696750615.5369911        774306.58544802666        174238594.46748245     
  -3507191059.9189062       -125049.68889117241        179690270.99379531     
  -4537348204.1684389        20600039.619364738        13734613.544190954     
  -4339717661.0904503        13691591.311856270        8702219.4043773208     
  -4141808956.9689255        7710346.4828352928        7274793.5567680094     
  -3943622091.8038726        2656305.1322343349        9452336.0014097802     
  -3745157065.5952520       -1470532.7398283482        15234846.738269964     
  -2795595808.5617414        3220569.7623459101        659755024.12863231     
  -2661334820.6527987        2072145.7861336470        650381129.46439373     
  -2527890241.2440476       -1797639.8573932648        643623342.88206863     
  -2395262070.3354769       -8388787.1681884527        639481664.38166380     
  -2263450307.9270992       -17701296.146294236        637956093.96317673     
  -3032410431.4021482        2220501.5621978045        501950359.68897831     
  -2891431503.8984509       -1635106.0304814577        492170291.21760422     
  -2750582330.1616006       -5923226.1793439388        485566495.18715698     
  -2609862910.1916156       -10643858.884401798        482138971.59763473     
  -2469273243.9884753       -15797004.145624518        481887720.44903809     
  -3269608848.5211983        1105295.0784547329        341928775.31069362     
  -3120311511.8255777       -4977355.2515225410        332543630.22107595     
  -2970457274.1634808       -9203669.0265895128        326894921.93139112     
  -2820046135.5349021       -11573646.246729493        324982650.44163454     
  -2669078095.9398637       -12087286.911981940        326806815.75181419     
  -3507191059.9189062       -125049.68889117241        179690270.99379531     
  -3347974844.4341922       -7954601.8770148754        171501146.47481498     
  -3187515073.2496700       -11638968.399106026        167608623.11476973     
  -3025811746.3653541       -11178149.255218625        168012700.91366175     
  -2862864863.7812338       -6572144.4453188181        172713379.87149790     
  -3745157065.5952520       -1470532.7398283482        15234846.738269964     
  -3574421501.7242942       -10566845.906959772        9042839.9788041655     
  -3401755727.4201908       -13229124.296952009        7707598.7372877002     
  -3227159742.6829600       -9457367.9098529816        11229123.013724253     
  -3050633547.5126057        748423.25433719158        19607412.808096372     
  -2263450307.9270992       -17701296.146294236        637956093.96317673     
  -2121449120.3515890       -23959103.474110484        625517816.50909853     
  -1978632925.9681153       -27500221.442048311        616068963.66578090     
  -1835001724.7766705       -28324650.050082803        609609535.43322301     
  -1690555516.7772651       -26432389.298251748        606139531.81143200     
  -2469273243.9884753       -15797004.145624518        481887720.44903809     
  -2318893711.5038414       -17845908.957607865        471918594.58846372     
  -2168274130.3744631       -19094651.620449662        464433639.62049627     
  -2017414500.6003363       -19543232.134140134        459432855.54512972     
  -1866314822.1814673       -19191650.498674870        456916242.36237329     
  -2669078095.9398637       -12087286.911981940        326806815.75181419     
  -2511763800.5979724       -10360363.823699236        318636056.96098554     
  -2354784414.7745633       -9749805.7969968319        312444215.34461313     
  -2198139938.4696245       -10255612.831880689        308231290.90268201     
  -2041830371.6831665       -11877784.928357124        305997283.63520455     
  -2862864863.7812338       -6572144.4453188181        172713379.87149790     
  -2700059387.6339707       -1502468.0723253489        165670203.62666789     
  -2538163779.1684055        534316.02833318710        160100690.83812600     
  -2377178038.3845310       -461792.14330828190        156004841.50587967     
  -2217102165.2823501       -4490792.5872530937        153382655.62992692     
  -3050633547.5126057        748423.25433719158        19607412.808096372     
  -2883780472.6118379        8727778.2964676619        13021034.585494537     
  -2718412223.5559902        11757713.855554104        7403066.1010454204     
  -2554528800.3450503        9838229.9315916300        2753507.3547198786     
  -2392130202.9790382        2969326.5245596170       -927641.65346383478     
  -1690555516.7772651       -26432389.298251748        606139531.81143200     
  -1550049455.5354667       -26420771.989529431        592563798.19211388     
  -1410819016.1010690       -30661227.372156858        577782603.52679455     
  -1272864198.4740818       -39153755.446151674        561795947.81547654     
  -1136185002.6545084       -51898356.211514294        544603831.05815470     
  -1866314822.1814673       -19191650.498674870        456916242.36237329     
  -1728926360.7350461       -22696438.730937958        443052649.83127487     
  -1591608500.5329161       -26436564.444167435        428807842.85919684     
  -1454361241.5750949       -30412027.638428450        414181821.44612533     
  -1317184583.8615644       -34622828.313659847        399174585.59207100     
  -2041830371.6831665       -11877784.928357124        305997283.63520455     
  -1905204519.7320821       -18192481.611581802        293251689.51595944     
  -1767444248.4621787       -20725780.565410376        280949127.56075072     
  -1628549557.8734746       -19477681.789908707        269089597.76955372     
  -1488520447.9659534       -14448185.285005212        257673100.14239666     
  -2217102165.2823501       -4490792.5872530937        153382655.62992692     
  -2078883932.5265789       -12908900.631484747        143160917.24616501     
  -1938326259.8888662       -13528875.735916734        134206457.63144101     
  -1795429147.3692327       -6350717.9006057978        126519276.78575860     
  -1650192594.9676776        8625572.8744355440        120099374.70912272     
  -2392130202.9790382        2969326.5245596170       -927641.65346383478     
  -2249964599.1185222       -6845695.7906016111       -7219666.9781250563     
  -2104254534.8129449       -4845849.9555708170       -11420166.928709550     
  -1955000010.0623627        8968864.0294831991       -13529141.505259752     
  -1802201024.8667345        34598446.164689660       -13546590.707741873     
  -1136185002.6545084       -51898356.211514294        544603831.05815470     
  -951438476.74561930       -40698070.380857229        562852927.63957286     
  -759136315.24743056       -4312332.5858800411        592014384.55336571     
  -559278518.15994453        57258857.173427552        632088201.79954040     
  -351865085.48314589        144015498.89711094        683074379.37809360     
  -1317184583.8615644       -34622828.313659847        399174585.59207100     
  -1117611624.5740652       -14728120.497160196        421113308.98089671     
  -914416447.76565540        17240645.722366750        441538215.71646804     
  -707599053.43632209        61283470.344975621        460449305.79877853     
  -497159441.58607709        117400353.37062380        477846579.22783208     
  -1488520447.9659534       -14448185.285005212        257673100.14239666     
  -1309624418.1159458        3489935.6724964976        278712462.59218013     
  -1131039588.8134084        20390721.471766651        285811831.40306693     
  -952765960.05834079        36254172.112810910        278971206.57507014     
  -774803531.85074174        51080287.595623255        258190588.10817671     
  -1650192594.9676776        8625572.8744355440        120099374.70912272     
  -1527476857.3712504        13956098.128157616        135650388.47341281     
  -1409005738.3906915        5137894.6623151302        124835231.61317581     
  -1294779238.0259864       -17829037.523025095        87653904.128414348     
  -1184797356.2771430       -54944698.427928269        24106406.019121442     
  -1802201024.8667345        34598446.164689660       -13546590.707741873     
  -1771168942.3400044        16670366.869757175       -8072913.3754077796     
  -1748314896.4975200       -28517834.706026673       -41391583.653218091     
  -1733638887.3392644       -100966158.56256402       -113502601.54120611     
  -1727140914.8652606       -200674604.69992799       -224405967.03934366     
  -351865085.48314589        144015498.89711094        683074379.37809360     
  -277795163.95842606        285277366.62779456        786367702.57975566     
  -148967726.80146146        609064286.46596062        905485375.25576735     
   34617225.987739503        1115376258.4115927        1040427397.4061223     
   272959694.40918148        1804213282.4646609        1191193769.0308242     
  -497159441.58607709        117400353.37062380        477846579.22783208     
  -388294793.91229510        223049903.18198445        597084984.34433234     
  -230301711.42624095        492460902.36757708        735482441.15945101     
  -23180194.127923071        925633350.92738914        893038949.67320061     
   233069757.98266080        1522567248.8614378        1069754509.8855839     
  -774803531.85074174        51080287.595623255        258190588.10817671     
  -621616437.38709760        123975835.67987424        386806814.18287092     
  -424929988.93115866        341869230.40511364        537916794.18046796     
  -184744186.48290962        704760471.77139211        711520528.10098267     
   98940969.957635581        1212649559.7786634        907618015.94439769     
  -1184797356.2771430       -54944698.427928269        24106406.019121442     
  -977760094.38283122       -11944835.878518581        155533192.09538227     
  -732852559.31617975        157289270.57869160        312788434.31883210     
  -450074751.07720995        452757620.94361919        495872132.68948048     
  -129426669.66590810        874460215.21634030        704784287.20730686     
  -1727140914.8652606       -200674604.69992799       -224405967.03934366     
  -1456725764.8994858       -184712111.49316102       -96735881.918137163     
  -1154069422.5813556       -61278977.111886621        60097361.574533753     
  -819171887.91083229        169624798.44400877        246093763.43867984     
  -452033160.88796175        507999215.17445064        461253323.67430097     
 </DataArray>
 <DataArray  type="Float64" Name="VM" NumberOfComponents="1" format="ascii">
   6130086769.6836796     
   5829069113.5744286     
   5573010932.1343012     
   5351224701.9570341     
   5158284241.9075003     
   5742364278.7903414     
   5487567442.2677307     
   5258244318.1248474     
   5049313162.6868038     
   4858475183.6934204     
   5385975631.8702497     
   5165952287.6279573     
   4957488221.2484303     
   4759259571.5778255     
   4570886342.3291922     
   5045763355.6892910     
   4854936036.8706684     
   4667285552.2387972     
   4482835884.4447012     
   4301692644.4848452     
   4707762331.1443825     
   4545838866.9090033     
   4384565469.8832464     
   4222466960.7930946     
   4058624597.3863568     
   5158284241.9075003     
   5016166660.2468710     
   4869007982.2995195     
   4716341449.0742636     
   4558019853.2867184     
   4858475183.6934204     
   4721798073.9265356     
   4581688912.2674990     
   4437919298.1431341     
   4290470418.2781386     
   4570886342.3291922     
   4440829115.6118622     
   4309113957.8200035     
   4175713572.0083485     
   4040726375.9173217     
   4301692644.4848452     
   4178883278.7566743     
   4056299128.1587024     
   3934052631.2067595     
   3812326471.6995449     
   4058624597.3863568     
   3942924173.6672029     
   3829377130.0250020     
   3718149266.8231387     
   3609454560.4622326     
   4558019853.2867184     
   4351291017.2265711     
   4145418515.2228003     
   3940405636.3275838     
   3736305001.9757104     
   4290470418.2781386     
   4095819906.1756663     
   3902267579.2706361     
   3709884665.7705941     
   3518810922.7148376     
   4040726375.9173217     
   3859252271.1938519     
   3679351821.8336773     
   3501183660.0287814     
   3325001430.9184346     
   3812326471.6995449     
   3645278552.9828596     
   3480544214.7935300     
   3318386596.8966727     
   3159195171.2366743     
   3609454560.4622326     
   3458173521.8393288     
   3310224497.1162376     
   3165981414.9338346     
   3025975043.2087722     
   3736305001.9757104     
   3564739093.6967459     
   3394111625.9538908     
   3224429757.1520567     
   3055759995.7975259     
   3518810922.7148376     
   3356854727.3446140     
   3196152071.7745781     
   3036763501.1496625     
   2878810603.3118286     
   3325001430.9184346     
   3172470069.4328518     
   3021544751.3743844     
   2872349600.5973210     
   2725073858.0743618     
   3159195171.2366743     
   3016155231.7452731     
   2875118118.2239418     
   2736279980.3026838     
   2599907653.9725094     
   3025975043.2087722     
   2892756291.9640636     
   2761980272.7183418     
   2633918380.2571568     
   2508917834.2603660     
   3055759995.7975259     
   2891037829.5105033     
   2725605564.4442854     
   2559445705.1615047     
   2392553974.9566846     
   2878810603.3118286     
   2717231894.4926496     
   2555425565.0803976     
   2393415145.6846213     
   2231249810.2142277     
   2725073858.0743618     
   2569017568.6978989     
   2413595739.8690767     
   2258949387.7153320     
   2105283282.8421252     
   2599907653.9725094     
   2451835922.5452638     
   2305669086.4946923     
   2161733404.6073112     
   2020473204.6055427     
   2508917834.2603660     
   2371145287.7074075     
   2236902977.4747443     
   2106724873.7428083     
   1981307342.4680274     
   2392553974.9566846     
   2246128322.7822771     
   2102051045.9497986     
   1960318841.6090934     
   1821112172.1469135     
   2231249810.2142277     
   2087797315.9504967     
   1946099893.5050168     
   1806151044.9039407     
   1668029813.7773464     
   2105283282.8421252     
   1964163425.9548631     
   1824076592.0478411     
   1685046570.7617073     
   1547128302.0978377     
   2020473204.6055427     
   1882697025.7117507     
   1745328846.7253225     
   1608497718.5537622     
   1472381024.5101533     
   1981307342.4680274     
   1849624726.9493976     
   1718113678.1517968     
   1587139694.1378884     
   1457229834.3202929     
   1821112172.1469135     
   1780445304.2389171     
   1736173599.9503496     
   1696968158.8079047     
   1681342860.9150536     
   1668029813.7773464     
   1552725657.9795115     
   1428259475.7183714     
   1295007900.2184963     
   1159098127.1122346     
   1547128302.0978377     
   1397456821.7486744     
   1244201310.2165422     
   1085099492.0271261     
   918126287.45507979     
   1472381024.5101533     
   1328417267.5511224     
   1198902023.0581009     
   1088307150.5007012     
   1002517211.7065890     
   1457229834.3202929     
   1348523542.0580673     
   1274762316.2128971     
   1244043496.9419866     
   1263375848.4252636     
   1681342860.9150536     
   1383729682.2527711     
   1129454525.2839780     
   1010231039.1468364     
   1153310820.8135874     
   1159098127.1122346     
   1008548085.4981923     
   985260275.17315543     
   1161486378.4384375     
   1544155690.8983452     
   918126287.45507979     
   963357234.76300645     
   1144993980.6699975     
   1476427901.5733428     
   1957371153.4933703     
   1002517211.7065890     
   1164977253.7939785     
   1425498912.4430923     
   1808686596.5897634     
   2334630235.8384132     
   1263375848.4252636     
   1446939372.0274289     
   1715773533.6242478     
   2110455492.0844395     
   2663404515.8189383     
   4707762331.1443825     
   4545838866.9090033     
   4384565469.8832464     
   4222466960.7930946     
   4058624597.3863568     
   4367334731.2316952     
   4225748920.8410645     
   4085281410.4342103     
   3945536427.1462135     
   3806475059.7459269     
   4065182170.4344325     
   3940275331.1544409     
   3818086531.7166595     
   3698917045.3500366     
   3583268213.7058811     
   3808013430.9773588     
   3695568596.5215921     
   3588523592.0239611     
   3487374735.8095999     
   3392727330.4409146     
   3603936862.5501795     
   3498872697.4376149     
   3402883688.4106908     
   3316061809.4558668     
   3238613150.3163428     
   4058624597.3863568     
   3942924173.6672029     
   3829377130.0250020     
   3718149266.8231387     
   3609454560.4622326     
   3806475059.7459269     
   3701741041.5837274     
   3599890568.2920728     
   3501132290.9840837     
   3405722871.0780873     
   3583268213.7058811     
   3489706754.7238874     
   3399792156.9978557     
   3313751569.9684210     
   3231857676.5033259     
   3392727330.4409146     
   3310483548.7315068     
   3232639022.2120504     
   3159406630.5386677     
   3091040436.0884562     
   3238613150.3163428     
   3167681806.8501697     
   3101833966.8541875     
   3041229387.5455956     
   2986064678.4291687     
   3609454560.4622326     
   3458173521.8393288     
   3310224497.1162376     
   3165981414.9338346     
   3025975043.2087722     
   3405722871.0780873     
   3271572141.3746228     
   3141537305.7413712     
   3016087750.9912915     
   2895838462.8291411     
   3231857676.5033259     
   3114761884.3888226     
   3002518467.3688436     
   2895653030.8619189     
   2794813496.7669830     
   3091040436.0884562     
   2990854813.3364263     
   2896138821.4838710     
   2807425303.5565796     
   2725336988.8915224     
   2986064678.4291687     
   2902471564.0487399     
   2824769295.0338020     
   2753447201.5162802     
   2689049081.2155704     
   3025975043.2087722     
   2892756291.9640636     
   2761980272.7183418     
   2633918380.2571568     
   2508917834.2603660     
   2895838462.8291411     
   2774240909.4866920     
   2656064469.8210073     
   2541719573.8980293     
   2431715639.1069474     
   2794813496.7669830     
   2686955712.0889859     
   2583681379.4091396     
   2485528337.1684928     
   2393142996.5220809     
   2725336988.8915224     
   2633053031.3842368     
   2546596822.8929267     
   2466588976.2050509     
   2393749380.9594293     
   2689049081.2155704     
   2613646400.2496710     
   2545273991.9857397     
   2484569120.1403632     
   2432244638.3429494     
   2508917834.2603660     
   2371145287.7074075     
   2236902977.4747443     
   2106724873.7428083     
   1981307342.4680274     
   2431715639.1069474     
   2308704323.8561378     
   2190716208.3565254     
   2078473888.9213479     
   1972867232.4224906     
   2393142996.5220809     
   2286653084.2769656     
   2186658746.1694527     
   2093968662.4466500     
   2009519073.2519789     
   2393749380.9594293     
   2304703918.6513901     
   2223385231.0329204     
   2150560765.1562142     
   2087062392.3681631     
   2432244638.3429494     
   2360566555.6618533     
   2297464030.9321156     
   2243564994.7280593     
   2199505464.7816834     
   1981307342.4680274     
   1849624726.9493976     
   1718113678.1517968     
   1587139694.1378884     
   1457229834.3202929     
   1972867232.4224906     
   1856161644.6582479     
   1743905119.5708520     
   1637031488.5311303     
   1536687855.3037586     
   2009519073.2519789     
   1912881521.6327572     
   1825034426.0556171     
   1747184296.0540073     
   1680631459.0009341     
   2087062392.3681631     
   2012066285.0105922     
   1949382740.2095726     
   1900094755.9988844     
   1865235025.5758374     
   2199505464.7816834     
   2144749944.8660898     
   2104832471.0125279     
   2080526075.0377774     
   2072510133.9575715     
   1457229834.3202929     
   1348523542.0580673     
   1274762316.2128971     
   1244043496.9419866     
   1263375848.4252636     
   1536687855.3037586     
   1476039345.1546836     
   1448051475.4151847     
   1456676961.4778345     
   1505199880.5796137     
   1680631459.0009341     
   1652270864.3595347     
   1651611561.6917844     
   1681016871.0622191     
   1743094365.8129930     
   1865235025.5758374     
   1854782128.7008770     
   1867294659.2697659     
   1904979905.2138758     
   1970873434.9193075     
   2072510133.9575715     
   2068979554.2426143     
   2084691631.6740873     
   2122278487.0165472     
   2185560679.7507181     
   1263375848.4252636     
   1446939372.0274289     
   1715773533.6242478     
   2110455492.0844395     
   2663404515.8189383     
   1505199880.5796137     
   1613452059.2869797     
   1788932319.7707658     
   2066384248.6690016     
   2475998042.1637645     
   1743094365.8129930     
   1787817332.5720196     
   1884700708.4941034     
   2060646176.9424968     
   2340870123.9317350     
   1970873434.9193075     
   1968987817.2085371     
   2003643775.4350863     
   2093508534.3926065     
   2257231579.2530918     
   2185560679.7507181     
   2156244275.1315260     
   2146501766.6111908     
   2166850278.2831011     
   2228353544.7081709     
   3603936862.5501795     
   3498872697.4376149     
   3402883688.4106908     
   3316061809.4558668     
   3238613150.3163428     
   3405151093.6482534     
   3319145555.2062907     
   3239885840.0783768     
   3167715316.6255107     
   3103035468.0345268     
   3231868847.3380146     
   3163072764.2535629     
   3099819068.4671726     
   3042431852.6158686     
   2991309316.7735276     
   3086228490.4775805     
   3033306485.1636715     
   2986029025.5647593     
   2944339957.4256029     
   2908369899.0527520     
   2971064870.5319881     
   2933032911.8073821     
   2902225829.2393785     
   2877754665.5283899     
   2859152944.6605239     
   3238613150.3163428     
   3167681806.8501697     
   3101833966.8541875     
   3041229387.5455956     
   2986064678.4291687     
   3103035468.0345268     
   3039153498.2078881     
   2980915846.3173451     
   2928549498.2013874     
   2882312670.0634389     
   2991309316.7735276     
   2934737656.6267772     
   2884663550.6027184     
   2841336652.6149349     
   2805034495.4903517     
   2908369899.0527520     
   2858869146.0939999     
   2816991426.3741641     
   2782960256.1847410     
   2757026756.9435344     
   2859152944.6605239     
   2815819687.7365718     
   2781480787.8294272     
   2756287547.3659067     
   2740422839.2775316     
   2986064678.4291687     
   2902471564.0487399     
   2824769295.0338020     
   2753447201.5162802     
   2689049081.2155704     
   2882312670.0634389     
   2811240623.4897523     
   2747048009.6517782     
   2690219369.4557562     
   2641281055.7317247     
   2805034495.4903517     
   2746702508.9329295     
   2696217922.6268234     
   2654020106.7417746     
   2620574976.3559098     
   2757026756.9435344     
   2711015455.5295634     
   2673761369.4215145     
   2645624369.0610671     
   2626977760.2684331     
   2740422839.2775316     
   2705585738.9053416     
   2680346805.0661659     
   2664966951.9801354     
   2659713033.4687147     
   2689049081.2155704     
   2613646400.2496710     
   2545273991.9857397     
   2484569120.1403632     
   2432244638.3429494     
   2641281055.7317247     
   2581589746.3017039     
   2529615006.7535119     
   2485880570.9308100     
   2450943259.2705421     
   2620574976.3559098     
   2575208164.7524490     
   2537990127.7260370     
   2509307296.5552998     
   2489550814.1964288     
   2626977760.2684331     
   2593977253.9646492     
   2569328007.8779402     
   2553281379.0751529     
   2546080287.3235140     
   2659713033.4687147     
   2636666114.7930431     
   2621998784.3362575     
   2615848778.3569536     
   2618344219.6696959     
   2432244638.3429494     
   2360566555.6618533     
   2297464030.9321156     
   2243564994.7280593     
   2199505464.7816834     
   2450943259.2705421     
   2393739008.7286177     
   2345957022.6960411     
   2308125843.8538141     
   2280754245.6033401     
   2489550814.1964288     
   2446096642.7242451     
   2412725667.9184179     
   2389842302.4627676     
   2377817475.4208264     
   2546080287.3235140     
   2515124261.5148258     
   2494784901.1577749     
   2485343583.4611087     
   2487047727.1846323     
   2618344219.6696959     
   2598248288.8263197     
   2589258555.2817059     
   2591550674.8494129     
   2605274462.6069360     
   2199505464.7816834     
   2144749944.8660898     
   2104832471.0125279     
   2080526075.0377774     
   2072510133.9575715     
   2280754245.6033401     
   2240922159.0860820     
   2214902857.1636763     
   2203145933.9046531     
   2206036193.5141335     
   2377817475.4208264     
   2349885297.5190864     
   2334705626.6185684     
   2332524612.0169482     
   2343558739.5562792     
   2487047727.1846323     
   2468280273.0163398     
   2461288763.6345377     
   2466203624.1958547     
   2483155110.1073322     
   2605274462.6069360     
   2593302304.0570741     
   2592274908.1129661     
   2602265218.6052084     
   2623366920.5166988     
   2072510133.9575715     
   2068979554.2426143     
   2084691631.6740873     
   2122278487.0165472     
   2185560679.7507181     
   2206036193.5141335     
   2191613299.1571808     
   2192199172.7872510     
   2209764345.3272138     
   2247233434.6964431     
   2343558739.5562792     
   2319079094.2586975     
   2306159708.4627080     
   2306207060.7654691     
   2321310821.4506121     
   2483155110.1073322     
   2450406636.3582582     
   2426256718.6958895     
   2411650771.9403791     
   2407963931.5733485     
   2623366920.5166988     
   2584818152.5968513     
   2552208229.5739365     
   2526117399.0982132     
   2507350564.6037436     
   2185560679.7507181     
   2156244275.1315260     
   2146501766.6111908     
   2166850278.2831011     
   2228353544.7081709     
   2247233434.6964431     
   2182573961.3732843     
   2134331250.4153149     
   2112167923.7118170     
   2127013500.5151315     
   2321310821.4506121     
   2224637482.1489301     
   2141274134.5493600     
   2079584090.3085914     
   2049737045.2536974     
   2407963931.5733485     
   2282728653.5733962     
   2167977207.0908232     
   2070449613.2632866     
   1998915295.3519542     
   2507350564.6037436     
   2357056657.8287673     
   2214910851.4301524     
   2085895240.6959834     
   1976890056.6153677     
   2971064870.5319881     
   2933032911.8073821     
   2902225829.2393785     
   2877754665.5283899     
   2859152944.6605239     
   2766800964.5479879     
   2748106402.2410955     
   2737857008.6997137     
   2735939255.8140974     
   2742347041.2024760     
   2630096694.1966996     
   2623714488.7703114     
   2627292460.3351622     
   2640929622.4051795     
   2664721256.7142344     
   2570458704.9248557     
   2566859897.9724374     
   2575139322.1050386     
   2594990227.4924464     
   2626264678.7775998     
   2592797373.6761017     
   2580689666.0398350     
   2582837541.7050219     
   2597947554.7696819     
   2625319875.8881540     
   2859152944.6605239     
   2815819687.7365718     
   2781480787.8294272     
   2756287547.3659067     
   2740422839.2775316     
   2742347041.2024760     
   2713526146.1707807     
   2692755395.5265369     
   2680111103.8033075     
   2675686600.3489547     
   2664721256.7142344     
   2647946330.1944857     
   2638093151.1433878     
   2635187729.7529306     
   2639265893.3827276     
   2626264678.7775998     
   2619189495.2086339     
   2617773241.7340961     
   2622015106.4713736     
   2631921097.1402011     
   2625319875.8881540     
   2625891015.1063037     
   2630783075.0622368     
   2639984480.3577447     
   2653489286.8147535     
   2740422839.2775316     
   2705585738.9053416     
   2680346805.0661659     
   2664966951.9801354     
   2659713033.4687147     
   2675686600.3489547     
   2651672813.4052887     
   2637249675.1813536     
   2632566579.8363900     
   2637772152.6194487     
   2639265893.3827276     
   2623332241.6199036     
   2616904762.7975888     
   2620048631.9742045     
   2632827040.7534294     
   2631921097.1402011     
   2621012931.8130026     
   2619492683.6948538     
   2627375271.5683351     
   2644674756.1449509     
   2653489286.8147535     
   2644415359.4768963     
   2644611331.2065601     
   2654077189.6670089     
   2672813304.8722181     
   2659713033.4687147     
   2636666114.7930431     
   2621998784.3362575     
   2615848778.3569536     
   2618344219.6696959     
   2637772152.6194487     
   2621846280.1705351     
   2614497210.7231255     
   2615807761.7334747     
   2625853292.9779339     
   2632827040.7534294     
   2622424997.8582764     
   2620824799.0132217     
   2628065781.0297923     
   2644183121.8334937     
   2644674756.1449509     
   2637968069.3341637     
   2640348662.0474992     
   2651827302.7190204     
   2672413560.9761729     
   2672813304.8722181     
   2667809946.8638587     
   2672267587.8852720     
   2686185903.2860889     
   2709564679.5284963     
   2618344219.6696959     
   2598248288.8263197     
   2589258555.2817059     
   2591550674.8494129     
   2605274462.6069360     
   2625853292.9779339     
   2614333788.0461078     
   2613351192.4794483     
   2622994802.1472678     
   2643338847.6646895     
   2644183121.8334937     
   2639214809.5668674     
   2644299581.8885736     
   2659473260.3449073     
   2684765028.8358822     
   2672413560.9761729     
   2672037265.5782251     
   2681340480.6543627     
   2700331326.1427550     
   2729016351.4969440     
   2709564679.5284963     
   2711929148.2283530     
   2723721887.7962875     
   2744942897.0869479     
   2775592177.1660042     
   2605274462.6069360     
   2593302304.0570741     
   2592274908.1129661     
   2602265218.6052084     
   2623366920.5166988     
   2643338847.6646895     
   2632694789.7370105     
   2632228847.4062648     
   2641977842.4702744     
   2661991566.6470528     
   2684765028.8358822     
   2675211776.9245224     
   2675247953.3405137     
   2684888181.9213390     
   2704153292.2811852     
   2729016351.4969440     
   2720454843.6637983     
   2721054091.3124027     
   2730817325.3298674     
   2749749408.8961349     
   2775592177.1660042     
   2768047795.6844110     
   2769380084.7472596     
   2779589043.9252043     
   2798674672.6363549     
   2623366920.5166988     
   2584818152.5968513     
   2552208229.5739365     
   2526117399.0982132     
   2507350564.6037436     
   2661991566.6470528     
   2616587950.5418968     
   2576875338.4428654     
   2543183811.1996083     
   2515973804.5251226     
   2704153292.2811852     
   2653969375.1581926     
   2609372164.0528603     
   2570508672.4015369     
   2537584665.2882814     
   2749749408.8961349     
   2696867387.5927739     
   2649610546.0207791     
   2608015403.3554473     
   2572133161.9820323     
   2798674672.6363549     
   2745178377.6412315     
   2697487781.0848656     
   2655602882.4814024     
   2619523681.6521053     
   2507350564.6037436     
   2357056657.8287673     
   2214910851.4301524     
   2085895240.6959834     
   1976890056.6153677     
   2515973804.5251226     
   2348126364.9705496     
   2183823672.0669751     
   2026165742.7142339     
   1879718212.5909829     
   2537584665.2882814     
   2357280166.4854822     
   2176712380.5647511     
   1997352015.1009126     
   1821475803.9625118     
   2572133161.9820323     
   2384622340.7419634     
   2194043856.4224315     
   2000775126.9427316     
   1805418624.8696570     
   2619523681.6521053     
   2430122460.6419392     
   2235960959.1783142     
   2037039177.7699516     
   1833357117.8367877     
   2592797373.6761017     
   2580689666.0398350     
   2582837541.7050219     
   2597947554.7696819     
   2625319875.8881540     
   2636912058.8523302     
   2614092481.1258826     
   2602337296.6524525     
   2601265591.5460334     
   2610696519.1223588     
   2712753006.4116468     
   2679582980.5767393     
   2655574715.9307027     
   2640787381.3269033     
   2635300671.4548607     
   2817081342.5618105     
   2775058138.0448232     
   2741513242.4977818     
   2716491076.0616808     
   2700071800.2779374     
   2946920992.5071034     
   2898108106.5381045     
   2858271492.4868989     
   2827025294.5784411     
   2804201955.6679363     
   2625319875.8881540     
   2625891015.1063037     
   2630783075.0622368     
   2639984480.3577447     
   2653489286.8147535     
   2610696519.1223588     
   2607588326.4390349     
   2609779301.3532734     
   2617270305.3475242     
   2630062986.8348498     
   2635300671.4548607     
   2625913405.4794888     
   2622683613.4900527     
   2625642704.4366927     
   2634822654.8434410     
   2700071800.2779374     
   2681647520.0794773     
   2670079188.6683168     
   2665449303.5019331     
   2667847354.2821350     
   2804201955.6679363     
   2774039654.8387246     
   2751239078.7943211     
   2735950095.6044054     
   2728344771.6203766     
   2653489286.8147535     
   2644415359.4768963     
   2644611331.2065601     
   2654077189.6670089     
   2672813304.8722181     
   2630062986.8348498     
   2619043435.4744692     
   2617371473.5493045     
   2625063834.6278100     
   2642137009.7429738     
   2634822654.8434410     
   2619057878.8613524     
   2612746916.0678239     
   2615953780.4306231     
   2628740633.3776846     
   2667847354.2821350     
   2644654187.0736938     
   2631020589.7090831     
   2627087681.9734693     
   2632993946.3793230     
   2728344771.6203766     
   2695304736.2654514     
   2671892558.7637329     
   2658351666.4365196     
   2654925490.3584952     
   2672813304.8722181     
   2667809946.8638587     
   2672267587.8852720     
   2686185903.2860889     
   2709564679.5284963     
   2642137009.7429738     
   2635971631.6514869     
   2638880820.5466628     
   2650875290.2535205     
   2671964454.8849468     
   2628740633.3776846     
   2619083667.8605042     
   2618179843.6364856     
   2626072873.5437922     
   2642802199.9408274     
   2632993946.3793230     
   2617700329.1155653     
   2610873762.3587284     
   2612609934.9883451     
   2622997226.4086103     
   2654925490.3584952     
   2632118910.2209601     
   2617492570.6934490     
   2611208740.2383490     
   2613421066.3561754     
   2709564679.5284963     
   2711929148.2283530     
   2723721887.7962875     
   2744942897.0869479     
   2775592177.1660042     
   2671964454.8849468     
   2671904818.1231008     
   2681435569.2215667     
   2700563916.0479379     
   2729295360.5398145     
   2642802199.9408274     
   2638606601.0738101     
   2644290806.7178345     
   2659886527.1919012     
   2685418656.5966191     
   2622997226.4086103     
   2612868002.1867499     
   2613022727.5126176     
   2623540050.6272616     
   2644483430.8917751     
   2613421066.3561754     
   2595511219.0934720     
   2588380663.9478416     
   2592183421.1976256     
   2607047509.2001066     
   2775592177.1660042     
   2768047795.6844110     
   2769380084.7472596     
   2779589043.9252043     
   2798674672.6363549     
   2729295360.5398145     
   2720622651.0751610     
   2721143258.0017176     
   2730860638.9849105     
   2749779712.7747712     
   2685418656.5966191     
   2675605691.1612849     
   2675447367.5349164     
   2684959224.5055313     
   2704162271.4166617     
   2644483430.8917751     
   2633386396.9834547     
   2632566305.6336565     
   2642062389.5516572     
   2661925078.4227695     
   2607047509.2001066     
   2594376987.9861484     
   2592785308.4786234     
   2602350592.5113735     
   2623168328.5414057     
   2798674672.6363549     
   2745178377.6412315     
   2697487781.0848656     
   2655602882.4814024     
   2619523681.6521053     
   2749779712.7747712     
   2696902982.6199980     
   2649641282.2747731     
   2608031216.2779412     
   2572124027.8279123     
   2704162271.4166617     
   2654009049.7067895     
   2609422111.0443687     
   2570548935.7095790     
   2537596167.0112481     
   2661925078.4227695     
   2616598812.6739926     
   2576932535.1679459     
   2543257416.5089183     
   2516036354.0772057     
   2623168328.5414057     
   2584765940.2734499     
   2552260295.3902574     
   2526233518.5877333     
   2507495194.7110958     
   2619523681.6521053     
   2430122460.6419392     
   2235960959.1783142     
   2037039177.7699516     
   1833357117.8367877     
   2572124027.8279123     
   2384621209.8669868     
   2194058457.8897982     
   2000814637.8642433     
   1805494610.1234992     
   2537596167.0112481     
   2357294061.5278382     
   2176743444.4759836     
   1997416038.9029665     
   1821589510.0716004     
   2516036354.0772057     
   2348171834.9111862     
   2183873050.4088702     
   2026238729.8024201     
   1879830569.3821993     
   2507495194.7110958     
   2357150438.1537337     
   2214980168.8649144     
   2085961465.7884741     
   1976963837.9961705     
   2946920992.5071034     
   2898108106.5381045     
   2858271492.4868989     
   2827025294.5784411     
   2804201955.6679363     
   3027569276.5843878     
   2975569210.8721766     
   2931956128.9181662     
   2896815113.5287261     
   2870312311.8426223     
   3168587788.9749494     
   3108023846.3522573     
   3054934422.4138756     
   3009697178.8815389     
   2972732827.8176222     
   3361117531.3316092     
   3287714144.5345874     
   3220613757.8835201     
   3160276794.7636237     
   3107254131.7558856     
   3595874793.7551599     
   3506416745.2352867     
   3421926885.9518776     
   3342730507.6164708     
   3269349865.2484145     
   2804201955.6679363     
   2774039654.8387246     
   2751239078.7943211     
   2735950095.6044054     
   2728344771.6203766     
   2870312311.8426223     
   2830610744.4785008     
   2797549027.0022044     
   2771341259.4547839     
   2752229181.9882269     
   2972732827.8176222     
   2922398737.5695167     
   2877962571.0922999     
   2839686825.5164013     
   2807868399.1494098     
   3107254131.7558856     
   3045780324.6660085     
   2989463707.0681043     
   2938593424.0398808     
   2893499272.6893353     
   3269349865.2484145     
   3196697759.9873257     
   3128490923.7406564     
   3065023218.4317160     
   3006633225.3181667     
   2728344771.6203766     
   2695304736.2654514     
   2671892558.7637329     
   2658351666.4365196     
   2654925490.3584952     
   2752229181.9882269     
   2707194814.2007198     
   2671075911.8579130     
   2644226004.0987811     
   2627008772.3531399     
   2807868399.1494098     
   2749322566.4164171     
   2698850359.7904649     
   2656900278.6850410     
   2623948630.6113067     
   2893499272.6893353     
   2820683794.5969491     
   2754974360.5024700     
   2696880272.7420921     
   2646960196.9163318     
   3006633225.3181667     
   2919481221.8859558     
   2838380240.8964524     
   2763855803.8575482     
   2696502227.3282714     
   2654925490.3584952     
   2632118910.2209601     
   2617492570.6934490     
   2611208740.2383490     
   2613421066.3561754     
   2627008772.3531399     
   2592818805.6612778     
   2566867009.9178429     
   2549409345.4342918     
   2540695646.6301293     
   2623948630.6113067     
   2576722271.6788311     
   2537672029.1622696     
   2507162775.4375772     
   2485563370.2649593     
   2646960196.9163318     
   2585376363.5920091     
   2531742323.8091373     
   2486533151.1295137     
   2450247775.3117857     
   2696502227.3282714     
   2619652701.9506302     
   2550343120.6569877     
   2489141745.4615331     
   2436669458.4075379     
   2613421066.3561754     
   2595511219.0934720     
   2588380663.9478416     
   2592183421.1976256     
   2607047509.2001066     
   2540695646.6301293     
   2511835427.9260449     
   2493430065.8624091     
   2485749572.5070977     
   2489029836.1353569     
   2485563370.2649593     
   2443624501.8852572     
   2411722824.2649236     
   2390273669.8440127     
   2379660033.6765594     
   2450247775.3117857     
   2393498260.0932732     
   2346177797.2810473     
   2308859823.5134239     
   2282103781.6614838     
   2436669458.4075379     
   2363949969.5917978     
   2299787819.1051440     
   2244897034.2601638     
   2200015351.8608546     
   2607047509.2001066     
   2594376987.9861484     
   2592785308.4786234     
   2602350592.5113735     
   2623168328.5414057     
   2489029836.1353569     
   2469544647.0640025     
   2461932931.9222198     
   2466329302.6907516     
   2482867284.3017449     
   2379660033.6765594     
   2351096162.4088483     
   2335353413.3099275     
   2332678893.6557145     
   2343291822.5989065     
   2282103781.6614838     
   2241832111.4064531     
   2215422423.6111498     
   2203318990.2948980     
   2205905783.9434776     
   2200015351.8608546     
   2145113427.8564212     
   2105092590.3231864     
   2080710634.1765809     
   2072638226.8788123     
   2623168328.5414057     
   2584765940.2734499     
   2552260295.3902574     
   2526233518.5877333     
   2507495194.7110958     
   2482867284.3017449     
   2450269767.6977320     
   2426245548.7605906     
   2411740548.5326390     
   2408131492.9377160     
   2343291822.5989065     
   2318928993.7536883     
   2306117422.0480409     
   2306263065.5696197     
   2321452699.1124325     
   2205905783.9434776     
   2191525073.6048732     
   2192159729.0698853     
   2209779451.5567746     
   2247300365.1330357     
   2072638226.8788123     
   2069032639.9409368     
   2084691034.8841910     
   2122245875.5612352     
   2185503145.4835935     
   2507495194.7110958     
   2357150438.1537337     
   2214980168.8649144     
   2085961465.7884741     
   1976963837.9961705     
   2408131492.9377160     
   2282834854.9648008     
   2168042992.2898898     
   2070494377.1472590     
   1998954272.3733814     
   2321452699.1124325     
   2224726283.0630016     
   2141325126.2850144     
   2079615949.6793399     
   2049772460.8950686     
   2247300365.1330357     
   2182615132.5275025     
   2134355924.3998091     
   2112194682.5447276     
   2127073479.1191490     
   2185503145.4835935     
   2156207482.6090684     
   2146488562.2579267     
   2166879115.8182907     
   2228463446.6137295     
   3595874793.7551599     
   3506416745.2352867     
   3421926885.9518776     
   3342730507.6164708     
   3269349865.2484145     
   3843003752.7051530     
   3732580279.9853344     
   3625881319.0771384     
   3523232274.0659442     
   3425128524.2933369     
   4113611039.3603253     
   3983871323.9814630     
   3856861800.8828907     
   3732867419.0584168     
   3612312563.2765384     
   4404095129.7871008     
   4256674106.5852818     
   4111244215.0176535     
   3968031717.9858680     
   3827371479.6113048     
   4711520033.0329943     
   4547946822.3488865     
   4385866087.5061378     
   4225441305.0167623     
   4066916598.8248796     
   3269349865.2484145     
   3196697759.9873257     
   3128490923.7406564     
   3065023218.4317160     
   3006633225.3181667     
   3425128524.2933369     
   3339061421.9677510     
   3256966245.9432335     
   3179109407.8188105     
   3105805115.3306918     
   3612312563.2765384     
   3513704043.8570561     
   3418658302.3161759     
   3327398274.4692903     
   3240196697.8613052     
   3827371479.6113048     
   3717080650.7900753     
   3610027697.8568225     
   3506384028.9333005     
   3406372235.6457930     
   4066916598.8248796     
   3945708818.0788817     
   3827504303.6318731     
   3712421010.4320693     
   3600629662.4919357     
   3006633225.3181667     
   2919481221.8859558     
   2838380240.8964524     
   2763855803.8575482     
   2696502227.3282714     
   3105805115.3306918     
   3002687848.4066486     
   2905065551.9894156     
   2813485973.8844213     
   2728595358.2572403     
   3240196697.8613052     
   3121163226.2671022     
   3006944054.9535093     
   2898067551.7474990     
   2795184455.0278201     
   3406372235.6457930     
   3271631597.6667218     
   3140968051.1264839     
   3014855398.7782736     
   2893904130.7610884     
   3600629662.4919357     
   3450437736.6170988     
   3303585391.6472149     
   3160468047.9380651     
   3021622045.1663508     
   2696502227.3282714     
   2619652701.9506302     
   2550343120.6569877     
   2489141745.4615331     
   2436669458.4075379     
   2728595358.2572403     
   2636809936.4473147     
   2551172056.5352354     
   2472280467.3379598     
   2400818629.7637920     
   2795184455.0278201     
   2688952349.8738556     
   2587363808.1470466     
   2490969409.5571914     
   2400424816.6216826     
   2893904130.7610884     
   2774504477.8158836     
   2658263092.0765452     
   2545619155.1427941     
   2437116945.5120478     
   3021622045.1663508     
   2890883746.5092697     
   2761963267.2324295     
   2635159921.3062758     
   2510860123.8622918     
   2436669458.4075379     
   2363949969.5917978     
   2299787819.1051440     
   2244897034.2601638     
   2200015351.8608546     
   2400818629.7637920     
   2309899143.3603520     
   2226648417.6885400     
   2151876381.5193167     
   2086470783.4429359     
   2400424816.6216826     
   2291787460.9890652     
   2189638938.3364682     
   2094789345.5307868     
   2008182420.2293873     
   2437116945.5120478     
   2312110520.5998907     
   2192262699.7584953     
   2078271656.4972384     
   1971000225.7680802     
   2510860123.8622918     
   2371520610.5368724     
   2236057820.8679094     
   2104977242.4212923     
   1978940777.5459180     
   2200015351.8608546     
   2145113427.8564212     
   2105092590.3231864     
   2080710634.1765809     
   2072638226.8788123     
   2086470783.4429359     
   2011690299.6236792     
   1949233729.5540347     
   1900173701.3098481     
   1865532534.8408077     
   2008182420.2293873     
   1912031088.9173257     
   1824635011.4340353     
   1747192750.7363231     
   1680993906.0807123     
   1971000225.7680802     
   1855003509.3330984     
   1743358843.5974748     
   1636991253.0862641     
   1537037428.3132062     
   1978940777.5459180     
   1848186525.5825007     
   1717437386.1184347     
   1587048496.9669504     
   1457540278.7073145     
   2072638226.8788123     
   2069032639.9409368     
   2084691034.8841910     
   2122245875.5612352     
   2185503145.4835935     
   1865532534.8408077     
   1854920990.3498905     
   1867296058.9099715     
   1904868962.1154110     
   1970670569.9778023     
   1680993906.0807123     
   1652420258.3120873     
   1651573342.9186563     
   1680823844.0454092     
   1742783777.2866471     
   1537037428.3132062     
   1476139259.4531252     
   1447937117.7580786     
   1456395625.7809422     
   1504813080.0892193     
   1457540278.7073145     
   1348547386.0166781     
   1274549327.2622728     
   1243664412.5140860     
   1262931253.6410201     
   2185503145.4835935     
   2156207482.6090684     
   2146488562.2579267     
   2166879115.8182907     
   2228463446.6137295     
   1970670569.9778023     
   1968872447.6527524     
   2003607773.7848639     
   2093551947.5954204     
   2257367592.5846725     
   1742783777.2866471     
   1787643069.5453525     
   1884645577.2388275     
   2060692946.7524798     
   2341005165.6577911     
   1504813080.0892193     
   1613235949.4070477     
   1788861377.3578057     
   2066424082.6399260     
   2476107975.9935226     
   1262931253.6410201     
   1446694332.9005141     
   1715690212.5132341     
   2110478340.5627191     
   2663464443.7831159     
   4711520033.0329943     
   4547946822.3488865     
   4385866087.5061378     
   4225441305.0167623     
   4066916598.8248796     
   5006053751.5021267     
   4826559418.7091398     
   4649990284.5690718     
   4476427488.5074081     
   4306031561.9064131     
   5323516402.3280239     
   5129138619.5842628     
   4939205612.1121635     
   4753695680.4481268     
   4572771259.9517097     
   5662364446.2299147     
   5452932475.8187580     
   5249505695.3689108     
   5051943044.1167202     
   4860479758.7894545     
   6021286849.1139336     
   5795596400.3520870     
   5577510193.3671036     
   5366761719.2355194     
   5163724888.7840614     
   4066916598.8248796     
   3945708818.0788817     
   3827504303.6318731     
   3712421010.4320693     
   3600629662.4919357     
   4306031561.9064131     
   4178064581.9316525     
   4051355669.0904598     
   3926045836.9573627     
   3802321853.2569971     
   4572771259.9517097     
   4437613569.1663551     
   4302025094.3701382     
   4166082066.0967898     
   4029925326.2166772     
   4860479758.7894545     
   4718282163.6675367     
   4574078323.6244154     
   4427811434.9820528     
   4279529884.1035771     
   5163724888.7840614     
   5015057954.3147182     
   4862970595.1841240     
   4707224214.4735050     
   4547745436.9284153     
   3600629662.4919357     
   3450437736.6170988     
   3303585391.6472149     
   3160468047.9380651     
   3021622045.1663508     
   3802321853.2569971     
   3637052376.3281355     
   3473986477.0486255     
   3313391379.7714028     
   3155647939.4855804     
   4029925326.2166772     
   3851152306.4864588     
   3673686722.2072434     
   3497677959.9278002     
   3323357186.4502439     
   4279529884.1035771     
   4088825972.8367133     
   3898775641.4398475     
   3709434646.2468095     
   3520911295.9191504     
   4547745436.9284153     
   4346605763.5982132     
   4145688656.3584013     
   3944984887.4856548     
   3744514993.1638989     
   3021622045.1663508     
   2890883746.5092697     
   2761963267.2324295     
   2635159921.3062758     
   2510860123.8622918     
   3155647939.4855804     
   3013693050.8748074     
   2873459653.8117871     
   2735158615.6933861     
   2599076779.2629924     
   3323357186.4502439     
   3170582533.8585000     
   3019427576.4619446     
   2870016917.8464527     
   2722548467.2380524     
   3520911295.9191504     
   3357172166.7796497     
   3194928226.4547515     
   3034225354.7073874     
   2875189210.2439909     
   3744514993.1638989     
   3569184176.7931762     
   3395186741.6468730     
   3222500161.2446637     
   3051196833.7596998     
   2510860123.8622918     
   2371520610.5368724     
   2236057820.8679094     
   2104977242.4212923     
   1978940777.5459180     
   2599076779.2629924     
   2450372468.7107816     
   2303794845.0042009     
   2159664800.7322330     
   2018414979.8193023     
   2722548467.2380524     
   2566637635.2548232     
   2411433219.3007851     
   2257077907.5178518     
   2103773499.9908979     
   2875189210.2439909     
   2714517645.9633570     
   2553532559.1396599     
   2392256342.6623335     
   2230736279.7276106     
   3051196833.7596998     
   2888242307.5249443     
   2724340285.3246570     
   2559466540.0574069     
   2393616786.8152084     
   1978940777.5459180     
   1848186525.5825007     
   1717437386.1184347     
   1587048496.9669504     
   1457540278.7073145     
   2018414979.8193023     
   1881315489.0996923     
   1744553911.0347660     
   1608260296.6544878     
   1472613446.1719294     
   2103773499.9908979     
   1963024322.4206641     
   1823308614.7381353     
   1684654358.4230516     
   1547120465.3966162     
   2230736279.7276106     
   2087240782.2777898     
   1945533979.3891230     
   1805609391.0396485     
   1667547731.5192163     
   2393616786.8152084     
   2246584375.9863701     
   2101928873.3058121     
   1959639947.0676529     
   1819898203.7476513     
   1457540278.7073145     
   1348547386.0166781     
   1274549327.2622728     
   1243664412.5140860     
   1262931253.6410201     
   1472613446.1719294     
   1328465881.8514035     
   1198785968.2371008     
   1088051882.6786852     
   1002162216.0572096     
   1547120465.3966162     
   1397404991.9631300     
   1244103795.9608934     
   1084939575.7527287     
   917874738.37621975     
   1667547731.5192163     
   1552385590.9755926     
   1428045656.4821916     
   1294888451.9178524     
   1159055097.1896312     
   1819898203.7476513     
   1779617620.5268395     
   1735713074.9553678     
   1696852268.0983005     
   1681596512.4101596     
   1262931253.6410201     
   1446694332.9005141     
   1715690212.5132341     
   2110478340.5627191     
   2663464443.7831159     
   1002162216.0572096     
   1164759485.0721350     
   1425403266.1088943     
   1808686396.0938315     
   2334693190.4318304     
   917874738.37621975     
   963172339.12455583     
   1144890382.0309365     
   1476415430.2772267     
   1957457262.7020183     
   1159055097.1896312     
   1008488978.0983515     
   985186503.54280627     
   1161464176.9586735     
   1544271050.9203801     
   1681596512.4101596     
   1383895631.5071666     
   1129489366.9468129     
   1010174956.0242916     
   1153383525.9469848     
 </DataArray>
 <DataArray  type="Float64" Name="strain" NumberOfComponents="3" format="ascii">
   9.9186968436984824E-002  -3.9769369726395443E-002  -1.2383053510099051E-002
   9.5912981094992911E-002  -3.3155490578686386E-002  -9.0073081116561760E-003
   9.2638993753000887E-002  -2.8534726118600584E-002  -5.7320380869771981E-003
   8.9365006411008918E-002  -2.5907076346137634E-002  -2.5572434360617013E-003
   8.6091019069016950E-002  -2.5272541261298409E-002   5.1707584108962035E-004
   9.4238518072725652E-002  -3.4127375289266570E-002   2.7971252469515262E-003
   9.0917355095129326E-002  -2.9459230481675980E-002   3.9814162491688676E-003
   8.7596192117533223E-002  -2.6157768447150176E-002   5.1718313539415028E-003
   8.4275029139937119E-002  -2.4222989185688895E-002   6.3683705612692654E-003
   8.0953866162340904E-002  -2.3654892697292706E-002   7.5710338711524328E-003
   8.8725212304425094E-002  -2.8485380852137698E-002   1.5718353706604404E-002
   8.5463473167543963E-002  -2.5762970384665684E-002   1.5337622227154568E-002
   8.2201734030662582E-002  -2.3780810775699684E-002   1.5069614326579189E-002
   7.8939994893781285E-002  -2.2538902025240275E-002   1.4914330004878212E-002
   7.5678255756900070E-002  -2.2037244133286782E-002   1.4871769262051332E-002
   8.2647051132083565E-002  -2.2843386415008798E-002   2.6380631868859653E-002
   7.9551335312236238E-002  -2.2066710287655320E-002   2.5061309822301189E-002
   7.6455619492388882E-002  -2.1403853104249457E-002   2.3961310830936201E-002
   7.3359903672541499E-002  -2.0854814864791373E-002   2.3080634894764748E-002
   7.0264187852694157E-002  -2.0419595569281079E-002   2.2419282013786478E-002
   7.6004034555700928E-002  -1.7201391977879898E-002   3.4783959733717174E-002
   7.3180941529206511E-002  -1.8370450190644927E-002   3.3152479034608495E-002
   7.0357848502712095E-002  -1.9026895432799035E-002   3.1846920867012407E-002
   6.7534755476217678E-002  -1.9170727704342506E-002   3.0867285230928965E-002
   6.4711662449723262E-002  -1.8801947005275321E-002   3.0213572126357946E-002
   8.6091019069016950E-002  -2.5272541261298409E-002   5.1707584108962035E-004
   8.3519690117972667E-002  -2.5430495434552003E-002  -1.2101701105327045E-005
   8.0948361166928329E-002  -2.5180313436368645E-002  -3.8885741805511076E-004
   7.8377032215883990E-002  -2.4521995266748649E-002  -6.1319130975995284E-004
   7.5805703264839708E-002  -2.3455540925691909E-002  -6.8510337622018636E-004
   8.0953866162340904E-002  -2.3654892697292706E-002   7.5710338711524328E-003
   7.8535286455270720E-002  -2.3617766885244168E-002   7.2601650448247679E-003
   7.6116706748200480E-002  -2.3275899652827808E-002   7.1023728812003306E-003
   7.3698127041130213E-002  -2.2629291000042233E-002   7.0976573802793153E-003
   7.1279547334060056E-002  -2.1677940926889017E-002   7.2460185420614165E-003
   7.5678255756900070E-002  -2.2037244133286782E-002   1.4871769262051332E-002
   7.3413080131262382E-002  -2.1805038335936555E-002   1.4675814400521930E-002
   7.1147904505624804E-002  -2.1371485869286291E-002   1.4633591039154500E-002
   6.8882728879987143E-002  -2.0736586733335925E-002   1.4745099177949132E-002
   6.6617553254349565E-002  -1.9900340928085736E-002   1.5010338816905472E-002
   7.0264187852694157E-002  -2.0419595569281079E-002   2.2419282013786478E-002
   6.8153071145947680E-002  -1.9992309786628942E-002   2.2234846365987417E-002
   6.6041954439201203E-002  -1.9467072085744948E-002   2.2204797055808547E-002
   6.3930837732454726E-002  -1.8843882466629783E-002   2.2329134083250192E-002
   6.1819721025708249E-002  -1.8122740929282538E-002   2.2607857448312306E-002
   6.4711662449723262E-002  -1.8801947005275321E-002   3.0213572126357946E-002
   6.2755259499326504E-002  -1.8179581237321107E-002   2.9937260941220428E-002
   6.0798856548929719E-002  -1.7562658302203785E-002   2.9815990931161662E-002
   5.8842453598532934E-002  -1.6951178199923051E-002   2.9849762096182078E-002
   5.6886050648136177E-002  -1.6345140930479507E-002   3.0038574436281440E-002
   7.5805703264839708E-002  -2.3455540925691909E-002  -6.8510337622018636E-004
   7.2409708480010770E-002  -2.2217419080900636E-002  -7.2284366033126268E-004
   6.9013713695181833E-002  -2.1044098400076289E-002  -5.8932805464395610E-004
   6.5617718910352840E-002  -1.9935578883219597E-002  -2.8455655915674005E-004
   6.2221724125523958E-002  -1.8891860530329874E-002   1.9147082612913646E-004
   7.1279547334060056E-002  -2.1677940926889017E-002   7.2460185420614165E-003
   6.8064080459126930E-002  -2.0594889514433112E-002   7.0286421762503215E-003
   6.4848613584193915E-002  -1.9553176843741527E-002   7.0010657404323828E-003
   6.1633146709260928E-002  -1.8552802914814134E-002   7.1632892346067123E-003
   5.8417679834327829E-002  -1.7593767727650866E-002   7.5153126587749197E-003
   6.6617553254349565E-002  -1.9900340928085736E-002   1.5010338816905472E-002
   6.3601158329506122E-002  -1.8972359947966005E-002   1.4636788791598243E-002
   6.0584763404662678E-002  -1.8062255287406973E-002   1.4471582736477542E-002
   5.7568368479819221E-002  -1.7170026946408890E-002   1.4514720651543238E-002
   5.4551973554975791E-002  -1.6295674924971526E-002   1.4766202536795725E-002
   6.1819721025708249E-002  -1.8122740929282538E-002   2.2607857448312306E-002
   5.9020942091148151E-002  -1.7349830381498579E-002   2.2101596185711878E-002
   5.6222163156588061E-002  -1.6571333731072314E-002   2.1822222933491783E-002
   5.3423384222027928E-002  -1.5787250978003646E-002   2.1769737691651629E-002
   5.0624605287467865E-002  -1.4997582122292574E-002   2.1944140460191899E-002
   5.6886050648136177E-002  -1.6345140930479507E-002   3.0038574436281440E-002
   5.4323431744053130E-002  -1.5727300815031320E-002   2.9423064358591156E-002
   5.1760812839970083E-002  -1.5080412174737545E-002   2.9052986331474850E-002
   4.9198193935887008E-002  -1.4404475009598461E-002   2.8928340354932178E-002
   4.6635575031803989E-002  -1.3699489319613456E-002   2.9049126428963457E-002
   6.2221724125523958E-002  -1.8891860530329874E-002   1.9147082612913646E-004
   5.9390671964334785E-002  -1.7915219148945560E-002   9.0685639107523919E-005
   5.6559619803145500E-002  -1.7007930546604044E-002   1.5434671528635757E-004
   5.3728567641956243E-002  -1.6169994723305950E-002   3.8245405466397209E-004
   5.0897515480767042E-002  -1.5401411679051069E-002   7.7500765724125564E-004
   5.8417679834327829E-002  -1.7593767727650866E-002   7.5153126587749197E-003
   5.5745822417792801E-002  -1.6681730433217523E-002   7.2866090536825023E-003
   5.3073965001257717E-002  -1.5822350182481626E-002   7.2118486746983734E-003
   5.0402107584722716E-002  -1.5015626975442273E-002   7.2910315218240873E-003
   4.7730250168187660E-002  -1.4261560812099394E-002   7.5241575950583117E-003
   5.4551973554975791E-002  -1.6295674924971526E-002   1.4766202536795725E-002
   5.2028807846004249E-002  -1.5448241717489930E-002   1.4426276248978243E-002
   4.9505642137032749E-002  -1.4636769818358847E-002   1.4229790150179417E-002
   4.6982476428061228E-002  -1.3861259227578145E-002   1.4176744240398456E-002
   4.4459310719089734E-002  -1.3121709945147719E-002   1.4267138519635569E-002
   5.0624605287467865E-002  -1.4997582122292574E-002   2.1944140460191899E-002
   4.8239628248969234E-002  -1.4214753001762337E-002   2.1509687224996230E-002
   4.5854651210470596E-002  -1.3451189454236026E-002   2.1208171141727905E-002
   4.3469674171971957E-002  -1.2706891479714242E-002   2.1039592210387089E-002
   4.1084697133473333E-002  -1.1981859078196266E-002   2.1003950430974389E-002
   4.6635575031803989E-002  -1.3699489319613456E-002   2.9049126428963457E-002
   4.4378283626687554E-002  -1.2981264286034577E-002   2.8536841981735672E-002
   4.2120992221571146E-002  -1.2265609090113413E-002   2.8146991649344782E-002
   3.9863700816454781E-002  -1.1552523731850447E-002   2.7879575431790524E-002
   3.7606409411338304E-002  -1.0842008211244591E-002   2.7734593329073465E-002
   5.0897515480767042E-002  -1.5401411679051069E-002   7.7500765724125564E-004
   4.8139107857122054E-002  -1.4639236314161308E-002   4.8469473740608837E-004
   4.5380700233476845E-002  -1.3820523528960904E-002   2.4417633153306362E-004
   4.2622292609831747E-002  -1.2945273323447276E-002   5.3452439622958536E-005
   3.9863884986186648E-002  -1.2013485697622395E-002  -8.7476938324559939E-005
   4.7730250168187660E-002  -1.4261560812099394E-002   7.5241575950583117E-003
   4.5032449081961023E-002  -1.3513125071445642E-002   7.1899493714758789E-003
   4.2334647995734498E-002  -1.2723293132471031E-002   6.9271597087684489E-003
   3.9636846909507945E-002  -1.1892064995175984E-002   6.7357886069349948E-003
   3.6939045823281391E-002  -1.1019440659561619E-002   6.6158360659762661E-003
   4.4459310719089734E-002  -1.3121709945147719E-002   1.4267138519635569E-002
   4.1843740217193448E-002  -1.2387013828728477E-002   1.3873893770314921E-002
   3.9228169715297107E-002  -1.1626062735981380E-002   1.3573691628780943E-002
   3.6612599213400848E-002  -1.0838856666905136E-002   1.3366532095032385E-002
   3.3997028711504479E-002  -1.0025395621501176E-002   1.3252415169070220E-002
   4.1084697133473333E-002  -1.1981859078196266E-002   2.1003950430974389E-002
   3.8572981262819037E-002  -1.1260902586012062E-002   2.0536527933923458E-002
   3.6061265392164678E-002  -1.0528832339491395E-002   2.0183772091570434E-002
   3.3549549521510458E-002  -9.7856483386342882E-003   1.9945682903915400E-002
   3.1037833650856141E-002  -9.0313505834405672E-003   1.9822260370958134E-002
   3.7606409411338304E-002  -1.0842008211244591E-002   2.7734593329073465E-002
   3.5220172218837831E-002  -1.0134791343295535E-002   2.7177851862300595E-002
   3.2833935026337302E-002  -9.4316019430016051E-003   2.6757401097137312E-002
   3.0447697833836787E-002  -8.7324400103631558E-003   2.6473241033583922E-002
   2.8061460641336300E-002  -8.0373055453800690E-003   2.6325371671640063E-002
   3.9863884986186648E-002  -1.2013485697622395E-002  -8.7476938324559939E-005
   3.7455513202096835E-002  -1.1142118142161372E-002  -3.2545510596104776E-004
   3.5047141418006911E-002  -1.0448128147740765E-002  -4.8583308963434657E-004
   3.2638769633917014E-002  -9.9315157143611554E-003  -5.6861088934290205E-004
   3.0230397849827173E-002  -9.5922808420221273E-003  -5.7378850508871260E-004
   3.6939045823281391E-002  -1.1019440659561619E-002   6.6158360659762661E-003
   3.4592646449671915E-002  -1.0185479114326990E-002   6.1970025059241429E-003
   3.2246247076062523E-002  -9.4702393481728153E-003   5.8245135828697836E-003
   2.9899847702453033E-002  -8.8737213610984023E-003   5.4983692968120224E-003
   2.7553448328843710E-002  -8.3959251531047219E-003   5.2185696477514698E-003
   3.3997028711504479E-002  -1.0025395621501176E-002   1.3252415169070220E-002
   3.1681346201408944E-002  -9.2288400864926068E-003   1.2711381998563920E-002
   2.9365663691313396E-002  -8.4923505486043660E-003   1.2185437918087572E-002
   2.7049981181217798E-002  -7.8159270078358573E-003   1.1674582927642271E-002
   2.4734298671122340E-002  -7.1995694641877606E-003   1.1178817027226617E-002
   3.1037833650856141E-002  -9.0313505834405672E-003   1.9822260370958134E-002
   2.8721612457307838E-002  -8.2722010586584460E-003   1.9217683371956909E-002
   2.6405391263759643E-002  -7.5144617490361665E-003   1.8596939916019475E-002
   2.4089170070211378E-002  -6.7581326545736523E-003   1.7960030003146464E-002
   2.1772948876663201E-002  -6.0032137752705772E-003   1.7306953633337022E-002
   2.8061460641336300E-002  -8.0373055453800690E-003   2.6325371671640063E-002
   2.5713445217368736E-002  -7.3155620308240077E-003   2.5715906626104346E-002
   2.3365429793401227E-002  -6.5365729494679392E-003   2.5059019576665842E-002
   2.1017414369433690E-002  -5.7003383013109962E-003   2.4354710523324774E-002
   1.8669398945466154E-002  -4.8068580863535049E-003   2.3602979466081253E-002
   3.0230397849827173E-002  -9.5922808420221273E-003  -5.7378850508871260E-004
   2.9617187285905455E-002  -9.1355674823253574E-003  -3.4859604995141069E-004
   2.9003976721983626E-002  -8.2665195868733554E-003  -1.7987990815723220E-003
   2.8390766158061853E-002  -6.9851371556654968E-003  -4.9243975999526679E-003
   2.7777555594140080E-002  -5.2914201887037660E-003  -9.7253916050916711E-003
   2.7553448328843710E-002  -8.3959251531047219E-003   5.2185696477514698E-003
   2.5533232361008906E-002  -7.8703853362378506E-003   5.8832238152883853E-003
   2.3513016393174185E-002  -7.1306365225433654E-003   5.4092626617582296E-003
   2.1492800425339478E-002  -6.1766787120219185E-003   3.7966861871607527E-003
   1.9472584457504660E-002  -5.0085119046738846E-003   1.0454943914965931E-003
   2.4734298671122340E-002  -7.1995694641877606E-003   1.1178817027226617E-002
   2.1843857465066452E-002  -6.6052031901498443E-003   1.2084807368234640E-002
   1.8953416259010536E-002  -5.9947534582131812E-003   1.2388962553867372E-002
   1.6062975052954634E-002  -5.3682202683774591E-003   1.2091282584124632E-002
   1.3172533846898732E-002  -4.7256036206432261E-003   1.1191767459006685E-002
   2.1772948876663201E-002  -6.0032137752705772E-003   1.7306953633337022E-002
   1.8549062598077898E-002  -5.3400210440623097E-003   1.8256154608887409E-002
   1.5325176319492678E-002  -4.8588703938830941E-003   1.9140300594754807E-002
   1.2101290040907393E-002  -4.5597618247334402E-003   1.9959391590938496E-002
   8.8774037623221627E-003  -4.4426953366129562E-003   2.0713427597438286E-002
   1.8669398945466154E-002  -4.8068580863535049E-003   2.3602979466081253E-002
   1.5648847760043383E-002  -4.0748388979748862E-003   2.4397265537246748E-002
   1.2628296574620557E-002  -3.7229873295532845E-003   2.5663276784420097E-002
   9.6077453891977305E-003  -3.7513033810889912E-003   2.7401013207602576E-002
   6.5871942037749598E-003  -4.1597870525825753E-003   2.9610474806793019E-002
   2.7777555594140080E-002  -5.2914201887037660E-003  -9.7253916050916711E-003
   2.3352337426797876E-002  -4.2061698782873691E-003  -4.1900528355132138E-003
   1.8927119259455616E-002  -4.7501874167193425E-003   2.6064691748105551E-003
   1.4501901092113495E-002  -6.9234728039965915E-003   1.0664174425882467E-002
   1.0076682924771152E-002  -1.0726026040121184E-002   1.9983062917700245E-002
   1.9472584457504660E-002  -5.0085119046738846E-003   1.0454943914965931E-003
   1.6236747981131672E-002  -4.6903135801974472E-003   6.7422452316179271E-003
   1.3000911504758517E-002  -6.2862612182920108E-003   1.3556576212929605E-002
   9.7650750283853893E-003  -9.7963548189579919E-003   2.1488487335434403E-002
   6.5292385520123730E-003  -1.5220594382195696E-002   3.0537978599130877E-002
   1.3172533846898732E-002  -4.7256036206432261E-003   1.1191767459006685E-002
   1.0982475961940075E-002  -5.1744572821070811E-003   1.6765052255946211E-002
   8.7924180769813759E-003  -7.8223350198662056E-003   2.3312314094523084E-002
   6.6023601920227673E-003  -1.2669236833920385E-002   3.0833552974736625E-002
   4.4123023070639089E-003  -1.9715162724270208E-002   3.9328768896587540E-002
   8.8774037623221627E-003  -4.4426953366129562E-003   2.0713427597438286E-002
   7.5895213692230984E-003  -5.6586009840167151E-003   2.5878368237473276E-002
   6.3016389761240306E-003  -9.3584088214396371E-003   3.1873682819589653E-002
   5.0137565830249992E-003  -1.5542118848882725E-002   3.8699371343789229E-002
   3.7258741899258985E-003  -2.4209731066344498E-002   4.6355433810070179E-002
   6.5871942037749598E-003  -4.1597870525825753E-003   2.9610474806793019E-002
   6.0578842029807567E-003  -6.1427446859267931E-003   3.4082193176197761E-002
   5.5285742021865814E-003  -1.0894482623013485E-002   3.9240682388130554E-002
   4.9992642013924615E-003  -1.8415000863844226E-002   4.5085942442590482E-002
   4.4699542005982584E-003  -2.8704299408418787E-002   5.1617973339578072E-002
   7.6004034555700928E-002  -1.7201391977879898E-002   3.4783959733717174E-002
   7.3180941529206511E-002  -1.8370450190644927E-002   3.3152479034608495E-002
   7.0357848502712095E-002  -1.9026895432799035E-002   3.1846920867012407E-002
   6.7534755476217678E-002  -1.9170727704342506E-002   3.0867285230928965E-002
   6.4711662449723262E-002  -1.8801947005275321E-002   3.0213572126357946E-002
   6.9214171867439195E-002  -1.7774771735584949E-002   3.6463388318367762E-002
   6.6701837510466350E-002  -1.8254784017860320E-002   3.5512204761591754E-002
   6.4189503153493629E-002  -1.8398813622665378E-002   3.4856616012346769E-002
   6.1677168796520764E-002  -1.8206860549999884E-002   3.4496622070632310E-002
   5.9164834439548036E-002  -1.7678924799864215E-002   3.4432222936448847E-002
   6.2695472359460352E-002  -1.8348151493289888E-002   3.8920177980077991E-002
   6.0463568948027513E-002  -1.8139117845075686E-002   3.8472661272494435E-002
   5.8231665536594646E-002  -1.7770731812531540E-002   3.8290411648459921E-002
   5.5999762125161799E-002  -1.7242993395657342E-002   3.8373429107974526E-002
   5.3767858713728939E-002  -1.6555902594453137E-002   3.8721713651038145E-002
   5.6447936031764546E-002  -1.8921531250994883E-002   4.2154328718848187E-002
   5.4466135841889904E-002  -1.8023451672291066E-002   4.2033848567316387E-002
   5.2484335652015268E-002  -1.7142650002397737E-002   4.2148307775352153E-002
   5.0502535462140591E-002  -1.6279126241314675E-002   4.2497706342955223E-002
   4.8520735272265976E-002  -1.5432880389042045E-002   4.3082044270125699E-002
   5.0471562884351617E-002  -1.9494911008699878E-002   4.6165840534677927E-002
   4.8709538192053509E-002  -1.7907785499506501E-002   4.6195766646057845E-002
   4.6947513499755400E-002  -1.6514568192264031E-002   4.6430304393023342E-002
   4.5185488807457319E-002  -1.5315259086972077E-002   4.6869453775574707E-002
   4.3423464115159183E-002  -1.4309858183630952E-002   4.7513214793711622E-002
   6.4711662449723262E-002  -1.8801947005275321E-002   3.0213572126357946E-002
   6.2755259499326504E-002  -1.8179581237321107E-002   2.9937260941220428E-002
   6.0798856548929719E-002  -1.7562658302203785E-002   2.9815990931161662E-002
   5.8842453598532934E-002  -1.6951178199923051E-002   2.9849762096182078E-002
   5.6886050648136177E-002  -1.6345140930479507E-002   3.0038574436281440E-002
   5.9164834439548036E-002  -1.7678924799864215E-002   3.4432222936448847E-002
   5.7358485563324665E-002  -1.6996630018073403E-002   3.4284423211263390E-002
   5.5552136687101281E-002  -1.6341599850442812E-002   3.4281690459345870E-002
   5.3745787810877917E-002  -1.5713834296972179E-002   3.4424024680696191E-002
   5.1939438934654525E-002  -1.5113333357661796E-002   3.4711425875314394E-002
   5.3767858713728939E-002  -1.6555902594453137E-002   3.8721713651038145E-002
   5.2101589709867897E-002  -1.5813678798825725E-002   3.8680603604481459E-002
   5.0435320706006856E-002  -1.5120541398681832E-002   3.8774586329381695E-002
   4.8769051702145814E-002  -1.4476490394021249E-002   3.9003661825738695E-002
   4.7102782698284759E-002  -1.3881525784844279E-002   3.9367830093552270E-002
   4.8520735272265976E-002  -1.5432880389042045E-002   4.3082044270125699E-002
   4.6984571938956152E-002  -1.4630727579577979E-002   4.3125802120874419E-002
   4.5448408605646334E-002  -1.3899482946920744E-002   4.3294678541269074E-002
   4.3912245272336503E-002  -1.3239146491070251E-002   4.3588673531309297E-002
   4.2376081939026686E-002  -1.2649718212026664E-002   4.4007787090995065E-002
   4.3423464115159183E-002  -1.4309858183630952E-002   4.7513214793711622E-002
   4.2007432250589477E-002  -1.3447776360330316E-002   4.7620018760442584E-002
   4.0591400386019785E-002  -1.2678424495159865E-002   4.7841967095008098E-002
   3.9175368521450066E-002  -1.2001802588119444E-002   4.8179059797408122E-002
   3.7759336656880360E-002  -1.1417910639209106E-002   4.8631296867642837E-002
   5.6886050648136177E-002  -1.6345140930479507E-002   3.0038574436281440E-002
   5.4323431744053130E-002  -1.5727300815031320E-002   2.9423064358591156E-002
   5.1760812839970083E-002  -1.5080412174737545E-002   2.9052986331474850E-002
   4.9198193935887008E-002  -1.4404475009598461E-002   2.8928340354932178E-002
   4.6635575031803989E-002  -1.3699489319613456E-002   2.9049126428963457E-002
   5.1939438934654525E-002  -1.5113333357661796E-002   3.4711425875314394E-002
   4.9611579097907393E-002  -1.4516132539632354E-002   3.4220054739719813E-002
   4.7283719261160123E-002  -1.3898267350004045E-002   3.3952769688223111E-002
   4.4955859424412895E-002  -1.3259737788777412E-002   3.3909570720823803E-002
   4.2627999587665694E-002  -1.2600543855952051E-002   3.4090457837522625E-002
   4.7102782698284759E-002  -1.3881525784844279E-002   3.9367830093552270E-002
   4.4988335962397166E-002  -1.3304964264233193E-002   3.8992213746806476E-002
   4.2873889226509532E-002  -1.2716122525270657E-002   3.8819337517682101E-002
   4.0759442490621960E-002  -1.2115000567956474E-002   3.8849201406179285E-002
   3.8644995754734290E-002  -1.1501598392290729E-002   3.9081805412298040E-002
   4.2376081939026686E-002  -1.2649718212026664E-002   4.4007787090995065E-002
   4.0453702337522532E-002  -1.2093795988834158E-002   4.3739541379850977E-002
   3.8531322736018350E-002  -1.1533977700537296E-002   4.3652689819852250E-002
   3.6608943134514169E-002  -1.0970263347135675E-002   4.3747232410998704E-002
   3.4686563533010015E-002  -1.0402652928629422E-002   4.4023169153290756E-002
   3.7759336656880360E-002  -1.1417910639209106E-002   4.8631296867642837E-002
   3.6007678223283435E-002  -1.0882627713435095E-002   4.8462037638853483E-002
   3.4256019789686509E-002  -1.0351832875803754E-002   4.8452826594733073E-002
   3.2504361356089584E-002  -9.8255261263146508E-003   4.8603663735282090E-002
   3.0752702922492658E-002  -9.3037074649680029E-003   4.8914549060500079E-002
   4.6635575031803989E-002  -1.3699489319613456E-002   2.9049126428963457E-002
   4.4378283626687554E-002  -1.2981264286034577E-002   2.8536841981735672E-002
   4.2120992221571146E-002  -1.2265609090113413E-002   2.8146991649344782E-002
   3.9863700816454781E-002  -1.1552523731850447E-002   2.7879575431790524E-002
   3.7606409411338304E-002  -1.0842008211244591E-002   2.7734593329073465E-002
   4.2627999587665694E-002  -1.2600543855952051E-002   3.4090457837522625E-002
   4.0501586870081763E-002  -1.1926061305317481E-002   3.3614861087378434E-002
   3.8375174152497832E-002  -1.1241665890662764E-002   3.3278587597462411E-002
   3.6248761434913984E-002  -1.0547357611987909E-002   3.3081637367774544E-002
   3.4122348717329998E-002  -9.8431364692928014E-003   3.3024010398314818E-002
   3.8644995754734290E-002  -1.1501598392290729E-002   3.9081805412298040E-002
   3.6666350870074180E-002  -1.0870858324600358E-002   3.8655379060915526E-002
   3.4687705985414034E-002  -1.0217722691211899E-002   3.8385165115152560E-002
   3.2709061100753944E-002  -9.5421914921255940E-003   3.8271163575008954E-002
   3.0730416216093778E-002  -8.8442647273411223E-003   3.8313374440484715E-002
   3.4686563533010015E-002  -1.0402652928629422E-002   4.4023169153290756E-002
   3.2872575626664902E-002  -9.8156553438832478E-003   4.3658395902347644E-002
   3.1058587720319747E-002  -9.1937794917610303E-003   4.3466724202415430E-002
   2.9244599813974592E-002  -8.5370253722633349E-003   4.3448154053493705E-002
   2.7430611907629434E-002  -7.8453929853893323E-003   4.3602685455582539E-002
   3.0752702922492658E-002  -9.3037074649680029E-003   4.8914549060500079E-002
   2.9120261139853804E-002  -8.7604523631660824E-003   4.8623911611674397E-002
   2.7487819357214949E-002  -8.1698362923103007E-003   4.8523264859250681E-002
   2.5855377574576066E-002  -7.5318592524009423E-003   4.8612608803228957E-002
   2.4222935791937183E-002  -6.8465212434376532E-003   4.8891943443608921E-002
   3.7606409411338304E-002  -1.0842008211244591E-002   2.7734593329073465E-002
   3.5220172218837831E-002  -1.0134791343295535E-002   2.7177851862300595E-002
   3.2833935026337302E-002  -9.4316019430016051E-003   2.6757401097137312E-002
   3.0447697833836787E-002  -8.7324400103631558E-003   2.6473241033583922E-002
   2.8061460641336300E-002  -8.0373055453800690E-003   2.6325371671640063E-002
   3.4122348717329998E-002  -9.8431364692928014E-003   3.3024010398314818E-002
   3.1874958687020838E-002  -9.1388650570901619E-003   3.2555033688565660E-002
   2.9627568656711636E-002  -8.4444059698919605E-003   3.2227460601589403E-002
   2.7380178626402428E-002  -7.7597592076982871E-003   3.2041291137385991E-002
   2.5132788596093275E-002  -7.0849247705092600E-003   3.1996525295955813E-002
   3.0730416216093778E-002  -8.8442647273411223E-003   3.8313374440484715E-002
   2.8626986269139121E-002  -8.1429387708846224E-003   3.7926377630409930E-002
   2.6523556322184512E-002  -7.4572099967819966E-003   3.7685897364271401E-002
   2.4420126375229851E-002  -6.7870784050333109E-003   3.7591933642068996E-002
   2.2316696428275246E-002  -6.1325439956381733E-003   3.7644486463802945E-002
   2.7430611907629434E-002  -7.8453929853893323E-003   4.3602685455582539E-002
   2.5476254965192721E-002  -7.1470124846795546E-003   4.3291883687833092E-002
   2.3521898022755866E-002  -6.4700140236724143E-003   4.3132711385183167E-002
   2.1567541080319101E-002  -5.8143976023682774E-003   4.3125168547632750E-002
   1.9613184137882302E-002  -5.1801632207671700E-003   4.3269255175181577E-002
   2.4222935791937183E-002  -6.8465212434376532E-003   4.8891943443608921E-002
   2.2422764775181514E-002  -6.1510861984739318E-003   4.8651551860835418E-002
   2.0622593758425761E-002  -5.4828180505623603E-003   4.8567902664324758E-002
   1.8822422741670078E-002  -4.8417167997032926E-003   4.8640995854076885E-002
   1.7022251724914339E-002  -4.2277824458962776E-003   4.8870831430091410E-002
   2.8061460641336300E-002  -8.0373055453800690E-003   2.6325371671640063E-002
   2.5713445217368736E-002  -7.3155620308240077E-003   2.5715906626104346E-002
   2.3365429793401227E-002  -6.5365729494679392E-003   2.5059019576665842E-002
   2.1017414369433690E-002  -5.7003383013109962E-003   2.4354710523324774E-002
   1.8669398945466154E-002  -4.8068580863535049E-003   2.3602979466081253E-002
   2.5132788596093275E-002  -7.0849247705092600E-003   3.1996525295955813E-002
   2.2775199529000145E-002  -6.4073397909606977E-003   3.1573767976884104E-002
   2.0417610461907099E-002  -5.7144414016891687E-003   3.1179285375463633E-002
   1.8060021394814017E-002  -5.0062296026943606E-003   3.0813077491694943E-002
   1.5702432327720922E-002  -4.2827043939767107E-003   3.0475144325577408E-002
   2.2316696428275246E-002  -6.1325439956381733E-003   3.7644486463802945E-002
   2.0025230439610686E-002  -5.4991175510970824E-003   3.7366504714117704E-002
   1.7733764450946141E-002  -4.8923098539104121E-003   3.7192494403637991E-002
   1.5442298462281574E-002  -4.3121209040778395E-003   3.7122455532363811E-002
   1.3150832473617091E-002  -3.7585507015996389E-003   3.7156388100295257E-002
   1.9613184137882302E-002  -5.1801632207671700E-003   4.3269255175181577E-002
   1.7463537949200345E-002  -4.5908953112334533E-003   4.3094116837805292E-002
   1.5313891760518446E-002  -4.0701783061316485E-003   4.3098646661188733E-002
   1.3164245571836463E-002  -3.6180122054611501E-003   4.3282844645331997E-002
   1.1014599383154591E-002  -3.2343970092225394E-003   4.3646710790234619E-002
   1.7022251724914339E-002  -4.2277824458962776E-003   4.8870831430091410E-002
   1.5090122057769106E-002  -3.6826730713700462E-003   4.8756604347946930E-002
   1.3157992390623902E-002  -3.2480467583525796E-003   4.8897742148116208E-002
   1.1225862723478669E-002  -2.9239035068447175E-003   4.9294244830599021E-002
   9.2937330563334641E-003  -2.7102433168456619E-003   4.9946112395395814E-002
   1.8669398945466154E-002  -4.8068580863535049E-003   2.3602979466081253E-002
   1.5648847760043383E-002  -4.0748388979748862E-003   2.4397265537246748E-002
   1.2628296574620557E-002  -3.7229873295532845E-003   2.5663276784420097E-002
   9.6077453891977305E-003  -3.7513033810889912E-003   2.7401013207602576E-002
   6.5871942037749598E-003  -4.1597870525825753E-003   2.9610474806793019E-002
   1.5702432327720922E-002  -4.2827043939767107E-003   3.0475144325577408E-002
   1.3135480184420872E-002  -3.7700796116108548E-003   3.1258030085306310E-002
   1.0568528041120795E-002  -3.6945690916708185E-003   3.2476388753272800E-002
   8.0015758978207591E-003  -4.0561728341580033E-003   3.4130220329476352E-002
   5.4346237545206677E-003  -4.8548908390710910E-003   3.6219524813916659E-002
   1.3150832473617091E-002  -3.7585507015996389E-003   3.7156388100295257E-002
   1.1001227104668540E-002  -3.4653203252464349E-003   3.7870926906119151E-002
   8.8516217357199820E-003  -3.6661508537886578E-003   3.8984686352408648E-002
   6.7020163667714239E-003  -4.3610422872264534E-003   4.0497666439164401E-002
   4.5524109978228727E-003  -5.5499946255598842E-003   4.2409867166385867E-002
   1.1014599383154591E-002  -3.2343970092225394E-003   4.3646710790234619E-002
   9.2460885207863268E-003  -3.1605610388822092E-003   4.4235955999683843E-002
   7.4775776584180623E-003  -3.6377326159062334E-003   4.5188169581828232E-002
   5.7090667960498220E-003  -4.6659117402950735E-003   4.6503351536667320E-002
   3.9405559336815853E-003  -6.2450984120484276E-003   4.8181501864200761E-002
   9.2937330563334641E-003  -2.7102433168456619E-003   4.9946112395395814E-002
   7.8700644327742708E-003  -2.8558017525180390E-003   5.0353117366001676E-002
   6.4463958092150775E-003  -3.6093143780241144E-003   5.1086838441531279E-002
   5.0227271856558842E-003  -4.9707811933638255E-003   5.2147275621984374E-002
   3.5990585620967463E-003  -6.9402021985371931E-003   5.3534428907360709E-002
   6.5871942037749598E-003  -4.1597870525825753E-003   2.9610474806793019E-002
   6.0578842029807567E-003  -6.1427446859267931E-003   3.4082193176197761E-002
   5.5285742021865814E-003  -1.0894482623013485E-002   3.9240682388130554E-002
   4.9992642013924615E-003  -1.8415000863844226E-002   4.5085942442590482E-002
   4.4699542005982584E-003  -2.8704299408418787E-002   5.1617973339578072E-002
   5.4346237545206677E-003  -4.8548908390710910E-003   3.6219524813916659E-002
   5.4880249619571331E-003  -6.9899460056611629E-003   3.8355371059246024E-002
   5.5414261693934735E-003  -1.1360561233177441E-002   4.0969868878509619E-002
   5.5948273768298210E-003  -1.7966736521620209E-002   4.4063018271706639E-002
   5.6482285842662794E-003  -2.6808471870990003E-002   4.7634819238837167E-002
   4.5524109978228727E-003  -5.5499946255598842E-003   4.2409867166385867E-002
   4.9804041448960334E-003  -7.8371473253959767E-003   4.2743061530456899E-002
   5.4083972919691595E-003  -1.1826639843341299E-002   4.3346788199868050E-002
   5.8363904390422300E-003  -1.7518472179396418E-002   4.4221047174618631E-002
   6.2643835861153907E-003  -2.4912644333560996E-002   4.5365838454709095E-002
   3.9405559336815853E-003  -6.2450984120484276E-003   4.8181501864200761E-002
   4.5350217517975688E-003  -8.6843486451304575E-003   4.7245264589830159E-002
   5.1294875699134934E-003  -1.2292718453505207E-002   4.6371440352205903E-002
   5.7239533880294353E-003  -1.7070207837172294E-002   4.5560029151327029E-002
   6.3184192061454605E-003  -2.3016816796132211E-002   4.4811030987194744E-002
   3.5990585620967463E-003  -6.9402021985371931E-003   5.3534428907360709E-002
   4.1518777826617115E-003  -9.5315499648651603E-003   5.1861980237365546E-002
   4.7046970032266489E-003  -1.2758797063669003E-002   5.0043825335522873E-002
   5.2575162237915862E-003  -1.6621943494948360E-002   4.8079964201832137E-002
   5.8103354443564958E-003  -2.1120989258703204E-002   4.5970396836293670E-002
   5.0471562884351617E-002  -1.9494911008699878E-002   4.6165840534677927E-002
   4.8709538192053509E-002  -1.7907785499506501E-002   4.6195766646057845E-002
   4.6947513499755400E-002  -1.6514568192264031E-002   4.6430304393023342E-002
   4.5185488807457319E-002  -1.5315259086972077E-002   4.6869453775574707E-002
   4.3423464115159183E-002  -1.4309858183630952E-002   4.7513214793711622E-002
   4.4541706216794319E-002  -1.5565808430834882E-002   5.1763636892449616E-002
   4.2982189382995001E-002  -1.4657828746854562E-002   5.1487343670362284E-002
   4.1422672549195710E-002  -1.3807911532540545E-002   5.1411454529686790E-002
   3.9863155715396413E-002  -1.3016056787893214E-002   5.1535969470423215E-002
   3.8303638881597130E-002  -1.2282264512912033E-002   5.1860888492571589E-002
   3.8433719328665156E-002  -1.1636705852969914E-002   5.6614364558866162E-002
   3.7072502799190922E-002  -1.1407871994202567E-002   5.6167697735595740E-002
   3.5711286269716702E-002  -1.1101254872817316E-002   5.5917227439563531E-002
   3.4350069740242462E-002  -1.0716854488814159E-002   5.5862953670769516E-002
   3.2988853210768249E-002  -1.0254670842193225E-002   5.6004876429213660E-002
   3.2147602219964107E-002  -7.7076032751049323E-003   6.0718023533927537E-002
   3.0980478440641238E-002  -8.1579152415505868E-003   6.0236828841758357E-002
   2.9813354661318372E-002  -8.3945982130940143E-003   5.9947623122653775E-002
   2.8646230881995499E-002  -8.4176521897352564E-003   5.9850406376613652E-002
   2.7479107102672658E-002  -8.2270771714743895E-003   5.9945178603637989E-002
   2.5683354890691207E-002  -3.7785006972399504E-003   6.4074613817633685E-002
   2.4706116307345954E-002  -4.9079584888985783E-003   6.3694736988850253E-002
   2.3728877724000716E-002  -5.6879415533707123E-003   6.3502641578957575E-002
   2.2751639140655470E-002  -6.1184498906562274E-003   6.3498327587955455E-002
   2.1774400557310239E-002  -6.1994835007554983E-003   6.3681795015844256E-002
   4.3423464115159183E-002  -1.4309858183630952E-002   4.7513214793711622E-002
   4.2007432250589477E-002  -1.3447776360330316E-002   4.7620018760442584E-002
   4.0591400386019785E-002  -1.2678424495159865E-002   4.7841967095008098E-002
   3.9175368521450066E-002  -1.2001802588119444E-002   4.8179059797408122E-002
   3.7759336656880360E-002  -1.1417910639209106E-002   4.8631296867642837E-002
   3.8303638881597130E-002  -1.2282264512912033E-002   5.1860888492571589E-002
   3.7019788462336931E-002  -1.1607284934257750E-002   5.1713622658952213E-002
   3.5735938043076731E-002  -1.0991868278590874E-002   5.1715575348117035E-002
   3.4452087623816519E-002  -1.0436014545910807E-002   5.1866746560066394E-002
   3.3168237204556320E-002  -9.9397237362181534E-003   5.2167136294800326E-002
   3.2988853210768249E-002  -1.0254670842193225E-002   5.6004876429213660E-002
   3.1871258391767472E-002  -9.7667935081853646E-003   5.5636707830386767E-002
   3.0753663572766654E-002  -9.3053120620217242E-003   5.5451831909294029E-002
   2.9636068753765892E-002  -8.8702265037022814E-003   5.5450248665935772E-002
   2.8518473934765087E-002  -8.4615368332270624E-003   5.5631958100311837E-002
   2.7479107102672658E-002  -8.2270771714743895E-003   5.9945178603637989E-002
   2.6561842038881130E-002  -7.9263020821129446E-003   5.9389274274746384E-002
   2.5644576975089615E-002  -7.6187558454527647E-003   5.9050736778539115E-002
   2.4727311911298094E-002  -7.3044384614938110E-003   5.8929566115015944E-002
   2.3810046847506573E-002  -6.9833499302360408E-003   5.9025762284177219E-002
   2.1774400557310239E-002  -6.1994835007554983E-003   6.3681795015844256E-002
   2.1091539403677917E-002  -6.0858106560404135E-003   6.2971321992031204E-002
   2.0408678250045581E-002  -5.9321996288837497E-003   6.2512289955852229E-002
   1.9725817096413259E-002  -5.7386504192851323E-003   6.2304698907307332E-002
   1.9042955942780923E-002  -5.5051630272450192E-003   6.2348548846396679E-002
   3.7759336656880360E-002  -1.1417910639209106E-002   4.8631296867642837E-002
   3.6007678223283435E-002  -1.0882627713435095E-002   4.8462037638853483E-002
   3.4256019789686509E-002  -1.0351832875803754E-002   4.8452826594733073E-002
   3.2504361356089584E-002  -9.8255261263146508E-003   4.8603663735282090E-002
   3.0752702922492658E-002  -9.3037074649680029E-003   4.8914549060500079E-002
   3.3168237204556320E-002  -9.9397237362181534E-003   5.2167136294800326E-002
   3.1586801936669601E-002  -9.4716715914127947E-003   5.1948686982119407E-002
   3.0005366668782875E-002  -9.0005338533955398E-003   5.1910635816190029E-002
   2.8423931400896146E-002  -8.5263105221661077E-003   5.2052982797011670E-002
   2.6842496133009430E-002  -8.0490015977248142E-003   5.2375727924584725E-002
   2.8518473934765087E-002  -8.4615368332270624E-003   5.5631958100311837E-002
   2.7127611794670659E-002  -8.0607154693905364E-003   5.5371892385094143E-002
   2.5736749654576223E-002  -7.6492348309874988E-003   5.5312574778709996E-002
   2.4345887514481801E-002  -7.2270949180177329E-003   5.5454005281159097E-002
   2.2955025374387358E-002  -6.7942957304814033E-003   5.5796183892441592E-002
   2.3810046847506573E-002  -6.9833499302360408E-003   5.9025762284177219E-002
   2.2630107797286584E-002  -6.6497593473682573E-003   5.8731653847777371E-002
   2.1450168747066560E-002  -6.2979358085793989E-003   5.8658643482293049E-002
   2.0270229696846529E-002  -5.9278793138692739E-003   5.8806731187724087E-002
   1.9090290646626519E-002  -5.5395898632379925E-003   5.9175916964070534E-002
   1.9042955942780923E-002  -5.5051630272450192E-003   6.2348548846396679E-002
   1.8094289944517408E-002  -5.2388032253460060E-003   6.2027971370169133E-002
   1.7145623946253886E-002  -4.9466367861712157E-003   6.1948841926939197E-002
   1.6196957947990368E-002  -4.6286637097208913E-003   6.2111160516706648E-002
   1.5248291949726850E-002  -4.2848839959946927E-003   6.2514927139471821E-002
   3.0752702922492658E-002  -9.3037074649680029E-003   4.8914549060500079E-002
   2.9120261139853804E-002  -8.7604523631660824E-003   4.8623911611674397E-002
   2.7487819357214949E-002  -8.1698362923103007E-003   4.8523264859250681E-002
   2.5855377574576066E-002  -7.5318592524009423E-003   4.8612608803228957E-002
   2.4222935791937183E-002  -6.8465212434376532E-003   4.8891943443608921E-002
   2.6842496133009430E-002  -8.0490015977248142E-003   5.2375727924584725E-002
   2.5400678883432046E-002  -7.5549675944530659E-003   5.2147323110030896E-002
   2.3958861633854661E-002  -7.0305690267328802E-003   5.2110176665198293E-002
   2.2517044384277277E-002  -6.4758058945641045E-003   5.2264288590086569E-002
   2.1075227134699892E-002  -5.8906781979469747E-003   5.2609658884695987E-002
   2.2955025374387358E-002  -6.7942957304814033E-003   5.5796183892441592E-002
   2.1705100331190642E-002  -6.3494828257400771E-003   5.5613015307554553E-002
   2.0455175287993954E-002  -5.8913017611554458E-003   5.5622372765707639E-002
   1.9205250244797231E-002  -5.4197525367274298E-003   5.5824256266900942E-002
   1.7955325201600550E-002  -4.9348351524560741E-003   5.6218665811134827E-002
   1.9090290646626519E-002  -5.5395898632379925E-003   5.9175916964070534E-002
   1.8033525483129656E-002  -5.1439980570270744E-003   5.9020988204245117E-002
   1.6976760319632800E-002  -4.7520344955779073E-003   5.9059853160778983E-002
   1.5919995156135937E-002  -4.3636991788906735E-003   5.9292511833672241E-002
   1.4863229992639084E-002  -3.9789921069653400E-003   5.9718964222925018E-002
   1.5248291949726850E-002  -4.2848839959946927E-003   6.2514927139471821E-002
   1.4385954339249038E-002  -3.9385132883141827E-003   6.2371241800102617E-002
   1.3523616728771212E-002  -3.6127672300006464E-003   6.2422617850412032E-002
   1.2661279118293386E-002  -3.3076458210539311E-003   6.2669055290400094E-002
   1.1798941507815575E-002  -3.0231490614743839E-003   6.3110554120066831E-002
   2.4222935791937183E-002  -6.8465212434376532E-003   4.8891943443608921E-002
   2.2422764775181514E-002  -6.1510861984739318E-003   4.8651551860835418E-002
   2.0622593758425761E-002  -5.4828180505623603E-003   4.8567902664324758E-002
   1.8822422741670078E-002  -4.8417167997032926E-003   4.8640995854076885E-002
   1.7022251724914339E-002  -4.2277824458962776E-003   4.8870831430091410E-002
   2.1075227134699892E-002  -5.8906781979469747E-003   5.2609658884695987E-002
   1.9444106696754823E-002  -5.3003451979450888E-003   5.2385821791242682E-002
   1.7812986258809727E-002  -4.7299661556226280E-003   5.2343343469147818E-002
   1.6181865820864644E-002  -4.1795410709793493E-003   5.2482223918411675E-002
   1.4550745382919561E-002  -3.6490699440152596E-003   5.2802463139034028E-002
   1.7955325201600550E-002  -4.9348351524560741E-003   5.6218665811134827E-002
   1.6517871727561931E-002  -4.4496041974163569E-003   5.6018596146374444E-002
   1.5080418253523291E-002  -3.9771142606826876E-003   5.6024501638068644E-002
   1.3642964779484654E-002  -3.5173653422553540E-003   5.6236382286216920E-002
   1.2205511305446032E-002  -3.0703574421342417E-003   5.6654238090820069E-002
   1.4863229992639084E-002  -3.9789921069653400E-003   5.9718964222925018E-002
   1.3644059867602750E-002  -3.5988631968874585E-003   5.9549874926230865E-002
   1.2424889742566414E-002  -3.2242623657427957E-003   5.9611377171086707E-002
   1.1205719617530085E-002  -2.8551896135312737E-003   5.9903470957493085E-002
   9.9865494924937445E-003  -2.4916449402532237E-003   6.0426156285449305E-002
   1.1798941507815575E-002  -3.0231490614743839E-003   6.3110554120066831E-002
   1.0822671116877347E-002  -2.7481221963587266E-003   6.2979658130811744E-002
   9.8464007259391195E-003  -2.4714104708029316E-003   6.3103970068202619E-002
   8.8701303350009197E-003  -2.1930138848075056E-003   6.3483489932239706E-002
   7.8938599440626922E-003  -1.9129324383722057E-003   6.4118217722922588E-002
   1.7022251724914339E-002  -4.2277824458962776E-003   4.8870831430091410E-002
   1.5090122057769106E-002  -3.6826730713700462E-003   4.8756604347946930E-002
   1.3157992390623902E-002  -3.2480467583525796E-003   4.8897742148116208E-002
   1.1225862723478669E-002  -2.9239035068447175E-003   4.9294244830599021E-002
   9.2937330563334641E-003  -2.7102433168456619E-003   4.9946112395395814E-002
   1.4550745382919561E-002  -3.6490699440152596E-003   5.2802463139034028E-002
   1.2872502065913116E-002  -3.1843485718042186E-003   5.2702015482567588E-002
   1.1194258748906644E-002  -2.8311727514200857E-003   5.2853975644065188E-002
   9.5160154319001641E-003  -2.5895424828633329E-003   5.3258343623526522E-002
   7.8377721148937263E-003  -2.4594577661324335E-003   5.3915119420951452E-002
   1.2205511305446032E-002  -3.0703574421342417E-003   5.6654238090820069E-002
   1.0778197274228379E-002  -2.6860240722385575E-003   5.6566507369714247E-002
   9.3508832430106853E-003  -2.4142987444875780E-003   5.6728227402222262E-002
   7.9235692117930329E-003  -2.2551814588812787E-003   5.7139398188344119E-002
   6.4962551805753388E-003  -2.2086722154194827E-003   5.7800019728079993E-002
   9.9865494924937445E-003  -2.4916449402532237E-003   6.0426156285449305E-002
   8.8072076827149012E-003  -2.1876995726729243E-003   6.0350080009386492E-002
   7.6278658729360890E-003  -1.9974247375551882E-003   6.0520497422587402E-002
   6.4485240631572353E-003  -1.9208204348996703E-003   6.0937408525052049E-002
   5.2691822533784058E-003  -1.9578866647062820E-003   6.1600813316780891E-002
   7.8938599440626922E-003  -1.9129324383722057E-003   6.4118217722922588E-002
   6.9595332913727215E-003  -1.6893750731071244E-003   6.4052733401584572E-002
   6.0252066386827785E-003  -1.5805507306224098E-003   6.4230785705160554E-002
   5.0908799859928147E-003  -1.5864594109177982E-003   6.4652374633650450E-002
   4.1565533333028648E-003  -1.7071011139933034E-003   6.5317500187054178E-002
   9.2937330563334641E-003  -2.7102433168456619E-003   4.9946112395395814E-002
   7.8700644327742708E-003  -2.8558017525180390E-003   5.0353117366001676E-002
   6.4463958092150775E-003  -3.6093143780241144E-003   5.1086838441531279E-002
   5.0227271856558842E-003  -4.9707811933638255E-003   5.2147275621984374E-002
   3.5990585620967463E-003  -6.9402021985371931E-003   5.3534428907360709E-002
   7.8377721148937263E-003  -2.4594577661324335E-003   5.3915119420951452E-002
   6.7149962769047083E-003  -2.6421091581955714E-003   5.3849804651528943E-002
   5.5922204389157321E-003  -3.3386872160185432E-003   5.4059559348323377E-002
   4.4694446009267558E-003  -4.5491919396012798E-003   5.4544383511334713E-002
   3.3466687629377379E-003  -6.2736233289443222E-003   5.5304277140562852E-002
   6.4962551805753388E-003  -2.2086722154194827E-003   5.7800019728079993E-002
   5.6227254894500450E-003  -2.4284165638729649E-003   5.7356412742702395E-002
   4.7491957983247027E-003  -3.0680600540128750E-003   5.7136228584835261E-002
   3.8756661071993603E-003  -4.1276026858389596E-003   5.7139467254478417E-002
   3.0021364160740666E-003  -5.6070444593514512E-003   5.7366128751632217E-002
   5.2691822533784058E-003  -1.9578866647062820E-003   6.1600813316780891E-002
   4.5932520704102288E-003  -2.2147239695505944E-003   6.0872941639521949E-002
   3.9173218874420501E-003  -2.7974328920074773E-003   6.0316846151066986E-002
   3.2413917044738644E-003  -3.7060134320766377E-003   5.9932526851416014E-002
   2.5654615215056666E-003  -4.9404655897586913E-003   5.9719983740568694E-002
   4.1565533333028648E-003  -1.7071011139933034E-003   6.5317500187054178E-002
   3.6265760197852770E-003  -2.0010313752278908E-003   6.4399391341987688E-002
   3.0965987062677169E-003  -2.5268057300016911E-003   6.3601412047018802E-002
   2.5666213927501499E-003  -3.2844241783139966E-003   6.2923562302147185E-002
   2.0366440792325691E-003  -4.2738867201657094E-003   6.2365842107372949E-002
   3.5990585620967463E-003  -6.9402021985371931E-003   5.3534428907360709E-002
   4.1518777826617115E-003  -9.5315499648651603E-003   5.1861980237365546E-002
   4.7046970032266489E-003  -1.2758797063669003E-002   5.0043825335522873E-002
   5.2575162237915862E-003  -1.6621943494948360E-002   4.8079964201832137E-002
   5.8103354443564958E-003  -2.1120989258703204E-002   4.5970396836293670E-002
   3.3466687629377379E-003  -6.2736233289443222E-003   5.5304277140562852E-002
   3.7712531725499210E-003  -8.5425937944538233E-003   5.2951631934233856E-002
   4.1958375821620764E-003  -1.1386715746537185E-002   5.0488223337847082E-002
   4.6204219917741901E-003  -1.4805989185193359E-002   4.7914051351402670E-002
   5.0450064013864426E-003  -1.8800414110422992E-002   4.5229115974900314E-002
   3.0021364160740666E-003  -5.6070444593514512E-003   5.7366128751632217E-002
   3.3334288565236778E-003  -7.5536376240423753E-003   5.4394034854871154E-002
   3.6647212969732959E-003  -1.0014634429405145E-002   5.1346120409842544E-002
   3.9960137374229418E-003  -1.2990034875438469E-002   4.8222385416547248E-002
   4.3273061778725253E-003  -1.6479838962143223E-002   4.5022829874983294E-002
   2.5654615215056666E-003  -4.9404655897586913E-003   5.9719983740568694E-002
   2.8384048345830287E-003  -6.5646814536312048E-003   5.6189188999278085E-002
   3.1113481476603786E-003  -8.6425531122728827E-003   5.2617516551510521E-002
   3.3842914607377355E-003  -1.1174080565683857E-002   4.9004966397265155E-002
   3.6572347738150907E-003  -1.4159263813863121E-002   4.5351538536543556E-002
   2.0366440792325691E-003  -4.2738867201657094E-003   6.2365842107372949E-002
   2.2861811067279303E-003  -5.5757252832198123E-003   5.8337094367454490E-002
   2.5357181342232776E-003  -7.2704717951413422E-003   5.4302411762849778E-002
   2.7852551617186319E-003  -9.3581262559285922E-003   5.0261794293558149E-002
   3.0347921892139862E-003  -1.1838688665583241E-002   4.6215241959579156E-002
   2.5683354890691207E-002  -3.7785006972399504E-003   6.4074613817633685E-002
   2.4706116307345954E-002  -4.9079584888985783E-003   6.3694736988850253E-002
   2.3728877724000716E-002  -5.6879415533707123E-003   6.3502641578957575E-002
   2.2751639140655470E-002  -6.1184498906562274E-003   6.3498327587955455E-002
   2.1774400557310239E-002  -6.1994835007554983E-003   6.3681795015844256E-002
   1.9150902960035257E-002  -3.3996521923511103E-003   6.3228316737027834E-002
   1.8376286932891506E-002  -3.9395873858074637E-003   6.3162012156600306E-002
   1.7601670905747747E-002  -4.3149771199711556E-003   6.3313171269685248E-002
   1.6827054878603979E-002  -4.5258213948422034E-003   6.3681794076282119E-002
   1.6052438851460224E-002  -4.5721202104205827E-003   6.4267880576391295E-002
   1.2660172047185080E-002  -3.0208036874623256E-003   6.3064006888571111E-002
   1.2117860850864241E-002  -2.9712162827163768E-003   6.3126345288605848E-002
   1.1575549654543407E-002  -2.9420126865716267E-003   6.3435829656774328E-002
   1.1033238458222556E-002  -2.9331928990280406E-003   6.3992459993076442E-002
   1.0490927261901727E-002  -2.9447569200856671E-003   6.4796236297512133E-002
   6.2111621521407246E-003  -2.6419551825735410E-003   6.3581684272263725E-002
   5.9308380612642184E-003  -2.0028451796252345E-003   6.3587736384866783E-002
   5.6505139703877235E-003  -1.5690482531721117E-003   6.3870616740225178E-002
   5.3701898795112252E-003  -1.3405644032138640E-003   6.4430325338338340E-002
   5.0898657886347346E-003  -1.3173936297506961E-003   6.5266862179206811E-002
  -1.9612672509788931E-004  -2.2631066776847009E-003   6.4781348888105272E-002
  -1.8478143590860974E-004  -1.0344740765342031E-003   6.4546185445383097E-002
  -1.7343614671931976E-004  -1.9608381977254119E-004   6.4617532520037380E-002
  -1.6209085753003498E-004   2.5206409260022933E-004   6.4995390112068091E-002
  -1.5074556834075020E-004   3.0996966058416398E-004   6.5679758221475426E-002
   2.1774400557310239E-002  -6.1994835007554983E-003   6.3681795015844256E-002
   2.1091539403677917E-002  -6.0858106560404135E-003   6.2971321992031204E-002
   2.0408678250045581E-002  -5.9321996288837497E-003   6.2512289955852229E-002
   1.9725817096413259E-002  -5.7386504192851323E-003   6.2304698907307332E-002
   1.9042955942780923E-002  -5.5051630272450192E-003   6.2348548846396679E-002
   1.6052438851460224E-002  -4.5721202104205827E-003   6.4267880576391295E-002
   1.5603028110310849E-002  -4.5164122862401540E-003   6.3739570195051901E-002
   1.5153617369161487E-002  -4.4212363418349304E-003   6.3426719651044239E-002
   1.4704206628012122E-002  -4.2865923772047003E-003   6.3329328944368407E-002
   1.4254795886862751E-002  -4.1124803923495157E-003   6.3447398075024447E-002
   1.0490927261901727E-002  -2.9447569200856671E-003   6.4796236297512133E-002
   1.0238985782932981E-002  -2.9470139164398113E-003   6.4449618396429528E-002
   9.9870443039642570E-003  -2.9102730547858890E-003   6.4282479182376451E-002
   9.7351028249955292E-003  -2.8345343351241017E-003   6.4294818655352720E-002
   9.4831613460267979E-003  -2.7197977574542342E-003   6.4486636815358628E-002
   5.0898657886347346E-003  -1.3173936297506961E-003   6.5266862179206811E-002
   4.9994124215443098E-003  -1.3776155466395101E-003   6.5101466596164212E-002
   4.9089590544538946E-003  -1.3993097677371252E-003   6.5079568549848699E-002
   4.8185056873634811E-003  -1.3824762930435587E-003   6.5201168040260382E-002
   4.7280523202730624E-003  -1.3271151225588418E-003   6.5466265067399193E-002
  -1.5074556834075020E-004   3.0996966058416398E-004   6.5679758221475426E-002
  -1.1569197385517122E-004   1.9178282316081874E-004   6.5695114794255827E-002
  -8.0638379369592228E-005   1.1165351931187451E-004   6.5817987753461066E-002
  -4.5584784884012373E-005   6.9581749037043311E-005   6.6048377099091130E-002
  -1.0531190398434254E-005   6.5567512336495160E-005   6.6386282831146115E-002
   1.9042955942780923E-002  -5.5051630272450192E-003   6.2348548846396679E-002
   1.8094289944517408E-002  -5.2388032253460060E-003   6.2027971370169133E-002
   1.7145623946253886E-002  -4.9466367861712157E-003   6.1948841926939197E-002
   1.6196957947990368E-002  -4.6286637097208913E-003   6.2111160516706648E-002
   1.5248291949726850E-002  -4.2848839959946927E-003   6.2514927139471821E-002
   1.4254795886862751E-002  -4.1124803923495157E-003   6.3447398075024447E-002
   1.3546389567268426E-002  -3.9101709268275497E-003   6.3163524548743105E-002
   1.2837983247674115E-002  -3.6909345201964205E-003   6.3118722346802617E-002
   1.2129576928079804E-002  -3.4547711724561558E-003   6.3312991469203161E-002
   1.1421170608485479E-002  -3.2016808836072275E-003   6.3746331915944310E-002
   9.4831613460267979E-003  -2.7197977574542342E-003   6.4486636815358628E-002
   9.0126379964449721E-003  -2.5815386283091352E-003   6.4230587542856932E-002
   8.5421146468631342E-003  -2.4352322542216948E-003   6.4211232886039346E-002
   8.0715912972813102E-003  -2.2808786351919234E-003   6.4428572844905940E-002
   7.6010679476994705E-003  -2.1184777712197067E-003   6.4882607419456506E-002
   4.7280523202730624E-003  -1.3271151225588418E-003   6.5466265067399193E-002
   4.4930352320470077E-003  -1.2529063297908385E-003   6.5229160352510307E-002
   4.2580181438209592E-003  -1.1795299882468788E-003   6.5226373544648886E-002
   4.0230010555949046E-003  -1.1069860979274950E-003   6.5457904643814971E-002
   3.7879839673688499E-003  -1.0352746588321582E-003   6.5923753650008271E-002
  -1.0531190398434254E-005   6.5567512336495160E-005   6.6386282831146115E-002
  -1.2418725925427559E-005   7.5725968727735626E-005   6.6159242977703481E-002
  -1.4306261452420865E-005   7.6172277727895588E-005   6.6164144322631596E-002
  -1.6193796979414171E-005   6.6906439337006268E-005   6.6400986865930448E-002
  -1.8081332506407477E-005   4.7928453555168282E-005   6.6869770607599910E-002
   1.5248291949726850E-002  -4.2848839959946927E-003   6.2514927139471821E-002
   1.4385954339249038E-002  -3.9385132883141827E-003   6.2371241800102617E-002
   1.3523616728771212E-002  -3.6127672300006464E-003   6.2422617850412032E-002
   1.2661279118293386E-002  -3.3076458210539311E-003   6.2669055290400094E-002
   1.1798941507815575E-002  -3.0231490614743839E-003   6.3110554120066831E-002
   1.1421170608485479E-002  -3.2016808836072275E-003   6.3746331915944310E-002
   1.0759097292262362E-002  -2.9471803185129042E-003   6.3597502642613685E-002
   1.0097023976039253E-002  -2.7067861420378286E-003   6.3654140568113637E-002
   9.4349506598161367E-003  -2.4804983541814145E-003   6.3916245692444529E-002
   8.7728773435930413E-003  -2.2683169549441162E-003   6.4383818015606109E-002
   7.6010679476994705E-003  -2.1184777712197067E-003   6.4882607419456506E-002
   7.1496647348832411E-003  -1.9558473487118477E-003   6.4735152472912214E-002
   6.6982615220670047E-003  -1.8008050540747889E-003   6.4803570534351013E-002
   6.2468583092507822E-003  -1.6533508873088978E-003   6.5087861603772681E-002
   5.7954550964345389E-003  -1.5134848484136820E-003   6.5588025681177192E-002
   3.7879839673688499E-003  -1.0352746588321582E-003   6.5923753650008271E-002
   3.5576566671116560E-003  -9.6451437891045821E-004   6.5784191290998578E-002
   3.3273293668544595E-003  -8.9482396611202664E-004   6.5870907749123991E-002
   3.0970020665972630E-003  -8.2620342043599262E-004   6.6183903024384663E-002
   2.8666747663400691E-003  -7.5865274188333109E-004   6.6723177116780191E-002
  -1.8081332506407477E-005   4.7928453555168282E-005   6.6869770607599910E-002
  -1.6926911052397159E-005   2.6818590890431704E-005   6.6744619096872682E-002
  -1.5772489598386841E-005   1.1157121850874363E-005   6.6856152212432851E-002
  -1.4618068144379992E-005   9.4404643611462058E-007   6.7204369954280113E-002
  -1.3463646690366204E-005  -3.8206353529801618E-006   6.7789272322414829E-002
   1.1798941507815575E-002  -3.0231490614743839E-003   6.3110554120066831E-002
   1.0822671116877347E-002  -2.7481221963587266E-003   6.2979658130811744E-002
   9.8464007259391195E-003  -2.4714104708029316E-003   6.3103970068202619E-002
   8.8701303350009197E-003  -2.1930138848075056E-003   6.3483489932239706E-002
   7.8938599440626922E-003  -1.9129324383722057E-003   6.4118217722922588E-002
   8.7728773435930413E-003  -2.2683169549441162E-003   6.4383818015606109E-002
   8.0493989320739173E-003  -2.0624457000957830E-003   6.4300733476328420E-002
   7.3259205205548003E-003  -1.8550883454068745E-003   6.4468024969242893E-002
   6.6024421090356798E-003  -1.6462448908772381E-003   6.4885692494349681E-002
   5.8789636975165732E-003  -1.4359153365066657E-003   6.5553736051648437E-002
   5.7954550964345389E-003  -1.5134848484136820E-003   6.5588025681177192E-002
   5.3199367698806704E-003  -1.3767692038333113E-003   6.5552553831277921E-002
   4.8444184433268055E-003  -1.2387662200109145E-003   6.5762626119116971E-002
   4.3689001167729440E-003  -1.0994758969468561E-003   6.6218242544694328E-002
   3.8933817902190859E-003  -9.5889823464090362E-004   6.6919403108010089E-002
   2.8666747663400691E-003  -7.5865274188333109E-004   6.6723177116780191E-002
   2.6342846302976064E-003  -6.9109270757043706E-004   6.6735119195660289E-002
   2.4018944942551393E-003  -6.2244409461518352E-004   6.6987773517824881E-002
   2.1695043582126783E-003  -5.5270690301664240E-004   6.7481140083273966E-002
   1.9371142221702095E-003  -4.8188113277514155E-004   6.8215218892007531E-002
  -1.3463646690366204E-005  -3.8206353529801618E-006   6.7789272322414829E-002
  -7.5574866752747827E-006  -5.4162113081179797E-006   6.7848429569475399E-002
  -1.6513266601868304E-006  -6.1219692188418939E-006   6.8143467165366678E-002
   4.2548333549028566E-006  -5.9379090863037609E-006   6.8674385110088471E-002
   1.0160993369992544E-005  -4.8640309094905021E-006   6.9441183403640916E-002
   7.8938599440626922E-003  -1.9129324383722057E-003   6.4118217722922588E-002
   6.9595332913727215E-003  -1.6893750731071244E-003   6.4052733401584572E-002
   6.0252066386827785E-003  -1.5805507306224098E-003   6.4230785705160554E-002
   5.0908799859928147E-003  -1.5864594109177982E-003   6.4652374633650450E-002
   4.1565533333028648E-003  -1.7071011139933034E-003   6.5317500187054178E-002
   5.8789636975165732E-003  -1.4359153365066657E-003   6.5553736051648437E-002
   5.1854916841271789E-003  -1.2678880714778185E-003   6.5414472233293552E-002
   4.4920196707378124E-003  -1.1859514849731356E-003   6.5513381068626114E-002
   3.7985476573484320E-003  -1.1901055769925339E-003   6.5850462557645831E-002
   3.1050756439590516E-003  -1.2803503475362632E-003   6.6425716700352910E-002
   3.8933817902190859E-003  -9.5889823464090362E-004   6.6919403108010089E-002
   3.4354004449036399E-003  -8.4640106984815167E-004   6.6735002136894261E-002
   2.9774190995882147E-003  -7.9135223932372267E-004   6.6783409848239439E-002
   2.5194377542727842E-003  -7.9375174306726276E-004   6.7064626242045039E-002
   2.0614564089573573E-003  -8.5359958107922296E-004   6.7578651318311422E-002
   1.9371142221702095E-003  -4.8188113277514155E-004   6.8215218892007531E-002
   1.7092595737021009E-003  -4.2491406821872080E-004   6.8014323112387004E-002
   1.4814049252339870E-003  -3.9675299367421257E-004   6.8040872044000472E-002
   1.2535502767658650E-003  -3.9739790914205056E-004   6.8294865686848144E-002
   1.0256956282977507E-003  -4.2684881462212720E-004   6.8776304040929395E-002
   1.0160993369992544E-005  -4.8640309094905021E-006   6.9441183403640916E-002
   7.0690705225653905E-006  -3.4270665890678842E-006   6.9252435159771530E-002
   3.9771476751208901E-006  -2.1537480249800289E-006   6.9285767655909491E-002
   8.8522482769026745E-007  -1.0440752169355028E-006   6.9541180892054744E-002
  -2.2066980197507635E-006  -9.8048165253494801E-008   7.0018674868207342E-002
   4.1565533333028648E-003  -1.7071011139933034E-003   6.5317500187054178E-002
   3.6265760197852770E-003  -2.0010313752278908E-003   6.4399391341987688E-002
   3.0965987062677169E-003  -2.5268057300016911E-003   6.3601412047018802E-002
   2.5666213927501499E-003  -3.2844241783139966E-003   6.2923562302147185E-002
   2.0366440792325691E-003  -4.2738867201657094E-003   6.2365842107372949E-002
   3.1050756439590516E-003  -1.2803503475362632E-003   6.6425716700352910E-002
   2.6983679253036741E-003  -1.5006191552389136E-003   6.5315705609726993E-002
   2.2916602066482966E-003  -1.8948453587356862E-003   6.4332104158728032E-002
   1.8849524879929261E-003  -2.4630289580268999E-003   6.3474912347356111E-002
   1.4782447693375417E-003  -3.2051699531123745E-003   6.2744130175611201E-002
   2.0614564089573573E-003  -8.5359958107922296E-004   6.7578651318311422E-002
   1.7842983746938594E-003  -1.0002069352498255E-003   6.6334624679870557E-002
   1.5071403404303581E-003  -1.2628849874699866E-003   6.5223287770586447E-002
   1.2299823061668585E-003  -1.6416337377395743E-003   6.4244640590459048E-002
   9.5282427190335889E-004  -2.1364531860585956E-003   6.3398683139488377E-002
   1.0256956282977507E-003  -4.2684881462212720E-004   6.8776304040929395E-002
   8.8436736795581908E-004  -4.9979471526095942E-004   6.7456148552418452E-002
   7.4303910761389005E-004  -6.3092461620424534E-004   6.6274962882593963E-002
   6.0171084727195972E-004  -8.2023851745191903E-004   6.5232747031455846E-002
   4.6038258693002938E-004  -1.0677364190051497E-003   6.4329500999004210E-002
  -2.2066980197507635E-006  -9.8048165253494801E-008   7.0018674868207342E-002
  -1.4250949104260835E-006   6.1750472829524838E-007   6.8680277227371023E-002
  -6.4349180110834237E-007   1.0357550619122247E-006   6.7487129494750664E-002
   1.3811130821113349E-007   1.1567028349521169E-006   6.6439231670346460E-002
   9.1971441753407879E-007   9.8034804851820923E-007   6.5536583754158606E-002
   2.0366440792325691E-003  -4.2738867201657094E-003   6.2365842107372949E-002
   2.2861811067279303E-003  -5.5757252832198123E-003   5.8337094367454490E-002
   2.5357181342232776E-003  -7.2704717951413422E-003   5.4302411762849778E-002
   2.7852551617186319E-003  -9.3581262559285922E-003   5.0261794293558149E-002
   3.0347921892139862E-003  -1.1838688665583241E-002   4.6215241959579156E-002
   1.4782447693375417E-003  -3.2051699531123745E-003   6.2744130175611201E-002
   1.7077018961888235E-003  -4.1815868837678516E-003   5.8390465000089875E-002
   1.9371590230401192E-003  -5.4525982897707936E-003   5.4002574887967392E-002
   2.1666161498914011E-003  -7.0182041711205206E-003   4.9580459839243557E-002
   2.3960732767427106E-003  -8.8784045278171853E-003   4.5124119853918065E-002
   9.5282427190335889E-004  -2.1364531860585956E-003   6.3398683139488377E-002
   1.1339114261961873E-003  -2.7874484843158909E-003   5.8818414001883812E-002
   1.3149985804889984E-003  -3.6347247844006614E-003   5.4175629855763324E-002
   1.4960857347818077E-003  -4.6782820863124977E-003   4.9470330701127385E-002
   1.6771728890746379E-003  -5.9181203900515733E-003   4.4702516537975523E-002
   4.6038258693002938E-004  -1.0677364190051497E-003   6.4329500999004210E-002
   5.6480969674997054E-004  -1.3933100848641522E-003   5.9620941372835676E-002
   6.6923680656992470E-004  -1.8168512790302099E-003   5.4821576666236722E-002
   7.7366391638988537E-004  -2.3383600015044505E-003   4.9931406879208370E-002
   8.7809102620982002E-004  -2.9578362522856283E-003   4.4950432011749614E-002
   9.1971441753407879E-007   9.8034804851820923E-007   6.5536583754158606E-002
   3.9670785021567179E-007   8.2831458814158765E-007   6.0798047112945897E-002
  -1.2629871710273521E-007   1.0222263399084497E-006   5.5940415319388870E-002
  -6.4930528440899915E-007   1.5620833035689952E-006   5.0963688373487692E-002
  -1.1723118517326103E-006   2.4478854800946692E-006   4.5867866275241198E-002
  -1.9612672509788931E-004  -2.2631066776847009E-003   6.4781348888105272E-002
  -1.8478143590860974E-004  -1.0344740765342031E-003   6.4546185445383097E-002
  -1.7343614671931976E-004  -1.9608381977254119E-004   6.4617532520037380E-002
  -1.6209085753003498E-004   2.5206409260022933E-004   6.4995390112068091E-002
  -1.5074556834075020E-004   3.0996966058416398E-004   6.5679758221475426E-002
  -6.5633938695552965E-003   4.9417168251852939E-004   6.5269414891534733E-002
  -6.2630628208340498E-003   1.1534763098678402E-003   6.4747445936883391E-002
  -5.9627317721128292E-003   1.5878168779235036E-003   6.4496937983919436E-002
  -5.6624007233915946E-003   1.7971933866856235E-003   6.4517891032642855E-002
  -5.3620696746703687E-003   1.7816058361541653E-003   6.4810305083053743E-002
  -1.2892338566256035E-002   3.2514500427217874E-003   6.5105513778615565E-002
  -1.2338071273691985E-002   3.3414266962698697E-003   6.4462017597130300E-002
  -1.1783803981127917E-002   3.3717175756196038E-003   6.4054932901643380E-002
  -1.1229536688563860E-002   3.3423226807710454E-003   6.3884259692154596E-002
  -1.0675269395999804E-002   3.2532420117241112E-003   6.3949997968664254E-002
  -1.9182960815200188E-002   6.0087284029250454E-003   6.4289645549347310E-002
  -1.8409806794482383E-002   5.5293770826719060E-003   6.3689900426123380E-002
  -1.7636652773764604E-002   5.1556182733157319E-003   6.3291517273208794E-002
  -1.6863498753046810E-002   4.8874519748564257E-003   6.3094496090603303E-002
  -1.6090344732329027E-002   4.7248781872940848E-003   6.3098836878306974E-002
  -2.5435260616387671E-002   8.7660067631282756E-003   6.2821810203730344E-002
  -2.4478269383205270E-002   7.7173274690739146E-003   6.2431094423863076E-002
  -2.3521278150022865E-002   6.9395189710118321E-003   6.2206691098615985E-002
  -2.2564286916840474E-002   6.4325812689418407E-003   6.2148600227988904E-002
  -2.1607295683658070E-002   6.1965143628640584E-003   6.2256821811981888E-002
  -1.5074556834075020E-004   3.0996966058416398E-004   6.5679758221475426E-002
  -1.1569197385517122E-004   1.9178282316081874E-004   6.5695114794255827E-002
  -8.0638379369592228E-005   1.1165351931187451E-004   6.5817987753461066E-002
  -4.5584784884012373E-005   6.9581749037043311E-005   6.6048377099091130E-002
  -1.0531190398434254E-005   6.5567512336495160E-005   6.6386282831146115E-002
  -5.3620696746703687E-003   1.7816058361541653E-003   6.4810305083053743E-002
  -5.2074308175552846E-003   1.6624613343723393E-003   6.4763808762222458E-002
  -5.0527919604401918E-003   1.5611669893830921E-003   6.4848966580225528E-002
  -4.8981531033251025E-003   1.4777228011867462E-003   6.5065778537062746E-002
  -4.7435142462100149E-003   1.4121287697830276E-003   6.5414244632734098E-002
  -1.0675269395999804E-002   3.2532420117241112E-003   6.3949997968664254E-002
  -1.0376907523845850E-002   3.1331398455836240E-003   6.3821441377439864E-002
  -1.0078545651691900E-002   3.0106804594543582E-003   6.3848676677459054E-002
  -9.7801837795379529E-003   2.8858638533363363E-003   6.4031703868721715E-002
  -9.4818219073839957E-003   2.7586900272294768E-003   6.4370522951228012E-002
  -1.6090344732329027E-002   4.7248781872940848E-003   6.3098836878306974E-002
  -1.5624122092726862E-002   4.6038183567950267E-003   6.2868012639907891E-002
  -1.5157899453124684E-002   4.4601939295257943E-003   6.2817118045161768E-002
  -1.4691676813522521E-002   4.2940049054859828E-003   6.2946153094068411E-002
  -1.4225454173920356E-002   4.1052512846759120E-003   6.3255117786627957E-002
  -2.1607295683658070E-002   6.1965143628640584E-003   6.2256821811981888E-002
  -2.0949074524198336E-002   6.0744968680064293E-003   6.1903522549626555E-002
  -2.0290853364738584E-002   5.9097073995968974E-003   6.1754290683333490E-002
  -1.9632632205278853E-002   5.7021459576356431E-003   6.1809126213102666E-002
  -1.8974411045819102E-002   5.4518125421224584E-003   6.2068029138934111E-002
  -1.0531190398434254E-005   6.5567512336495160E-005   6.6386282831146115E-002
  -1.2418725925427559E-005   7.5725968727735626E-005   6.6159242977703481E-002
  -1.4306261452420865E-005   7.6172277727895588E-005   6.6164144322631596E-002
  -1.6193796979414171E-005   6.6906439337006268E-005   6.6400986865930448E-002
  -1.8081332506407477E-005   4.7928453555168282E-005   6.6869770607599910E-002
  -4.7435142462100149E-003   1.4121287697830276E-003   6.5414244632734098E-002
  -4.5125614329885565E-003   1.3511189021972458E-003   6.5173582336032987E-002
  -4.2816086197670928E-003   1.2814272054550990E-003   6.5166659538458210E-002
  -4.0506558065456300E-003   1.2030536795563651E-003   6.5393476240009574E-002
  -3.8197029933241707E-003   1.1159983245008775E-003   6.5854032440687216E-002
  -9.4818219073839957E-003   2.7586900272294768E-003   6.4370522951228012E-002
  -9.0162304446585705E-003   2.6265118356670336E-003   6.4117268529503002E-002
  -8.5506389819331452E-003   2.4866821331824066E-003   6.4099551907659563E-002
  -8.0850475192077199E-003   2.3392009197755557E-003   6.4317373085697904E-002
  -7.6194560564822929E-003   2.1840681954464203E-003   6.4770732063617942E-002
  -1.4225454173920356E-002   4.1052512846759120E-003   6.3255117786627957E-002
  -1.3523425760935463E-002   3.9019047691366548E-003   6.2990301558113318E-002
  -1.2821397347950573E-002   3.6919370609096620E-003   6.2962821430235696E-002
  -1.2119368934965692E-002   3.4753481599947749E-003   6.3172677402995342E-002
  -1.1417340521980800E-002   3.2521380663921018E-003   6.3619869476392144E-002
  -1.8974411045819102E-002   5.4518125421224584E-003   6.2068029138934111E-002
  -1.8034147381819243E-002   5.1772977026063594E-003   6.1792681421864004E-002
  -1.7093883717819381E-002   4.8971919886370008E-003   6.1756468106186652E-002
  -1.6153620053819526E-002   4.6114954002140704E-003   6.1959389191902026E-002
  -1.5213356389819660E-002   4.3202079373375613E-003   6.2401444679010099E-002
  -1.8081332506407477E-005   4.7928453555168282E-005   6.6869770607599910E-002
  -1.6926911052397159E-005   2.6818590890431704E-005   6.6744619096872682E-002
  -1.5772489598386841E-005   1.1157121850874363E-005   6.6856152212432851E-002
  -1.4618068144379992E-005   9.4404643611462058E-007   6.7204369954280113E-002
  -1.3463646690366204E-005  -3.8206353529801618E-006   6.7789272322414829E-002
  -3.8197029933241707E-003   1.1159983245008775E-003   6.5854032440687216E-002
  -3.5872946290943647E-003   1.0257496050572745E-003   6.5729190591110848E-002
  -3.3548862648645657E-003   9.3779598599480485E-004   6.5830172000799131E-002
  -3.1224779006347710E-003   8.5213746731259421E-004   6.6156976669751469E-002
  -2.8900695364049607E-003   7.6877404901115609E-004   6.6709604597968153E-002
  -7.6194560564822929E-003   2.1840681954464203E-003   6.4770732063617942E-002
  -7.1666551164997023E-003   2.0246806192243116E-003   6.4643046581948443E-002
  -6.7138541765171186E-003   1.8644348501384439E-003   6.4730322992520073E-002
  -6.2610532365345393E-003   1.7033308881888483E-003   6.5032561295332941E-002
  -5.8082522965519443E-003   1.5413687333754034E-003   6.5549761490387271E-002
  -1.1417340521980800E-002   3.2521380663921018E-003   6.3619869476392144E-002
  -1.0755008373268421E-002   3.0236116333912516E-003   6.3486187069384845E-002
  -1.0092676224556046E-002   2.7910737142821732E-003   6.3556605187595622E-002
  -9.4303440758436805E-003   2.5545243090651596E-003   6.3831123831024753E-002
  -8.7680119271312962E-003   2.3139634177396506E-003   6.4309742999672292E-002
  -1.5213356389819660E-002   4.3202079373375613E-003   6.2401444679010099E-002
  -1.4352354399400497E-002   4.0225426475580806E-003   6.2258612053420370E-002
  -1.3491352408981347E-002   3.7177125784260134E-003   6.2309018586025888E-002
  -1.2630350418562190E-002   3.4057177299413599E-003   6.2552664276826819E-002
  -1.1769348428143034E-002   3.0865581021038979E-003   6.2989549125822886E-002
  -1.3463646690366204E-005  -3.8206353529801618E-006   6.7789272322414829E-002
  -7.5574866752747827E-006  -5.4162113081179797E-006   6.7848429569475399E-002
  -1.6513266601868304E-006  -6.1219692188418939E-006   6.8143467165366678E-002
   4.2548333549028566E-006  -5.9379090863037609E-006   6.8674385110088471E-002
   1.0160993369992544E-005  -4.8640309094905021E-006   6.9441183403640916E-002
  -2.8900695364049607E-003   7.6877404901115609E-004   6.6709604597968153E-002
  -2.6471250618614953E-003   6.8853935286261603E-004   6.6730769021278613E-002
  -2.4041805873180229E-003   6.1226700063914119E-004   6.6990129724815134E-002
  -2.1612361127745540E-003   5.3995699234045055E-004   6.7487686708577632E-002
  -1.9182916382310851E-003   4.7160932796697086E-004   6.8223439972566524E-002
  -5.8082522965519443E-003   1.5413687333754034E-003   6.5549761490387271E-002
  -5.3259535760845824E-003   1.3824949170331280E-003   6.5536005615828744E-002
  -4.8436548556172205E-003   1.2306559704971243E-003   6.5762761952891546E-002
  -4.3613561351498586E-003   1.0858518937671494E-003   6.6230030501576220E-002
  -3.8790574146824828E-003   9.4808268684315467E-004   6.6937811261882391E-002
  -8.7680119271312962E-003   2.3139634177396506E-003   6.4309742999672292E-002
  -8.0440430293445241E-003   2.0764504812039175E-003   6.4264139353125443E-002
  -7.3200741315577614E-003   1.8490449403551074E-003   6.4461363849596220E-002
  -6.5961052337709892E-003   1.6317467951937094E-003   6.4901416489083819E-002
  -5.8721363359842248E-003   1.4245560457196993E-003   6.5584297271588654E-002
  -1.1769348428143034E-002   3.0865581021038979E-003   6.2989549125822886E-002
  -1.0801393421641332E-002   2.7704060453744850E-003   6.2915170233169393E-002
  -9.8334384151396587E-003   2.4674339102130627E-003   6.3085935414928684E-002
  -8.8654834086379850E-003   2.1776416966205400E-003   6.3501844671100593E-002
  -7.8975284021362904E-003   1.9010294045959109E-003   6.4162898001685176E-002
   1.0160993369992544E-005  -4.8640309094905021E-006   6.9441183403640916E-002
   7.0690705225653905E-006  -3.4270665890678842E-006   6.9252435159771530E-002
   3.9771476751208901E-006  -2.1537480249800289E-006   6.9285767655909491E-002
   8.8522482769026745E-007  -1.0440752169355028E-006   6.9541180892054744E-002
  -2.2066980197507635E-006  -9.8048165253494801E-008   7.0018674868207342E-002
  -1.9182916382310851E-003   4.7160932796697086E-004   6.8223439972566524E-002
  -1.6961635297761297E-003   4.1907963548304394E-004   6.8019272852191004E-002
  -1.4740354213211883E-003   3.9422354285351124E-004   6.8043465054412666E-002
  -1.2519073128662390E-003   3.9704105007855317E-004   6.8296016579231900E-002
  -1.0297792044113054E-003   4.2753215715785053E-004   6.8776927426648371E-002
  -3.8790574146824828E-003   9.4808268684315467E-004   6.6937811261882391E-002
  -3.4254306923351130E-003   8.4158633755487822E-004   6.6746062510611326E-002
  -2.9718039699877389E-003   7.9060083373186374E-004   6.6788951664527502E-002
  -2.5181772476403734E-003   7.9512617537403490E-004   6.7066478723631251E-002
  -2.0645505252929949E-003   8.5516236248123212E-004   6.7578643687922463E-002
  -5.8721363359842248E-003   1.4245560457196993E-003   6.5584297271588654E-002
  -5.1807324171543878E-003   1.2640930396272398E-003   6.5432804135032788E-002
  -4.4893284983245647E-003   1.1869781246103966E-003   6.5522227486254303E-002
  -3.7979245794947172E-003   1.1932113006696311E-003   6.5852567325253325E-002
  -3.1065206606649045E-003   1.2827925678045304E-003   6.6423823652029923E-002
  -7.8975284021362904E-003   1.9010294045959109E-003   6.4162898001685176E-002
  -6.9620687042339577E-003   1.6865997416989353E-003   6.4079497725455070E-002
  -6.0266090063316180E-003   1.5833554154886520E-003   6.4243292519592654E-002
  -5.0911493084292887E-003   1.5912964259649914E-003   6.4654282384097650E-002
  -4.1556896105269456E-003   1.7104227731277177E-003   6.5312467318970335E-002
  -2.2066980197507635E-006  -9.8048165253494801E-008   7.0018674868207342E-002
  -1.4250949104260835E-006   6.1750472829524838E-007   6.8680277227371023E-002
  -6.4349180110834237E-007   1.0357550619122247E-006   6.7487129494750664E-002
   1.3811130821113349E-007   1.1567028349521169E-006   6.6439231670346460E-002
   9.1971441753407879E-007   9.8034804851820923E-007   6.5536583754158606E-002
  -1.0297792044113054E-003   4.2753215715785053E-004   6.8776927426648371E-002
  -8.8702216743706194E-004   5.0090401840618970E-004   6.7456951799932108E-002
  -7.4426513046282373E-004   6.3236378813699701E-004   6.6275677132729333E-002
  -6.0150809348859940E-004   8.2191146635004347E-004   6.5233103425040392E-002
  -4.5875105651435599E-004   1.0695470530459605E-003   6.4329230676864912E-002
  -2.0645505252929949E-003   8.5516236248123212E-004   6.7578643687922463E-002
  -1.7863670031562310E-003   1.0011905320838344E-003   6.6335475286368517E-002
  -1.5081834810194671E-003   1.2636918212117626E-003   6.5224458895626239E-002
  -1.2299999588827027E-003   1.6426662298650273E-003   6.4245594515695226E-002
  -9.5181643674593919E-004   2.1381137580434029E-003   6.3398882146575519E-002
  -3.1065206606649045E-003   1.2827925678045304E-003   6.6423823652029923E-002
  -2.6994596020679671E-003   1.5014770457614929E-003   6.5315847686681361E-002
  -2.2923985434710288E-003   1.8950198542866878E-003   6.4333474783441827E-002
  -1.8853374848740874E-003   2.4634209933799538E-003   6.3476704942311543E-002
  -1.4782764262771531E-003   3.2066804630408452E-003   6.2745538163289927E-002
  -4.1556896105269456E-003   1.7104227731277177E-003   6.5312467318970335E-002
  -3.6262999641722207E-003   2.0017635594394290E-003   6.4398069000869751E-002
  -3.0969103178175028E-003   2.5263478873616962E-003   6.3602724796176013E-002
  -2.5675206714627901E-003   3.2841757568950122E-003   6.2926434704888873E-002
  -2.0381310251080600E-003   4.2752471680381765E-003   6.2369198727008190E-002
   9.1971441753407879E-007   9.8034804851820923E-007   6.5536583754158606E-002
   3.9670785021567179E-007   8.2831458814158765E-007   6.0798047112945897E-002
  -1.2629871710273521E-007   1.0222263399084497E-006   5.5940415319388870E-002
  -6.4930528440899915E-007   1.5620833035689952E-006   5.0963688373487692E-002
  -1.1723118517326103E-006   2.4478854800946692E-006   4.5867866275241198E-002
  -4.5875105651435599E-004   1.0695470530459605E-003   6.4329230676864912E-002
  -5.6415246891375337E-004   1.3953613676276344E-003   5.9620823919115606E-002
  -6.6955388131314728E-004   1.8194452294977570E-003   5.4821755502046543E-002
  -7.7495529371252817E-004   2.3417986386569736E-003   4.9932025425657667E-002
  -8.8035670611193856E-004   2.9624215951042920E-003   4.4951633689948922E-002
  -9.5181643674593919E-004   2.1381137580434029E-003   6.3398882146575519E-002
  -1.1336627619526092E-003   2.7898944206670717E-003   5.8818528874365505E-002
  -1.3155090871592775E-003   3.6378682326560496E-003   5.4175947435860877E-002
  -1.4973554123659306E-003   4.6820351940097676E-003   4.9471137831060955E-002
  -1.6792017375726158E-003   5.9223953047284894E-003   4.4704100059966945E-002
  -1.4782764262771531E-003   3.2066804630408452E-003   6.2745538163289927E-002
  -1.7081341712663440E-003   4.1844274737065368E-003   5.8391161978695753E-002
  -1.9379919162554999E-003   5.4562912358142313E-003   5.4002991120831553E-002
  -2.1678496612446761E-003   7.0222717493625339E-003   4.9581025589697632E-002
  -2.3977074062338467E-003   8.8823690143527978E-003   4.5125265385293128E-002
  -2.0381310251080600E-003   4.2752471680381765E-003   6.2369198727008190E-002
  -2.2875666968549327E-003   5.5789605267461129E-003   5.8338723232106648E-002
  -2.5370023686018088E-003   7.2747142389719965E-003   5.4302886556959418E-002
  -2.7864380403486710E-003   9.3625083047156957E-003   5.0261688701567303E-002
  -3.0358737120955576E-003   1.1842342723976884E-002   4.6215129665929666E-002
  -2.5435260616387671E-002   8.7660067631282756E-003   6.2821810203730344E-002
  -2.4478269383205270E-002   7.7173274690739146E-003   6.2431094423863076E-002
  -2.3521278150022865E-002   6.9395189710118321E-003   6.2206691098615985E-002
  -2.2564286916840474E-002   6.4325812689418407E-003   6.2148600227988904E-002
  -2.1607295683658070E-002   6.1965143628640584E-003   6.2256821811981888E-002
  -3.1683184308082910E-002   1.0007148601587357E-002   5.8814070425460968E-002
  -3.0548639919241800E-002   9.2546590895671299E-003   5.8620463103227688E-002
  -2.9414095530400718E-002   8.6621747522898640E-003   5.8615649637691988E-002
  -2.8279551141559601E-002   8.2296955897556423E-003   5.8799630028853515E-002
  -2.7145006752718501E-002   7.9572216019643260E-003   5.9172404276712498E-002
  -3.7960678228550274E-002   1.1248290440046382E-002   5.5157953239850066E-002
  -3.6626099281973225E-002   1.0791990710060248E-002   5.5050588754001789E-002
  -3.5291520335396093E-002   1.0384830533567965E-002   5.5154499526928219E-002
  -3.3956941388819009E-002   1.0026809910569413E-002   5.5469685558629363E-002
  -3.2622362442241926E-002   9.7179288410646492E-003   5.5996146849105033E-002
  -4.4267742377789875E-002   1.2489432278505408E-002   5.1853458646898158E-002
  -4.2710647471399452E-002   1.2329322330553540E-002   5.1721471376185421E-002
  -4.1153552565009084E-002   1.2107486314846143E-002   5.1823240766324927E-002
  -3.9596457658618668E-002   1.1823924231383226E-002   5.2158766817316259E-002
  -3.8039362752228315E-002   1.1478636080164945E-002   5.2728049529159479E-002
  -5.0604376755801539E-002   1.3730574116964489E-002   4.8900586646604738E-002
  -4.8802284487520581E-002   1.3866653951046581E-002   4.8633110969778626E-002
  -4.7000192219239609E-002   1.3830142096124140E-002   4.8621873355881834E-002
  -4.5198099950958630E-002   1.3621038552197023E-002   4.8866873804914238E-002
  -4.3396007682677665E-002   1.3239343319265184E-002   4.9368112316875823E-002
  -2.1607295683658070E-002   6.1965143628640584E-003   6.2256821811981888E-002
  -2.0949074524198336E-002   6.0744968680064293E-003   6.1903522549626555E-002
  -2.0290853364738584E-002   5.9097073995968974E-003   6.1754290683333490E-002
  -1.9632632205278853E-002   5.7021459576356431E-003   6.1809126213102666E-002
  -1.8974411045819102E-002   5.4518125421224584E-003   6.2068029138934111E-002
  -2.7145006752718501E-002   7.9572216019643260E-003   5.9172404276712498E-002
  -2.6288256717227773E-002   7.7468838991712335E-003   5.8834669584713603E-002
  -2.5431506681737027E-002   7.5008135916313362E-003   5.8689925248714470E-002
  -2.4574756646246271E-002   7.2190106793446444E-003   5.8738171268715056E-002
  -2.3718006610755550E-002   6.9014751623112103E-003   5.8979407644715515E-002
  -3.2622362442241926E-002   9.7179288410646492E-003   5.5996146849105033E-002
  -3.1578160570782693E-002   9.4192709303359545E-003   5.5681016096267744E-002
  -3.0533958699323478E-002   9.0919197836656085E-003   5.5547798659367653E-002
  -2.9489756827864248E-002   8.7358754010536457E-003   5.5596494538404845E-002
  -2.8445554956405023E-002   8.3511377825000177E-003   5.5827103733379124E-002
  -3.8039362752228315E-002   1.1478636080164945E-002   5.2728049529159479E-002
  -3.6818786084863123E-002   1.1091657961500745E-002   5.2442562084288769E-002
  -3.5598209417497910E-002   1.0683025975699992E-002   5.2327910915292937E-002
  -3.4377632750132690E-002   1.0252740122762730E-002   5.2384096022171714E-002
  -3.3157056082767505E-002   9.8008004026888251E-003   5.2611117404925196E-002
  -4.3396007682677665E-002   1.3239343319265184E-002   4.9368112316875823E-002
  -4.2010133259469021E-002   1.2764044992665480E-002   4.9119307548776941E-002
  -4.0624258836260342E-002   1.2274132167734292E-002   4.9030262016490300E-002
  -3.9238384413051677E-002   1.1769604844471697E-002   4.9100975720015871E-002
  -3.7852509989843020E-002   1.1250463022877633E-002   4.9331448659353627E-002
  -1.8974411045819102E-002   5.4518125421224584E-003   6.2068029138934111E-002
  -1.8034147381819243E-002   5.1772977026063594E-003   6.1792681421864004E-002
  -1.7093883717819381E-002   4.8971919886370008E-003   6.1756468106186652E-002
  -1.6153620053819526E-002   4.6114954002140704E-003   6.1959389191902026E-002
  -1.5213356389819660E-002   4.3202079373375613E-003   6.2401444679010099E-002
  -2.3718006610755550E-002   6.9014751623112103E-003   5.8979407644715515E-002
  -2.2546454458098164E-002   6.5618873286767965E-003   5.8705279782742842E-002
  -2.1374902305440792E-002   6.2139274665872213E-003   5.8654594496692483E-002
  -2.0203350152783420E-002   5.8575955760427900E-003   5.8827351786564626E-002
  -1.9031798000126034E-002   5.4928916570430308E-003   5.9223551652358819E-002
  -2.8445554956405023E-002   8.3511377825000177E-003   5.5827103733379124E-002
  -2.7058406140560549E-002   7.9464769547471642E-003   5.5551414572502372E-002
  -2.5671257324716031E-002   7.5306629445376777E-003   5.5483476162077550E-002
  -2.4284108508871527E-002   7.1036957518714021E-003   5.5623288502104747E-002
  -2.2896959693027040E-002   6.6655753767485559E-003   5.5970851592583692E-002
  -3.3157056082767505E-002   9.8008004026888251E-003   5.2611117404925196E-002
  -3.1570002429206309E-002   9.3310665808175944E-003   5.2331085791142776E-002
  -2.9982948775645096E-002   8.8473984224880162E-003   5.2243113102341796E-002
  -2.8395895122083910E-002   8.3497959277001790E-003   5.2347199338522332E-002
  -2.6808841468522686E-002   7.8382590964539423E-003   5.2643344499684414E-002
  -3.7852509989843020E-002   1.1250463022877633E-002   4.9331448659353627E-002
  -3.6081243324035506E-002   1.0715656206887941E-002   4.9044293438663900E-002
  -3.4309976658227992E-002   1.0164133900438369E-002   4.8933505317485193E-002
  -3.2538709992420485E-002   9.5958961035287928E-003   4.8999084295817660E-002
  -3.0767443326612964E-002   9.0109428161595506E-003   4.9241030373661121E-002
  -1.5213356389819660E-002   4.3202079373375613E-003   6.2401444679010099E-002
  -1.4352354399400497E-002   4.0225426475580806E-003   6.2258612053420370E-002
  -1.3491352408981347E-002   3.7177125784260134E-003   6.2309018586025888E-002
  -1.2630350418562190E-002   3.4057177299413599E-003   6.2552664276826819E-002
  -1.1769348428143034E-002   3.0865581021038979E-003   6.2989549125822886E-002
  -1.9031798000126034E-002   5.4928916570430308E-003   5.9223551652358819E-002
  -1.7977673759480131E-002   5.1218575353332574E-003   5.9028155458047210E-002
  -1.6923549518834260E-002   4.7465350366585612E-003   5.9025764605993708E-002
  -1.5869425278188368E-002   4.3669241610191645E-003   5.9216379096198424E-002
  -1.4815301037542489E-002   3.9830249084144009E-003   5.9599998928661246E-002
  -2.2896959693027040E-002   6.6655753767485559E-003   5.5970851592583692E-002
  -2.1649947018091538E-002   6.2211724231086563E-003   5.5725768231937672E-002
  -2.0402934343155987E-002   5.7753574948913311E-003   5.5673456397612786E-002
  -1.9155921668220423E-002   5.3281305920970246E-003   5.5813916089608964E-002
  -1.7908908993284935E-002   4.8794917147250705E-003   5.6147147307926248E-002
  -2.6808841468522686E-002   7.8382590964539423E-003   5.2643344499684414E-002
  -2.5369174175234637E-002   7.3204873108839441E-003   5.2351450375091771E-002
  -2.3929506881946571E-002   6.8041799531240454E-003   5.2252093960883192E-002
  -2.2489839588658522E-002   6.2893370231749124E-003   5.2345275257058579E-002
  -2.1050172295370460E-002   5.7759585210356568E-003   5.2630994263617871E-002
  -3.0767443326612964E-002   9.0109428161595506E-003   4.9241030373661121E-002
  -2.9135355230909474E-002   8.4198021986591765E-003   4.8905201887509520E-002
  -2.7503267135205983E-002   7.8330024113567043E-003   4.8761677295804828E-002
  -2.5871179039502486E-002   7.2505434542527586E-003   4.8810456598546964E-002
  -2.4239090943799002E-002   6.6724253273462431E-003   4.9051539795735954E-002
  -1.1769348428143034E-002   3.0865581021038979E-003   6.2989549125822886E-002
  -1.0801393421641332E-002   2.7704060453744850E-003   6.2915170233169393E-002
  -9.8334384151396587E-003   2.4674339102130627E-003   6.3085935414928684E-002
  -8.8654834086379850E-003   2.1776416966205400E-003   6.3501844671100593E-002
  -7.8975284021362904E-003   1.9010294045959109E-003   6.4162898001685176E-002
  -1.4815301037542489E-002   3.9830249084144009E-003   5.9599998928661246E-002
  -1.3611574688597253E-002   3.6002938717444311E-003   5.9478494322896980E-002
  -1.2407848339652061E-002   3.2241876439093320E-003   5.9583388327607040E-002
  -1.1204121990706844E-002   2.8547062249080560E-003   5.9914680942791509E-002
  -1.0000395641761604E-002   2.4918496147410263E-003   6.0472372168450250E-002
  -1.7908908993284935E-002   4.8794917147250705E-003   5.6147147307926248E-002
  -1.6488156765834507E-002   4.4301816981148767E-003   5.5971961876317061E-002
  -1.5067404538384076E-002   3.9809413776048380E-003   5.6004429591244090E-002
  -1.3646652310933635E-002   3.5317707531954089E-003   5.6244550452707022E-002
  -1.2225900083483218E-002   3.0826698248860862E-003   5.6692324460706267E-002
  -2.1050172295370460E-002   5.7759585210356568E-003   5.2630994263617871E-002
  -1.9431139653353094E-002   5.2600695244851281E-003   5.2395572893429769E-002
  -1.7812107011335725E-002   4.7376951113007257E-003   5.2349059205839599E-002
  -1.6193074369318397E-002   4.2088352814827323E-003   5.2491453200847152E-002
  -1.4574041727300998E-002   3.6734900350310629E-003   5.2822754878452352E-002
  -2.4239090943799002E-002   6.6724253273462431E-003   4.9051539795735954E-002
  -2.2440523351152986E-002   6.0899573508551574E-003   4.8749327374235263E-002
  -2.0641955758507025E-002   5.4944488449965023E-003   4.8617277171393858E-002
  -1.8843388165861057E-002   4.8858998097704165E-003   4.8655389187211934E-002
  -1.7044820573215047E-002   4.2643102451761505E-003   4.8863663421689463E-002
  -7.8975284021362904E-003   1.9010294045959109E-003   6.4162898001685176E-002
  -6.9620687042339577E-003   1.6865997416989353E-003   6.4079497725455070E-002
  -6.0266090063316180E-003   1.5833554154886520E-003   6.4243292519592654E-002
  -5.0911493084292887E-003   1.5912964259649914E-003   6.4654282384097650E-002
  -4.1556896105269456E-003   1.7104227731277177E-003   6.5312467318970335E-002
  -1.0000395641761604E-002   2.4918496147410263E-003   6.0472372168450250E-002
  -8.8168798493865816E-003   2.1889145509755292E-003   6.0379397524556733E-002
  -7.6333640570115588E-003   1.9991977711784625E-003   6.0535339999241211E-002
  -6.4498482646365256E-003   1.9226992753502009E-003   6.0940199592503602E-002
  -5.2663324722615132E-003   1.9594190634900643E-003   6.1593976304343545E-002
  -1.2225900083483218E-002   3.0826698248860862E-003   5.6692324460706267E-002
  -1.0792606148425156E-002   2.6912293602521786E-003   5.6591808396431020E-002
  -9.3593122133670374E-003   2.4150401268685229E-003   5.6741931498944076E-002
  -7.9260182783089609E-003   2.2541021247353063E-003   5.7142693768245267E-002
  -6.4927243432508549E-003   2.2084153538524109E-003   5.7794095204334733E-002
  -1.4574041727300998E-002   3.6734900350310629E-003   5.2822754878452352E-002
  -1.2889247601349515E-002   3.1935441695290223E-003   5.2716730341077322E-002
  -1.1204453475398019E-002   2.8308824825585138E-003   5.2863067018701200E-002
  -9.5196593494465357E-003   2.5855049741205748E-003   5.3261764911323436E-002
  -7.8348652234950401E-003   2.4574116442147020E-003   5.3912824018944296E-002
  -1.7044820573215047E-002   4.2643102451761505E-003   4.8863663421689463E-002
  -1.5106804208159796E-002   3.6958589788054774E-003   4.8754163358496583E-002
  -1.3168787843104518E-002   3.2467248382483938E-003   4.8898746558512673E-002
  -1.1230771478049253E-002   2.9169078235058987E-003   4.9297413021737596E-002
  -9.2927551129939889E-003   2.7064079345769931E-003   4.9950162748171434E-002
  -4.1556896105269456E-003   1.7104227731277177E-003   6.5312467318970335E-002
  -3.6262999641722207E-003   2.0017635594394290E-003   6.4398069000869751E-002
  -3.0969103178175028E-003   2.5263478873616962E-003   6.3602724796176013E-002
  -2.5675206714627901E-003   3.2841757568950122E-003   6.2926434704888873E-002
  -2.0381310251080600E-003   4.2752471680381765E-003   6.2369198727008190E-002
  -5.2663324722615132E-003   1.9594190634900643E-003   6.1593976304343545E-002
  -4.5918369901961631E-003   2.2158828045472645E-003   6.0869637281030398E-002
  -3.9173415081308616E-003   2.7986161674692922E-003   6.0316455815731834E-002
  -3.2428460260655392E-003   3.7076191522571883E-003   5.9934431908447813E-002
  -2.5683505440002065E-003   4.9428917589108279E-003   5.9723565559178571E-002
  -6.4927243432508549E-003   2.2084153538524109E-003   5.7794095204334733E-002
  -5.6210195808669722E-003   2.4300020496547392E-003   5.7352841556063849E-002
  -4.7493148184830350E-003   3.0708844475773461E-003   5.7134848910415328E-002
  -3.8776100560991129E-003   4.1310625476200340E-003   5.7140117267389455E-002
  -3.0059052937152150E-003   5.6105363497828686E-003   5.7368646626986181E-002
  -7.8348652234950401E-003   2.4574116442147020E-003   5.3912824018944296E-002
  -6.7138477361845198E-003   2.6441212947623943E-003   5.3847681825969829E-002
  -5.5928302488740533E-003   3.3431527276850045E-003   5.4057904080226288E-002
  -4.4718127615635669E-003   4.5545059429826559E-003   5.4543490781712910E-002
  -3.3507952742530666E-003   6.2781809406554367E-003   5.5304441930430236E-002
  -9.2927551129939889E-003   2.7064079345769931E-003   4.9950162748171434E-002
  -7.8703214561489376E-003   2.8582405398700494E-003   5.0354158090748724E-002
  -6.4478877993038863E-003   3.6154210077930793E-003   5.1085621325164532E-002
  -5.0254541424588420E-003   4.9779493383451320E-003   5.2144552451418885E-002
  -3.6030204856137837E-003   6.9458255315273387E-003   5.3530951469511701E-002
  -2.0381310251080600E-003   4.2752471680381765E-003   6.2369198727008190E-002
  -2.2875666968549327E-003   5.5789605267461129E-003   5.8338723232106648E-002
  -2.5370023686018088E-003   7.2747142389719965E-003   5.4302886556959418E-002
  -2.7864380403486710E-003   9.3625083047156957E-003   5.0261688701567303E-002
  -3.0358737120955576E-003   1.1842342723976884E-002   4.6215129665929666E-002
  -2.5683505440002065E-003   4.9428917589108279E-003   5.9723565559178571E-002
  -2.8406990058194477E-003   6.5679579612686889E-003   5.6190882185157665E-002
  -3.1130474676387149E-003   8.6463417331703318E-003   5.2617734411237460E-002
  -3.3853959294579327E-003   1.1178043074616222E-002   4.9004122237418263E-002
  -3.6577443912771956E-003   1.4163061985605463E-002   4.5350045663698824E-002
  -3.0059052937152150E-003   5.6105363497828686E-003   5.7368646626986181E-002
  -3.3362697652609356E-003   7.5569553957910984E-003   5.4395032589872244E-002
  -3.6666342368066283E-003   1.0017969227369097E-002   5.1345850933204804E-002
  -3.9969987083524304E-003   1.2993577844516799E-002   4.8221101656983657E-002
  -4.3273631798980659E-003   1.6483781247234486E-002   4.5020784761209520E-002
  -3.3507952742530666E-003   6.2781809406554367E-003   5.5304441930430236E-002
  -3.7742789751793729E-003   8.5459528303131471E-003   5.2951174446249298E-002
  -4.1977626761057060E-003   1.1389596721567426E-002   5.0487236122860740E-002
  -4.6212463770319567E-003   1.4809112614417462E-002   4.7912626960265048E-002
  -5.0447300779583168E-003   1.8804500508863176E-002   4.5227346958461118E-002
  -3.6030204856137837E-003   6.9458255315273387E-003   5.3530951469511701E-002
  -4.1547266355747847E-003   9.5349502648356399E-003   5.1859307754289929E-002
  -4.7064327855357857E-003   1.2761224215766198E-002   5.0041889980206533E-002
  -5.2581389354968353E-003   1.6624647384318014E-002   4.8078698147261234E-002
  -5.8098450854577877E-003   2.1125219770492087E-002   4.5969732255454421E-002
  -5.0604376755801539E-002   1.3730574116964489E-002   4.8900586646604738E-002
  -4.8802284487520581E-002   1.3866653951046581E-002   4.8633110969778626E-002
  -4.7000192219239609E-002   1.3830142096124140E-002   4.8621873355881834E-002
  -4.5198099950958630E-002   1.3621038552197023E-002   4.8866873804914238E-002
  -4.3396007682677665E-002   1.3239343319265184E-002   4.9368112316875823E-002
  -5.6939409856817044E-002   1.6139125877842497E-002   4.4607505331892838E-002
  -5.4887691004125064E-002   1.6047593339826222E-002   4.4208141155477526E-002
  -5.2835972151433049E-002   1.5812552883143483E-002   4.4051792084954966E-002
  -5.0784253298741089E-002   1.5434004507794113E-002   4.4138458120325269E-002
  -4.8732534446049088E-002   1.4911948213778253E-002   4.4468139261588269E-002
  -6.3241670175068043E-002   1.8547677638720533E-002   4.0072269759913612E-002
  -6.0953547695001463E-002   1.8228532728605862E-002   3.9570100854247170E-002
  -5.8665425214934855E-002   1.7794963670162776E-002   3.9297724097436933E-002
  -5.6377302734868295E-002   1.7246970463391263E-002   3.9255139489483157E-002
  -5.4089180254801722E-002   1.6584553108291294E-002   3.9442347030385766E-002
  -6.9511157710554494E-002   2.0956229399598555E-002   3.5294879930666892E-002
  -6.6999854560149716E-002   2.0409472117385502E-002   3.4718990066087224E-002
  -6.4488551409745007E-002   1.9777374457182039E-002   3.4359669393327560E-002
  -6.1977248259340284E-002   1.9059936418988354E-002   3.4216917912387880E-002
  -5.9465945108935547E-002   1.8257158002804350E-002   3.4290735623268141E-002
  -7.5747872463276411E-002   2.3364781160476578E-002   3.0275335844152595E-002
  -7.3026611599569941E-002   2.2590411506165031E-002   2.9654808790998077E-002
  -7.0305350735863470E-002   2.1759785244201385E-002   2.9237627972626967E-002
  -6.7584089872156972E-002   2.0872902374585535E-002   2.9023793389039487E-002
  -6.4862829008450501E-002   1.9929762897317349E-002   2.9013305040235471E-002
  -4.3396007682677665E-002   1.3239343319265184E-002   4.9368112316875823E-002
  -4.2010133259469021E-002   1.2764044992665480E-002   4.9119307548776941E-002
  -4.0624258836260342E-002   1.2274132167734292E-002   4.9030262016490300E-002
  -3.9238384413051677E-002   1.1769604844471697E-002   4.9100975720015871E-002
  -3.7852509989843020E-002   1.1250463022877633E-002   4.9331448659353627E-002
  -4.8732534446049088E-002   1.4911948213778253E-002   4.4468139261588269E-002
  -4.7188870983802748E-002   1.4322572489865543E-002   4.4194372531604520E-002
  -4.5645207521556347E-002   1.3742065824825712E-002   4.4076424643883991E-002
  -4.4101544059309994E-002   1.3170428218658889E-002   4.4114295598426584E-002
  -4.2557880597063606E-002   1.2607659671364901E-002   4.4307985395232480E-002
  -5.4089180254801722E-002   1.6584553108291294E-002   3.9442347030385766E-002
  -5.2391668147066639E-002   1.5881099987065661E-002   3.9167101895721347E-002
  -5.0694156039331556E-002   1.5209999481917411E-002   3.9043735209771155E-002
  -4.8996643931596487E-002   1.4571251592846082E-002   3.9072246972535224E-002
  -4.7299131823861383E-002   1.3964856319852142E-002   3.9252637184013436E-002
  -5.9465945108935547E-002   1.8257158002804350E-002   3.4290735623268141E-002
  -5.7618524749260720E-002   1.7439627484265807E-002   3.4037495641127451E-002
  -5.5771104389585900E-002   1.6677933139008748E-002   3.3932193714151931E-002
  -5.3923684029911122E-002   1.5972074967033442E-002   3.3974829842341570E-002
  -5.2076263670236260E-002   1.5322052968339370E-002   3.4165404025696594E-002
  -6.4862829008450501E-002   1.9929762897317349E-002   2.9013305040235471E-002
  -6.2869440790385006E-002   1.8998154981465815E-002   2.8805553767822706E-002
  -6.0876052572319442E-002   1.8145866796100529E-002   2.8741800157026265E-002
  -5.8882664354253912E-002   1.7372898341220550E-002   2.8822044207845884E-002
  -5.6889276136188383E-002   1.6679249616826652E-002   2.9046285920281856E-002
  -3.7852509989843020E-002   1.1250463022877633E-002   4.9331448659353627E-002
  -3.6081243324035506E-002   1.0715656206887941E-002   4.9044293438663900E-002
  -3.4309976658227992E-002   1.0164133900438369E-002   4.8933505317485193E-002
  -3.2538709992420485E-002   9.5958961035287928E-003   4.8999084295817660E-002
  -3.0767443326612964E-002   9.0109428161595506E-003   4.9241030373661121E-002
  -4.2557880597063606E-002   1.2607659671364901E-002   4.4307985395232480E-002
  -4.0604419182433418E-002   1.2042562985605076E-002   4.3975656791144901E-002
  -3.8650957767803265E-002   1.1463940964040645E-002   4.3831350585191484E-002
  -3.6697496353173091E-002   1.0871793606671610E-002   4.3875066777372275E-002
  -3.4744034938542903E-002   1.0266120913498267E-002   4.4106805367687296E-002
  -4.7299131823861383E-002   1.3964856319852142E-002   3.9252637184013436E-002
  -4.5151820361785375E-002   1.3369469764322170E-002   3.8878325351183254E-002
  -4.3004508899709429E-002   1.2763748027642914E-002   3.8703691215110546E-002
  -4.0857197437633504E-002   1.2147691109814647E-002   3.8728734775795123E-002
  -3.8709885975557516E-002   1.1521299010836983E-002   3.8953456033237049E-002
  -5.2076263670236260E-002   1.5322052968339370E-002   3.4165404025696594E-002
  -4.9723446862091375E-002   1.4696376543039145E-002   3.3752299118779361E-002
  -4.7370630053946539E-002   1.4063555091245298E-002   3.3550527207242629E-002
  -4.5017813245801695E-002   1.3423588612957463E-002   3.3560088291086337E-002
  -4.2664996437656769E-002   1.2776477108175699E-002   3.3780982370310575E-002
  -5.6889276136188383E-002   1.6679249616826652E-002   2.9046285920281856E-002
  -5.4319298683351475E-002   1.6023283321756371E-002   2.8597578093932818E-002
  -5.1749321230514567E-002   1.5363362154847501E-002   2.8371858561587554E-002
  -4.9179343777677687E-002   1.4699486116100401E-002   2.8369127323245688E-002
  -4.6609366324840751E-002   1.4031655205514471E-002   2.8589384378907401E-002
  -3.0767443326612964E-002   9.0109428161595506E-003   4.9241030373661121E-002
  -2.9135355230909474E-002   8.4198021986591765E-003   4.8905201887509520E-002
  -2.7503267135205983E-002   7.8330024113567043E-003   4.8761677295804828E-002
  -2.5871179039502486E-002   7.2505434542527586E-003   4.8810456598546964E-002
  -2.4239090943799002E-002   6.6724253273462431E-003   4.9051539795735954E-002
  -3.4744034938542903E-002   1.0266120913498267E-002   4.4106805367687296E-002
  -3.2929510349754658E-002   9.6501541155859238E-003   4.3770489033351401E-002
  -3.1114985760966413E-002   9.0271244440000981E-003   4.3606741790737896E-002
  -2.9300461172178174E-002   8.3970318987414659E-003   4.3615563639847005E-002
  -2.7485936583389978E-002   7.7598764798090247E-003   4.3796954580678782E-002
  -3.8709885975557516E-002   1.1521299010836983E-002   3.8953456033237049E-002
  -3.6732659696408813E-002   1.0880506032512643E-002   3.8605248146845281E-002
  -3.4755433417260104E-002   1.0221246476643603E-002   3.8409874549451870E-002
  -3.2778207138111401E-002   9.5435203432300622E-003   3.8367335241056899E-002
  -3.0800980858962677E-002   8.8473276322718064E-003   3.8477630221660009E-002
  -4.2664996437656769E-002   1.2776477108175699E-002   3.3780982370310575E-002
  -4.0544803270871906E-002   1.2110857949439321E-002   3.3409479227991673E-002
  -3.8424610104086994E-002   1.1415368509286941E-002   3.3171075571947053E-002
  -3.6304416937302138E-002   1.0690008787718881E-002   3.3065771402176286E-002
  -3.4184223770517226E-002   9.9347787847345881E-003   3.3093566718679690E-002
  -4.6609366324840751E-002   1.4031655205514471E-002   2.8589384378907401E-002
  -4.4365941073143983E-002   1.3341209866366222E-002   2.8183182276790397E-002
  -4.2122515821447160E-002   1.2609490541930349E-002   2.7890344858222976E-002
  -3.9879090569750336E-002   1.1836497232207577E-002   2.7710872123205429E-002
  -3.7635665318053513E-002   1.1022229937197259E-002   2.7644764071737660E-002
  -2.4239090943799002E-002   6.6724253273462431E-003   4.9051539795735954E-002
  -2.2440523351152986E-002   6.0899573508551574E-003   4.8749327374235263E-002
  -2.0641955758507025E-002   5.4944488449965023E-003   4.8617277171393858E-002
  -1.8843388165861057E-002   4.8858998097704165E-003   4.8655389187211934E-002
  -1.7044820573215047E-002   4.2643102451761505E-003   4.8863663421689463E-002
  -2.7485936583389978E-002   7.7598764798090247E-003   4.3796954580678782E-002
  -2.5522284332775320E-002   7.1194498157722275E-003   4.3415205889553443E-002
  -2.3558632082160663E-002   6.4795435351989450E-003   4.3193464295706030E-002
  -2.1594979831546002E-002   5.8401576380897810E-003   4.3131729799136376E-002
  -1.9631327580931349E-002   5.2012921244444232E-003   4.3230002399844591E-002
  -3.0800980858962677E-002   8.8473276322718064E-003   3.8477630221660009E-002
  -2.8682399071760963E-002   8.1489422806890199E-003   3.8029906173741662E-002
  -2.6563817284559279E-002   7.4646382254014987E-003   3.7732034101719478E-002
  -2.4445235497357616E-002   6.7944154664094231E-003   3.7584014005593649E-002
  -2.2326653710155887E-002   6.1382740037125294E-003   3.7585845885363733E-002
  -3.4184223770517226E-002   9.9347787847345881E-003   3.3093566718679690E-002
  -3.1920867568110127E-002   9.1784347456060067E-003   3.2593428226799677E-002
  -2.9657511365702993E-002   8.4497329156039969E-003   3.2232986589434368E-002
  -2.7394155163295807E-002   7.7486732947289819E-003   3.2012241806583561E-002
  -2.5130798960888760E-002   7.0752558829805523E-003   3.1931193878247513E-002
  -3.7635665318053513E-002   1.1022229937197259E-002   2.7644764071737660E-002
  -3.5237689821822599E-002   1.0207927210522771E-002   2.7105772048727605E-002
  -3.2839714325591685E-002   9.4348276058064395E-003   2.6696321758850505E-002
  -3.0441738829360757E-002   8.7029311230486378E-003   2.6416413202106331E-002
  -2.8043763333129829E-002   8.0122377622487972E-003   2.6266046378495389E-002
  -1.7044820573215047E-002   4.2643102451761505E-003   4.8863663421689463E-002
  -1.5106804208159796E-002   3.6958589788054774E-003   4.8754163358496583E-002
  -1.3168787843104518E-002   3.2467248382483938E-003   4.8898746558512673E-002
  -1.1230771478049253E-002   2.9169078235058987E-003   4.9297413021737596E-002
  -9.2927551129939889E-003   2.7064079345769931E-003   4.9950162748171434E-002
  -1.9631327580931349E-002   5.2012921244444232E-003   4.3230002399844591E-002
  -1.7477517941234075E-002   4.5993695035670967E-003   4.3069734490519707E-002
  -1.5323708301536836E-002   4.0708122847620820E-003   4.3086969867269731E-002
  -1.3169898661839582E-002   3.6156204680296428E-003   4.3281708530094984E-002
  -1.1016089022142322E-002   3.2337940533695431E-003   4.3653950478994896E-002
  -2.2326653710155887E-002   6.1382740037125294E-003   3.7585845885363733E-002
  -2.0033630772950624E-002   5.5028800283286883E-003   3.7328858406165288E-002
  -1.7740607835745242E-002   4.8948997312755482E-003   3.7172794235908024E-002
  -1.5447584898539913E-002   4.3143331125536089E-003   3.7117653374591830E-002
  -1.3154561961334604E-002   3.7611801721621485E-003   3.7163435822216623E-002
  -2.5130798960888760E-002   7.0752558829805523E-003   3.1931193878247513E-002
  -2.2775142703309242E-002   6.4063905530901272E-003   3.1531535105433842E-002
  -2.0419486445729780E-002   5.7189871777892365E-003   3.1156219664427234E-002
  -1.8063830188150262E-002   5.0130457570771308E-003   3.0805247555227989E-002
  -1.5708173930570744E-002   4.2885662909547262E-003   3.0478618777835816E-002
  -2.8043763333129829E-002   8.0122377622487972E-003   2.6266046378495389E-002
  -2.5702053732310132E-002   7.3099010778518436E-003   2.5677764588324936E-002
  -2.3360344131490365E-002   6.5430746243027305E-003   2.5037246152827763E-002
  -2.1018634530670606E-002   5.7117584016012149E-003   2.4344491072003982E-002
  -1.8676924929850902E-002   4.8159524097473039E-003   2.3599499345853370E-002
  -9.2927551129939889E-003   2.7064079345769931E-003   4.9950162748171434E-002
  -7.8703214561489376E-003   2.8582405398700494E-003   5.0354158090748724E-002
  -6.4478877993038863E-003   3.6154210077930793E-003   5.1085621325164532E-002
  -5.0254541424588420E-003   4.9779493383451320E-003   5.2144552451418885E-002
  -3.6030204856137837E-003   6.9458255315273387E-003   5.3530951469511701E-002
  -1.1016089022142322E-002   3.2337940533695431E-003   4.3653950478994896E-002
  -9.2480123414714899E-003   3.1634032075808505E-003   4.4238408722665712E-002
  -7.4799356608006434E-003   3.6425180974630766E-003   4.5186685122149239E-002
  -5.7118589801298490E-003   4.6711387230146673E-003   4.6498779677445728E-002
  -3.9437822994590199E-003   6.2492650842376207E-003   4.8174692388555318E-002
  -1.3154561961334604E-002   3.7611801721621485E-003   3.7163435822216623E-002
  -1.1004491992863526E-002   3.4685658752918735E-003   3.7872514840021132E-002
  -8.8544220243924471E-003   3.6696151871327548E-003   3.8981762277613255E-002
  -6.7043520559213841E-003   4.3643281076844280E-003   4.0491178134992707E-002
  -4.5542820874502898E-003   5.5527046369475697E-003   4.2400762412159565E-002
  -1.5708173930570744E-002   4.2885662909547262E-003   3.0478618777835816E-002
  -1.3139760410325082E-002   3.7737285430027856E-003   3.1256476442815345E-002
  -1.0571346890079252E-002   3.6967122768027036E-003   3.2470852791556495E-002
  -8.0029333698335356E-003   4.0575174923540760E-003   3.4121747824059787E-002
  -5.4345198495877600E-003   4.8561441896573521E-003   3.6209161540324525E-002
  -1.8676924929850902E-002   4.8159524097473039E-003   2.3599499345853370E-002
  -1.5653817593856034E-002   4.0788912107138087E-003   2.4390293531048157E-002
  -1.2630710257861111E-002   3.7238093664724858E-003   2.5653956663979183E-002
  -9.6076029218662151E-003   3.7507068770235158E-003   2.7390488744646752E-002
  -6.5844955858713194E-003   4.1595837423675786E-003   2.9599889773050725E-002
  -3.6030204856137837E-003   6.9458255315273387E-003   5.3530951469511701E-002
  -4.1547266355747847E-003   9.5349502648356399E-003   5.1859307754289929E-002
  -4.7064327855357857E-003   1.2761224215766198E-002   5.0041889980206533E-002
  -5.2581389354968353E-003   1.6624647384318014E-002   4.8078698147261234E-002
  -5.8098450854577877E-003   2.1125219770492087E-002   4.5969732255454421E-002
  -3.9437822994590199E-003   6.2492650842376207E-003   4.8174692388555318E-002
  -4.5373255246046601E-003   8.6871123478575174E-003   4.7240790326237347E-002
  -5.1308687497502725E-003   1.2294895680601270E-002   4.6368988172412307E-002
  -5.7244119748961035E-003   1.7072615082468989E-002   4.5559285927079113E-002
  -6.3179552000416361E-003   2.3020270553460342E-002   4.4811683590238793E-002
  -4.5542820874502898E-003   5.5527046369475697E-003   4.2400762412159565E-002
  -4.9817884204265209E-003   7.8392744308788398E-003   4.2737388854247660E-002
  -5.4092947534027241E-003   1.1828567145436342E-002   4.3343989172182268E-002
  -5.8368010863788702E-003   1.7520582780619576E-002   4.4220563365963889E-002
  -6.2643074193550474E-003   2.4915321336428597E-002   4.5367111435591134E-002
  -5.4345198495877600E-003   4.8561441896573521E-003   3.6209161540324525E-002
  -5.4881153230402924E-003   6.9914365139006618E-003   3.8349103338320673E-002
  -5.5417107964928240E-003   1.1362238610271747E-002   4.0966892979517555E-002
  -5.5953062699454267E-003   1.7968550478770245E-002   4.4062530463914631E-002
  -5.6489017433978897E-003   2.6810372119396964E-002   4.7636015791512859E-002
  -6.5844955858713194E-003   4.1595837423675786E-003   2.9599889773050725E-002
  -6.0563062324460737E-003   6.1435985969220397E-003   3.4075933778456080E-002
  -5.5281168790208279E-003   1.0895910075106652E-002   3.9237699594416586E-002
  -4.9999275255956377E-003   1.8416518176921179E-002   4.5085187220931966E-002
  -4.4717381721702809E-003   2.8705422902365108E-002   5.1618396658002386E-002
  -7.5747872463276411E-002   2.3364781160476578E-002   3.0275335844152595E-002
  -7.3026611599569941E-002   2.2590411506165031E-002   2.9654808790998077E-002
  -7.0305350735863470E-002   2.1759785244201385E-002   2.9237627972626967E-002
  -6.7584089872156972E-002   2.0872902374585535E-002   2.9023793389039487E-002
  -6.4862829008450501E-002   1.9929762897317349E-002   2.9013305040235471E-002
  -8.1954028776990012E-002   2.4988246445902584E-002   2.2773915404848522E-002
  -7.9028292799743619E-002   2.3900636943646553E-002   2.2206291184544868E-002
  -7.6102556822497128E-002   2.2916143766727903E-002   2.1844270956537792E-002
  -7.3176820845250762E-002   2.2034766915146498E-002   2.1687854720826877E-002
  -7.0251084868004327E-002   2.1256506388902308E-002   2.1737042477412483E-002
  -8.8131840995451599E-002   2.6611711731328536E-002   1.4879568651105263E-002
  -8.4999372147152363E-002   2.5210862381128074E-002   1.4524220196642262E-002
  -8.1866903298853128E-002   2.4072502289254519E-002   1.4376733491988258E-002
  -7.8734434450553947E-002   2.3196631455707512E-002   1.4437108537143660E-002
  -7.5601965602254712E-002   2.2583249880487294E-002   1.4705345332108183E-002
  -9.4281309118661116E-002   2.8235177016754515E-002   6.5922955829229093E-003
  -9.0939849641796300E-002   2.6521087818609790E-002   6.6085958272897108E-003
  -8.7598390164931386E-002   2.5228860811781169E-002   6.8350155789784935E-003
  -8.4256930688066514E-002   2.4358495996268666E-002   7.2715548379895072E-003
  -8.0915471211201642E-002   2.3909993372072488E-002   7.9182136043226374E-003
 -0.10040243314661867        2.9858642302180494E-002  -2.0879037996986982E-003
  -9.6849725283675192E-002   2.7831313256091006E-002  -1.5405819235124185E-003
  -9.3297017420731820E-002   2.6385219334307819E-002  -7.8088278249130449E-004
  -8.9744309557788504E-002   2.5520360536829573E-002   1.9119362336462303E-004
  -8.6191601694845077E-002   2.5236736863657350E-002   1.3756472940557041E-003
  -6.4862829008450501E-002   1.9929762897317349E-002   2.9013305040235471E-002
  -6.2869440790385006E-002   1.8998154981465815E-002   2.8805553767822706E-002
  -6.0876052572319442E-002   1.8145866796100529E-002   2.8741800157026265E-002
  -5.8882664354253912E-002   1.7372898341220550E-002   2.8822044207845884E-002
  -5.6889276136188383E-002   1.6679249616826652E-002   2.9046285920281856E-002
  -7.0251084868004327E-002   2.1256506388902308E-002   2.1737042477412483E-002
  -6.8110751863804539E-002   2.0524632714804564E-002   2.1604102009541937E-002
  -6.5970418859604793E-002   1.9782416419662247E-002   2.1621053452323499E-002
  -6.3830085855405033E-002   1.9029857503475668E-002   2.1787896805757372E-002
  -6.1689752851205315E-002   1.8266955966244502E-002   2.2104632069843477E-002
  -7.5601965602254712E-002   2.2583249880487294E-002   1.4705345332108183E-002
  -7.3308793562884694E-002   2.2051110448143271E-002   1.4557553317249533E-002
  -7.1015621523514677E-002   2.1418966043224130E-002   1.4565547462079068E-002
  -6.8722449484144674E-002   2.0686816665730676E-002   1.4729327766596967E-002
  -6.6429277444774698E-002   1.9854662315662519E-002   1.5048894230803050E-002
  -8.0915471211201642E-002   2.3909993372072488E-002   7.9182136043226374E-003
  -7.8463565887625333E-002   2.3577588181481694E-002   7.6659076909456197E-003
  -7.6011660564049066E-002   2.3055515666786153E-002   7.5752821862927824E-003
  -7.3559755240472799E-002   2.2343775827985822E-002   7.6463370903643267E-003
  -7.1107849916896504E-002   2.1442368665080203E-002   7.8790724031600444E-003
  -8.6191601694845077E-002   2.5236736863657350E-002   1.3756472940557041E-003
  -8.3575068838026456E-002   2.5104065914820839E-002   9.2916513063029393E-004
  -8.0958535981207946E-002   2.4692065290347814E-002   6.5025762496481732E-004
  -7.8342003124389381E-002   2.4000734990240878E-002   5.3892477705985015E-004
  -7.5725470267570816E-002   2.3030075014498275E-002   5.9516658691494140E-004
  -5.6889276136188383E-002   1.6679249616826652E-002   2.9046285920281856E-002
  -5.4319298683351475E-002   1.6023283321756371E-002   2.8597578093932818E-002
  -5.1749321230514567E-002   1.5363362154847501E-002   2.8371858561587554E-002
  -4.9179343777677687E-002   1.4699486116100401E-002   2.8369127323245688E-002
  -4.6609366324840751E-002   1.4031655205514471E-002   2.8589384378907401E-002
  -6.1689752851205315E-002   1.8266955966244502E-002   2.2104632069843477E-002
  -5.8905133729532377E-002   1.7499157864813153E-002   2.1706827050177208E-002
  -5.6120514607859384E-002   1.6731909256025218E-002   2.1515317074179266E-002
  -5.3335895486186412E-002   1.5965210139880982E-002   2.1530102141849881E-002
  -5.0551276364513453E-002   1.5199060516380702E-002   2.1751182253189061E-002
  -6.6429277444774698E-002   1.9854662315662519E-002   1.5048894230803050E-002
  -6.3446709904600704E-002   1.8975032407869727E-002   1.4706496382301232E-002
  -6.0464142364426779E-002   1.8100456357203053E-002   1.4553700327133011E-002
  -5.7481574824252910E-002   1.7230934163661789E-002   1.4590506065298343E-002
  -5.4499007284078915E-002   1.6366465827246907E-002   1.4816913596796724E-002
  -7.1107849916896504E-002   2.1442368665080203E-002   7.8790724031600444E-003
  -6.7944027208556718E-002   2.0450906950926349E-002   7.5965860903052310E-003
  -6.4780204500216904E-002   1.9469003458380495E-002   7.4870083204487872E-003
  -6.1616381791877096E-002   1.8496658187442425E-002   7.5503390935909064E-003
  -5.8452559083537310E-002   1.7533871138113014E-002   7.7865784097311298E-003
  -7.5725470267570816E-002   2.3030075014498275E-002   5.9516658691494140E-004
  -7.2397085641400127E-002   2.1926781493983194E-002   3.7709617418968389E-004
  -6.9068701015229605E-002   2.0837550559558549E-002   3.1524105412661374E-004
  -6.5740316389059056E-002   1.9762382211223270E-002   4.0960122672775712E-004
  -6.2411931762888395E-002   1.8701276448979121E-002   6.6017669199169848E-004
  -4.6609366324840751E-002   1.4031655205514471E-002   2.8589384378907401E-002
  -4.4365941073143983E-002   1.3341209866366222E-002   2.8183182276790397E-002
  -4.2122515821447160E-002   1.2609490541930349E-002   2.7890344858222976E-002
  -3.9879090569750336E-002   1.1836497232207577E-002   2.7710872123205429E-002
  -3.7635665318053513E-002   1.1022229937197259E-002   2.7644764071737660E-002
  -5.0551276364513453E-002   1.5199060516380702E-002   2.1751182253189061E-002
  -4.8182349534821770E-002   1.4429905752317562E-002   2.1327379286096182E-002
  -4.5813422705129961E-002   1.3654191214485606E-002   2.1041214791443469E-002
  -4.3444495875438256E-002   1.2871916902884716E-002   2.0892688769230838E-002
  -4.1075569045746468E-002   1.2083082817515300E-002   2.0881801219458318E-002
  -5.4499007284078915E-002   1.6366465827246907E-002   1.4816913596796724E-002
  -5.1980305087502017E-002   1.5518601638269180E-002   1.4410223976246625E-002
  -4.9461602890925063E-002   1.4698891887040912E-002   1.4165446617026949E-002
  -4.6942900694348054E-002   1.3907336573562351E-002   1.4082581519137497E-002
  -4.4424198497771156E-002   1.3143935697832954E-002   1.4161628682578614E-002
  -5.8452559083537310E-002   1.7533871138113014E-002   7.7865784097311298E-003
  -5.5759807731184802E-002   1.6607297524220715E-002   7.4317163472419831E-003
  -5.3067056378832300E-002   1.5743592559596582E-002   7.2630403349733547E-003
  -5.0374305026479806E-002   1.4942756244239793E-002   7.2805503729253427E-003
  -4.7681553674127304E-002   1.4204788578150856E-002   7.4842464610982429E-003
  -6.2411931762888395E-002   1.8701276448979121E-002   6.6017669199169848E-004
  -5.9520857465870103E-002   1.7695993410172139E-002   3.9185639908151382E-004
  -5.6629783168851755E-002   1.6788293232151752E-002   3.3399594528246701E-004
  -5.3738708871833407E-002   1.5978175914917250E-002   4.8659533059471766E-004
  -5.0847634574815115E-002   1.5265641458468648E-002   8.4965455501750942E-004
  -3.7635665318053513E-002   1.1022229937197259E-002   2.7644764071737660E-002
  -3.5237689821822599E-002   1.0207927210522771E-002   2.7105772048727605E-002
  -3.2839714325591685E-002   9.4348276058064395E-003   2.6696321758850505E-002
  -3.0441738829360757E-002   8.7029311230486378E-003   2.6416413202106331E-002
  -2.8043763333129829E-002   8.0122377622487972E-003   2.6266046378495389E-002
  -4.1075569045746468E-002   1.2083082817515300E-002   2.0881801219458318E-002
  -3.8558998980275982E-002   1.1297036741559074E-002   2.0449805765500095E-002
  -3.6042428914805469E-002   1.0523126458198154E-002   2.0125457716888173E-002
  -3.3525858849334907E-002   9.7613519674326805E-003   1.9908757073622288E-002
  -3.1009288783864414E-002   9.0117132692627555E-003   1.9799703835702842E-002
  -4.4424198497771156E-002   1.3143935697832954E-002   1.4161628682578614E-002
  -4.1810928190847717E-002   1.2386146272594878E-002   1.3807562468309373E-002
  -3.9197657883924403E-002   1.1611425310589535E-002   1.3539249331599904E-002
  -3.6584387577001005E-002   1.0819772811816779E-002   1.3356689272449554E-002
  -3.3971117270077657E-002   1.0011188776276547E-002   1.3259882290858865E-002
  -4.7681553674127304E-002   1.4204788578150856E-002   7.4842464610982429E-003
  -4.4993477453537885E-002   1.3475255803631098E-002   7.1790421571556080E-003
  -4.2305401232948431E-002   1.2699724162980916E-002   6.9376966029854603E-003
  -3.9617325012358977E-002   1.1878193656200849E-002   6.7602097985881189E-003
  -3.6929248791769571E-002   1.1010664283290866E-002   6.6465817439635005E-003
  -5.0847634574815115E-002   1.5265641458468648E-002   8.4965455501750942E-004
  -4.8106646768346306E-002   1.4564365334666984E-002   5.6424483203809661E-004
  -4.5365658961877608E-002   1.3788023015372519E-002   3.2079953104530157E-004
  -4.2624671155408800E-002   1.2936614500585114E-002   1.1931865203786141E-004
  -3.9883683348940102E-002   1.2010139790304519E-002  -4.0197804983432839E-005
  -2.8043763333129829E-002   8.0122377622487972E-003   2.6266046378495389E-002
  -2.5702053732310132E-002   7.3099010778518436E-003   2.5677764588324936E-002
  -2.3360344131490365E-002   6.5430746243027305E-003   2.5037246152827763E-002
  -2.1018634530670606E-002   5.7117584016012149E-003   2.4344491072003982E-002
  -1.8676924929850902E-002   4.8159524097473039E-003   2.3599499345853370E-002
  -3.1009288783864414E-002   9.0117132692627555E-003   1.9799703835702842E-002
  -2.8701957151929414E-002   8.2663578248262648E-003   1.9198948159355245E-002
  -2.6394625519994427E-002   7.5174330952617885E-003   1.8581673190565196E-002
  -2.4087293888059441E-002   6.7649390805683343E-003   1.7947878929332098E-002
  -2.1779962256124441E-002   6.0088757807468252E-003   1.7297565375656410E-002
  -3.3971117270077657E-002   1.0011188776276547E-002   1.3259882290858865E-002
  -3.1662446254143460E-002   9.2228145718007137E-003   1.2707573212358242E-002
  -2.9353775238209260E-002   8.4917915662207216E-003   1.2174462194299199E-002
  -2.7045104222275032E-002   7.8181197595355613E-003   1.1660549236680660E-002
  -2.4736433206340863E-002   7.2017991517463464E-003   1.1165834339503855E-002
  -3.6929248791769571E-002   1.1010664283290866E-002   6.6465817439635005E-003
  -3.4583521038952229E-002   1.0179271318774816E-002   6.2036397473338167E-003
  -3.2237793286134853E-002   9.4661500371790511E-003   5.8156131640291105E-003
  -2.9892065533317518E-002   8.8713004385027345E-003   5.4825019940495396E-003
  -2.7546337780500134E-002   8.3947225227456457E-003   5.2043062373953175E-003
  -3.9883683348940102E-002   1.2010139790304519E-002  -4.0197804983432839E-005
  -3.7465181506355694E-002   1.1135728065749251E-002  -3.1285223571875242E-004
  -3.5046679663771230E-002   1.0440508508138546E-002  -4.9487390024408051E-004
  -3.2628177821186793E-002   9.9244811174698661E-003  -5.8626279856125590E-004
  -3.0209675978602357E-002   9.5876458937451670E-003  -5.8701893066881450E-004
  -1.8676924929850902E-002   4.8159524097473039E-003   2.3599499345853370E-002
  -1.5653817593856034E-002   4.0788912107138087E-003   2.4390293531048157E-002
  -1.2630710257861111E-002   3.7238093664724858E-003   2.5653956663979183E-002
  -9.6076029218662151E-003   3.7507068770235158E-003   2.7390488744646752E-002
  -6.5844955858713194E-003   4.1595837423675786E-003   2.9599889773050725E-002
  -2.1779962256124441E-002   6.0088757807468252E-003   1.7297565375656410E-002
  -1.8553219807081953E-002   5.3425894479176561E-003   1.8248243389172192E-002
  -1.5326477358039423E-002   4.8594263342010557E-003   1.9133322681046949E-002
  -1.2099734908996913E-002   4.5593864395978706E-003   1.9952803251280404E-002
  -8.8729924599544041E-003   4.4424697641074484E-003   2.0706685099872724E-002
  -2.4736433206340863E-002   7.2017991517463464E-003   1.1165834339503855E-002
  -2.1844523313628246E-002   6.6062876851213370E-003   1.2077540045661139E-002
  -1.8952613420915643E-002   5.9950433019298199E-003   1.2385179360799567E-002
  -1.6060703528203067E-002   5.3680660021718854E-003   1.2088752284919707E-002
  -1.3168793635490478E-002   4.7253557858474293E-003   1.1188258818020991E-002
  -2.7546337780500134E-002   8.3947225227456457E-003   5.2043062373953175E-003
  -2.5527728113494963E-002   7.8699859223255453E-003   5.8781835005145555E-003
  -2.3509118446489768E-002   7.1306602696587090E-003   5.4095267032376187E-003
  -2.1490508779484649E-002   6.1767455647461812E-003   3.7983358455646217E-003
  -1.9471899112479409E-002   5.0082418075869106E-003   1.0446109274952625E-003
  -3.0209675978602357E-002   9.5876458937451670E-003  -5.8701893066881450E-004
  -2.9602834206682194E-002   9.1336841595293095E-003  -3.4982624626767045E-004
  -2.8995992434761864E-002   8.2662772373871540E-003  -1.7936352916394505E-003
  -2.8389150662841589E-002   6.9854251273202550E-003  -4.9184460667855978E-003
  -2.7782308890921370E-002   5.2911278293275021E-003  -9.7242585717048913E-003
  -6.5844955858713194E-003   4.1595837423675786E-003   2.9599889773050725E-002
  -6.0563062324460737E-003   6.1435985969220397E-003   3.4075933778456080E-002
  -5.5281168790208279E-003   1.0895910075106652E-002   3.9237699594416586E-002
  -4.9999275255956377E-003   1.8416518176921179E-002   4.5085187220931966E-002
  -4.4717381721702809E-003   2.8705422902365108E-002   5.1618396658002386E-002
  -8.8729924599544041E-003   4.4424697641074484E-003   2.0706685099872724E-002
  -7.5868294144481735E-003   5.6589723559278826E-003   2.5873682654921071E-002
  -6.3006663689419012E-003   9.3591902632574886E-003   3.1870905783576209E-002
  -5.0145033234356637E-003   1.5543123486096100E-002   3.8698354485838693E-002
  -3.7283402779295094E-003   2.4210772024443994E-002   4.6356028761708634E-002
  -1.3168793635490478E-002   4.7253557858474293E-003   1.1188258818020991E-002
  -1.0980153134850998E-002   5.1743461149333925E-003   1.6761628614591073E-002
  -8.7915126342115457E-003   7.8224704514076870E-003   2.3309727747820280E-002
  -6.6028721335721213E-003   1.2669728795271083E-002   3.0832556217709250E-002
  -4.4142316329327247E-003   1.9716121146522880E-002   3.9330114024257234E-002
  -1.9471899112479409E-002   5.0082418075869106E-003   1.0446109274952625E-003
  -1.6236277393654595E-002   4.6897198739388468E-003   6.7397716574665659E-003
  -1.3000655674829789E-002   6.2857506395590929E-003   1.3554165487149390E-002
  -9.7650339560049274E-003   9.7963341044463685E-003   2.1487792416544155E-002
  -6.5294122371801697E-003   1.5221470268601878E-002   3.0540652445649963E-002
  -2.7782308890921370E-002   5.2911278293275021E-003  -9.7242585717048913E-003
  -2.3355202190858959E-002   4.2050936329447453E-003  -4.1918882164526106E-003
  -1.8928095490796493E-002   4.7490308277086668E-003   2.6042190015631295E-003
  -1.4500988790733915E-002   6.9229394136209738E-003   1.0664063082342794E-002
  -1.0073882090671615E-002   1.0726819390680653E-002   1.9987644025886375E-002
 </DataArray>
 </PointData>
 </Piece>
 </UnstructuredGrid>
 </VTKFile>
