 <VTKFile type="UnstructuredGrid"  version="0.1"   >
 <UnstructuredGrid>
 <Piece  NumberOfPoints="          1600 "  NumberOfCells="         1024 ">
 <Points>
 <DataArray  type="Float64" NumberOfComponents="3"  format="ascii" >
   0.0000000000000000        0.0000000000000000        0.0000000000000000     
   3.1250000000000000E-002   0.0000000000000000        0.0000000000000000     
   6.2500000000000000E-002   0.0000000000000000        0.0000000000000000     
   9.3750000000000000E-002   0.0000000000000000        0.0000000000000000     
  0.12500000000000000        0.0000000000000000        0.0000000000000000     
   0.0000000000000000        3.1250000000000000E-002   0.0000000000000000     
   3.1250000000000000E-002   3.1250000000000000E-002   0.0000000000000000     
   6.2500000000000000E-002   3.1250000000000000E-002   0.0000000000000000     
   9.3750000000000000E-002   3.1250000000000000E-002   0.0000000000000000     
  0.12500000000000000        3.1250000000000000E-002   0.0000000000000000     
   0.0000000000000000        6.2500000000000000E-002   0.0000000000000000     
   3.1250000000000000E-002   6.2500000000000000E-002   0.0000000000000000     
   6.2500000000000000E-002   6.2500000000000000E-002   0.0000000000000000     
   9.3750000000000000E-002   6.2500000000000000E-002   0.0000000000000000     
  0.12500000000000000        6.2500000000000000E-002   0.0000000000000000     
   0.0000000000000000        9.3750000000000000E-002   0.0000000000000000     
   3.1250000000000000E-002   9.3750000000000000E-002   0.0000000000000000     
   6.2500000000000000E-002   9.3750000000000000E-002   0.0000000000000000     
   9.3750000000000000E-002   9.3750000000000000E-002   0.0000000000000000     
  0.12500000000000000        9.3750000000000000E-002   0.0000000000000000     
   0.0000000000000000       0.12500000000000000        0.0000000000000000     
   3.1250000000000000E-002  0.12500000000000000        0.0000000000000000     
   6.2500000000000000E-002  0.12500000000000000        0.0000000000000000     
   9.3750000000000000E-002  0.12500000000000000        0.0000000000000000     
  0.12500000000000000       0.12500000000000000        0.0000000000000000     
  0.12500000000000000        0.0000000000000000        0.0000000000000000     
  0.15625000000000000        0.0000000000000000        0.0000000000000000     
  0.18750000000000000        0.0000000000000000        0.0000000000000000     
  0.21875000000000000        0.0000000000000000        0.0000000000000000     
  0.25000000000000000        0.0000000000000000        0.0000000000000000     
  0.12500000000000000        3.1250000000000000E-002   0.0000000000000000     
  0.15625000000000000        3.1250000000000000E-002   0.0000000000000000     
  0.18750000000000000        3.1250000000000000E-002   0.0000000000000000     
  0.21875000000000000        3.1250000000000000E-002   0.0000000000000000     
  0.25000000000000000        3.1250000000000000E-002   0.0000000000000000     
  0.12500000000000000        6.2500000000000000E-002   0.0000000000000000     
  0.15625000000000000        6.2500000000000000E-002   0.0000000000000000     
  0.18750000000000000        6.2500000000000000E-002   0.0000000000000000     
  0.21875000000000000        6.2500000000000000E-002   0.0000000000000000     
  0.25000000000000000        6.2500000000000000E-002   0.0000000000000000     
  0.12500000000000000        9.3750000000000000E-002   0.0000000000000000     
  0.15625000000000000        9.3750000000000000E-002   0.0000000000000000     
  0.18750000000000000        9.3750000000000000E-002   0.0000000000000000     
  0.21875000000000000        9.3750000000000000E-002   0.0000000000000000     
  0.25000000000000000        9.3750000000000000E-002   0.0000000000000000     
  0.12500000000000000       0.12500000000000000        0.0000000000000000     
  0.15625000000000000       0.12500000000000000        0.0000000000000000     
  0.18750000000000000       0.12500000000000000        0.0000000000000000     
  0.21875000000000000       0.12500000000000000        0.0000000000000000     
  0.25000000000000000       0.12500000000000000        0.0000000000000000     
  0.25000000000000000        0.0000000000000000        0.0000000000000000     
  0.28125000000000000        0.0000000000000000        0.0000000000000000     
  0.31250000000000000        0.0000000000000000        0.0000000000000000     
  0.34375000000000000        0.0000000000000000        0.0000000000000000     
  0.37500000000000000        0.0000000000000000        0.0000000000000000     
  0.25000000000000000        3.1250000000000000E-002   0.0000000000000000     
  0.28125000000000000        3.1250000000000000E-002   0.0000000000000000     
  0.31250000000000000        3.1250000000000000E-002   0.0000000000000000     
  0.34375000000000000        3.1250000000000000E-002   0.0000000000000000     
  0.37500000000000000        3.1250000000000000E-002   0.0000000000000000     
  0.25000000000000000        6.2500000000000000E-002   0.0000000000000000     
  0.28125000000000000        6.2500000000000000E-002   0.0000000000000000     
  0.31250000000000000        6.2500000000000000E-002   0.0000000000000000     
  0.34375000000000000        6.2500000000000000E-002   0.0000000000000000     
  0.37500000000000000        6.2500000000000000E-002   0.0000000000000000     
  0.25000000000000000        9.3750000000000000E-002   0.0000000000000000     
  0.28125000000000000        9.3750000000000000E-002   0.0000000000000000     
  0.31250000000000000        9.3750000000000000E-002   0.0000000000000000     
  0.34375000000000000        9.3750000000000000E-002   0.0000000000000000     
  0.37500000000000000        9.3750000000000000E-002   0.0000000000000000     
  0.25000000000000000       0.12500000000000000        0.0000000000000000     
  0.28125000000000000       0.12500000000000000        0.0000000000000000     
  0.31250000000000000       0.12500000000000000        0.0000000000000000     
  0.34375000000000000       0.12500000000000000        0.0000000000000000     
  0.37500000000000000       0.12500000000000000        0.0000000000000000     
  0.37500000000000000        0.0000000000000000        0.0000000000000000     
  0.40625000000000000        0.0000000000000000        0.0000000000000000     
  0.43750000000000000        0.0000000000000000        0.0000000000000000     
  0.46875000000000000        0.0000000000000000        0.0000000000000000     
  0.50000000000000000        0.0000000000000000        0.0000000000000000     
  0.37500000000000000        3.1250000000000000E-002   0.0000000000000000     
  0.40625000000000000        3.1250000000000000E-002   0.0000000000000000     
  0.43750000000000000        3.1250000000000000E-002   0.0000000000000000     
  0.46875000000000000        3.1250000000000000E-002   0.0000000000000000     
  0.50000000000000000        3.1250000000000000E-002   0.0000000000000000     
  0.37500000000000000        6.2500000000000000E-002   0.0000000000000000     
  0.40625000000000000        6.2500000000000000E-002   0.0000000000000000     
  0.43750000000000000        6.2500000000000000E-002   0.0000000000000000     
  0.46875000000000000        6.2500000000000000E-002   0.0000000000000000     
  0.50000000000000000        6.2500000000000000E-002   0.0000000000000000     
  0.37500000000000000        9.3750000000000000E-002   0.0000000000000000     
  0.40625000000000000        9.3750000000000000E-002   0.0000000000000000     
  0.43750000000000000        9.3750000000000000E-002   0.0000000000000000     
  0.46875000000000000        9.3750000000000000E-002   0.0000000000000000     
  0.50000000000000000        9.3750000000000000E-002   0.0000000000000000     
  0.37500000000000000       0.12500000000000000        0.0000000000000000     
  0.40625000000000000       0.12500000000000000        0.0000000000000000     
  0.43750000000000000       0.12500000000000000        0.0000000000000000     
  0.46875000000000000       0.12500000000000000        0.0000000000000000     
  0.50000000000000000       0.12500000000000000        0.0000000000000000     
  0.50000000000000000        0.0000000000000000        0.0000000000000000     
  0.53125000000000000        0.0000000000000000        0.0000000000000000     
  0.56250000000000000        0.0000000000000000        0.0000000000000000     
  0.59375000000000000        0.0000000000000000        0.0000000000000000     
  0.62500000000000000        0.0000000000000000        0.0000000000000000     
  0.50000000000000000        3.1250000000000000E-002   0.0000000000000000     
  0.53125000000000000        3.1250000000000000E-002   0.0000000000000000     
  0.56250000000000000        3.1250000000000000E-002   0.0000000000000000     
  0.59375000000000000        3.1250000000000000E-002   0.0000000000000000     
  0.62500000000000000        3.1250000000000000E-002   0.0000000000000000     
  0.50000000000000000        6.2500000000000000E-002   0.0000000000000000     
  0.53125000000000000        6.2500000000000000E-002   0.0000000000000000     
  0.56250000000000000        6.2500000000000000E-002   0.0000000000000000     
  0.59375000000000000        6.2500000000000000E-002   0.0000000000000000     
  0.62500000000000000        6.2500000000000000E-002   0.0000000000000000     
  0.50000000000000000        9.3750000000000000E-002   0.0000000000000000     
  0.53125000000000000        9.3750000000000000E-002   0.0000000000000000     
  0.56250000000000000        9.3750000000000000E-002   0.0000000000000000     
  0.59375000000000000        9.3750000000000000E-002   0.0000000000000000     
  0.62500000000000000        9.3750000000000000E-002   0.0000000000000000     
  0.50000000000000000       0.12500000000000000        0.0000000000000000     
  0.53125000000000000       0.12500000000000000        0.0000000000000000     
  0.56250000000000000       0.12500000000000000        0.0000000000000000     
  0.59375000000000000       0.12500000000000000        0.0000000000000000     
  0.62500000000000000       0.12500000000000000        0.0000000000000000     
  0.62500000000000000        0.0000000000000000        0.0000000000000000     
  0.65625000000000000        0.0000000000000000        0.0000000000000000     
  0.68750000000000000        0.0000000000000000        0.0000000000000000     
  0.71875000000000000        0.0000000000000000        0.0000000000000000     
  0.75000000000000000        0.0000000000000000        0.0000000000000000     
  0.62500000000000000        3.1250000000000000E-002   0.0000000000000000     
  0.65625000000000000        3.1250000000000000E-002   0.0000000000000000     
  0.68750000000000000        3.1250000000000000E-002   0.0000000000000000     
  0.71875000000000000        3.1250000000000000E-002   0.0000000000000000     
  0.75000000000000000        3.1250000000000000E-002   0.0000000000000000     
  0.62500000000000000        6.2500000000000000E-002   0.0000000000000000     
  0.65625000000000000        6.2500000000000000E-002   0.0000000000000000     
  0.68750000000000000        6.2500000000000000E-002   0.0000000000000000     
  0.71875000000000000        6.2500000000000000E-002   0.0000000000000000     
  0.75000000000000000        6.2500000000000000E-002   0.0000000000000000     
  0.62500000000000000        9.3750000000000000E-002   0.0000000000000000     
  0.65625000000000000        9.3750000000000000E-002   0.0000000000000000     
  0.68750000000000000        9.3750000000000000E-002   0.0000000000000000     
  0.71875000000000000        9.3750000000000000E-002   0.0000000000000000     
  0.75000000000000000        9.3750000000000000E-002   0.0000000000000000     
  0.62500000000000000       0.12500000000000000        0.0000000000000000     
  0.65625000000000000       0.12500000000000000        0.0000000000000000     
  0.68750000000000000       0.12500000000000000        0.0000000000000000     
  0.71875000000000000       0.12500000000000000        0.0000000000000000     
  0.75000000000000000       0.12500000000000000        0.0000000000000000     
  0.75000000000000000        0.0000000000000000        0.0000000000000000     
  0.78125000000000000        0.0000000000000000        0.0000000000000000     
  0.81250000000000000        0.0000000000000000        0.0000000000000000     
  0.84375000000000000        0.0000000000000000        0.0000000000000000     
  0.87500000000000000        0.0000000000000000        0.0000000000000000     
  0.75000000000000000        3.1250000000000000E-002   0.0000000000000000     
  0.78125000000000000        3.1250000000000000E-002   0.0000000000000000     
  0.81250000000000000        3.1250000000000000E-002   0.0000000000000000     
  0.84375000000000000        3.1250000000000000E-002   0.0000000000000000     
  0.87500000000000000        3.1250000000000000E-002   0.0000000000000000     
  0.75000000000000000        6.2500000000000000E-002   0.0000000000000000     
  0.78125000000000000        6.2500000000000000E-002   0.0000000000000000     
  0.81250000000000000        6.2500000000000000E-002   0.0000000000000000     
  0.84375000000000000        6.2500000000000000E-002   0.0000000000000000     
  0.87500000000000000        6.2500000000000000E-002   0.0000000000000000     
  0.75000000000000000        9.3750000000000000E-002   0.0000000000000000     
  0.78125000000000000        9.3750000000000000E-002   0.0000000000000000     
  0.81250000000000000        9.3750000000000000E-002   0.0000000000000000     
  0.84375000000000000        9.3750000000000000E-002   0.0000000000000000     
  0.87500000000000000        9.3750000000000000E-002   0.0000000000000000     
  0.75000000000000000       0.12500000000000000        0.0000000000000000     
  0.78125000000000000       0.12500000000000000        0.0000000000000000     
  0.81250000000000000       0.12500000000000000        0.0000000000000000     
  0.84375000000000000       0.12500000000000000        0.0000000000000000     
  0.87500000000000000       0.12500000000000000        0.0000000000000000     
  0.87500000000000000        0.0000000000000000        0.0000000000000000     
  0.90625000000000000        0.0000000000000000        0.0000000000000000     
  0.93750000000000000        0.0000000000000000        0.0000000000000000     
  0.96875000000000000        0.0000000000000000        0.0000000000000000     
   1.0000000000000000        0.0000000000000000        0.0000000000000000     
  0.87500000000000000        3.1250000000000000E-002   0.0000000000000000     
  0.90625000000000000        3.1250000000000000E-002   0.0000000000000000     
  0.93750000000000000        3.1250000000000000E-002   0.0000000000000000     
  0.96875000000000000        3.1250000000000000E-002   0.0000000000000000     
   1.0000000000000000        3.1250000000000000E-002   0.0000000000000000     
  0.87500000000000000        6.2500000000000000E-002   0.0000000000000000     
  0.90625000000000000        6.2500000000000000E-002   0.0000000000000000     
  0.93750000000000000        6.2500000000000000E-002   0.0000000000000000     
  0.96875000000000000        6.2500000000000000E-002   0.0000000000000000     
   1.0000000000000000        6.2500000000000000E-002   0.0000000000000000     
  0.87500000000000000        9.3750000000000000E-002   0.0000000000000000     
  0.90625000000000000        9.3750000000000000E-002   0.0000000000000000     
  0.93750000000000000        9.3750000000000000E-002   0.0000000000000000     
  0.96875000000000000        9.3750000000000000E-002   0.0000000000000000     
   1.0000000000000000        9.3750000000000000E-002   0.0000000000000000     
  0.87500000000000000       0.12500000000000000        0.0000000000000000     
  0.90625000000000000       0.12500000000000000        0.0000000000000000     
  0.93750000000000000       0.12500000000000000        0.0000000000000000     
  0.96875000000000000       0.12500000000000000        0.0000000000000000     
   1.0000000000000000       0.12500000000000000        0.0000000000000000     
   0.0000000000000000       0.12500000000000000        0.0000000000000000     
   3.1250000000000000E-002  0.12500000000000000        0.0000000000000000     
   6.2500000000000000E-002  0.12500000000000000        0.0000000000000000     
   9.3750000000000000E-002  0.12500000000000000        0.0000000000000000     
  0.12500000000000000       0.12500000000000000        0.0000000000000000     
   0.0000000000000000       0.15625000000000000        0.0000000000000000     
   3.1250000000000000E-002  0.15625000000000000        0.0000000000000000     
   6.2500000000000000E-002  0.15625000000000000        0.0000000000000000     
   9.3750000000000000E-002  0.15625000000000000        0.0000000000000000     
  0.12500000000000000       0.15625000000000000        0.0000000000000000     
   0.0000000000000000       0.18750000000000000        0.0000000000000000     
   3.1250000000000000E-002  0.18750000000000000        0.0000000000000000     
   6.2500000000000000E-002  0.18750000000000000        0.0000000000000000     
   9.3750000000000000E-002  0.18750000000000000        0.0000000000000000     
  0.12500000000000000       0.18750000000000000        0.0000000000000000     
   0.0000000000000000       0.21875000000000000        0.0000000000000000     
   3.1250000000000000E-002  0.21875000000000000        0.0000000000000000     
   6.2500000000000000E-002  0.21875000000000000        0.0000000000000000     
   9.3750000000000000E-002  0.21875000000000000        0.0000000000000000     
  0.12500000000000000       0.21875000000000000        0.0000000000000000     
   0.0000000000000000       0.25000000000000000        0.0000000000000000     
   3.1250000000000000E-002  0.25000000000000000        0.0000000000000000     
   6.2500000000000000E-002  0.25000000000000000        0.0000000000000000     
   9.3750000000000000E-002  0.25000000000000000        0.0000000000000000     
  0.12500000000000000       0.25000000000000000        0.0000000000000000     
  0.12500000000000000       0.12500000000000000        0.0000000000000000     
  0.15625000000000000       0.12500000000000000        0.0000000000000000     
  0.18750000000000000       0.12500000000000000        0.0000000000000000     
  0.21875000000000000       0.12500000000000000        0.0000000000000000     
  0.25000000000000000       0.12500000000000000        0.0000000000000000     
  0.12500000000000000       0.15625000000000000        0.0000000000000000     
  0.15625000000000000       0.15625000000000000        0.0000000000000000     
  0.18750000000000000       0.15625000000000000        0.0000000000000000     
  0.21875000000000000       0.15625000000000000        0.0000000000000000     
  0.25000000000000000       0.15625000000000000        0.0000000000000000     
  0.12500000000000000       0.18750000000000000        0.0000000000000000     
  0.15625000000000000       0.18750000000000000        0.0000000000000000     
  0.18750000000000000       0.18750000000000000        0.0000000000000000     
  0.21875000000000000       0.18750000000000000        0.0000000000000000     
  0.25000000000000000       0.18750000000000000        0.0000000000000000     
  0.12500000000000000       0.21875000000000000        0.0000000000000000     
  0.15625000000000000       0.21875000000000000        0.0000000000000000     
  0.18750000000000000       0.21875000000000000        0.0000000000000000     
  0.21875000000000000       0.21875000000000000        0.0000000000000000     
  0.25000000000000000       0.21875000000000000        0.0000000000000000     
  0.12500000000000000       0.25000000000000000        0.0000000000000000     
  0.15625000000000000       0.25000000000000000        0.0000000000000000     
  0.18750000000000000       0.25000000000000000        0.0000000000000000     
  0.21875000000000000       0.25000000000000000        0.0000000000000000     
  0.25000000000000000       0.25000000000000000        0.0000000000000000     
  0.25000000000000000       0.12500000000000000        0.0000000000000000     
  0.28125000000000000       0.12500000000000000        0.0000000000000000     
  0.31250000000000000       0.12500000000000000        0.0000000000000000     
  0.34375000000000000       0.12500000000000000        0.0000000000000000     
  0.37500000000000000       0.12500000000000000        0.0000000000000000     
  0.25000000000000000       0.15625000000000000        0.0000000000000000     
  0.28125000000000000       0.15625000000000000        0.0000000000000000     
  0.31250000000000000       0.15625000000000000        0.0000000000000000     
  0.34375000000000000       0.15625000000000000        0.0000000000000000     
  0.37500000000000000       0.15625000000000000        0.0000000000000000     
  0.25000000000000000       0.18750000000000000        0.0000000000000000     
  0.28125000000000000       0.18750000000000000        0.0000000000000000     
  0.31250000000000000       0.18750000000000000        0.0000000000000000     
  0.34375000000000000       0.18750000000000000        0.0000000000000000     
  0.37500000000000000       0.18750000000000000        0.0000000000000000     
  0.25000000000000000       0.21875000000000000        0.0000000000000000     
  0.28125000000000000       0.21875000000000000        0.0000000000000000     
  0.31250000000000000       0.21875000000000000        0.0000000000000000     
  0.34375000000000000       0.21875000000000000        0.0000000000000000     
  0.37500000000000000       0.21875000000000000        0.0000000000000000     
  0.25000000000000000       0.25000000000000000        0.0000000000000000     
  0.28125000000000000       0.25000000000000000        0.0000000000000000     
  0.31250000000000000       0.25000000000000000        0.0000000000000000     
  0.34375000000000000       0.25000000000000000        0.0000000000000000     
  0.37500000000000000       0.25000000000000000        0.0000000000000000     
  0.37500000000000000       0.12500000000000000        0.0000000000000000     
  0.40625000000000000       0.12500000000000000        0.0000000000000000     
  0.43750000000000000       0.12500000000000000        0.0000000000000000     
  0.46875000000000000       0.12500000000000000        0.0000000000000000     
  0.50000000000000000       0.12500000000000000        0.0000000000000000     
  0.37500000000000000       0.15625000000000000        0.0000000000000000     
  0.40625000000000000       0.15625000000000000        0.0000000000000000     
  0.43750000000000000       0.15625000000000000        0.0000000000000000     
  0.46875000000000000       0.15625000000000000        0.0000000000000000     
  0.50000000000000000       0.15625000000000000        0.0000000000000000     
  0.37500000000000000       0.18750000000000000        0.0000000000000000     
  0.40625000000000000       0.18750000000000000        0.0000000000000000     
  0.43750000000000000       0.18750000000000000        0.0000000000000000     
  0.46875000000000000       0.18750000000000000        0.0000000000000000     
  0.50000000000000000       0.18750000000000000        0.0000000000000000     
  0.37500000000000000       0.21875000000000000        0.0000000000000000     
  0.40625000000000000       0.21875000000000000        0.0000000000000000     
  0.43750000000000000       0.21875000000000000        0.0000000000000000     
  0.46875000000000000       0.21875000000000000        0.0000000000000000     
  0.50000000000000000       0.21875000000000000        0.0000000000000000     
  0.37500000000000000       0.25000000000000000        0.0000000000000000     
  0.40625000000000000       0.25000000000000000        0.0000000000000000     
  0.43750000000000000       0.25000000000000000        0.0000000000000000     
  0.46875000000000000       0.25000000000000000        0.0000000000000000     
  0.50000000000000000       0.25000000000000000        0.0000000000000000     
  0.50000000000000000       0.12500000000000000        0.0000000000000000     
  0.53125000000000000       0.12500000000000000        0.0000000000000000     
  0.56250000000000000       0.12500000000000000        0.0000000000000000     
  0.59375000000000000       0.12500000000000000        0.0000000000000000     
  0.62500000000000000       0.12500000000000000        0.0000000000000000     
  0.50000000000000000       0.15625000000000000        0.0000000000000000     
  0.53125000000000000       0.15625000000000000        0.0000000000000000     
  0.56250000000000000       0.15625000000000000        0.0000000000000000     
  0.59375000000000000       0.15625000000000000        0.0000000000000000     
  0.62500000000000000       0.15625000000000000        0.0000000000000000     
  0.50000000000000000       0.18750000000000000        0.0000000000000000     
  0.53125000000000000       0.18750000000000000        0.0000000000000000     
  0.56250000000000000       0.18750000000000000        0.0000000000000000     
  0.59375000000000000       0.18750000000000000        0.0000000000000000     
  0.62500000000000000       0.18750000000000000        0.0000000000000000     
  0.50000000000000000       0.21875000000000000        0.0000000000000000     
  0.53125000000000000       0.21875000000000000        0.0000000000000000     
  0.56250000000000000       0.21875000000000000        0.0000000000000000     
  0.59375000000000000       0.21875000000000000        0.0000000000000000     
  0.62500000000000000       0.21875000000000000        0.0000000000000000     
  0.50000000000000000       0.25000000000000000        0.0000000000000000     
  0.53125000000000000       0.25000000000000000        0.0000000000000000     
  0.56250000000000000       0.25000000000000000        0.0000000000000000     
  0.59375000000000000       0.25000000000000000        0.0000000000000000     
  0.62500000000000000       0.25000000000000000        0.0000000000000000     
  0.62500000000000000       0.12500000000000000        0.0000000000000000     
  0.65625000000000000       0.12500000000000000        0.0000000000000000     
  0.68750000000000000       0.12500000000000000        0.0000000000000000     
  0.71875000000000000       0.12500000000000000        0.0000000000000000     
  0.75000000000000000       0.12500000000000000        0.0000000000000000     
  0.62500000000000000       0.15625000000000000        0.0000000000000000     
  0.65625000000000000       0.15625000000000000        0.0000000000000000     
  0.68750000000000000       0.15625000000000000        0.0000000000000000     
  0.71875000000000000       0.15625000000000000        0.0000000000000000     
  0.75000000000000000       0.15625000000000000        0.0000000000000000     
  0.62500000000000000       0.18750000000000000        0.0000000000000000     
  0.65625000000000000       0.18750000000000000        0.0000000000000000     
  0.68750000000000000       0.18750000000000000        0.0000000000000000     
  0.71875000000000000       0.18750000000000000        0.0000000000000000     
  0.75000000000000000       0.18750000000000000        0.0000000000000000     
  0.62500000000000000       0.21875000000000000        0.0000000000000000     
  0.65625000000000000       0.21875000000000000        0.0000000000000000     
  0.68750000000000000       0.21875000000000000        0.0000000000000000     
  0.71875000000000000       0.21875000000000000        0.0000000000000000     
  0.75000000000000000       0.21875000000000000        0.0000000000000000     
  0.62500000000000000       0.25000000000000000        0.0000000000000000     
  0.65625000000000000       0.25000000000000000        0.0000000000000000     
  0.68750000000000000       0.25000000000000000        0.0000000000000000     
  0.71875000000000000       0.25000000000000000        0.0000000000000000     
  0.75000000000000000       0.25000000000000000        0.0000000000000000     
  0.75000000000000000       0.12500000000000000        0.0000000000000000     
  0.78125000000000000       0.12500000000000000        0.0000000000000000     
  0.81250000000000000       0.12500000000000000        0.0000000000000000     
  0.84375000000000000       0.12500000000000000        0.0000000000000000     
  0.87500000000000000       0.12500000000000000        0.0000000000000000     
  0.75000000000000000       0.15625000000000000        0.0000000000000000     
  0.78125000000000000       0.15625000000000000        0.0000000000000000     
  0.81250000000000000       0.15625000000000000        0.0000000000000000     
  0.84375000000000000       0.15625000000000000        0.0000000000000000     
  0.87500000000000000       0.15625000000000000        0.0000000000000000     
  0.75000000000000000       0.18750000000000000        0.0000000000000000     
  0.78125000000000000       0.18750000000000000        0.0000000000000000     
  0.81250000000000000       0.18750000000000000        0.0000000000000000     
  0.84375000000000000       0.18750000000000000        0.0000000000000000     
  0.87500000000000000       0.18750000000000000        0.0000000000000000     
  0.75000000000000000       0.21875000000000000        0.0000000000000000     
  0.78125000000000000       0.21875000000000000        0.0000000000000000     
  0.81250000000000000       0.21875000000000000        0.0000000000000000     
  0.84375000000000000       0.21875000000000000        0.0000000000000000     
  0.87500000000000000       0.21875000000000000        0.0000000000000000     
  0.75000000000000000       0.25000000000000000        0.0000000000000000     
  0.78125000000000000       0.25000000000000000        0.0000000000000000     
  0.81250000000000000       0.25000000000000000        0.0000000000000000     
  0.84375000000000000       0.25000000000000000        0.0000000000000000     
  0.87500000000000000       0.25000000000000000        0.0000000000000000     
  0.87500000000000000       0.12500000000000000        0.0000000000000000     
  0.90625000000000000       0.12500000000000000        0.0000000000000000     
  0.93750000000000000       0.12500000000000000        0.0000000000000000     
  0.96875000000000000       0.12500000000000000        0.0000000000000000     
   1.0000000000000000       0.12500000000000000        0.0000000000000000     
  0.87500000000000000       0.15625000000000000        0.0000000000000000     
  0.90625000000000000       0.15625000000000000        0.0000000000000000     
  0.93750000000000000       0.15625000000000000        0.0000000000000000     
  0.96875000000000000       0.15625000000000000        0.0000000000000000     
   1.0000000000000000       0.15625000000000000        0.0000000000000000     
  0.87500000000000000       0.18750000000000000        0.0000000000000000     
  0.90625000000000000       0.18750000000000000        0.0000000000000000     
  0.93750000000000000       0.18750000000000000        0.0000000000000000     
  0.96875000000000000       0.18750000000000000        0.0000000000000000     
   1.0000000000000000       0.18750000000000000        0.0000000000000000     
  0.87500000000000000       0.21875000000000000        0.0000000000000000     
  0.90625000000000000       0.21875000000000000        0.0000000000000000     
  0.93750000000000000       0.21875000000000000        0.0000000000000000     
  0.96875000000000000       0.21875000000000000        0.0000000000000000     
   1.0000000000000000       0.21875000000000000        0.0000000000000000     
  0.87500000000000000       0.25000000000000000        0.0000000000000000     
  0.90625000000000000       0.25000000000000000        0.0000000000000000     
  0.93750000000000000       0.25000000000000000        0.0000000000000000     
  0.96875000000000000       0.25000000000000000        0.0000000000000000     
   1.0000000000000000       0.25000000000000000        0.0000000000000000     
   0.0000000000000000       0.25000000000000000        0.0000000000000000     
   3.1250000000000000E-002  0.25000000000000000        0.0000000000000000     
   6.2500000000000000E-002  0.25000000000000000        0.0000000000000000     
   9.3750000000000000E-002  0.25000000000000000        0.0000000000000000     
  0.12500000000000000       0.25000000000000000        0.0000000000000000     
   0.0000000000000000       0.28125000000000000        0.0000000000000000     
   3.1250000000000000E-002  0.28125000000000000        0.0000000000000000     
   6.2500000000000000E-002  0.28125000000000000        0.0000000000000000     
   9.3750000000000000E-002  0.28125000000000000        0.0000000000000000     
  0.12500000000000000       0.28125000000000000        0.0000000000000000     
   0.0000000000000000       0.31250000000000000        0.0000000000000000     
   3.1250000000000000E-002  0.31250000000000000        0.0000000000000000     
   6.2500000000000000E-002  0.31250000000000000        0.0000000000000000     
   9.3750000000000000E-002  0.31250000000000000        0.0000000000000000     
  0.12500000000000000       0.31250000000000000        0.0000000000000000     
   0.0000000000000000       0.34375000000000000        0.0000000000000000     
   3.1250000000000000E-002  0.34375000000000000        0.0000000000000000     
   6.2500000000000000E-002  0.34375000000000000        0.0000000000000000     
   9.3750000000000000E-002  0.34375000000000000        0.0000000000000000     
  0.12500000000000000       0.34375000000000000        0.0000000000000000     
   0.0000000000000000       0.37500000000000000        0.0000000000000000     
   3.1250000000000000E-002  0.37500000000000000        0.0000000000000000     
   6.2500000000000000E-002  0.37500000000000000        0.0000000000000000     
   9.3750000000000000E-002  0.37500000000000000        0.0000000000000000     
  0.12500000000000000       0.37500000000000000        0.0000000000000000     
  0.12500000000000000       0.25000000000000000        0.0000000000000000     
  0.15625000000000000       0.25000000000000000        0.0000000000000000     
  0.18750000000000000       0.25000000000000000        0.0000000000000000     
  0.21875000000000000       0.25000000000000000        0.0000000000000000     
  0.25000000000000000       0.25000000000000000        0.0000000000000000     
  0.12500000000000000       0.28125000000000000        0.0000000000000000     
  0.15625000000000000       0.28125000000000000        0.0000000000000000     
  0.18750000000000000       0.28125000000000000        0.0000000000000000     
  0.21875000000000000       0.28125000000000000        0.0000000000000000     
  0.25000000000000000       0.28125000000000000        0.0000000000000000     
  0.12500000000000000       0.31250000000000000        0.0000000000000000     
  0.15625000000000000       0.31250000000000000        0.0000000000000000     
  0.18750000000000000       0.31250000000000000        0.0000000000000000     
  0.21875000000000000       0.31250000000000000        0.0000000000000000     
  0.25000000000000000       0.31250000000000000        0.0000000000000000     
  0.12500000000000000       0.34375000000000000        0.0000000000000000     
  0.15625000000000000       0.34375000000000000        0.0000000000000000     
  0.18750000000000000       0.34375000000000000        0.0000000000000000     
  0.21875000000000000       0.34375000000000000        0.0000000000000000     
  0.25000000000000000       0.34375000000000000        0.0000000000000000     
  0.12500000000000000       0.37500000000000000        0.0000000000000000     
  0.15625000000000000       0.37500000000000000        0.0000000000000000     
  0.18750000000000000       0.37500000000000000        0.0000000000000000     
  0.21875000000000000       0.37500000000000000        0.0000000000000000     
  0.25000000000000000       0.37500000000000000        0.0000000000000000     
  0.25000000000000000       0.25000000000000000        0.0000000000000000     
  0.28125000000000000       0.25000000000000000        0.0000000000000000     
  0.31250000000000000       0.25000000000000000        0.0000000000000000     
  0.34375000000000000       0.25000000000000000        0.0000000000000000     
  0.37500000000000000       0.25000000000000000        0.0000000000000000     
  0.25000000000000000       0.28125000000000000        0.0000000000000000     
  0.28125000000000000       0.28125000000000000        0.0000000000000000     
  0.31250000000000000       0.28125000000000000        0.0000000000000000     
  0.34375000000000000       0.28125000000000000        0.0000000000000000     
  0.37500000000000000       0.28125000000000000        0.0000000000000000     
  0.25000000000000000       0.31250000000000000        0.0000000000000000     
  0.28125000000000000       0.31250000000000000        0.0000000000000000     
  0.31250000000000000       0.31250000000000000        0.0000000000000000     
  0.34375000000000000       0.31250000000000000        0.0000000000000000     
  0.37500000000000000       0.31250000000000000        0.0000000000000000     
  0.25000000000000000       0.34375000000000000        0.0000000000000000     
  0.28125000000000000       0.34375000000000000        0.0000000000000000     
  0.31250000000000000       0.34375000000000000        0.0000000000000000     
  0.34375000000000000       0.34375000000000000        0.0000000000000000     
  0.37500000000000000       0.34375000000000000        0.0000000000000000     
  0.25000000000000000       0.37500000000000000        0.0000000000000000     
  0.28125000000000000       0.37500000000000000        0.0000000000000000     
  0.31250000000000000       0.37500000000000000        0.0000000000000000     
  0.34375000000000000       0.37500000000000000        0.0000000000000000     
  0.37500000000000000       0.37500000000000000        0.0000000000000000     
  0.37500000000000000       0.25000000000000000        0.0000000000000000     
  0.40625000000000000       0.25000000000000000        0.0000000000000000     
  0.43750000000000000       0.25000000000000000        0.0000000000000000     
  0.46875000000000000       0.25000000000000000        0.0000000000000000     
  0.50000000000000000       0.25000000000000000        0.0000000000000000     
  0.37500000000000000       0.28125000000000000        0.0000000000000000     
  0.40625000000000000       0.28125000000000000        0.0000000000000000     
  0.43750000000000000       0.28125000000000000        0.0000000000000000     
  0.46875000000000000       0.28125000000000000        0.0000000000000000     
  0.50000000000000000       0.28125000000000000        0.0000000000000000     
  0.37500000000000000       0.31250000000000000        0.0000000000000000     
  0.40625000000000000       0.31250000000000000        0.0000000000000000     
  0.43750000000000000       0.31250000000000000        0.0000000000000000     
  0.46875000000000000       0.31250000000000000        0.0000000000000000     
  0.50000000000000000       0.31250000000000000        0.0000000000000000     
  0.37500000000000000       0.34375000000000000        0.0000000000000000     
  0.40625000000000000       0.34375000000000000        0.0000000000000000     
  0.43750000000000000       0.34375000000000000        0.0000000000000000     
  0.46875000000000000       0.34375000000000000        0.0000000000000000     
  0.50000000000000000       0.34375000000000000        0.0000000000000000     
  0.37500000000000000       0.37500000000000000        0.0000000000000000     
  0.40625000000000000       0.37500000000000000        0.0000000000000000     
  0.43750000000000000       0.37500000000000000        0.0000000000000000     
  0.46875000000000000       0.37500000000000000        0.0000000000000000     
  0.50000000000000000       0.37500000000000000        0.0000000000000000     
  0.50000000000000000       0.25000000000000000        0.0000000000000000     
  0.53125000000000000       0.25000000000000000        0.0000000000000000     
  0.56250000000000000       0.25000000000000000        0.0000000000000000     
  0.59375000000000000       0.25000000000000000        0.0000000000000000     
  0.62500000000000000       0.25000000000000000        0.0000000000000000     
  0.50000000000000000       0.28125000000000000        0.0000000000000000     
  0.53125000000000000       0.28125000000000000        0.0000000000000000     
  0.56250000000000000       0.28125000000000000        0.0000000000000000     
  0.59375000000000000       0.28125000000000000        0.0000000000000000     
  0.62500000000000000       0.28125000000000000        0.0000000000000000     
  0.50000000000000000       0.31250000000000000        0.0000000000000000     
  0.53125000000000000       0.31250000000000000        0.0000000000000000     
  0.56250000000000000       0.31250000000000000        0.0000000000000000     
  0.59375000000000000       0.31250000000000000        0.0000000000000000     
  0.62500000000000000       0.31250000000000000        0.0000000000000000     
  0.50000000000000000       0.34375000000000000        0.0000000000000000     
  0.53125000000000000       0.34375000000000000        0.0000000000000000     
  0.56250000000000000       0.34375000000000000        0.0000000000000000     
  0.59375000000000000       0.34375000000000000        0.0000000000000000     
  0.62500000000000000       0.34375000000000000        0.0000000000000000     
  0.50000000000000000       0.37500000000000000        0.0000000000000000     
  0.53125000000000000       0.37500000000000000        0.0000000000000000     
  0.56250000000000000       0.37500000000000000        0.0000000000000000     
  0.59375000000000000       0.37500000000000000        0.0000000000000000     
  0.62500000000000000       0.37500000000000000        0.0000000000000000     
  0.62500000000000000       0.25000000000000000        0.0000000000000000     
  0.65625000000000000       0.25000000000000000        0.0000000000000000     
  0.68750000000000000       0.25000000000000000        0.0000000000000000     
  0.71875000000000000       0.25000000000000000        0.0000000000000000     
  0.75000000000000000       0.25000000000000000        0.0000000000000000     
  0.62500000000000000       0.28125000000000000        0.0000000000000000     
  0.65625000000000000       0.28125000000000000        0.0000000000000000     
  0.68750000000000000       0.28125000000000000        0.0000000000000000     
  0.71875000000000000       0.28125000000000000        0.0000000000000000     
  0.75000000000000000       0.28125000000000000        0.0000000000000000     
  0.62500000000000000       0.31250000000000000        0.0000000000000000     
  0.65625000000000000       0.31250000000000000        0.0000000000000000     
  0.68750000000000000       0.31250000000000000        0.0000000000000000     
  0.71875000000000000       0.31250000000000000        0.0000000000000000     
  0.75000000000000000       0.31250000000000000        0.0000000000000000     
  0.62500000000000000       0.34375000000000000        0.0000000000000000     
  0.65625000000000000       0.34375000000000000        0.0000000000000000     
  0.68750000000000000       0.34375000000000000        0.0000000000000000     
  0.71875000000000000       0.34375000000000000        0.0000000000000000     
  0.75000000000000000       0.34375000000000000        0.0000000000000000     
  0.62500000000000000       0.37500000000000000        0.0000000000000000     
  0.65625000000000000       0.37500000000000000        0.0000000000000000     
  0.68750000000000000       0.37500000000000000        0.0000000000000000     
  0.71875000000000000       0.37500000000000000        0.0000000000000000     
  0.75000000000000000       0.37500000000000000        0.0000000000000000     
  0.75000000000000000       0.25000000000000000        0.0000000000000000     
  0.78125000000000000       0.25000000000000000        0.0000000000000000     
  0.81250000000000000       0.25000000000000000        0.0000000000000000     
  0.84375000000000000       0.25000000000000000        0.0000000000000000     
  0.87500000000000000       0.25000000000000000        0.0000000000000000     
  0.75000000000000000       0.28125000000000000        0.0000000000000000     
  0.78125000000000000       0.28125000000000000        0.0000000000000000     
  0.81250000000000000       0.28125000000000000        0.0000000000000000     
  0.84375000000000000       0.28125000000000000        0.0000000000000000     
  0.87500000000000000       0.28125000000000000        0.0000000000000000     
  0.75000000000000000       0.31250000000000000        0.0000000000000000     
  0.78125000000000000       0.31250000000000000        0.0000000000000000     
  0.81250000000000000       0.31250000000000000        0.0000000000000000     
  0.84375000000000000       0.31250000000000000        0.0000000000000000     
  0.87500000000000000       0.31250000000000000        0.0000000000000000     
  0.75000000000000000       0.34375000000000000        0.0000000000000000     
  0.78125000000000000       0.34375000000000000        0.0000000000000000     
  0.81250000000000000       0.34375000000000000        0.0000000000000000     
  0.84375000000000000       0.34375000000000000        0.0000000000000000     
  0.87500000000000000       0.34375000000000000        0.0000000000000000     
  0.75000000000000000       0.37500000000000000        0.0000000000000000     
  0.78125000000000000       0.37500000000000000        0.0000000000000000     
  0.81250000000000000       0.37500000000000000        0.0000000000000000     
  0.84375000000000000       0.37500000000000000        0.0000000000000000     
  0.87500000000000000       0.37500000000000000        0.0000000000000000     
  0.87500000000000000       0.25000000000000000        0.0000000000000000     
  0.90625000000000000       0.25000000000000000        0.0000000000000000     
  0.93750000000000000       0.25000000000000000        0.0000000000000000     
  0.96875000000000000       0.25000000000000000        0.0000000000000000     
   1.0000000000000000       0.25000000000000000        0.0000000000000000     
  0.87500000000000000       0.28125000000000000        0.0000000000000000     
  0.90625000000000000       0.28125000000000000        0.0000000000000000     
  0.93750000000000000       0.28125000000000000        0.0000000000000000     
  0.96875000000000000       0.28125000000000000        0.0000000000000000     
   1.0000000000000000       0.28125000000000000        0.0000000000000000     
  0.87500000000000000       0.31250000000000000        0.0000000000000000     
  0.90625000000000000       0.31250000000000000        0.0000000000000000     
  0.93750000000000000       0.31250000000000000        0.0000000000000000     
  0.96875000000000000       0.31250000000000000        0.0000000000000000     
   1.0000000000000000       0.31250000000000000        0.0000000000000000     
  0.87500000000000000       0.34375000000000000        0.0000000000000000     
  0.90625000000000000       0.34375000000000000        0.0000000000000000     
  0.93750000000000000       0.34375000000000000        0.0000000000000000     
  0.96875000000000000       0.34375000000000000        0.0000000000000000     
   1.0000000000000000       0.34375000000000000        0.0000000000000000     
  0.87500000000000000       0.37500000000000000        0.0000000000000000     
  0.90625000000000000       0.37500000000000000        0.0000000000000000     
  0.93750000000000000       0.37500000000000000        0.0000000000000000     
  0.96875000000000000       0.37500000000000000        0.0000000000000000     
   1.0000000000000000       0.37500000000000000        0.0000000000000000     
   0.0000000000000000       0.37500000000000000        0.0000000000000000     
   3.1250000000000000E-002  0.37500000000000000        0.0000000000000000     
   6.2500000000000000E-002  0.37500000000000000        0.0000000000000000     
   9.3750000000000000E-002  0.37500000000000000        0.0000000000000000     
  0.12500000000000000       0.37500000000000000        0.0000000000000000     
   0.0000000000000000       0.40625000000000000        0.0000000000000000     
   3.1250000000000000E-002  0.40625000000000000        0.0000000000000000     
   6.2500000000000000E-002  0.40625000000000000        0.0000000000000000     
   9.3750000000000000E-002  0.40625000000000000        0.0000000000000000     
  0.12500000000000000       0.40625000000000000        0.0000000000000000     
   0.0000000000000000       0.43750000000000000        0.0000000000000000     
   3.1250000000000000E-002  0.43750000000000000        0.0000000000000000     
   6.2500000000000000E-002  0.43750000000000000        0.0000000000000000     
   9.3750000000000000E-002  0.43750000000000000        0.0000000000000000     
  0.12500000000000000       0.43750000000000000        0.0000000000000000     
   0.0000000000000000       0.46875000000000000        0.0000000000000000     
   3.1250000000000000E-002  0.46875000000000000        0.0000000000000000     
   6.2500000000000000E-002  0.46875000000000000        0.0000000000000000     
   9.3750000000000000E-002  0.46875000000000000        0.0000000000000000     
  0.12500000000000000       0.46875000000000000        0.0000000000000000     
   0.0000000000000000       0.50000000000000000        0.0000000000000000     
   3.1250000000000000E-002  0.50000000000000000        0.0000000000000000     
   6.2500000000000000E-002  0.50000000000000000        0.0000000000000000     
   9.3750000000000000E-002  0.50000000000000000        0.0000000000000000     
  0.12500000000000000       0.50000000000000000        0.0000000000000000     
  0.12500000000000000       0.37500000000000000        0.0000000000000000     
  0.15625000000000000       0.37500000000000000        0.0000000000000000     
  0.18750000000000000       0.37500000000000000        0.0000000000000000     
  0.21875000000000000       0.37500000000000000        0.0000000000000000     
  0.25000000000000000       0.37500000000000000        0.0000000000000000     
  0.12500000000000000       0.40625000000000000        0.0000000000000000     
  0.15625000000000000       0.40625000000000000        0.0000000000000000     
  0.18750000000000000       0.40625000000000000        0.0000000000000000     
  0.21875000000000000       0.40625000000000000        0.0000000000000000     
  0.25000000000000000       0.40625000000000000        0.0000000000000000     
  0.12500000000000000       0.43750000000000000        0.0000000000000000     
  0.15625000000000000       0.43750000000000000        0.0000000000000000     
  0.18750000000000000       0.43750000000000000        0.0000000000000000     
  0.21875000000000000       0.43750000000000000        0.0000000000000000     
  0.25000000000000000       0.43750000000000000        0.0000000000000000     
  0.12500000000000000       0.46875000000000000        0.0000000000000000     
  0.15625000000000000       0.46875000000000000        0.0000000000000000     
  0.18750000000000000       0.46875000000000000        0.0000000000000000     
  0.21875000000000000       0.46875000000000000        0.0000000000000000     
  0.25000000000000000       0.46875000000000000        0.0000000000000000     
  0.12500000000000000       0.50000000000000000        0.0000000000000000     
  0.15625000000000000       0.50000000000000000        0.0000000000000000     
  0.18750000000000000       0.50000000000000000        0.0000000000000000     
  0.21875000000000000       0.50000000000000000        0.0000000000000000     
  0.25000000000000000       0.50000000000000000        0.0000000000000000     
  0.25000000000000000       0.37500000000000000        0.0000000000000000     
  0.28125000000000000       0.37500000000000000        0.0000000000000000     
  0.31250000000000000       0.37500000000000000        0.0000000000000000     
  0.34375000000000000       0.37500000000000000        0.0000000000000000     
  0.37500000000000000       0.37500000000000000        0.0000000000000000     
  0.25000000000000000       0.40625000000000000        0.0000000000000000     
  0.28125000000000000       0.40625000000000000        0.0000000000000000     
  0.31250000000000000       0.40625000000000000        0.0000000000000000     
  0.34375000000000000       0.40625000000000000        0.0000000000000000     
  0.37500000000000000       0.40625000000000000        0.0000000000000000     
  0.25000000000000000       0.43750000000000000        0.0000000000000000     
  0.28125000000000000       0.43750000000000000        0.0000000000000000     
  0.31250000000000000       0.43750000000000000        0.0000000000000000     
  0.34375000000000000       0.43750000000000000        0.0000000000000000     
  0.37500000000000000       0.43750000000000000        0.0000000000000000     
  0.25000000000000000       0.46875000000000000        0.0000000000000000     
  0.28125000000000000       0.46875000000000000        0.0000000000000000     
  0.31250000000000000       0.46875000000000000        0.0000000000000000     
  0.34375000000000000       0.46875000000000000        0.0000000000000000     
  0.37500000000000000       0.46875000000000000        0.0000000000000000     
  0.25000000000000000       0.50000000000000000        0.0000000000000000     
  0.28125000000000000       0.50000000000000000        0.0000000000000000     
  0.31250000000000000       0.50000000000000000        0.0000000000000000     
  0.34375000000000000       0.50000000000000000        0.0000000000000000     
  0.37500000000000000       0.50000000000000000        0.0000000000000000     
  0.37500000000000000       0.37500000000000000        0.0000000000000000     
  0.40625000000000000       0.37500000000000000        0.0000000000000000     
  0.43750000000000000       0.37500000000000000        0.0000000000000000     
  0.46875000000000000       0.37500000000000000        0.0000000000000000     
  0.50000000000000000       0.37500000000000000        0.0000000000000000     
  0.37500000000000000       0.40625000000000000        0.0000000000000000     
  0.40625000000000000       0.40625000000000000        0.0000000000000000     
  0.43750000000000000       0.40625000000000000        0.0000000000000000     
  0.46875000000000000       0.40625000000000000        0.0000000000000000     
  0.50000000000000000       0.40625000000000000        0.0000000000000000     
  0.37500000000000000       0.43750000000000000        0.0000000000000000     
  0.40625000000000000       0.43750000000000000        0.0000000000000000     
  0.43750000000000000       0.43750000000000000        0.0000000000000000     
  0.46875000000000000       0.43750000000000000        0.0000000000000000     
  0.50000000000000000       0.43750000000000000        0.0000000000000000     
  0.37500000000000000       0.46875000000000000        0.0000000000000000     
  0.40625000000000000       0.46875000000000000        0.0000000000000000     
  0.43750000000000000       0.46875000000000000        0.0000000000000000     
  0.46875000000000000       0.46875000000000000        0.0000000000000000     
  0.50000000000000000       0.46875000000000000        0.0000000000000000     
  0.37500000000000000       0.50000000000000000        0.0000000000000000     
  0.40625000000000000       0.50000000000000000        0.0000000000000000     
  0.43750000000000000       0.50000000000000000        0.0000000000000000     
  0.46875000000000000       0.50000000000000000        0.0000000000000000     
  0.50000000000000000       0.50000000000000000        0.0000000000000000     
  0.50000000000000000       0.37500000000000000        0.0000000000000000     
  0.53125000000000000       0.37500000000000000        0.0000000000000000     
  0.56250000000000000       0.37500000000000000        0.0000000000000000     
  0.59375000000000000       0.37500000000000000        0.0000000000000000     
  0.62500000000000000       0.37500000000000000        0.0000000000000000     
  0.50000000000000000       0.40625000000000000        0.0000000000000000     
  0.53125000000000000       0.40625000000000000        0.0000000000000000     
  0.56250000000000000       0.40625000000000000        0.0000000000000000     
  0.59375000000000000       0.40625000000000000        0.0000000000000000     
  0.62500000000000000       0.40625000000000000        0.0000000000000000     
  0.50000000000000000       0.43750000000000000        0.0000000000000000     
  0.53125000000000000       0.43750000000000000        0.0000000000000000     
  0.56250000000000000       0.43750000000000000        0.0000000000000000     
  0.59375000000000000       0.43750000000000000        0.0000000000000000     
  0.62500000000000000       0.43750000000000000        0.0000000000000000     
  0.50000000000000000       0.46875000000000000        0.0000000000000000     
  0.53125000000000000       0.46875000000000000        0.0000000000000000     
  0.56250000000000000       0.46875000000000000        0.0000000000000000     
  0.59375000000000000       0.46875000000000000        0.0000000000000000     
  0.62500000000000000       0.46875000000000000        0.0000000000000000     
  0.50000000000000000       0.50000000000000000        0.0000000000000000     
  0.53125000000000000       0.50000000000000000        0.0000000000000000     
  0.56250000000000000       0.50000000000000000        0.0000000000000000     
  0.59375000000000000       0.50000000000000000        0.0000000000000000     
  0.62500000000000000       0.50000000000000000        0.0000000000000000     
  0.62500000000000000       0.37500000000000000        0.0000000000000000     
  0.65625000000000000       0.37500000000000000        0.0000000000000000     
  0.68750000000000000       0.37500000000000000        0.0000000000000000     
  0.71875000000000000       0.37500000000000000        0.0000000000000000     
  0.75000000000000000       0.37500000000000000        0.0000000000000000     
  0.62500000000000000       0.40625000000000000        0.0000000000000000     
  0.65625000000000000       0.40625000000000000        0.0000000000000000     
  0.68750000000000000       0.40625000000000000        0.0000000000000000     
  0.71875000000000000       0.40625000000000000        0.0000000000000000     
  0.75000000000000000       0.40625000000000000        0.0000000000000000     
  0.62500000000000000       0.43750000000000000        0.0000000000000000     
  0.65625000000000000       0.43750000000000000        0.0000000000000000     
  0.68750000000000000       0.43750000000000000        0.0000000000000000     
  0.71875000000000000       0.43750000000000000        0.0000000000000000     
  0.75000000000000000       0.43750000000000000        0.0000000000000000     
  0.62500000000000000       0.46875000000000000        0.0000000000000000     
  0.65625000000000000       0.46875000000000000        0.0000000000000000     
  0.68750000000000000       0.46875000000000000        0.0000000000000000     
  0.71875000000000000       0.46875000000000000        0.0000000000000000     
  0.75000000000000000       0.46875000000000000        0.0000000000000000     
  0.62500000000000000       0.50000000000000000        0.0000000000000000     
  0.65625000000000000       0.50000000000000000        0.0000000000000000     
  0.68750000000000000       0.50000000000000000        0.0000000000000000     
  0.71875000000000000       0.50000000000000000        0.0000000000000000     
  0.75000000000000000       0.50000000000000000        0.0000000000000000     
  0.75000000000000000       0.37500000000000000        0.0000000000000000     
  0.78125000000000000       0.37500000000000000        0.0000000000000000     
  0.81250000000000000       0.37500000000000000        0.0000000000000000     
  0.84375000000000000       0.37500000000000000        0.0000000000000000     
  0.87500000000000000       0.37500000000000000        0.0000000000000000     
  0.75000000000000000       0.40625000000000000        0.0000000000000000     
  0.78125000000000000       0.40625000000000000        0.0000000000000000     
  0.81250000000000000       0.40625000000000000        0.0000000000000000     
  0.84375000000000000       0.40625000000000000        0.0000000000000000     
  0.87500000000000000       0.40625000000000000        0.0000000000000000     
  0.75000000000000000       0.43750000000000000        0.0000000000000000     
  0.78125000000000000       0.43750000000000000        0.0000000000000000     
  0.81250000000000000       0.43750000000000000        0.0000000000000000     
  0.84375000000000000       0.43750000000000000        0.0000000000000000     
  0.87500000000000000       0.43750000000000000        0.0000000000000000     
  0.75000000000000000       0.46875000000000000        0.0000000000000000     
  0.78125000000000000       0.46875000000000000        0.0000000000000000     
  0.81250000000000000       0.46875000000000000        0.0000000000000000     
  0.84375000000000000       0.46875000000000000        0.0000000000000000     
  0.87500000000000000       0.46875000000000000        0.0000000000000000     
  0.75000000000000000       0.50000000000000000        0.0000000000000000     
  0.78125000000000000       0.50000000000000000        0.0000000000000000     
  0.81250000000000000       0.50000000000000000        0.0000000000000000     
  0.84375000000000000       0.50000000000000000        0.0000000000000000     
  0.87500000000000000       0.50000000000000000        0.0000000000000000     
  0.87500000000000000       0.37500000000000000        0.0000000000000000     
  0.90625000000000000       0.37500000000000000        0.0000000000000000     
  0.93750000000000000       0.37500000000000000        0.0000000000000000     
  0.96875000000000000       0.37500000000000000        0.0000000000000000     
   1.0000000000000000       0.37500000000000000        0.0000000000000000     
  0.87500000000000000       0.40625000000000000        0.0000000000000000     
  0.90625000000000000       0.40625000000000000        0.0000000000000000     
  0.93750000000000000       0.40625000000000000        0.0000000000000000     
  0.96875000000000000       0.40625000000000000        0.0000000000000000     
   1.0000000000000000       0.40625000000000000        0.0000000000000000     
  0.87500000000000000       0.43750000000000000        0.0000000000000000     
  0.90625000000000000       0.43750000000000000        0.0000000000000000     
  0.93750000000000000       0.43750000000000000        0.0000000000000000     
  0.96875000000000000       0.43750000000000000        0.0000000000000000     
   1.0000000000000000       0.43750000000000000        0.0000000000000000     
  0.87500000000000000       0.46875000000000000        0.0000000000000000     
  0.90625000000000000       0.46875000000000000        0.0000000000000000     
  0.93750000000000000       0.46875000000000000        0.0000000000000000     
  0.96875000000000000       0.46875000000000000        0.0000000000000000     
   1.0000000000000000       0.46875000000000000        0.0000000000000000     
  0.87500000000000000       0.50000000000000000        0.0000000000000000     
  0.90625000000000000       0.50000000000000000        0.0000000000000000     
  0.93750000000000000       0.50000000000000000        0.0000000000000000     
  0.96875000000000000       0.50000000000000000        0.0000000000000000     
   1.0000000000000000       0.50000000000000000        0.0000000000000000     
   0.0000000000000000       0.50000000000000000        0.0000000000000000     
   3.1250000000000000E-002  0.50000000000000000        0.0000000000000000     
   6.2500000000000000E-002  0.50000000000000000        0.0000000000000000     
   9.3750000000000000E-002  0.50000000000000000        0.0000000000000000     
  0.12500000000000000       0.50000000000000000        0.0000000000000000     
   0.0000000000000000       0.53125000000000000        0.0000000000000000     
   3.1250000000000000E-002  0.53125000000000000        0.0000000000000000     
   6.2500000000000000E-002  0.53125000000000000        0.0000000000000000     
   9.3750000000000000E-002  0.53125000000000000        0.0000000000000000     
  0.12500000000000000       0.53125000000000000        0.0000000000000000     
   0.0000000000000000       0.56250000000000000        0.0000000000000000     
   3.1250000000000000E-002  0.56250000000000000        0.0000000000000000     
   6.2500000000000000E-002  0.56250000000000000        0.0000000000000000     
   9.3750000000000000E-002  0.56250000000000000        0.0000000000000000     
  0.12500000000000000       0.56250000000000000        0.0000000000000000     
   0.0000000000000000       0.59375000000000000        0.0000000000000000     
   3.1250000000000000E-002  0.59375000000000000        0.0000000000000000     
   6.2500000000000000E-002  0.59375000000000000        0.0000000000000000     
   9.3750000000000000E-002  0.59375000000000000        0.0000000000000000     
  0.12500000000000000       0.59375000000000000        0.0000000000000000     
   0.0000000000000000       0.62500000000000000        0.0000000000000000     
   3.1250000000000000E-002  0.62500000000000000        0.0000000000000000     
   6.2500000000000000E-002  0.62500000000000000        0.0000000000000000     
   9.3750000000000000E-002  0.62500000000000000        0.0000000000000000     
  0.12500000000000000       0.62500000000000000        0.0000000000000000     
  0.12500000000000000       0.50000000000000000        0.0000000000000000     
  0.15625000000000000       0.50000000000000000        0.0000000000000000     
  0.18750000000000000       0.50000000000000000        0.0000000000000000     
  0.21875000000000000       0.50000000000000000        0.0000000000000000     
  0.25000000000000000       0.50000000000000000        0.0000000000000000     
  0.12500000000000000       0.53125000000000000        0.0000000000000000     
  0.15625000000000000       0.53125000000000000        0.0000000000000000     
  0.18750000000000000       0.53125000000000000        0.0000000000000000     
  0.21875000000000000       0.53125000000000000        0.0000000000000000     
  0.25000000000000000       0.53125000000000000        0.0000000000000000     
  0.12500000000000000       0.56250000000000000        0.0000000000000000     
  0.15625000000000000       0.56250000000000000        0.0000000000000000     
  0.18750000000000000       0.56250000000000000        0.0000000000000000     
  0.21875000000000000       0.56250000000000000        0.0000000000000000     
  0.25000000000000000       0.56250000000000000        0.0000000000000000     
  0.12500000000000000       0.59375000000000000        0.0000000000000000     
  0.15625000000000000       0.59375000000000000        0.0000000000000000     
  0.18750000000000000       0.59375000000000000        0.0000000000000000     
  0.21875000000000000       0.59375000000000000        0.0000000000000000     
  0.25000000000000000       0.59375000000000000        0.0000000000000000     
  0.12500000000000000       0.62500000000000000        0.0000000000000000     
  0.15625000000000000       0.62500000000000000        0.0000000000000000     
  0.18750000000000000       0.62500000000000000        0.0000000000000000     
  0.21875000000000000       0.62500000000000000        0.0000000000000000     
  0.25000000000000000       0.62500000000000000        0.0000000000000000     
  0.25000000000000000       0.50000000000000000        0.0000000000000000     
  0.28125000000000000       0.50000000000000000        0.0000000000000000     
  0.31250000000000000       0.50000000000000000        0.0000000000000000     
  0.34375000000000000       0.50000000000000000        0.0000000000000000     
  0.37500000000000000       0.50000000000000000        0.0000000000000000     
  0.25000000000000000       0.53125000000000000        0.0000000000000000     
  0.28125000000000000       0.53125000000000000        0.0000000000000000     
  0.31250000000000000       0.53125000000000000        0.0000000000000000     
  0.34375000000000000       0.53125000000000000        0.0000000000000000     
  0.37500000000000000       0.53125000000000000        0.0000000000000000     
  0.25000000000000000       0.56250000000000000        0.0000000000000000     
  0.28125000000000000       0.56250000000000000        0.0000000000000000     
  0.31250000000000000       0.56250000000000000        0.0000000000000000     
  0.34375000000000000       0.56250000000000000        0.0000000000000000     
  0.37500000000000000       0.56250000000000000        0.0000000000000000     
  0.25000000000000000       0.59375000000000000        0.0000000000000000     
  0.28125000000000000       0.59375000000000000        0.0000000000000000     
  0.31250000000000000       0.59375000000000000        0.0000000000000000     
  0.34375000000000000       0.59375000000000000        0.0000000000000000     
  0.37500000000000000       0.59375000000000000        0.0000000000000000     
  0.25000000000000000       0.62500000000000000        0.0000000000000000     
  0.28125000000000000       0.62500000000000000        0.0000000000000000     
  0.31250000000000000       0.62500000000000000        0.0000000000000000     
  0.34375000000000000       0.62500000000000000        0.0000000000000000     
  0.37500000000000000       0.62500000000000000        0.0000000000000000     
  0.37500000000000000       0.50000000000000000        0.0000000000000000     
  0.40625000000000000       0.50000000000000000        0.0000000000000000     
  0.43750000000000000       0.50000000000000000        0.0000000000000000     
  0.46875000000000000       0.50000000000000000        0.0000000000000000     
  0.50000000000000000       0.50000000000000000        0.0000000000000000     
  0.37500000000000000       0.53125000000000000        0.0000000000000000     
  0.40625000000000000       0.53125000000000000        0.0000000000000000     
  0.43750000000000000       0.53125000000000000        0.0000000000000000     
  0.46875000000000000       0.53125000000000000        0.0000000000000000     
  0.50000000000000000       0.53125000000000000        0.0000000000000000     
  0.37500000000000000       0.56250000000000000        0.0000000000000000     
  0.40625000000000000       0.56250000000000000        0.0000000000000000     
  0.43750000000000000       0.56250000000000000        0.0000000000000000     
  0.46875000000000000       0.56250000000000000        0.0000000000000000     
  0.50000000000000000       0.56250000000000000        0.0000000000000000     
  0.37500000000000000       0.59375000000000000        0.0000000000000000     
  0.40625000000000000       0.59375000000000000        0.0000000000000000     
  0.43750000000000000       0.59375000000000000        0.0000000000000000     
  0.46875000000000000       0.59375000000000000        0.0000000000000000     
  0.50000000000000000       0.59375000000000000        0.0000000000000000     
  0.37500000000000000       0.62500000000000000        0.0000000000000000     
  0.40625000000000000       0.62500000000000000        0.0000000000000000     
  0.43750000000000000       0.62500000000000000        0.0000000000000000     
  0.46875000000000000       0.62500000000000000        0.0000000000000000     
  0.50000000000000000       0.62500000000000000        0.0000000000000000     
  0.50000000000000000       0.50000000000000000        0.0000000000000000     
  0.53125000000000000       0.50000000000000000        0.0000000000000000     
  0.56250000000000000       0.50000000000000000        0.0000000000000000     
  0.59375000000000000       0.50000000000000000        0.0000000000000000     
  0.62500000000000000       0.50000000000000000        0.0000000000000000     
  0.50000000000000000       0.53125000000000000        0.0000000000000000     
  0.53125000000000000       0.53125000000000000        0.0000000000000000     
  0.56250000000000000       0.53125000000000000        0.0000000000000000     
  0.59375000000000000       0.53125000000000000        0.0000000000000000     
  0.62500000000000000       0.53125000000000000        0.0000000000000000     
  0.50000000000000000       0.56250000000000000        0.0000000000000000     
  0.53125000000000000       0.56250000000000000        0.0000000000000000     
  0.56250000000000000       0.56250000000000000        0.0000000000000000     
  0.59375000000000000       0.56250000000000000        0.0000000000000000     
  0.62500000000000000       0.56250000000000000        0.0000000000000000     
  0.50000000000000000       0.59375000000000000        0.0000000000000000     
  0.53125000000000000       0.59375000000000000        0.0000000000000000     
  0.56250000000000000       0.59375000000000000        0.0000000000000000     
  0.59375000000000000       0.59375000000000000        0.0000000000000000     
  0.62500000000000000       0.59375000000000000        0.0000000000000000     
  0.50000000000000000       0.62500000000000000        0.0000000000000000     
  0.53125000000000000       0.62500000000000000        0.0000000000000000     
  0.56250000000000000       0.62500000000000000        0.0000000000000000     
  0.59375000000000000       0.62500000000000000        0.0000000000000000     
  0.62500000000000000       0.62500000000000000        0.0000000000000000     
  0.62500000000000000       0.50000000000000000        0.0000000000000000     
  0.65625000000000000       0.50000000000000000        0.0000000000000000     
  0.68750000000000000       0.50000000000000000        0.0000000000000000     
  0.71875000000000000       0.50000000000000000        0.0000000000000000     
  0.75000000000000000       0.50000000000000000        0.0000000000000000     
  0.62500000000000000       0.53125000000000000        0.0000000000000000     
  0.65625000000000000       0.53125000000000000        0.0000000000000000     
  0.68750000000000000       0.53125000000000000        0.0000000000000000     
  0.71875000000000000       0.53125000000000000        0.0000000000000000     
  0.75000000000000000       0.53125000000000000        0.0000000000000000     
  0.62500000000000000       0.56250000000000000        0.0000000000000000     
  0.65625000000000000       0.56250000000000000        0.0000000000000000     
  0.68750000000000000       0.56250000000000000        0.0000000000000000     
  0.71875000000000000       0.56250000000000000        0.0000000000000000     
  0.75000000000000000       0.56250000000000000        0.0000000000000000     
  0.62500000000000000       0.59375000000000000        0.0000000000000000     
  0.65625000000000000       0.59375000000000000        0.0000000000000000     
  0.68750000000000000       0.59375000000000000        0.0000000000000000     
  0.71875000000000000       0.59375000000000000        0.0000000000000000     
  0.75000000000000000       0.59375000000000000        0.0000000000000000     
  0.62500000000000000       0.62500000000000000        0.0000000000000000     
  0.65625000000000000       0.62500000000000000        0.0000000000000000     
  0.68750000000000000       0.62500000000000000        0.0000000000000000     
  0.71875000000000000       0.62500000000000000        0.0000000000000000     
  0.75000000000000000       0.62500000000000000        0.0000000000000000     
  0.75000000000000000       0.50000000000000000        0.0000000000000000     
  0.78125000000000000       0.50000000000000000        0.0000000000000000     
  0.81250000000000000       0.50000000000000000        0.0000000000000000     
  0.84375000000000000       0.50000000000000000        0.0000000000000000     
  0.87500000000000000       0.50000000000000000        0.0000000000000000     
  0.75000000000000000       0.53125000000000000        0.0000000000000000     
  0.78125000000000000       0.53125000000000000        0.0000000000000000     
  0.81250000000000000       0.53125000000000000        0.0000000000000000     
  0.84375000000000000       0.53125000000000000        0.0000000000000000     
  0.87500000000000000       0.53125000000000000        0.0000000000000000     
  0.75000000000000000       0.56250000000000000        0.0000000000000000     
  0.78125000000000000       0.56250000000000000        0.0000000000000000     
  0.81250000000000000       0.56250000000000000        0.0000000000000000     
  0.84375000000000000       0.56250000000000000        0.0000000000000000     
  0.87500000000000000       0.56250000000000000        0.0000000000000000     
  0.75000000000000000       0.59375000000000000        0.0000000000000000     
  0.78125000000000000       0.59375000000000000        0.0000000000000000     
  0.81250000000000000       0.59375000000000000        0.0000000000000000     
  0.84375000000000000       0.59375000000000000        0.0000000000000000     
  0.87500000000000000       0.59375000000000000        0.0000000000000000     
  0.75000000000000000       0.62500000000000000        0.0000000000000000     
  0.78125000000000000       0.62500000000000000        0.0000000000000000     
  0.81250000000000000       0.62500000000000000        0.0000000000000000     
  0.84375000000000000       0.62500000000000000        0.0000000000000000     
  0.87500000000000000       0.62500000000000000        0.0000000000000000     
  0.87500000000000000       0.50000000000000000        0.0000000000000000     
  0.90625000000000000       0.50000000000000000        0.0000000000000000     
  0.93750000000000000       0.50000000000000000        0.0000000000000000     
  0.96875000000000000       0.50000000000000000        0.0000000000000000     
   1.0000000000000000       0.50000000000000000        0.0000000000000000     
  0.87500000000000000       0.53125000000000000        0.0000000000000000     
  0.90625000000000000       0.53125000000000000        0.0000000000000000     
  0.93750000000000000       0.53125000000000000        0.0000000000000000     
  0.96875000000000000       0.53125000000000000        0.0000000000000000     
   1.0000000000000000       0.53125000000000000        0.0000000000000000     
  0.87500000000000000       0.56250000000000000        0.0000000000000000     
  0.90625000000000000       0.56250000000000000        0.0000000000000000     
  0.93750000000000000       0.56250000000000000        0.0000000000000000     
  0.96875000000000000       0.56250000000000000        0.0000000000000000     
   1.0000000000000000       0.56250000000000000        0.0000000000000000     
  0.87500000000000000       0.59375000000000000        0.0000000000000000     
  0.90625000000000000       0.59375000000000000        0.0000000000000000     
  0.93750000000000000       0.59375000000000000        0.0000000000000000     
  0.96875000000000000       0.59375000000000000        0.0000000000000000     
   1.0000000000000000       0.59375000000000000        0.0000000000000000     
  0.87500000000000000       0.62500000000000000        0.0000000000000000     
  0.90625000000000000       0.62500000000000000        0.0000000000000000     
  0.93750000000000000       0.62500000000000000        0.0000000000000000     
  0.96875000000000000       0.62500000000000000        0.0000000000000000     
   1.0000000000000000       0.62500000000000000        0.0000000000000000     
   0.0000000000000000       0.62500000000000000        0.0000000000000000     
   3.1250000000000000E-002  0.62500000000000000        0.0000000000000000     
   6.2500000000000000E-002  0.62500000000000000        0.0000000000000000     
   9.3750000000000000E-002  0.62500000000000000        0.0000000000000000     
  0.12500000000000000       0.62500000000000000        0.0000000000000000     
   0.0000000000000000       0.65625000000000000        0.0000000000000000     
   3.1250000000000000E-002  0.65625000000000000        0.0000000000000000     
   6.2500000000000000E-002  0.65625000000000000        0.0000000000000000     
   9.3750000000000000E-002  0.65625000000000000        0.0000000000000000     
  0.12500000000000000       0.65625000000000000        0.0000000000000000     
   0.0000000000000000       0.68750000000000000        0.0000000000000000     
   3.1250000000000000E-002  0.68750000000000000        0.0000000000000000     
   6.2500000000000000E-002  0.68750000000000000        0.0000000000000000     
   9.3750000000000000E-002  0.68750000000000000        0.0000000000000000     
  0.12500000000000000       0.68750000000000000        0.0000000000000000     
   0.0000000000000000       0.71875000000000000        0.0000000000000000     
   3.1250000000000000E-002  0.71875000000000000        0.0000000000000000     
   6.2500000000000000E-002  0.71875000000000000        0.0000000000000000     
   9.3750000000000000E-002  0.71875000000000000        0.0000000000000000     
  0.12500000000000000       0.71875000000000000        0.0000000000000000     
   0.0000000000000000       0.75000000000000000        0.0000000000000000     
   3.1250000000000000E-002  0.75000000000000000        0.0000000000000000     
   6.2500000000000000E-002  0.75000000000000000        0.0000000000000000     
   9.3750000000000000E-002  0.75000000000000000        0.0000000000000000     
  0.12500000000000000       0.75000000000000000        0.0000000000000000     
  0.12500000000000000       0.62500000000000000        0.0000000000000000     
  0.15625000000000000       0.62500000000000000        0.0000000000000000     
  0.18750000000000000       0.62500000000000000        0.0000000000000000     
  0.21875000000000000       0.62500000000000000        0.0000000000000000     
  0.25000000000000000       0.62500000000000000        0.0000000000000000     
  0.12500000000000000       0.65625000000000000        0.0000000000000000     
  0.15625000000000000       0.65625000000000000        0.0000000000000000     
  0.18750000000000000       0.65625000000000000        0.0000000000000000     
  0.21875000000000000       0.65625000000000000        0.0000000000000000     
  0.25000000000000000       0.65625000000000000        0.0000000000000000     
  0.12500000000000000       0.68750000000000000        0.0000000000000000     
  0.15625000000000000       0.68750000000000000        0.0000000000000000     
  0.18750000000000000       0.68750000000000000        0.0000000000000000     
  0.21875000000000000       0.68750000000000000        0.0000000000000000     
  0.25000000000000000       0.68750000000000000        0.0000000000000000     
  0.12500000000000000       0.71875000000000000        0.0000000000000000     
  0.15625000000000000       0.71875000000000000        0.0000000000000000     
  0.18750000000000000       0.71875000000000000        0.0000000000000000     
  0.21875000000000000       0.71875000000000000        0.0000000000000000     
  0.25000000000000000       0.71875000000000000        0.0000000000000000     
  0.12500000000000000       0.75000000000000000        0.0000000000000000     
  0.15625000000000000       0.75000000000000000        0.0000000000000000     
  0.18750000000000000       0.75000000000000000        0.0000000000000000     
  0.21875000000000000       0.75000000000000000        0.0000000000000000     
  0.25000000000000000       0.75000000000000000        0.0000000000000000     
  0.25000000000000000       0.62500000000000000        0.0000000000000000     
  0.28125000000000000       0.62500000000000000        0.0000000000000000     
  0.31250000000000000       0.62500000000000000        0.0000000000000000     
  0.34375000000000000       0.62500000000000000        0.0000000000000000     
  0.37500000000000000       0.62500000000000000        0.0000000000000000     
  0.25000000000000000       0.65625000000000000        0.0000000000000000     
  0.28125000000000000       0.65625000000000000        0.0000000000000000     
  0.31250000000000000       0.65625000000000000        0.0000000000000000     
  0.34375000000000000       0.65625000000000000        0.0000000000000000     
  0.37500000000000000       0.65625000000000000        0.0000000000000000     
  0.25000000000000000       0.68750000000000000        0.0000000000000000     
  0.28125000000000000       0.68750000000000000        0.0000000000000000     
  0.31250000000000000       0.68750000000000000        0.0000000000000000     
  0.34375000000000000       0.68750000000000000        0.0000000000000000     
  0.37500000000000000       0.68750000000000000        0.0000000000000000     
  0.25000000000000000       0.71875000000000000        0.0000000000000000     
  0.28125000000000000       0.71875000000000000        0.0000000000000000     
  0.31250000000000000       0.71875000000000000        0.0000000000000000     
  0.34375000000000000       0.71875000000000000        0.0000000000000000     
  0.37500000000000000       0.71875000000000000        0.0000000000000000     
  0.25000000000000000       0.75000000000000000        0.0000000000000000     
  0.28125000000000000       0.75000000000000000        0.0000000000000000     
  0.31250000000000000       0.75000000000000000        0.0000000000000000     
  0.34375000000000000       0.75000000000000000        0.0000000000000000     
  0.37500000000000000       0.75000000000000000        0.0000000000000000     
  0.37500000000000000       0.62500000000000000        0.0000000000000000     
  0.40625000000000000       0.62500000000000000        0.0000000000000000     
  0.43750000000000000       0.62500000000000000        0.0000000000000000     
  0.46875000000000000       0.62500000000000000        0.0000000000000000     
  0.50000000000000000       0.62500000000000000        0.0000000000000000     
  0.37500000000000000       0.65625000000000000        0.0000000000000000     
  0.40625000000000000       0.65625000000000000        0.0000000000000000     
  0.43750000000000000       0.65625000000000000        0.0000000000000000     
  0.46875000000000000       0.65625000000000000        0.0000000000000000     
  0.50000000000000000       0.65625000000000000        0.0000000000000000     
  0.37500000000000000       0.68750000000000000        0.0000000000000000     
  0.40625000000000000       0.68750000000000000        0.0000000000000000     
  0.43750000000000000       0.68750000000000000        0.0000000000000000     
  0.46875000000000000       0.68750000000000000        0.0000000000000000     
  0.50000000000000000       0.68750000000000000        0.0000000000000000     
  0.37500000000000000       0.71875000000000000        0.0000000000000000     
  0.40625000000000000       0.71875000000000000        0.0000000000000000     
  0.43750000000000000       0.71875000000000000        0.0000000000000000     
  0.46875000000000000       0.71875000000000000        0.0000000000000000     
  0.50000000000000000       0.71875000000000000        0.0000000000000000     
  0.37500000000000000       0.75000000000000000        0.0000000000000000     
  0.40625000000000000       0.75000000000000000        0.0000000000000000     
  0.43750000000000000       0.75000000000000000        0.0000000000000000     
  0.46875000000000000       0.75000000000000000        0.0000000000000000     
  0.50000000000000000       0.75000000000000000        0.0000000000000000     
  0.50000000000000000       0.62500000000000000        0.0000000000000000     
  0.53125000000000000       0.62500000000000000        0.0000000000000000     
  0.56250000000000000       0.62500000000000000        0.0000000000000000     
  0.59375000000000000       0.62500000000000000        0.0000000000000000     
  0.62500000000000000       0.62500000000000000        0.0000000000000000     
  0.50000000000000000       0.65625000000000000        0.0000000000000000     
  0.53125000000000000       0.65625000000000000        0.0000000000000000     
  0.56250000000000000       0.65625000000000000        0.0000000000000000     
  0.59375000000000000       0.65625000000000000        0.0000000000000000     
  0.62500000000000000       0.65625000000000000        0.0000000000000000     
  0.50000000000000000       0.68750000000000000        0.0000000000000000     
  0.53125000000000000       0.68750000000000000        0.0000000000000000     
  0.56250000000000000       0.68750000000000000        0.0000000000000000     
  0.59375000000000000       0.68750000000000000        0.0000000000000000     
  0.62500000000000000       0.68750000000000000        0.0000000000000000     
  0.50000000000000000       0.71875000000000000        0.0000000000000000     
  0.53125000000000000       0.71875000000000000        0.0000000000000000     
  0.56250000000000000       0.71875000000000000        0.0000000000000000     
  0.59375000000000000       0.71875000000000000        0.0000000000000000     
  0.62500000000000000       0.71875000000000000        0.0000000000000000     
  0.50000000000000000       0.75000000000000000        0.0000000000000000     
  0.53125000000000000       0.75000000000000000        0.0000000000000000     
  0.56250000000000000       0.75000000000000000        0.0000000000000000     
  0.59375000000000000       0.75000000000000000        0.0000000000000000     
  0.62500000000000000       0.75000000000000000        0.0000000000000000     
  0.62500000000000000       0.62500000000000000        0.0000000000000000     
  0.65625000000000000       0.62500000000000000        0.0000000000000000     
  0.68750000000000000       0.62500000000000000        0.0000000000000000     
  0.71875000000000000       0.62500000000000000        0.0000000000000000     
  0.75000000000000000       0.62500000000000000        0.0000000000000000     
  0.62500000000000000       0.65625000000000000        0.0000000000000000     
  0.65625000000000000       0.65625000000000000        0.0000000000000000     
  0.68750000000000000       0.65625000000000000        0.0000000000000000     
  0.71875000000000000       0.65625000000000000        0.0000000000000000     
  0.75000000000000000       0.65625000000000000        0.0000000000000000     
  0.62500000000000000       0.68750000000000000        0.0000000000000000     
  0.65625000000000000       0.68750000000000000        0.0000000000000000     
  0.68750000000000000       0.68750000000000000        0.0000000000000000     
  0.71875000000000000       0.68750000000000000        0.0000000000000000     
  0.75000000000000000       0.68750000000000000        0.0000000000000000     
  0.62500000000000000       0.71875000000000000        0.0000000000000000     
  0.65625000000000000       0.71875000000000000        0.0000000000000000     
  0.68750000000000000       0.71875000000000000        0.0000000000000000     
  0.71875000000000000       0.71875000000000000        0.0000000000000000     
  0.75000000000000000       0.71875000000000000        0.0000000000000000     
  0.62500000000000000       0.75000000000000000        0.0000000000000000     
  0.65625000000000000       0.75000000000000000        0.0000000000000000     
  0.68750000000000000       0.75000000000000000        0.0000000000000000     
  0.71875000000000000       0.75000000000000000        0.0000000000000000     
  0.75000000000000000       0.75000000000000000        0.0000000000000000     
  0.75000000000000000       0.62500000000000000        0.0000000000000000     
  0.78125000000000000       0.62500000000000000        0.0000000000000000     
  0.81250000000000000       0.62500000000000000        0.0000000000000000     
  0.84375000000000000       0.62500000000000000        0.0000000000000000     
  0.87500000000000000       0.62500000000000000        0.0000000000000000     
  0.75000000000000000       0.65625000000000000        0.0000000000000000     
  0.78125000000000000       0.65625000000000000        0.0000000000000000     
  0.81250000000000000       0.65625000000000000        0.0000000000000000     
  0.84375000000000000       0.65625000000000000        0.0000000000000000     
  0.87500000000000000       0.65625000000000000        0.0000000000000000     
  0.75000000000000000       0.68750000000000000        0.0000000000000000     
  0.78125000000000000       0.68750000000000000        0.0000000000000000     
  0.81250000000000000       0.68750000000000000        0.0000000000000000     
  0.84375000000000000       0.68750000000000000        0.0000000000000000     
  0.87500000000000000       0.68750000000000000        0.0000000000000000     
  0.75000000000000000       0.71875000000000000        0.0000000000000000     
  0.78125000000000000       0.71875000000000000        0.0000000000000000     
  0.81250000000000000       0.71875000000000000        0.0000000000000000     
  0.84375000000000000       0.71875000000000000        0.0000000000000000     
  0.87500000000000000       0.71875000000000000        0.0000000000000000     
  0.75000000000000000       0.75000000000000000        0.0000000000000000     
  0.78125000000000000       0.75000000000000000        0.0000000000000000     
  0.81250000000000000       0.75000000000000000        0.0000000000000000     
  0.84375000000000000       0.75000000000000000        0.0000000000000000     
  0.87500000000000000       0.75000000000000000        0.0000000000000000     
  0.87500000000000000       0.62500000000000000        0.0000000000000000     
  0.90625000000000000       0.62500000000000000        0.0000000000000000     
  0.93750000000000000       0.62500000000000000        0.0000000000000000     
  0.96875000000000000       0.62500000000000000        0.0000000000000000     
   1.0000000000000000       0.62500000000000000        0.0000000000000000     
  0.87500000000000000       0.65625000000000000        0.0000000000000000     
  0.90625000000000000       0.65625000000000000        0.0000000000000000     
  0.93750000000000000       0.65625000000000000        0.0000000000000000     
  0.96875000000000000       0.65625000000000000        0.0000000000000000     
   1.0000000000000000       0.65625000000000000        0.0000000000000000     
  0.87500000000000000       0.68750000000000000        0.0000000000000000     
  0.90625000000000000       0.68750000000000000        0.0000000000000000     
  0.93750000000000000       0.68750000000000000        0.0000000000000000     
  0.96875000000000000       0.68750000000000000        0.0000000000000000     
   1.0000000000000000       0.68750000000000000        0.0000000000000000     
  0.87500000000000000       0.71875000000000000        0.0000000000000000     
  0.90625000000000000       0.71875000000000000        0.0000000000000000     
  0.93750000000000000       0.71875000000000000        0.0000000000000000     
  0.96875000000000000       0.71875000000000000        0.0000000000000000     
   1.0000000000000000       0.71875000000000000        0.0000000000000000     
  0.87500000000000000       0.75000000000000000        0.0000000000000000     
  0.90625000000000000       0.75000000000000000        0.0000000000000000     
  0.93750000000000000       0.75000000000000000        0.0000000000000000     
  0.96875000000000000       0.75000000000000000        0.0000000000000000     
   1.0000000000000000       0.75000000000000000        0.0000000000000000     
   0.0000000000000000       0.75000000000000000        0.0000000000000000     
   3.1250000000000000E-002  0.75000000000000000        0.0000000000000000     
   6.2500000000000000E-002  0.75000000000000000        0.0000000000000000     
   9.3750000000000000E-002  0.75000000000000000        0.0000000000000000     
  0.12500000000000000       0.75000000000000000        0.0000000000000000     
   0.0000000000000000       0.78125000000000000        0.0000000000000000     
   3.1250000000000000E-002  0.78125000000000000        0.0000000000000000     
   6.2500000000000000E-002  0.78125000000000000        0.0000000000000000     
   9.3750000000000000E-002  0.78125000000000000        0.0000000000000000     
  0.12500000000000000       0.78125000000000000        0.0000000000000000     
   0.0000000000000000       0.81250000000000000        0.0000000000000000     
   3.1250000000000000E-002  0.81250000000000000        0.0000000000000000     
   6.2500000000000000E-002  0.81250000000000000        0.0000000000000000     
   9.3750000000000000E-002  0.81250000000000000        0.0000000000000000     
  0.12500000000000000       0.81250000000000000        0.0000000000000000     
   0.0000000000000000       0.84375000000000000        0.0000000000000000     
   3.1250000000000000E-002  0.84375000000000000        0.0000000000000000     
   6.2500000000000000E-002  0.84375000000000000        0.0000000000000000     
   9.3750000000000000E-002  0.84375000000000000        0.0000000000000000     
  0.12500000000000000       0.84375000000000000        0.0000000000000000     
   0.0000000000000000       0.87500000000000000        0.0000000000000000     
   3.1250000000000000E-002  0.87500000000000000        0.0000000000000000     
   6.2500000000000000E-002  0.87500000000000000        0.0000000000000000     
   9.3750000000000000E-002  0.87500000000000000        0.0000000000000000     
  0.12500000000000000       0.87500000000000000        0.0000000000000000     
  0.12500000000000000       0.75000000000000000        0.0000000000000000     
  0.15625000000000000       0.75000000000000000        0.0000000000000000     
  0.18750000000000000       0.75000000000000000        0.0000000000000000     
  0.21875000000000000       0.75000000000000000        0.0000000000000000     
  0.25000000000000000       0.75000000000000000        0.0000000000000000     
  0.12500000000000000       0.78125000000000000        0.0000000000000000     
  0.15625000000000000       0.78125000000000000        0.0000000000000000     
  0.18750000000000000       0.78125000000000000        0.0000000000000000     
  0.21875000000000000       0.78125000000000000        0.0000000000000000     
  0.25000000000000000       0.78125000000000000        0.0000000000000000     
  0.12500000000000000       0.81250000000000000        0.0000000000000000     
  0.15625000000000000       0.81250000000000000        0.0000000000000000     
  0.18750000000000000       0.81250000000000000        0.0000000000000000     
  0.21875000000000000       0.81250000000000000        0.0000000000000000     
  0.25000000000000000       0.81250000000000000        0.0000000000000000     
  0.12500000000000000       0.84375000000000000        0.0000000000000000     
  0.15625000000000000       0.84375000000000000        0.0000000000000000     
  0.18750000000000000       0.84375000000000000        0.0000000000000000     
  0.21875000000000000       0.84375000000000000        0.0000000000000000     
  0.25000000000000000       0.84375000000000000        0.0000000000000000     
  0.12500000000000000       0.87500000000000000        0.0000000000000000     
  0.15625000000000000       0.87500000000000000        0.0000000000000000     
  0.18750000000000000       0.87500000000000000        0.0000000000000000     
  0.21875000000000000       0.87500000000000000        0.0000000000000000     
  0.25000000000000000       0.87500000000000000        0.0000000000000000     
  0.25000000000000000       0.75000000000000000        0.0000000000000000     
  0.28125000000000000       0.75000000000000000        0.0000000000000000     
  0.31250000000000000       0.75000000000000000        0.0000000000000000     
  0.34375000000000000       0.75000000000000000        0.0000000000000000     
  0.37500000000000000       0.75000000000000000        0.0000000000000000     
  0.25000000000000000       0.78125000000000000        0.0000000000000000     
  0.28125000000000000       0.78125000000000000        0.0000000000000000     
  0.31250000000000000       0.78125000000000000        0.0000000000000000     
  0.34375000000000000       0.78125000000000000        0.0000000000000000     
  0.37500000000000000       0.78125000000000000        0.0000000000000000     
  0.25000000000000000       0.81250000000000000        0.0000000000000000     
  0.28125000000000000       0.81250000000000000        0.0000000000000000     
  0.31250000000000000       0.81250000000000000        0.0000000000000000     
  0.34375000000000000       0.81250000000000000        0.0000000000000000     
  0.37500000000000000       0.81250000000000000        0.0000000000000000     
  0.25000000000000000       0.84375000000000000        0.0000000000000000     
  0.28125000000000000       0.84375000000000000        0.0000000000000000     
  0.31250000000000000       0.84375000000000000        0.0000000000000000     
  0.34375000000000000       0.84375000000000000        0.0000000000000000     
  0.37500000000000000       0.84375000000000000        0.0000000000000000     
  0.25000000000000000       0.87500000000000000        0.0000000000000000     
  0.28125000000000000       0.87500000000000000        0.0000000000000000     
  0.31250000000000000       0.87500000000000000        0.0000000000000000     
  0.34375000000000000       0.87500000000000000        0.0000000000000000     
  0.37500000000000000       0.87500000000000000        0.0000000000000000     
  0.37500000000000000       0.75000000000000000        0.0000000000000000     
  0.40625000000000000       0.75000000000000000        0.0000000000000000     
  0.43750000000000000       0.75000000000000000        0.0000000000000000     
  0.46875000000000000       0.75000000000000000        0.0000000000000000     
  0.50000000000000000       0.75000000000000000        0.0000000000000000     
  0.37500000000000000       0.78125000000000000        0.0000000000000000     
  0.40625000000000000       0.78125000000000000        0.0000000000000000     
  0.43750000000000000       0.78125000000000000        0.0000000000000000     
  0.46875000000000000       0.78125000000000000        0.0000000000000000     
  0.50000000000000000       0.78125000000000000        0.0000000000000000     
  0.37500000000000000       0.81250000000000000        0.0000000000000000     
  0.40625000000000000       0.81250000000000000        0.0000000000000000     
  0.43750000000000000       0.81250000000000000        0.0000000000000000     
  0.46875000000000000       0.81250000000000000        0.0000000000000000     
  0.50000000000000000       0.81250000000000000        0.0000000000000000     
  0.37500000000000000       0.84375000000000000        0.0000000000000000     
  0.40625000000000000       0.84375000000000000        0.0000000000000000     
  0.43750000000000000       0.84375000000000000        0.0000000000000000     
  0.46875000000000000       0.84375000000000000        0.0000000000000000     
  0.50000000000000000       0.84375000000000000        0.0000000000000000     
  0.37500000000000000       0.87500000000000000        0.0000000000000000     
  0.40625000000000000       0.87500000000000000        0.0000000000000000     
  0.43750000000000000       0.87500000000000000        0.0000000000000000     
  0.46875000000000000       0.87500000000000000        0.0000000000000000     
  0.50000000000000000       0.87500000000000000        0.0000000000000000     
  0.50000000000000000       0.75000000000000000        0.0000000000000000     
  0.53125000000000000       0.75000000000000000        0.0000000000000000     
  0.56250000000000000       0.75000000000000000        0.0000000000000000     
  0.59375000000000000       0.75000000000000000        0.0000000000000000     
  0.62500000000000000       0.75000000000000000        0.0000000000000000     
  0.50000000000000000       0.78125000000000000        0.0000000000000000     
  0.53125000000000000       0.78125000000000000        0.0000000000000000     
  0.56250000000000000       0.78125000000000000        0.0000000000000000     
  0.59375000000000000       0.78125000000000000        0.0000000000000000     
  0.62500000000000000       0.78125000000000000        0.0000000000000000     
  0.50000000000000000       0.81250000000000000        0.0000000000000000     
  0.53125000000000000       0.81250000000000000        0.0000000000000000     
  0.56250000000000000       0.81250000000000000        0.0000000000000000     
  0.59375000000000000       0.81250000000000000        0.0000000000000000     
  0.62500000000000000       0.81250000000000000        0.0000000000000000     
  0.50000000000000000       0.84375000000000000        0.0000000000000000     
  0.53125000000000000       0.84375000000000000        0.0000000000000000     
  0.56250000000000000       0.84375000000000000        0.0000000000000000     
  0.59375000000000000       0.84375000000000000        0.0000000000000000     
  0.62500000000000000       0.84375000000000000        0.0000000000000000     
  0.50000000000000000       0.87500000000000000        0.0000000000000000     
  0.53125000000000000       0.87500000000000000        0.0000000000000000     
  0.56250000000000000       0.87500000000000000        0.0000000000000000     
  0.59375000000000000       0.87500000000000000        0.0000000000000000     
  0.62500000000000000       0.87500000000000000        0.0000000000000000     
  0.62500000000000000       0.75000000000000000        0.0000000000000000     
  0.65625000000000000       0.75000000000000000        0.0000000000000000     
  0.68750000000000000       0.75000000000000000        0.0000000000000000     
  0.71875000000000000       0.75000000000000000        0.0000000000000000     
  0.75000000000000000       0.75000000000000000        0.0000000000000000     
  0.62500000000000000       0.78125000000000000        0.0000000000000000     
  0.65625000000000000       0.78125000000000000        0.0000000000000000     
  0.68750000000000000       0.78125000000000000        0.0000000000000000     
  0.71875000000000000       0.78125000000000000        0.0000000000000000     
  0.75000000000000000       0.78125000000000000        0.0000000000000000     
  0.62500000000000000       0.81250000000000000        0.0000000000000000     
  0.65625000000000000       0.81250000000000000        0.0000000000000000     
  0.68750000000000000       0.81250000000000000        0.0000000000000000     
  0.71875000000000000       0.81250000000000000        0.0000000000000000     
  0.75000000000000000       0.81250000000000000        0.0000000000000000     
  0.62500000000000000       0.84375000000000000        0.0000000000000000     
  0.65625000000000000       0.84375000000000000        0.0000000000000000     
  0.68750000000000000       0.84375000000000000        0.0000000000000000     
  0.71875000000000000       0.84375000000000000        0.0000000000000000     
  0.75000000000000000       0.84375000000000000        0.0000000000000000     
  0.62500000000000000       0.87500000000000000        0.0000000000000000     
  0.65625000000000000       0.87500000000000000        0.0000000000000000     
  0.68750000000000000       0.87500000000000000        0.0000000000000000     
  0.71875000000000000       0.87500000000000000        0.0000000000000000     
  0.75000000000000000       0.87500000000000000        0.0000000000000000     
  0.75000000000000000       0.75000000000000000        0.0000000000000000     
  0.78125000000000000       0.75000000000000000        0.0000000000000000     
  0.81250000000000000       0.75000000000000000        0.0000000000000000     
  0.84375000000000000       0.75000000000000000        0.0000000000000000     
  0.87500000000000000       0.75000000000000000        0.0000000000000000     
  0.75000000000000000       0.78125000000000000        0.0000000000000000     
  0.78125000000000000       0.78125000000000000        0.0000000000000000     
  0.81250000000000000       0.78125000000000000        0.0000000000000000     
  0.84375000000000000       0.78125000000000000        0.0000000000000000     
  0.87500000000000000       0.78125000000000000        0.0000000000000000     
  0.75000000000000000       0.81250000000000000        0.0000000000000000     
  0.78125000000000000       0.81250000000000000        0.0000000000000000     
  0.81250000000000000       0.81250000000000000        0.0000000000000000     
  0.84375000000000000       0.81250000000000000        0.0000000000000000     
  0.87500000000000000       0.81250000000000000        0.0000000000000000     
  0.75000000000000000       0.84375000000000000        0.0000000000000000     
  0.78125000000000000       0.84375000000000000        0.0000000000000000     
  0.81250000000000000       0.84375000000000000        0.0000000000000000     
  0.84375000000000000       0.84375000000000000        0.0000000000000000     
  0.87500000000000000       0.84375000000000000        0.0000000000000000     
  0.75000000000000000       0.87500000000000000        0.0000000000000000     
  0.78125000000000000       0.87500000000000000        0.0000000000000000     
  0.81250000000000000       0.87500000000000000        0.0000000000000000     
  0.84375000000000000       0.87500000000000000        0.0000000000000000     
  0.87500000000000000       0.87500000000000000        0.0000000000000000     
  0.87500000000000000       0.75000000000000000        0.0000000000000000     
  0.90625000000000000       0.75000000000000000        0.0000000000000000     
  0.93750000000000000       0.75000000000000000        0.0000000000000000     
  0.96875000000000000       0.75000000000000000        0.0000000000000000     
   1.0000000000000000       0.75000000000000000        0.0000000000000000     
  0.87500000000000000       0.78125000000000000        0.0000000000000000     
  0.90625000000000000       0.78125000000000000        0.0000000000000000     
  0.93750000000000000       0.78125000000000000        0.0000000000000000     
  0.96875000000000000       0.78125000000000000        0.0000000000000000     
   1.0000000000000000       0.78125000000000000        0.0000000000000000     
  0.87500000000000000       0.81250000000000000        0.0000000000000000     
  0.90625000000000000       0.81250000000000000        0.0000000000000000     
  0.93750000000000000       0.81250000000000000        0.0000000000000000     
  0.96875000000000000       0.81250000000000000        0.0000000000000000     
   1.0000000000000000       0.81250000000000000        0.0000000000000000     
  0.87500000000000000       0.84375000000000000        0.0000000000000000     
  0.90625000000000000       0.84375000000000000        0.0000000000000000     
  0.93750000000000000       0.84375000000000000        0.0000000000000000     
  0.96875000000000000       0.84375000000000000        0.0000000000000000     
   1.0000000000000000       0.84375000000000000        0.0000000000000000     
  0.87500000000000000       0.87500000000000000        0.0000000000000000     
  0.90625000000000000       0.87500000000000000        0.0000000000000000     
  0.93750000000000000       0.87500000000000000        0.0000000000000000     
  0.96875000000000000       0.87500000000000000        0.0000000000000000     
   1.0000000000000000       0.87500000000000000        0.0000000000000000     
   0.0000000000000000       0.87500000000000000        0.0000000000000000     
   3.1250000000000000E-002  0.87500000000000000        0.0000000000000000     
   6.2500000000000000E-002  0.87500000000000000        0.0000000000000000     
   9.3750000000000000E-002  0.87500000000000000        0.0000000000000000     
  0.12500000000000000       0.87500000000000000        0.0000000000000000     
   0.0000000000000000       0.90625000000000000        0.0000000000000000     
   3.1250000000000000E-002  0.90625000000000000        0.0000000000000000     
   6.2500000000000000E-002  0.90625000000000000        0.0000000000000000     
   9.3750000000000000E-002  0.90625000000000000        0.0000000000000000     
  0.12500000000000000       0.90625000000000000        0.0000000000000000     
   0.0000000000000000       0.93750000000000000        0.0000000000000000     
   3.1250000000000000E-002  0.93750000000000000        0.0000000000000000     
   6.2500000000000000E-002  0.93750000000000000        0.0000000000000000     
   9.3750000000000000E-002  0.93750000000000000        0.0000000000000000     
  0.12500000000000000       0.93750000000000000        0.0000000000000000     
   0.0000000000000000       0.96875000000000000        0.0000000000000000     
   3.1250000000000000E-002  0.96875000000000000        0.0000000000000000     
   6.2500000000000000E-002  0.96875000000000000        0.0000000000000000     
   9.3750000000000000E-002  0.96875000000000000        0.0000000000000000     
  0.12500000000000000       0.96875000000000000        0.0000000000000000     
   0.0000000000000000        1.0000000000000000        0.0000000000000000     
   3.1250000000000000E-002   1.0000000000000000        0.0000000000000000     
   6.2500000000000000E-002   1.0000000000000000        0.0000000000000000     
   9.3750000000000000E-002   1.0000000000000000        0.0000000000000000     
  0.12500000000000000        1.0000000000000000        0.0000000000000000     
  0.12500000000000000       0.87500000000000000        0.0000000000000000     
  0.15625000000000000       0.87500000000000000        0.0000000000000000     
  0.18750000000000000       0.87500000000000000        0.0000000000000000     
  0.21875000000000000       0.87500000000000000        0.0000000000000000     
  0.25000000000000000       0.87500000000000000        0.0000000000000000     
  0.12500000000000000       0.90625000000000000        0.0000000000000000     
  0.15625000000000000       0.90625000000000000        0.0000000000000000     
  0.18750000000000000       0.90625000000000000        0.0000000000000000     
  0.21875000000000000       0.90625000000000000        0.0000000000000000     
  0.25000000000000000       0.90625000000000000        0.0000000000000000     
  0.12500000000000000       0.93750000000000000        0.0000000000000000     
  0.15625000000000000       0.93750000000000000        0.0000000000000000     
  0.18750000000000000       0.93750000000000000        0.0000000000000000     
  0.21875000000000000       0.93750000000000000        0.0000000000000000     
  0.25000000000000000       0.93750000000000000        0.0000000000000000     
  0.12500000000000000       0.96875000000000000        0.0000000000000000     
  0.15625000000000000       0.96875000000000000        0.0000000000000000     
  0.18750000000000000       0.96875000000000000        0.0000000000000000     
  0.21875000000000000       0.96875000000000000        0.0000000000000000     
  0.25000000000000000       0.96875000000000000        0.0000000000000000     
  0.12500000000000000        1.0000000000000000        0.0000000000000000     
  0.15625000000000000        1.0000000000000000        0.0000000000000000     
  0.18750000000000000        1.0000000000000000        0.0000000000000000     
  0.21875000000000000        1.0000000000000000        0.0000000000000000     
  0.25000000000000000        1.0000000000000000        0.0000000000000000     
  0.25000000000000000       0.87500000000000000        0.0000000000000000     
  0.28125000000000000       0.87500000000000000        0.0000000000000000     
  0.31250000000000000       0.87500000000000000        0.0000000000000000     
  0.34375000000000000       0.87500000000000000        0.0000000000000000     
  0.37500000000000000       0.87500000000000000        0.0000000000000000     
  0.25000000000000000       0.90625000000000000        0.0000000000000000     
  0.28125000000000000       0.90625000000000000        0.0000000000000000     
  0.31250000000000000       0.90625000000000000        0.0000000000000000     
  0.34375000000000000       0.90625000000000000        0.0000000000000000     
  0.37500000000000000       0.90625000000000000        0.0000000000000000     
  0.25000000000000000       0.93750000000000000        0.0000000000000000     
  0.28125000000000000       0.93750000000000000        0.0000000000000000     
  0.31250000000000000       0.93750000000000000        0.0000000000000000     
  0.34375000000000000       0.93750000000000000        0.0000000000000000     
  0.37500000000000000       0.93750000000000000        0.0000000000000000     
  0.25000000000000000       0.96875000000000000        0.0000000000000000     
  0.28125000000000000       0.96875000000000000        0.0000000000000000     
  0.31250000000000000       0.96875000000000000        0.0000000000000000     
  0.34375000000000000       0.96875000000000000        0.0000000000000000     
  0.37500000000000000       0.96875000000000000        0.0000000000000000     
  0.25000000000000000        1.0000000000000000        0.0000000000000000     
  0.28125000000000000        1.0000000000000000        0.0000000000000000     
  0.31250000000000000        1.0000000000000000        0.0000000000000000     
  0.34375000000000000        1.0000000000000000        0.0000000000000000     
  0.37500000000000000        1.0000000000000000        0.0000000000000000     
  0.37500000000000000       0.87500000000000000        0.0000000000000000     
  0.40625000000000000       0.87500000000000000        0.0000000000000000     
  0.43750000000000000       0.87500000000000000        0.0000000000000000     
  0.46875000000000000       0.87500000000000000        0.0000000000000000     
  0.50000000000000000       0.87500000000000000        0.0000000000000000     
  0.37500000000000000       0.90625000000000000        0.0000000000000000     
  0.40625000000000000       0.90625000000000000        0.0000000000000000     
  0.43750000000000000       0.90625000000000000        0.0000000000000000     
  0.46875000000000000       0.90625000000000000        0.0000000000000000     
  0.50000000000000000       0.90625000000000000        0.0000000000000000     
  0.37500000000000000       0.93750000000000000        0.0000000000000000     
  0.40625000000000000       0.93750000000000000        0.0000000000000000     
  0.43750000000000000       0.93750000000000000        0.0000000000000000     
  0.46875000000000000       0.93750000000000000        0.0000000000000000     
  0.50000000000000000       0.93750000000000000        0.0000000000000000     
  0.37500000000000000       0.96875000000000000        0.0000000000000000     
  0.40625000000000000       0.96875000000000000        0.0000000000000000     
  0.43750000000000000       0.96875000000000000        0.0000000000000000     
  0.46875000000000000       0.96875000000000000        0.0000000000000000     
  0.50000000000000000       0.96875000000000000        0.0000000000000000     
  0.37500000000000000        1.0000000000000000        0.0000000000000000     
  0.40625000000000000        1.0000000000000000        0.0000000000000000     
  0.43750000000000000        1.0000000000000000        0.0000000000000000     
  0.46875000000000000        1.0000000000000000        0.0000000000000000     
  0.50000000000000000        1.0000000000000000        0.0000000000000000     
  0.50000000000000000       0.87500000000000000        0.0000000000000000     
  0.53125000000000000       0.87500000000000000        0.0000000000000000     
  0.56250000000000000       0.87500000000000000        0.0000000000000000     
  0.59375000000000000       0.87500000000000000        0.0000000000000000     
  0.62500000000000000       0.87500000000000000        0.0000000000000000     
  0.50000000000000000       0.90625000000000000        0.0000000000000000     
  0.53125000000000000       0.90625000000000000        0.0000000000000000     
  0.56250000000000000       0.90625000000000000        0.0000000000000000     
  0.59375000000000000       0.90625000000000000        0.0000000000000000     
  0.62500000000000000       0.90625000000000000        0.0000000000000000     
  0.50000000000000000       0.93750000000000000        0.0000000000000000     
  0.53125000000000000       0.93750000000000000        0.0000000000000000     
  0.56250000000000000       0.93750000000000000        0.0000000000000000     
  0.59375000000000000       0.93750000000000000        0.0000000000000000     
  0.62500000000000000       0.93750000000000000        0.0000000000000000     
  0.50000000000000000       0.96875000000000000        0.0000000000000000     
  0.53125000000000000       0.96875000000000000        0.0000000000000000     
  0.56250000000000000       0.96875000000000000        0.0000000000000000     
  0.59375000000000000       0.96875000000000000        0.0000000000000000     
  0.62500000000000000       0.96875000000000000        0.0000000000000000     
  0.50000000000000000        1.0000000000000000        0.0000000000000000     
  0.53125000000000000        1.0000000000000000        0.0000000000000000     
  0.56250000000000000        1.0000000000000000        0.0000000000000000     
  0.59375000000000000        1.0000000000000000        0.0000000000000000     
  0.62500000000000000        1.0000000000000000        0.0000000000000000     
  0.62500000000000000       0.87500000000000000        0.0000000000000000     
  0.65625000000000000       0.87500000000000000        0.0000000000000000     
  0.68750000000000000       0.87500000000000000        0.0000000000000000     
  0.71875000000000000       0.87500000000000000        0.0000000000000000     
  0.75000000000000000       0.87500000000000000        0.0000000000000000     
  0.62500000000000000       0.90625000000000000        0.0000000000000000     
  0.65625000000000000       0.90625000000000000        0.0000000000000000     
  0.68750000000000000       0.90625000000000000        0.0000000000000000     
  0.71875000000000000       0.90625000000000000        0.0000000000000000     
  0.75000000000000000       0.90625000000000000        0.0000000000000000     
  0.62500000000000000       0.93750000000000000        0.0000000000000000     
  0.65625000000000000       0.93750000000000000        0.0000000000000000     
  0.68750000000000000       0.93750000000000000        0.0000000000000000     
  0.71875000000000000       0.93750000000000000        0.0000000000000000     
  0.75000000000000000       0.93750000000000000        0.0000000000000000     
  0.62500000000000000       0.96875000000000000        0.0000000000000000     
  0.65625000000000000       0.96875000000000000        0.0000000000000000     
  0.68750000000000000       0.96875000000000000        0.0000000000000000     
  0.71875000000000000       0.96875000000000000        0.0000000000000000     
  0.75000000000000000       0.96875000000000000        0.0000000000000000     
  0.62500000000000000        1.0000000000000000        0.0000000000000000     
  0.65625000000000000        1.0000000000000000        0.0000000000000000     
  0.68750000000000000        1.0000000000000000        0.0000000000000000     
  0.71875000000000000        1.0000000000000000        0.0000000000000000     
  0.75000000000000000        1.0000000000000000        0.0000000000000000     
  0.75000000000000000       0.87500000000000000        0.0000000000000000     
  0.78125000000000000       0.87500000000000000        0.0000000000000000     
  0.81250000000000000       0.87500000000000000        0.0000000000000000     
  0.84375000000000000       0.87500000000000000        0.0000000000000000     
  0.87500000000000000       0.87500000000000000        0.0000000000000000     
  0.75000000000000000       0.90625000000000000        0.0000000000000000     
  0.78125000000000000       0.90625000000000000        0.0000000000000000     
  0.81250000000000000       0.90625000000000000        0.0000000000000000     
  0.84375000000000000       0.90625000000000000        0.0000000000000000     
  0.87500000000000000       0.90625000000000000        0.0000000000000000     
  0.75000000000000000       0.93750000000000000        0.0000000000000000     
  0.78125000000000000       0.93750000000000000        0.0000000000000000     
  0.81250000000000000       0.93750000000000000        0.0000000000000000     
  0.84375000000000000       0.93750000000000000        0.0000000000000000     
  0.87500000000000000       0.93750000000000000        0.0000000000000000     
  0.75000000000000000       0.96875000000000000        0.0000000000000000     
  0.78125000000000000       0.96875000000000000        0.0000000000000000     
  0.81250000000000000       0.96875000000000000        0.0000000000000000     
  0.84375000000000000       0.96875000000000000        0.0000000000000000     
  0.87500000000000000       0.96875000000000000        0.0000000000000000     
  0.75000000000000000        1.0000000000000000        0.0000000000000000     
  0.78125000000000000        1.0000000000000000        0.0000000000000000     
  0.81250000000000000        1.0000000000000000        0.0000000000000000     
  0.84375000000000000        1.0000000000000000        0.0000000000000000     
  0.87500000000000000        1.0000000000000000        0.0000000000000000     
  0.87500000000000000       0.87500000000000000        0.0000000000000000     
  0.90625000000000000       0.87500000000000000        0.0000000000000000     
  0.93750000000000000       0.87500000000000000        0.0000000000000000     
  0.96875000000000000       0.87500000000000000        0.0000000000000000     
   1.0000000000000000       0.87500000000000000        0.0000000000000000     
  0.87500000000000000       0.90625000000000000        0.0000000000000000     
  0.90625000000000000       0.90625000000000000        0.0000000000000000     
  0.93750000000000000       0.90625000000000000        0.0000000000000000     
  0.96875000000000000       0.90625000000000000        0.0000000000000000     
   1.0000000000000000       0.90625000000000000        0.0000000000000000     
  0.87500000000000000       0.93750000000000000        0.0000000000000000     
  0.90625000000000000       0.93750000000000000        0.0000000000000000     
  0.93750000000000000       0.93750000000000000        0.0000000000000000     
  0.96875000000000000       0.93750000000000000        0.0000000000000000     
   1.0000000000000000       0.93750000000000000        0.0000000000000000     
  0.87500000000000000       0.96875000000000000        0.0000000000000000     
  0.90625000000000000       0.96875000000000000        0.0000000000000000     
  0.93750000000000000       0.96875000000000000        0.0000000000000000     
  0.96875000000000000       0.96875000000000000        0.0000000000000000     
   1.0000000000000000       0.96875000000000000        0.0000000000000000     
  0.87500000000000000        1.0000000000000000        0.0000000000000000     
  0.90625000000000000        1.0000000000000000        0.0000000000000000     
  0.93750000000000000        1.0000000000000000        0.0000000000000000     
  0.96875000000000000        1.0000000000000000        0.0000000000000000     
   1.0000000000000000        1.0000000000000000        0.0000000000000000     
 </DataArray>
 </Points>
 <Cells>
 <DataArray  type="Int32"  Name="connectivity"  format="ascii">
           0           1           6           5
           1           2           7           6
           2           3           8           7
           3           4           9           8
           5           6          11          10
           6           7          12          11
           7           8          13          12
           8           9          14          13
          10          11          16          15
          11          12          17          16
          12          13          18          17
          13          14          19          18
          15          16          21          20
          16          17          22          21
          17          18          23          22
          18          19          24          23
          25          26          31          30
          26          27          32          31
          27          28          33          32
          28          29          34          33
          30          31          36          35
          31          32          37          36
          32          33          38          37
          33          34          39          38
          35          36          41          40
          36          37          42          41
          37          38          43          42
          38          39          44          43
          40          41          46          45
          41          42          47          46
          42          43          48          47
          43          44          49          48
          50          51          56          55
          51          52          57          56
          52          53          58          57
          53          54          59          58
          55          56          61          60
          56          57          62          61
          57          58          63          62
          58          59          64          63
          60          61          66          65
          61          62          67          66
          62          63          68          67
          63          64          69          68
          65          66          71          70
          66          67          72          71
          67          68          73          72
          68          69          74          73
          75          76          81          80
          76          77          82          81
          77          78          83          82
          78          79          84          83
          80          81          86          85
          81          82          87          86
          82          83          88          87
          83          84          89          88
          85          86          91          90
          86          87          92          91
          87          88          93          92
          88          89          94          93
          90          91          96          95
          91          92          97          96
          92          93          98          97
          93          94          99          98
         100         101         106         105
         101         102         107         106
         102         103         108         107
         103         104         109         108
         105         106         111         110
         106         107         112         111
         107         108         113         112
         108         109         114         113
         110         111         116         115
         111         112         117         116
         112         113         118         117
         113         114         119         118
         115         116         121         120
         116         117         122         121
         117         118         123         122
         118         119         124         123
         125         126         131         130
         126         127         132         131
         127         128         133         132
         128         129         134         133
         130         131         136         135
         131         132         137         136
         132         133         138         137
         133         134         139         138
         135         136         141         140
         136         137         142         141
         137         138         143         142
         138         139         144         143
         140         141         146         145
         141         142         147         146
         142         143         148         147
         143         144         149         148
         150         151         156         155
         151         152         157         156
         152         153         158         157
         153         154         159         158
         155         156         161         160
         156         157         162         161
         157         158         163         162
         158         159         164         163
         160         161         166         165
         161         162         167         166
         162         163         168         167
         163         164         169         168
         165         166         171         170
         166         167         172         171
         167         168         173         172
         168         169         174         173
         175         176         181         180
         176         177         182         181
         177         178         183         182
         178         179         184         183
         180         181         186         185
         181         182         187         186
         182         183         188         187
         183         184         189         188
         185         186         191         190
         186         187         192         191
         187         188         193         192
         188         189         194         193
         190         191         196         195
         191         192         197         196
         192         193         198         197
         193         194         199         198
         200         201         206         205
         201         202         207         206
         202         203         208         207
         203         204         209         208
         205         206         211         210
         206         207         212         211
         207         208         213         212
         208         209         214         213
         210         211         216         215
         211         212         217         216
         212         213         218         217
         213         214         219         218
         215         216         221         220
         216         217         222         221
         217         218         223         222
         218         219         224         223
         225         226         231         230
         226         227         232         231
         227         228         233         232
         228         229         234         233
         230         231         236         235
         231         232         237         236
         232         233         238         237
         233         234         239         238
         235         236         241         240
         236         237         242         241
         237         238         243         242
         238         239         244         243
         240         241         246         245
         241         242         247         246
         242         243         248         247
         243         244         249         248
         250         251         256         255
         251         252         257         256
         252         253         258         257
         253         254         259         258
         255         256         261         260
         256         257         262         261
         257         258         263         262
         258         259         264         263
         260         261         266         265
         261         262         267         266
         262         263         268         267
         263         264         269         268
         265         266         271         270
         266         267         272         271
         267         268         273         272
         268         269         274         273
         275         276         281         280
         276         277         282         281
         277         278         283         282
         278         279         284         283
         280         281         286         285
         281         282         287         286
         282         283         288         287
         283         284         289         288
         285         286         291         290
         286         287         292         291
         287         288         293         292
         288         289         294         293
         290         291         296         295
         291         292         297         296
         292         293         298         297
         293         294         299         298
         300         301         306         305
         301         302         307         306
         302         303         308         307
         303         304         309         308
         305         306         311         310
         306         307         312         311
         307         308         313         312
         308         309         314         313
         310         311         316         315
         311         312         317         316
         312         313         318         317
         313         314         319         318
         315         316         321         320
         316         317         322         321
         317         318         323         322
         318         319         324         323
         325         326         331         330
         326         327         332         331
         327         328         333         332
         328         329         334         333
         330         331         336         335
         331         332         337         336
         332         333         338         337
         333         334         339         338
         335         336         341         340
         336         337         342         341
         337         338         343         342
         338         339         344         343
         340         341         346         345
         341         342         347         346
         342         343         348         347
         343         344         349         348
         350         351         356         355
         351         352         357         356
         352         353         358         357
         353         354         359         358
         355         356         361         360
         356         357         362         361
         357         358         363         362
         358         359         364         363
         360         361         366         365
         361         362         367         366
         362         363         368         367
         363         364         369         368
         365         366         371         370
         366         367         372         371
         367         368         373         372
         368         369         374         373
         375         376         381         380
         376         377         382         381
         377         378         383         382
         378         379         384         383
         380         381         386         385
         381         382         387         386
         382         383         388         387
         383         384         389         388
         385         386         391         390
         386         387         392         391
         387         388         393         392
         388         389         394         393
         390         391         396         395
         391         392         397         396
         392         393         398         397
         393         394         399         398
         400         401         406         405
         401         402         407         406
         402         403         408         407
         403         404         409         408
         405         406         411         410
         406         407         412         411
         407         408         413         412
         408         409         414         413
         410         411         416         415
         411         412         417         416
         412         413         418         417
         413         414         419         418
         415         416         421         420
         416         417         422         421
         417         418         423         422
         418         419         424         423
         425         426         431         430
         426         427         432         431
         427         428         433         432
         428         429         434         433
         430         431         436         435
         431         432         437         436
         432         433         438         437
         433         434         439         438
         435         436         441         440
         436         437         442         441
         437         438         443         442
         438         439         444         443
         440         441         446         445
         441         442         447         446
         442         443         448         447
         443         444         449         448
         450         451         456         455
         451         452         457         456
         452         453         458         457
         453         454         459         458
         455         456         461         460
         456         457         462         461
         457         458         463         462
         458         459         464         463
         460         461         466         465
         461         462         467         466
         462         463         468         467
         463         464         469         468
         465         466         471         470
         466         467         472         471
         467         468         473         472
         468         469         474         473
         475         476         481         480
         476         477         482         481
         477         478         483         482
         478         479         484         483
         480         481         486         485
         481         482         487         486
         482         483         488         487
         483         484         489         488
         485         486         491         490
         486         487         492         491
         487         488         493         492
         488         489         494         493
         490         491         496         495
         491         492         497         496
         492         493         498         497
         493         494         499         498
         500         501         506         505
         501         502         507         506
         502         503         508         507
         503         504         509         508
         505         506         511         510
         506         507         512         511
         507         508         513         512
         508         509         514         513
         510         511         516         515
         511         512         517         516
         512         513         518         517
         513         514         519         518
         515         516         521         520
         516         517         522         521
         517         518         523         522
         518         519         524         523
         525         526         531         530
         526         527         532         531
         527         528         533         532
         528         529         534         533
         530         531         536         535
         531         532         537         536
         532         533         538         537
         533         534         539         538
         535         536         541         540
         536         537         542         541
         537         538         543         542
         538         539         544         543
         540         541         546         545
         541         542         547         546
         542         543         548         547
         543         544         549         548
         550         551         556         555
         551         552         557         556
         552         553         558         557
         553         554         559         558
         555         556         561         560
         556         557         562         561
         557         558         563         562
         558         559         564         563
         560         561         566         565
         561         562         567         566
         562         563         568         567
         563         564         569         568
         565         566         571         570
         566         567         572         571
         567         568         573         572
         568         569         574         573
         575         576         581         580
         576         577         582         581
         577         578         583         582
         578         579         584         583
         580         581         586         585
         581         582         587         586
         582         583         588         587
         583         584         589         588
         585         586         591         590
         586         587         592         591
         587         588         593         592
         588         589         594         593
         590         591         596         595
         591         592         597         596
         592         593         598         597
         593         594         599         598
         600         601         606         605
         601         602         607         606
         602         603         608         607
         603         604         609         608
         605         606         611         610
         606         607         612         611
         607         608         613         612
         608         609         614         613
         610         611         616         615
         611         612         617         616
         612         613         618         617
         613         614         619         618
         615         616         621         620
         616         617         622         621
         617         618         623         622
         618         619         624         623
         625         626         631         630
         626         627         632         631
         627         628         633         632
         628         629         634         633
         630         631         636         635
         631         632         637         636
         632         633         638         637
         633         634         639         638
         635         636         641         640
         636         637         642         641
         637         638         643         642
         638         639         644         643
         640         641         646         645
         641         642         647         646
         642         643         648         647
         643         644         649         648
         650         651         656         655
         651         652         657         656
         652         653         658         657
         653         654         659         658
         655         656         661         660
         656         657         662         661
         657         658         663         662
         658         659         664         663
         660         661         666         665
         661         662         667         666
         662         663         668         667
         663         664         669         668
         665         666         671         670
         666         667         672         671
         667         668         673         672
         668         669         674         673
         675         676         681         680
         676         677         682         681
         677         678         683         682
         678         679         684         683
         680         681         686         685
         681         682         687         686
         682         683         688         687
         683         684         689         688
         685         686         691         690
         686         687         692         691
         687         688         693         692
         688         689         694         693
         690         691         696         695
         691         692         697         696
         692         693         698         697
         693         694         699         698
         700         701         706         705
         701         702         707         706
         702         703         708         707
         703         704         709         708
         705         706         711         710
         706         707         712         711
         707         708         713         712
         708         709         714         713
         710         711         716         715
         711         712         717         716
         712         713         718         717
         713         714         719         718
         715         716         721         720
         716         717         722         721
         717         718         723         722
         718         719         724         723
         725         726         731         730
         726         727         732         731
         727         728         733         732
         728         729         734         733
         730         731         736         735
         731         732         737         736
         732         733         738         737
         733         734         739         738
         735         736         741         740
         736         737         742         741
         737         738         743         742
         738         739         744         743
         740         741         746         745
         741         742         747         746
         742         743         748         747
         743         744         749         748
         750         751         756         755
         751         752         757         756
         752         753         758         757
         753         754         759         758
         755         756         761         760
         756         757         762         761
         757         758         763         762
         758         759         764         763
         760         761         766         765
         761         762         767         766
         762         763         768         767
         763         764         769         768
         765         766         771         770
         766         767         772         771
         767         768         773         772
         768         769         774         773
         775         776         781         780
         776         777         782         781
         777         778         783         782
         778         779         784         783
         780         781         786         785
         781         782         787         786
         782         783         788         787
         783         784         789         788
         785         786         791         790
         786         787         792         791
         787         788         793         792
         788         789         794         793
         790         791         796         795
         791         792         797         796
         792         793         798         797
         793         794         799         798
         800         801         806         805
         801         802         807         806
         802         803         808         807
         803         804         809         808
         805         806         811         810
         806         807         812         811
         807         808         813         812
         808         809         814         813
         810         811         816         815
         811         812         817         816
         812         813         818         817
         813         814         819         818
         815         816         821         820
         816         817         822         821
         817         818         823         822
         818         819         824         823
         825         826         831         830
         826         827         832         831
         827         828         833         832
         828         829         834         833
         830         831         836         835
         831         832         837         836
         832         833         838         837
         833         834         839         838
         835         836         841         840
         836         837         842         841
         837         838         843         842
         838         839         844         843
         840         841         846         845
         841         842         847         846
         842         843         848         847
         843         844         849         848
         850         851         856         855
         851         852         857         856
         852         853         858         857
         853         854         859         858
         855         856         861         860
         856         857         862         861
         857         858         863         862
         858         859         864         863
         860         861         866         865
         861         862         867         866
         862         863         868         867
         863         864         869         868
         865         866         871         870
         866         867         872         871
         867         868         873         872
         868         869         874         873
         875         876         881         880
         876         877         882         881
         877         878         883         882
         878         879         884         883
         880         881         886         885
         881         882         887         886
         882         883         888         887
         883         884         889         888
         885         886         891         890
         886         887         892         891
         887         888         893         892
         888         889         894         893
         890         891         896         895
         891         892         897         896
         892         893         898         897
         893         894         899         898
         900         901         906         905
         901         902         907         906
         902         903         908         907
         903         904         909         908
         905         906         911         910
         906         907         912         911
         907         908         913         912
         908         909         914         913
         910         911         916         915
         911         912         917         916
         912         913         918         917
         913         914         919         918
         915         916         921         920
         916         917         922         921
         917         918         923         922
         918         919         924         923
         925         926         931         930
         926         927         932         931
         927         928         933         932
         928         929         934         933
         930         931         936         935
         931         932         937         936
         932         933         938         937
         933         934         939         938
         935         936         941         940
         936         937         942         941
         937         938         943         942
         938         939         944         943
         940         941         946         945
         941         942         947         946
         942         943         948         947
         943         944         949         948
         950         951         956         955
         951         952         957         956
         952         953         958         957
         953         954         959         958
         955         956         961         960
         956         957         962         961
         957         958         963         962
         958         959         964         963
         960         961         966         965
         961         962         967         966
         962         963         968         967
         963         964         969         968
         965         966         971         970
         966         967         972         971
         967         968         973         972
         968         969         974         973
         975         976         981         980
         976         977         982         981
         977         978         983         982
         978         979         984         983
         980         981         986         985
         981         982         987         986
         982         983         988         987
         983         984         989         988
         985         986         991         990
         986         987         992         991
         987         988         993         992
         988         989         994         993
         990         991         996         995
         991         992         997         996
         992         993         998         997
         993         994         999         998
        1000        1001        1006        1005
        1001        1002        1007        1006
        1002        1003        1008        1007
        1003        1004        1009        1008
        1005        1006        1011        1010
        1006        1007        1012        1011
        1007        1008        1013        1012
        1008        1009        1014        1013
        1010        1011        1016        1015
        1011        1012        1017        1016
        1012        1013        1018        1017
        1013        1014        1019        1018
        1015        1016        1021        1020
        1016        1017        1022        1021
        1017        1018        1023        1022
        1018        1019        1024        1023
        1025        1026        1031        1030
        1026        1027        1032        1031
        1027        1028        1033        1032
        1028        1029        1034        1033
        1030        1031        1036        1035
        1031        1032        1037        1036
        1032        1033        1038        1037
        1033        1034        1039        1038
        1035        1036        1041        1040
        1036        1037        1042        1041
        1037        1038        1043        1042
        1038        1039        1044        1043
        1040        1041        1046        1045
        1041        1042        1047        1046
        1042        1043        1048        1047
        1043        1044        1049        1048
        1050        1051        1056        1055
        1051        1052        1057        1056
        1052        1053        1058        1057
        1053        1054        1059        1058
        1055        1056        1061        1060
        1056        1057        1062        1061
        1057        1058        1063        1062
        1058        1059        1064        1063
        1060        1061        1066        1065
        1061        1062        1067        1066
        1062        1063        1068        1067
        1063        1064        1069        1068
        1065        1066        1071        1070
        1066        1067        1072        1071
        1067        1068        1073        1072
        1068        1069        1074        1073
        1075        1076        1081        1080
        1076        1077        1082        1081
        1077        1078        1083        1082
        1078        1079        1084        1083
        1080        1081        1086        1085
        1081        1082        1087        1086
        1082        1083        1088        1087
        1083        1084        1089        1088
        1085        1086        1091        1090
        1086        1087        1092        1091
        1087        1088        1093        1092
        1088        1089        1094        1093
        1090        1091        1096        1095
        1091        1092        1097        1096
        1092        1093        1098        1097
        1093        1094        1099        1098
        1100        1101        1106        1105
        1101        1102        1107        1106
        1102        1103        1108        1107
        1103        1104        1109        1108
        1105        1106        1111        1110
        1106        1107        1112        1111
        1107        1108        1113        1112
        1108        1109        1114        1113
        1110        1111        1116        1115
        1111        1112        1117        1116
        1112        1113        1118        1117
        1113        1114        1119        1118
        1115        1116        1121        1120
        1116        1117        1122        1121
        1117        1118        1123        1122
        1118        1119        1124        1123
        1125        1126        1131        1130
        1126        1127        1132        1131
        1127        1128        1133        1132
        1128        1129        1134        1133
        1130        1131        1136        1135
        1131        1132        1137        1136
        1132        1133        1138        1137
        1133        1134        1139        1138
        1135        1136        1141        1140
        1136        1137        1142        1141
        1137        1138        1143        1142
        1138        1139        1144        1143
        1140        1141        1146        1145
        1141        1142        1147        1146
        1142        1143        1148        1147
        1143        1144        1149        1148
        1150        1151        1156        1155
        1151        1152        1157        1156
        1152        1153        1158        1157
        1153        1154        1159        1158
        1155        1156        1161        1160
        1156        1157        1162        1161
        1157        1158        1163        1162
        1158        1159        1164        1163
        1160        1161        1166        1165
        1161        1162        1167        1166
        1162        1163        1168        1167
        1163        1164        1169        1168
        1165        1166        1171        1170
        1166        1167        1172        1171
        1167        1168        1173        1172
        1168        1169        1174        1173
        1175        1176        1181        1180
        1176        1177        1182        1181
        1177        1178        1183        1182
        1178        1179        1184        1183
        1180        1181        1186        1185
        1181        1182        1187        1186
        1182        1183        1188        1187
        1183        1184        1189        1188
        1185        1186        1191        1190
        1186        1187        1192        1191
        1187        1188        1193        1192
        1188        1189        1194        1193
        1190        1191        1196        1195
        1191        1192        1197        1196
        1192        1193        1198        1197
        1193        1194        1199        1198
        1200        1201        1206        1205
        1201        1202        1207        1206
        1202        1203        1208        1207
        1203        1204        1209        1208
        1205        1206        1211        1210
        1206        1207        1212        1211
        1207        1208        1213        1212
        1208        1209        1214        1213
        1210        1211        1216        1215
        1211        1212        1217        1216
        1212        1213        1218        1217
        1213        1214        1219        1218
        1215        1216        1221        1220
        1216        1217        1222        1221
        1217        1218        1223        1222
        1218        1219        1224        1223
        1225        1226        1231        1230
        1226        1227        1232        1231
        1227        1228        1233        1232
        1228        1229        1234        1233
        1230        1231        1236        1235
        1231        1232        1237        1236
        1232        1233        1238        1237
        1233        1234        1239        1238
        1235        1236        1241        1240
        1236        1237        1242        1241
        1237        1238        1243        1242
        1238        1239        1244        1243
        1240        1241        1246        1245
        1241        1242        1247        1246
        1242        1243        1248        1247
        1243        1244        1249        1248
        1250        1251        1256        1255
        1251        1252        1257        1256
        1252        1253        1258        1257
        1253        1254        1259        1258
        1255        1256        1261        1260
        1256        1257        1262        1261
        1257        1258        1263        1262
        1258        1259        1264        1263
        1260        1261        1266        1265
        1261        1262        1267        1266
        1262        1263        1268        1267
        1263        1264        1269        1268
        1265        1266        1271        1270
        1266        1267        1272        1271
        1267        1268        1273        1272
        1268        1269        1274        1273
        1275        1276        1281        1280
        1276        1277        1282        1281
        1277        1278        1283        1282
        1278        1279        1284        1283
        1280        1281        1286        1285
        1281        1282        1287        1286
        1282        1283        1288        1287
        1283        1284        1289        1288
        1285        1286        1291        1290
        1286        1287        1292        1291
        1287        1288        1293        1292
        1288        1289        1294        1293
        1290        1291        1296        1295
        1291        1292        1297        1296
        1292        1293        1298        1297
        1293        1294        1299        1298
        1300        1301        1306        1305
        1301        1302        1307        1306
        1302        1303        1308        1307
        1303        1304        1309        1308
        1305        1306        1311        1310
        1306        1307        1312        1311
        1307        1308        1313        1312
        1308        1309        1314        1313
        1310        1311        1316        1315
        1311        1312        1317        1316
        1312        1313        1318        1317
        1313        1314        1319        1318
        1315        1316        1321        1320
        1316        1317        1322        1321
        1317        1318        1323        1322
        1318        1319        1324        1323
        1325        1326        1331        1330
        1326        1327        1332        1331
        1327        1328        1333        1332
        1328        1329        1334        1333
        1330        1331        1336        1335
        1331        1332        1337        1336
        1332        1333        1338        1337
        1333        1334        1339        1338
        1335        1336        1341        1340
        1336        1337        1342        1341
        1337        1338        1343        1342
        1338        1339        1344        1343
        1340        1341        1346        1345
        1341        1342        1347        1346
        1342        1343        1348        1347
        1343        1344        1349        1348
        1350        1351        1356        1355
        1351        1352        1357        1356
        1352        1353        1358        1357
        1353        1354        1359        1358
        1355        1356        1361        1360
        1356        1357        1362        1361
        1357        1358        1363        1362
        1358        1359        1364        1363
        1360        1361        1366        1365
        1361        1362        1367        1366
        1362        1363        1368        1367
        1363        1364        1369        1368
        1365        1366        1371        1370
        1366        1367        1372        1371
        1367        1368        1373        1372
        1368        1369        1374        1373
        1375        1376        1381        1380
        1376        1377        1382        1381
        1377        1378        1383        1382
        1378        1379        1384        1383
        1380        1381        1386        1385
        1381        1382        1387        1386
        1382        1383        1388        1387
        1383        1384        1389        1388
        1385        1386        1391        1390
        1386        1387        1392        1391
        1387        1388        1393        1392
        1388        1389        1394        1393
        1390        1391        1396        1395
        1391        1392        1397        1396
        1392        1393        1398        1397
        1393        1394        1399        1398
        1400        1401        1406        1405
        1401        1402        1407        1406
        1402        1403        1408        1407
        1403        1404        1409        1408
        1405        1406        1411        1410
        1406        1407        1412        1411
        1407        1408        1413        1412
        1408        1409        1414        1413
        1410        1411        1416        1415
        1411        1412        1417        1416
        1412        1413        1418        1417
        1413        1414        1419        1418
        1415        1416        1421        1420
        1416        1417        1422        1421
        1417        1418        1423        1422
        1418        1419        1424        1423
        1425        1426        1431        1430
        1426        1427        1432        1431
        1427        1428        1433        1432
        1428        1429        1434        1433
        1430        1431        1436        1435
        1431        1432        1437        1436
        1432        1433        1438        1437
        1433        1434        1439        1438
        1435        1436        1441        1440
        1436        1437        1442        1441
        1437        1438        1443        1442
        1438        1439        1444        1443
        1440        1441        1446        1445
        1441        1442        1447        1446
        1442        1443        1448        1447
        1443        1444        1449        1448
        1450        1451        1456        1455
        1451        1452        1457        1456
        1452        1453        1458        1457
        1453        1454        1459        1458
        1455        1456        1461        1460
        1456        1457        1462        1461
        1457        1458        1463        1462
        1458        1459        1464        1463
        1460        1461        1466        1465
        1461        1462        1467        1466
        1462        1463        1468        1467
        1463        1464        1469        1468
        1465        1466        1471        1470
        1466        1467        1472        1471
        1467        1468        1473        1472
        1468        1469        1474        1473
        1475        1476        1481        1480
        1476        1477        1482        1481
        1477        1478        1483        1482
        1478        1479        1484        1483
        1480        1481        1486        1485
        1481        1482        1487        1486
        1482        1483        1488        1487
        1483        1484        1489        1488
        1485        1486        1491        1490
        1486        1487        1492        1491
        1487        1488        1493        1492
        1488        1489        1494        1493
        1490        1491        1496        1495
        1491        1492        1497        1496
        1492        1493        1498        1497
        1493        1494        1499        1498
        1500        1501        1506        1505
        1501        1502        1507        1506
        1502        1503        1508        1507
        1503        1504        1509        1508
        1505        1506        1511        1510
        1506        1507        1512        1511
        1507        1508        1513        1512
        1508        1509        1514        1513
        1510        1511        1516        1515
        1511        1512        1517        1516
        1512        1513        1518        1517
        1513        1514        1519        1518
        1515        1516        1521        1520
        1516        1517        1522        1521
        1517        1518        1523        1522
        1518        1519        1524        1523
        1525        1526        1531        1530
        1526        1527        1532        1531
        1527        1528        1533        1532
        1528        1529        1534        1533
        1530        1531        1536        1535
        1531        1532        1537        1536
        1532        1533        1538        1537
        1533        1534        1539        1538
        1535        1536        1541        1540
        1536        1537        1542        1541
        1537        1538        1543        1542
        1538        1539        1544        1543
        1540        1541        1546        1545
        1541        1542        1547        1546
        1542        1543        1548        1547
        1543        1544        1549        1548
        1550        1551        1556        1555
        1551        1552        1557        1556
        1552        1553        1558        1557
        1553        1554        1559        1558
        1555        1556        1561        1560
        1556        1557        1562        1561
        1557        1558        1563        1562
        1558        1559        1564        1563
        1560        1561        1566        1565
        1561        1562        1567        1566
        1562        1563        1568        1567
        1563        1564        1569        1568
        1565        1566        1571        1570
        1566        1567        1572        1571
        1567        1568        1573        1572
        1568        1569        1574        1573
        1575        1576        1581        1580
        1576        1577        1582        1581
        1577        1578        1583        1582
        1578        1579        1584        1583
        1580        1581        1586        1585
        1581        1582        1587        1586
        1582        1583        1588        1587
        1583        1584        1589        1588
        1585        1586        1591        1590
        1586        1587        1592        1591
        1587        1588        1593        1592
        1588        1589        1594        1593
        1590        1591        1596        1595
        1591        1592        1597        1596
        1592        1593        1598        1597
        1593        1594        1599        1598
 </DataArray>
 <DataArray  type="Int32"  Name="offsets"  format="ascii"> 
           4
           8
          12
          16
          20
          24
          28
          32
          36
          40
          44
          48
          52
          56
          60
          64
          68
          72
          76
          80
          84
          88
          92
          96
         100
         104
         108
         112
         116
         120
         124
         128
         132
         136
         140
         144
         148
         152
         156
         160
         164
         168
         172
         176
         180
         184
         188
         192
         196
         200
         204
         208
         212
         216
         220
         224
         228
         232
         236
         240
         244
         248
         252
         256
         260
         264
         268
         272
         276
         280
         284
         288
         292
         296
         300
         304
         308
         312
         316
         320
         324
         328
         332
         336
         340
         344
         348
         352
         356
         360
         364
         368
         372
         376
         380
         384
         388
         392
         396
         400
         404
         408
         412
         416
         420
         424
         428
         432
         436
         440
         444
         448
         452
         456
         460
         464
         468
         472
         476
         480
         484
         488
         492
         496
         500
         504
         508
         512
         516
         520
         524
         528
         532
         536
         540
         544
         548
         552
         556
         560
         564
         568
         572
         576
         580
         584
         588
         592
         596
         600
         604
         608
         612
         616
         620
         624
         628
         632
         636
         640
         644
         648
         652
         656
         660
         664
         668
         672
         676
         680
         684
         688
         692
         696
         700
         704
         708
         712
         716
         720
         724
         728
         732
         736
         740
         744
         748
         752
         756
         760
         764
         768
         772
         776
         780
         784
         788
         792
         796
         800
         804
         808
         812
         816
         820
         824
         828
         832
         836
         840
         844
         848
         852
         856
         860
         864
         868
         872
         876
         880
         884
         888
         892
         896
         900
         904
         908
         912
         916
         920
         924
         928
         932
         936
         940
         944
         948
         952
         956
         960
         964
         968
         972
         976
         980
         984
         988
         992
         996
        1000
        1004
        1008
        1012
        1016
        1020
        1024
        1028
        1032
        1036
        1040
        1044
        1048
        1052
        1056
        1060
        1064
        1068
        1072
        1076
        1080
        1084
        1088
        1092
        1096
        1100
        1104
        1108
        1112
        1116
        1120
        1124
        1128
        1132
        1136
        1140
        1144
        1148
        1152
        1156
        1160
        1164
        1168
        1172
        1176
        1180
        1184
        1188
        1192
        1196
        1200
        1204
        1208
        1212
        1216
        1220
        1224
        1228
        1232
        1236
        1240
        1244
        1248
        1252
        1256
        1260
        1264
        1268
        1272
        1276
        1280
        1284
        1288
        1292
        1296
        1300
        1304
        1308
        1312
        1316
        1320
        1324
        1328
        1332
        1336
        1340
        1344
        1348
        1352
        1356
        1360
        1364
        1368
        1372
        1376
        1380
        1384
        1388
        1392
        1396
        1400
        1404
        1408
        1412
        1416
        1420
        1424
        1428
        1432
        1436
        1440
        1444
        1448
        1452
        1456
        1460
        1464
        1468
        1472
        1476
        1480
        1484
        1488
        1492
        1496
        1500
        1504
        1508
        1512
        1516
        1520
        1524
        1528
        1532
        1536
        1540
        1544
        1548
        1552
        1556
        1560
        1564
        1568
        1572
        1576
        1580
        1584
        1588
        1592
        1596
        1600
        1604
        1608
        1612
        1616
        1620
        1624
        1628
        1632
        1636
        1640
        1644
        1648
        1652
        1656
        1660
        1664
        1668
        1672
        1676
        1680
        1684
        1688
        1692
        1696
        1700
        1704
        1708
        1712
        1716
        1720
        1724
        1728
        1732
        1736
        1740
        1744
        1748
        1752
        1756
        1760
        1764
        1768
        1772
        1776
        1780
        1784
        1788
        1792
        1796
        1800
        1804
        1808
        1812
        1816
        1820
        1824
        1828
        1832
        1836
        1840
        1844
        1848
        1852
        1856
        1860
        1864
        1868
        1872
        1876
        1880
        1884
        1888
        1892
        1896
        1900
        1904
        1908
        1912
        1916
        1920
        1924
        1928
        1932
        1936
        1940
        1944
        1948
        1952
        1956
        1960
        1964
        1968
        1972
        1976
        1980
        1984
        1988
        1992
        1996
        2000
        2004
        2008
        2012
        2016
        2020
        2024
        2028
        2032
        2036
        2040
        2044
        2048
        2052
        2056
        2060
        2064
        2068
        2072
        2076
        2080
        2084
        2088
        2092
        2096
        2100
        2104
        2108
        2112
        2116
        2120
        2124
        2128
        2132
        2136
        2140
        2144
        2148
        2152
        2156
        2160
        2164
        2168
        2172
        2176
        2180
        2184
        2188
        2192
        2196
        2200
        2204
        2208
        2212
        2216
        2220
        2224
        2228
        2232
        2236
        2240
        2244
        2248
        2252
        2256
        2260
        2264
        2268
        2272
        2276
        2280
        2284
        2288
        2292
        2296
        2300
        2304
        2308
        2312
        2316
        2320
        2324
        2328
        2332
        2336
        2340
        2344
        2348
        2352
        2356
        2360
        2364
        2368
        2372
        2376
        2380
        2384
        2388
        2392
        2396
        2400
        2404
        2408
        2412
        2416
        2420
        2424
        2428
        2432
        2436
        2440
        2444
        2448
        2452
        2456
        2460
        2464
        2468
        2472
        2476
        2480
        2484
        2488
        2492
        2496
        2500
        2504
        2508
        2512
        2516
        2520
        2524
        2528
        2532
        2536
        2540
        2544
        2548
        2552
        2556
        2560
        2564
        2568
        2572
        2576
        2580
        2584
        2588
        2592
        2596
        2600
        2604
        2608
        2612
        2616
        2620
        2624
        2628
        2632
        2636
        2640
        2644
        2648
        2652
        2656
        2660
        2664
        2668
        2672
        2676
        2680
        2684
        2688
        2692
        2696
        2700
        2704
        2708
        2712
        2716
        2720
        2724
        2728
        2732
        2736
        2740
        2744
        2748
        2752
        2756
        2760
        2764
        2768
        2772
        2776
        2780
        2784
        2788
        2792
        2796
        2800
        2804
        2808
        2812
        2816
        2820
        2824
        2828
        2832
        2836
        2840
        2844
        2848
        2852
        2856
        2860
        2864
        2868
        2872
        2876
        2880
        2884
        2888
        2892
        2896
        2900
        2904
        2908
        2912
        2916
        2920
        2924
        2928
        2932
        2936
        2940
        2944
        2948
        2952
        2956
        2960
        2964
        2968
        2972
        2976
        2980
        2984
        2988
        2992
        2996
        3000
        3004
        3008
        3012
        3016
        3020
        3024
        3028
        3032
        3036
        3040
        3044
        3048
        3052
        3056
        3060
        3064
        3068
        3072
        3076
        3080
        3084
        3088
        3092
        3096
        3100
        3104
        3108
        3112
        3116
        3120
        3124
        3128
        3132
        3136
        3140
        3144
        3148
        3152
        3156
        3160
        3164
        3168
        3172
        3176
        3180
        3184
        3188
        3192
        3196
        3200
        3204
        3208
        3212
        3216
        3220
        3224
        3228
        3232
        3236
        3240
        3244
        3248
        3252
        3256
        3260
        3264
        3268
        3272
        3276
        3280
        3284
        3288
        3292
        3296
        3300
        3304
        3308
        3312
        3316
        3320
        3324
        3328
        3332
        3336
        3340
        3344
        3348
        3352
        3356
        3360
        3364
        3368
        3372
        3376
        3380
        3384
        3388
        3392
        3396
        3400
        3404
        3408
        3412
        3416
        3420
        3424
        3428
        3432
        3436
        3440
        3444
        3448
        3452
        3456
        3460
        3464
        3468
        3472
        3476
        3480
        3484
        3488
        3492
        3496
        3500
        3504
        3508
        3512
        3516
        3520
        3524
        3528
        3532
        3536
        3540
        3544
        3548
        3552
        3556
        3560
        3564
        3568
        3572
        3576
        3580
        3584
        3588
        3592
        3596
        3600
        3604
        3608
        3612
        3616
        3620
        3624
        3628
        3632
        3636
        3640
        3644
        3648
        3652
        3656
        3660
        3664
        3668
        3672
        3676
        3680
        3684
        3688
        3692
        3696
        3700
        3704
        3708
        3712
        3716
        3720
        3724
        3728
        3732
        3736
        3740
        3744
        3748
        3752
        3756
        3760
        3764
        3768
        3772
        3776
        3780
        3784
        3788
        3792
        3796
        3800
        3804
        3808
        3812
        3816
        3820
        3824
        3828
        3832
        3836
        3840
        3844
        3848
        3852
        3856
        3860
        3864
        3868
        3872
        3876
        3880
        3884
        3888
        3892
        3896
        3900
        3904
        3908
        3912
        3916
        3920
        3924
        3928
        3932
        3936
        3940
        3944
        3948
        3952
        3956
        3960
        3964
        3968
        3972
        3976
        3980
        3984
        3988
        3992
        3996
        4000
        4004
        4008
        4012
        4016
        4020
        4024
        4028
        4032
        4036
        4040
        4044
        4048
        4052
        4056
        4060
        4064
        4068
        4072
        4076
        4080
        4084
        4088
        4092
        4096
 </DataArray>
 <DataArray  type="UInt8"  Name="types"  format="ascii">
 9
 9
 9
 9
 9
 9
 9
 9
 9
 9
 9
 9
 9
 9
 9
 9
 9
 9
 9
 9
 9
 9
 9
 9
 9
 9
 9
 9
 9
 9
 9
 9
 9
 9
 9
 9
 9
 9
 9
 9
 9
 9
 9
 9
 9
 9
 9
 9
 9
 9
 9
 9
 9
 9
 9
 9
 9
 9
 9
 9
 9
 9
 9
 9
 9
 9
 9
 9
 9
 9
 9
 9
 9
 9
 9
 9
 9
 9
 9
 9
 9
 9
 9
 9
 9
 9
 9
 9
 9
 9
 9
 9
 9
 9
 9
 9
 9
 9
 9
 9
 9
 9
 9
 9
 9
 9
 9
 9
 9
 9
 9
 9
 9
 9
 9
 9
 9
 9
 9
 9
 9
 9
 9
 9
 9
 9
 9
 9
 9
 9
 9
 9
 9
 9
 9
 9
 9
 9
 9
 9
 9
 9
 9
 9
 9
 9
 9
 9
 9
 9
 9
 9
 9
 9
 9
 9
 9
 9
 9
 9
 9
 9
 9
 9
 9
 9
 9
 9
 9
 9
 9
 9
 9
 9
 9
 9
 9
 9
 9
 9
 9
 9
 9
 9
 9
 9
 9
 9
 9
 9
 9
 9
 9
 9
 9
 9
 9
 9
 9
 9
 9
 9
 9
 9
 9
 9
 9
 9
 9
 9
 9
 9
 9
 9
 9
 9
 9
 9
 9
 9
 9
 9
 9
 9
 9
 9
 9
 9
 9
 9
 9
 9
 9
 9
 9
 9
 9
 9
 9
 9
 9
 9
 9
 9
 9
 9
 9
 9
 9
 9
 9
 9
 9
 9
 9
 9
 9
 9
 9
 9
 9
 9
 9
 9
 9
 9
 9
 9
 9
 9
 9
 9
 9
 9
 9
 9
 9
 9
 9
 9
 9
 9
 9
 9
 9
 9
 9
 9
 9
 9
 9
 9
 9
 9
 9
 9
 9
 9
 9
 9
 9
 9
 9
 9
 9
 9
 9
 9
 9
 9
 9
 9
 9
 9
 9
 9
 9
 9
 9
 9
 9
 9
 9
 9
 9
 9
 9
 9
 9
 9
 9
 9
 9
 9
 9
 9
 9
 9
 9
 9
 9
 9
 9
 9
 9
 9
 9
 9
 9
 9
 9
 9
 9
 9
 9
 9
 9
 9
 9
 9
 9
 9
 9
 9
 9
 9
 9
 9
 9
 9
 9
 9
 9
 9
 9
 9
 9
 9
 9
 9
 9
 9
 9
 9
 9
 9
 9
 9
 9
 9
 9
 9
 9
 9
 9
 9
 9
 9
 9
 9
 9
 9
 9
 9
 9
 9
 9
 9
 9
 9
 9
 9
 9
 9
 9
 9
 9
 9
 9
 9
 9
 9
 9
 9
 9
 9
 9
 9
 9
 9
 9
 9
 9
 9
 9
 9
 9
 9
 9
 9
 9
 9
 9
 9
 9
 9
 9
 9
 9
 9
 9
 9
 9
 9
 9
 9
 9
 9
 9
 9
 9
 9
 9
 9
 9
 9
 9
 9
 9
 9
 9
 9
 9
 9
 9
 9
 9
 9
 9
 9
 9
 9
 9
 9
 9
 9
 9
 9
 9
 9
 9
 9
 9
 9
 9
 9
 9
 9
 9
 9
 9
 9
 9
 9
 9
 9
 9
 9
 9
 9
 9
 9
 9
 9
 9
 9
 9
 9
 9
 9
 9
 9
 9
 9
 9
 9
 9
 9
 9
 9
 9
 9
 9
 9
 9
 9
 9
 9
 9
 9
 9
 9
 9
 9
 9
 9
 9
 9
 9
 9
 9
 9
 9
 9
 9
 9
 9
 9
 9
 9
 9
 9
 9
 9
 9
 9
 9
 9
 9
 9
 9
 9
 9
 9
 9
 9
 9
 9
 9
 9
 9
 9
 9
 9
 9
 9
 9
 9
 9
 9
 9
 9
 9
 9
 9
 9
 9
 9
 9
 9
 9
 9
 9
 9
 9
 9
 9
 9
 9
 9
 9
 9
 9
 9
 9
 9
 9
 9
 9
 9
 9
 9
 9
 9
 9
 9
 9
 9
 9
 9
 9
 9
 9
 9
 9
 9
 9
 9
 9
 9
 9
 9
 9
 9
 9
 9
 9
 9
 9
 9
 9
 9
 9
 9
 9
 9
 9
 9
 9
 9
 9
 9
 9
 9
 9
 9
 9
 9
 9
 9
 9
 9
 9
 9
 9
 9
 9
 9
 9
 9
 9
 9
 9
 9
 9
 9
 9
 9
 9
 9
 9
 9
 9
 9
 9
 9
 9
 9
 9
 9
 9
 9
 9
 9
 9
 9
 9
 9
 9
 9
 9
 9
 9
 9
 9
 9
 9
 9
 9
 9
 9
 9
 9
 9
 9
 9
 9
 9
 9
 9
 9
 9
 9
 9
 9
 9
 9
 9
 9
 9
 9
 9
 9
 9
 9
 9
 9
 9
 9
 9
 9
 9
 9
 9
 9
 9
 9
 9
 9
 9
 9
 9
 9
 9
 9
 9
 9
 9
 9
 9
 9
 9
 9
 9
 9
 9
 9
 9
 9
 9
 9
 9
 9
 9
 9
 9
 9
 9
 9
 9
 9
 9
 9
 9
 9
 9
 9
 9
 9
 9
 9
 9
 9
 9
 9
 9
 9
 9
 9
 9
 9
 9
 9
 9
 9
 9
 9
 9
 9
 9
 9
 9
 9
 9
 9
 9
 9
 9
 9
 9
 9
 9
 9
 9
 9
 9
 9
 9
 9
 9
 9
 9
 9
 9
 9
 9
 9
 9
 9
 9
 9
 9
 9
 9
 9
 9
 9
 9
 9
 9
 9
 9
 9
 9
 9
 9
 9
 9
 9
 9
 9
 9
 9
 9
 9
 9
 9
 9
 9
 9
 9
 9
 9
 9
 9
 9
 9
 9
 9
 9
 9
 9
 9
 9
 9
 9
 9
 9
 9
 9
 9
 9
 9
 9
 9
 9
 9
 9
 9
 9
 9
 9
 9
 9
 9
 9
 9
 9
 9
 9
 9
 9
 9
 9
 9
 9
 9
 9
 9
 9
 9
 9
 9
 9
 9
 9
 9
 9
 9
 9
 9
 9
 9
 9
 9
 9
 9
 9
 9
 9
 9
 9
 9
 9
 9
 9
 9
 9
 9
 9
 9
 9
 9
 9
 9
 9
 9
 9
 9
 9
 9
 9
 9
 9
 9
 9
 9
 9
 9
 9
 9
 9
 9
 9
 9
 9
 9
 9
 9
 9
 9
 9
 9
 9
 9
 9
 9
 9
 9
 9
 9
 9
 9
 9
 9
 9
 9
 9
 9
 9
 9
 9
 9
 9
 9
 9
 9
 9
 9
 9
 9
 9
 9
 9
 </DataArray>
 </Cells> 
 <PointData>
 <DataArray  type="Float64" Name="disp" NumberOfComponents="3" format="ascii">
   0.0000000000000000        0.0000000000000000        0.0000000000000000     
   6.0960012019638278E-003   3.7903696244813313E-003   0.0000000000000000     
   1.1666055372224933E-002   7.3237950585585427E-003   0.0000000000000000     
   1.6710162510783319E-002   1.0600276302231633E-002   0.0000000000000000     
   2.1228322617638982E-002   1.3619813355500603E-002   0.0000000000000000     
   0.0000000000000000        0.0000000000000000        0.0000000000000000     
   4.8911679295322716E-003   3.0221449621438265E-003   0.0000000000000000     
   9.5736618483669433E-003   6.0605525096330930E-003   0.0000000000000000     
   1.4047481756504014E-002   9.1152226424678004E-003   0.0000000000000000     
   1.8312627653943488E-002   1.2186155360647948E-002   0.0000000000000000     
   0.0000000000000000        0.0000000000000000        0.0000000000000000     
   3.9535720970849658E-003   2.4251532560881457E-003   0.0000000000000000     
   7.9106361052361900E-003   5.0629512123215245E-003   0.0000000000000000     
   1.1871192024453674E-002   7.9133938687001373E-003   0.0000000000000000     
   1.5835239854737421E-002   1.0976481225223982E-002   0.0000000000000000     
   0.0000000000000000        0.0000000000000000        0.0000000000000000     
   3.2832137046219104E-003   1.9993945063142885E-003   0.0000000000000000     
   6.6769781428326772E-003   4.3309911666238356E-003   0.0000000000000000     
   1.0181293314632297E-002   6.9947899809286391E-003   0.0000000000000000     
   1.3796159220020773E-002   9.9907909492287020E-003   0.0000000000000000     
   0.0000000000000000        0.0000000000000000        0.0000000000000000     
   2.8800927521431072E-003   1.7448687128222553E-003   0.0000000000000000     
   5.8726879611564007E-003   3.8646723725400253E-003   0.0000000000000000     
   8.9777856270398821E-003   6.3594109791533090E-003   0.0000000000000000     
   1.2195385749793550E-002   9.2290845326621074E-003   0.0000000000000000     
   2.1228322617638982E-002   1.3619813355500603E-002   0.0000000000000000     
   2.5433444115887896E-002   1.6612910483268156E-002   0.0000000000000000     
   2.9538435428626050E-002   1.9810071950436988E-002   0.0000000000000000     
   3.3543296555853433E-002   2.3211297757007105E-002   0.0000000000000000     
   3.7448027497570049E-002   2.6816587902978507E-002   0.0000000000000000     
   1.8312627653943488E-002   1.2186155360647948E-002   0.0000000000000000     
   2.2407324454053246E-002   1.5341679848334433E-002   0.0000000000000000     
   2.6369797070201179E-002   1.8650125289688149E-002   0.0000000000000000     
   3.0200045502387279E-002   2.2111491684709095E-002   0.0000000000000000     
   3.3898069750611548E-002   2.5725779033397272E-002   0.0000000000000000     
   1.5835239854737421E-002   1.0976481225223982E-002   0.0000000000000000     
   1.9731004905793558E-002   1.4211060668989433E-002   0.0000000000000000     
   2.3486712487328226E-002   1.7575979587092855E-002   0.0000000000000000     
   2.7102362599341425E-002   2.1071237979534255E-002   0.0000000000000000     
   3.0577955241833151E-002   2.4696835846313631E-002   0.0000000000000000     
   1.3796159220020773E-002   9.9907909492287020E-003   0.0000000000000000     
   1.7404485471108830E-002   1.3221052945233151E-002   0.0000000000000000     
   2.0889181680007200E-002   1.6587634842651112E-002   0.0000000000000000     
   2.4250247846715877E-002   2.0090536641482588E-002   0.0000000000000000     
   2.7487683971234862E-002   2.3729758341727580E-002   0.0000000000000000     
   1.2195385749793550E-002   9.2290845326621074E-003   0.0000000000000000     
   1.5427766149999068E-002   1.2371656677065588E-002   0.0000000000000000     
   1.8577204648238095E-002   1.5685091056362916E-002   0.0000000000000000     
   2.1643701244510632E-002   1.9169387670554091E-002   0.0000000000000000     
   2.4627255938816678E-002   2.2824546519639121E-002   0.0000000000000000     
   3.7448027497570049E-002   2.6816587902978507E-002   0.0000000000000000     
   4.1256756780779988E-002   3.0621567827202281E-002   0.0000000000000000     
   4.4973612932487320E-002   3.4621862968529524E-002   0.0000000000000000     
   4.8598595952692066E-002   3.8817473326960242E-002   0.0000000000000000     
   5.2131705841394212E-002   4.3208398902494428E-002   0.0000000000000000     
   3.3898069750611548E-002   2.5725779033397272E-002   0.0000000000000000     
   3.7486893925096923E-002   2.9521928654013645E-002   0.0000000000000000     
   4.0989542136066329E-002   3.3528881864819199E-002   0.0000000000000000     
   4.4406014383519779E-002   3.7746638665813917E-002   0.0000000000000000     
   4.7736310667457260E-002   4.2175199056997806E-002   0.0000000000000000     
   3.0577955241833151E-002   2.4696835846313631E-002   0.0000000000000000     
   3.3942811482336147E-002   2.8497327908176991E-002   0.0000000000000000     
   3.7226252388383139E-002   3.2517268885870365E-002   0.0000000000000000     
   4.0428277959974154E-002   3.6756658779393742E-002   0.0000000000000000     
   4.3548888197109163E-002   4.1215497588747131E-002   0.0000000000000000     
   2.7487683971234862E-002   2.3729758341727580E-002   0.0000000000000000     
   3.0624509452497659E-002   2.7547765589692314E-002   0.0000000000000000     
   3.3683743689437773E-002   3.1587024031683029E-002   0.0000000000000000     
   3.6665386682055198E-002   3.5847533667699730E-002   0.0000000000000000     
   3.9569438430349928E-002   4.0329294497742398E-002   0.0000000000000000     
   2.4627255938816678E-002   2.2824546519639121E-002   0.0000000000000000     
   2.7531987835581459E-002   2.6673241698559613E-002   0.0000000000000000     
   3.0362016039230194E-002   3.0738147302257195E-002   0.0000000000000000     
   3.3117340549762890E-002   3.5019263330731860E-002   0.0000000000000000     
   3.5797961367179540E-002   3.9516589783983619E-002   0.0000000000000000     
   5.2131705841394212E-002   4.3208398902494428E-002   0.0000000000000000     
   5.5570221550520216E-002   4.7798204808110027E-002   0.0000000000000000     
   5.8911422031996501E-002   5.2590456156784982E-002   0.0000000000000000     
   6.2155307285823101E-002   5.7585152948519291E-002   0.0000000000000000     
   6.5301877311999990E-002   6.2782295183312950E-002   0.0000000000000000     
   4.7736310667457260E-002   4.2175199056997806E-002   0.0000000000000000     
   5.0976863414736541E-002   4.6807535414913018E-002   0.0000000000000000     
   5.4124105052215390E-002   5.1636620116101678E-002   0.0000000000000000     
   5.7178035579893816E-002   5.6662453160563814E-002   0.0000000000000000     
   6.0138654997771795E-002   6.1885034548299411E-002   0.0000000000000000     
   4.3548888197109163E-002   4.1215497588747131E-002   0.0000000000000000     
   4.6584714836295206E-002   4.5881056100792884E-002   0.0000000000000000     
   4.9532389614039329E-002   5.0740605102393345E-002   0.0000000000000000     
   5.2391912530341506E-002   5.5794144593548541E-002   0.0000000000000000     
   5.5163283585201749E-002   6.1041674574258437E-002   0.0000000000000000     
   3.9569438430349928E-002   4.0329294497742398E-002   0.0000000000000000     
   4.2393775815196211E-002   4.5018766865749640E-002   0.0000000000000000     
   4.5136275717468290E-002   4.9902411115659982E-002   0.0000000000000000     
   4.7796938137166178E-002   5.4980227247473465E-002   0.0000000000000000     
   5.0375763074289856E-002   6.0252215261190060E-002   0.0000000000000000     
   3.5797961367179540E-002   3.9516589783983619E-002   0.0000000000000000     
   3.8404046351439548E-002   4.4220667709783258E-002   0.0000000000000000     
   4.0935763362502313E-002   4.9122038155901590E-002   0.0000000000000000     
   4.3393112400367827E-002   5.4220701122338587E-002   0.0000000000000000     
   4.5776093465036097E-002   5.9516656609094262E-002   0.0000000000000000     
   6.5301877311999990E-002   6.2782295183312950E-002   0.0000000000000000     
   6.8353583614640834E-002   6.8170813234248964E-002   0.0000000000000000     
   7.1312877697859267E-002   7.3739637474410355E-002   0.0000000000000000     
   7.4179759561655317E-002   7.9488767903797095E-002   0.0000000000000000     
   7.6954229206028971E-002   8.5418204522409197E-002   0.0000000000000000     
   6.0138654997771795E-002   6.1885034548299411E-002   0.0000000000000000     
   6.3008566763972956E-002   6.7296857676148097E-002   0.0000000000000000     
   6.5790374336620897E-002   7.2890415940949499E-002   0.0000000000000000     
   6.8484077715715616E-002   7.8665709342703644E-002   0.0000000000000000     
   7.1089676901257101E-002   8.4622737881410517E-002   0.0000000000000000     
   5.5163283585201749E-002   6.1041674574258437E-002   0.0000000000000000     
   5.7848840667224413E-002   6.6477408604960195E-002   0.0000000000000000     
   6.0450921665013840E-002   7.2095560246090915E-002   0.0000000000000000     
   6.2969526578570023E-002   7.7896129497650596E-002   0.0000000000000000     
   6.5404655407892962E-002   8.3879116359639252E-002   0.0000000000000000     
   5.0375763074289856E-002   6.0252215261190060E-002   0.0000000000000000     
   5.2874405324395204E-002   6.5712466020685270E-002   0.0000000000000000     
   5.5294519683038106E-002   7.1355070389834588E-002   0.0000000000000000     
   5.7636106150218525E-002   7.7180028368637965E-002   0.0000000000000000     
   5.9899164725936503E-002   8.3187339957095444E-002   0.0000000000000000     
   4.5776093465036097E-002   5.9516656609094262E-002   0.0000000000000000     
   4.8085260735485316E-002   6.5002029923323337E-002   0.0000000000000000     
   5.0321168390693671E-002   7.0668946372180491E-002   0.0000000000000000     
   5.2483816430661155E-002   7.6517405955665724E-002   0.0000000000000000     
   5.4573204855387782E-002   8.2547408673779049E-002   0.0000000000000000     
   7.6954229206028971E-002   8.5418204522409197E-002   0.0000000000000000     
   7.9633390178991570E-002   9.1515583098769088E-002   0.0000000000000000     
   8.2214346028554486E-002   9.7768539401399207E-002   0.0000000000000000     
   8.4697096754717704E-002  0.10417707343029954        0.0000000000000000     
   8.7081642357481226E-002  0.11074118518547010        0.0000000000000000     
   7.1089676901257101E-002   8.4622737881410517E-002   0.0000000000000000     
   7.3605173103700725E-002   9.0748441727820775E-002   0.0000000000000000     
   7.6028567533501817E-002   9.7029761052685098E-002   0.0000000000000000     
   7.8359860190660394E-002  0.10346669585600347        0.0000000000000000     
   8.0599051075176426E-002  0.11005924613777590        0.0000000000000000     
   6.5404655407892962E-002   8.3879116359639252E-002   0.0000000000000000     
   6.7755008365127711E-002   9.0031191980070285E-002   0.0000000000000000     
   7.0019285662419356E-002   9.6339027506957053E-002   0.0000000000000000     
   7.2197487299767868E-002  0.10280262294029958        0.0000000000000000     
   7.4289613277173275E-002  0.10942197828009791        0.0000000000000000     
   5.9899164725936503E-002   8.3187339957095444E-002   0.0000000000000000     
   6.2082895963272530E-002   8.9363833855517605E-002   0.0000000000000000     
   6.4186500415307074E-002   9.5696338764215141E-002   0.0000000000000000     
   6.6209978082040155E-002  0.10218485468318797        0.0000000000000000     
   6.8153328963471760E-002  0.10882938161243610        0.0000000000000000     
   5.4573204855387782E-002   8.2547408673779049E-002   0.0000000000000000     
   5.6588835898135181E-002   8.8746367354162789E-002   0.0000000000000000     
   5.8530211792165006E-002   9.5101694824459293E-002   0.0000000000000000     
   6.0397332537477234E-002  0.10161339108466853        0.0000000000000000     
   6.2190198134071888E-002  0.10828145613479052        0.0000000000000000     
   8.7081642357481226E-002  0.11074118518547010        0.0000000000000000     
   8.9370043086221679E-002  0.11745159357660320        0.0000000000000000     
   9.1564359190315761E-002  0.12429901751339120        0.0000000000000000     
   9.3664590669763459E-002  0.13128345699583407        0.0000000000000000     
   9.5670737524564758E-002  0.13840491202393182        0.0000000000000000     
   8.0599051075176426E-002  0.11005924613777590        0.0000000000000000     
   8.2748698376667359E-002  0.11679796291885622        0.0000000000000000     
   8.4811360284750587E-002  0.12367339722009828        0.0000000000000000     
   8.6787036799426120E-002  0.13068554904150206        0.0000000000000000     
   8.8675727920693934E-002  0.13783441838306754        0.0000000000000000     
   7.4289613277173275E-002  0.10942197828009791        0.0000000000000000     
   7.6298266023185068E-002  0.11618742581842116        0.0000000000000000     
   7.8226047966352755E-002  0.12308929784733857        0.0000000000000000     
   8.0072959106676347E-002  0.13012759436685015        0.0000000000000000     
   8.1838999444155819E-002  0.13730231537695592        0.0000000000000000     
   6.8153328963471760E-002  0.10882938161243610        0.0000000000000000     
   7.0018746025774847E-002  0.11561998227529803        0.0000000000000000     
   7.1808422235122293E-002  0.12254671939511215        0.0000000000000000     
   7.3522357591514167E-002  0.12960959297187846        0.0000000000000000     
   7.5160552094950400E-002  0.13680860300559697        0.0000000000000000     
   6.2190198134071888E-002  0.10828145613479052        0.0000000000000000     
   6.3910138384436641E-002  0.11509563228948683        0.0000000000000000     
   6.5558483091059203E-002  0.12204566186341892        0.0000000000000000     
   6.7135232253939553E-002  0.12913154485658684        0.0000000000000000     
   6.8640385873077719E-002  0.13635328126899060        0.0000000000000000     
   9.5670737524564758E-002  0.13840491202393182        0.0000000000000000     
   9.7567019312335093E-002  0.14564936259751848        0.0000000000000000     
   9.9337655590689911E-002  0.15300278871642817        0.0000000000000000     
  0.10098264635962921       0.16046519038066079        0.0000000000000000     
  0.10250199161915298       0.16803656759021643        0.0000000000000000     
   8.8675727920693934E-002  0.13783441838306754        0.0000000000000000     
   9.0471601709814012E-002  0.14510348699573622        0.0000000000000000     
   9.2168826228046355E-002  0.15247623663044943        0.0000000000000000     
   9.3767401475390949E-002  0.15995266728720725        0.0000000000000000     
   9.5267327451847766E-002  0.16753277896600968        0.0000000000000000     
   8.1838999444155819E-002  0.13730231537695592        0.0000000000000000     
   8.3524086378180748E-002  0.14459579230000877        0.0000000000000000     
   8.5128137308140756E-002  0.15199035655836166        0.0000000000000000     
   8.6651152234035786E-002  0.15948600815201458        0.0000000000000000     
   8.8093131155865895E-002  0.16708274708096757        0.0000000000000000     
   7.5160552094950400E-002  0.13680860300559697        0.0000000000000000     
   7.6724473317435302E-002  0.14412627851033619        0.0000000000000000     
   7.8215588830973085E-002  0.15154514850016479        0.0000000000000000     
   7.9633898635563763E-002  0.15906521297508278        0.0000000000000000     
   8.0979402731207337E-002  0.16668647193509004        0.0000000000000000     
   6.8640385873077719E-002  0.13635328126899060        0.0000000000000000     
   7.0072762527577659E-002  0.14369494562671853        0.0000000000000000     
   7.1431180796543384E-002  0.15114061245585891        0.0000000000000000     
   7.2715640679974866E-002  0.15869028175641181        0.0000000000000000     
   7.3926142177872120E-002  0.16634395352837716        0.0000000000000000     
   0.0000000000000000        0.0000000000000000        0.0000000000000000     
   2.8800927521431072E-003   1.7448687128222553E-003   0.0000000000000000     
   5.8726879611564007E-003   3.8646723725400253E-003   0.0000000000000000     
   8.9777856270398821E-003   6.3594109791533090E-003   0.0000000000000000     
   1.2195385749793550E-002   9.2290845326621074E-003   0.0000000000000000     
   0.0000000000000000        0.0000000000000000        0.0000000000000000     
   2.6103583575702990E-003   1.5889323243636123E-003   0.0000000000000000     
   5.2897785218498994E-003   3.5566996382296102E-003   0.0000000000000000     
   8.0382604928388012E-003   5.9033019415979954E-003   0.0000000000000000     
   1.0855804270537006E-002   8.6287392344687654E-003   0.0000000000000000     
   0.0000000000000000        0.0000000000000000        0.0000000000000000     
   2.3401596388252319E-003   1.4589417896899253E-003   0.0000000000000000     
   4.7202627865557071E-003   3.2997777718521072E-003   0.0000000000000000     
   7.1403094431914255E-003   5.5225079464865465E-003   0.0000000000000000     
   9.6002996087323888E-003   8.1271323135932421E-003   0.0000000000000000     
   0.0000000000000000        0.0000000000000000        0.0000000000000000     
   2.0694965959079047E-003   1.3548971088011943E-003   0.0000000000000000     
   4.1641407552738229E-003   3.0939067734075155E-003   0.0000000000000000     
   6.2839324780977548E-003   5.2170289938189632E-003   0.0000000000000000     
   8.4288717643797011E-003   7.7242637700355365E-003   0.0000000000000000     
   0.0000000000000000        0.0000000000000000        0.0000000000000000     
   1.7983692288183182E-003   1.2767982816974199E-003   0.0000000000000000     
   3.6214124280042484E-003   2.9390866428958351E-003   0.0000000000000000     
   5.4691295975577902E-003   4.9868650835952454E-003   0.0000000000000000     
   7.3415207374789458E-003   7.4201336037956495E-003   0.0000000000000000     
   1.2195385749793550E-002   9.2290845326621074E-003   0.0000000000000000     
   1.5427766149999068E-002   1.2371656677065588E-002   0.0000000000000000     
   1.8577204648238095E-002   1.5685091056362916E-002   0.0000000000000000     
   2.1643701244510632E-002   1.9169387670554091E-002   0.0000000000000000     
   2.4627255938816678E-002   2.2824546519639121E-002   0.0000000000000000     
   1.0855804270537006E-002   8.6287392344687654E-003   0.0000000000000000     
   1.3689101367750886E-002   1.1650764703274401E-002   0.0000000000000000     
   1.6484843297286819E-002   1.4887131534447387E-002   0.0000000000000000     
   1.9243030059144808E-002   1.8337839727987713E-002   0.0000000000000000     
   2.1963661653324848E-002   2.2002889283895391E-002   0.0000000000000000     
   9.6002996087323888E-003   8.1271323135932421E-003   0.0000000000000000     
   1.2076745549650903E-002   1.1046269862647253E-002   0.0000000000000000     
   1.4546159532419283E-002   1.4212539583123641E-002   0.0000000000000000     
   1.7008541557037529E-002   1.7625941475022402E-002   0.0000000000000000     
   1.9463891623505637E-002   2.1286475538343539E-002   0.0000000000000000     
   8.4288717643797011E-003   7.7242637700355365E-003   0.0000000000000000     
   1.0590698695699126E-002   1.0558172155184141E-002   0.0000000000000000     
   1.2761153353635486E-002   1.3661315202391682E-002   0.0000000000000000     
   1.4940235738188791E-002   1.7033692911658155E-002   0.0000000000000000     
   1.7127945849359033E-002   2.0675305282983562E-002   0.0000000000000000     
   7.3415207374789458E-003   7.4201336037956495E-003   0.0000000000000000     
   9.2309608058955463E-003   1.0186471580885065E-002   0.0000000000000000     
   1.1129824760935429E-002   1.3233458392251504E-002   0.0000000000000000     
   1.3038112602598594E-002   1.6561094037894970E-002   0.0000000000000000     
   1.4955824330885038E-002   2.0169378517815459E-002   0.0000000000000000     
   2.4627255938816678E-002   2.2824546519639121E-002   0.0000000000000000     
   2.7531987835581459E-002   2.6673241698559613E-002   0.0000000000000000     
   3.0362016039230194E-002   3.0738147302257195E-002   0.0000000000000000     
   3.3117340549762890E-002   3.5019263330731860E-002   0.0000000000000000     
   3.5797961367179540E-002   3.9516589783983619E-002   0.0000000000000000     
   2.1963661653324848E-002   2.2002889283895391E-002   0.0000000000000000     
   2.4630114520618977E-002   2.5880269076738072E-002   0.0000000000000000     
   2.7225765101819208E-002   2.9967967981083400E-002   0.0000000000000000     
   2.9750613396925543E-002   3.4265985996931390E-002   0.0000000000000000     
   3.2204659405937988E-002   3.8774323124282035E-002   0.0000000000000000     
   1.9463891623505637E-002   2.1286475538343539E-002   0.0000000000000000     
   2.1883757396641647E-002   2.5175360566186869E-002   0.0000000000000000     
   2.4239686541263572E-002   2.9273815351652202E-002   0.0000000000000000     
   2.6531679057371440E-002   3.3581839894739542E-002   0.0000000000000000     
   2.8759734944965230E-002   3.8099434195448881E-002   0.0000000000000000     
   1.7127945849359033E-002   2.0675305282983562E-002   0.0000000000000000     
   1.9292916463649456E-002   2.4558516166906009E-002   0.0000000000000000     
   2.1403780357563303E-002   2.8655689413963587E-002   0.0000000000000000     
   2.3460537531100577E-002   3.2966825024156314E-002   0.0000000000000000     
   2.5463187984261268E-002   3.7491922997484176E-002   0.0000000000000000     
   1.4955824330885038E-002   2.0169378517815459E-002   0.0000000000000000     
   1.6857591721642421E-002   2.4029735878895491E-002   0.0000000000000000     
   1.8718046550718393E-002   2.8113590168017569E-002   0.0000000000000000     
   2.0537188818112954E-002   3.2420941385181708E-002   0.0000000000000000     
   2.2315018523826110E-002   3.6951789530387899E-002   0.0000000000000000     
   3.5797961367179540E-002   3.9516589783983619E-002   0.0000000000000000     
   3.8404046351439548E-002   4.4220667709783258E-002   0.0000000000000000     
   4.0935763362502313E-002   4.9122038155901590E-002   0.0000000000000000     
   4.3393112400367827E-002   5.4220701122338587E-002   0.0000000000000000     
   4.5776093465036097E-002   5.9516656609094262E-002   0.0000000000000000     
   3.2204659405937988E-002   3.8774323124282035E-002   0.0000000000000000     
   3.4590010488438190E-002   4.3488460892431448E-002   0.0000000000000000     
   3.6908774004007813E-002   4.8403880830675747E-002   0.0000000000000000     
   3.9160949952646851E-002   5.3520582939014932E-002   0.0000000000000000     
   4.1346538334355309E-002   5.8838567217448998E-002   0.0000000000000000     
   2.8759734944965230E-002   3.8099434195448881E-002   0.0000000000000000     
   3.0926152269605111E-002   4.2823848673231857E-002   0.0000000000000000     
   3.3033229096851247E-002   4.7752333747540052E-002   0.0000000000000000     
   3.5080965426703636E-002   5.2884889418373493E-002   0.0000000000000000     
   3.7069361259162277E-002   5.8221515685732174E-002   0.0000000000000000     
   2.5463187984261268E-002   3.7491922997484176E-002   0.0000000000000000     
   2.7412471694940311E-002   4.2226831052184471E-002   0.0000000000000000     
   2.9309128641032616E-002   4.7167396906494512E-002   0.0000000000000000     
   3.1153158822538184E-002   5.2313620560414296E-002   0.0000000000000000     
   3.2944562239457020E-002   5.7665502013943812E-002   0.0000000000000000     
   2.2315018523826110E-002   3.6951789530387899E-002   0.0000000000000000     
   2.4048968764443786E-002   4.1697408029289312E-002   0.0000000000000000     
   2.5736472636551919E-002   4.6649070307539106E-002   0.0000000000000000     
   2.7377530140150499E-002   5.1806776365137315E-002   0.0000000000000000     
   2.8972141275239536E-002   5.7170526202083904E-002   0.0000000000000000     
   4.5776093465036097E-002   5.9516656609094262E-002   0.0000000000000000     
   4.8085260735485316E-002   6.5002029923323337E-002   0.0000000000000000     
   5.0321168390693671E-002   7.0668946372180491E-002   0.0000000000000000     
   5.2483816430661155E-002   7.6517405955665724E-002   0.0000000000000000     
   5.4573204855387782E-002   8.2547408673779049E-002   0.0000000000000000     
   4.1346538334355309E-002   5.8838567217448998E-002   0.0000000000000000     
   4.3464970832665650E-002   6.4347534979592516E-002   0.0000000000000000     
   4.5515679131110341E-002   7.0037187539060061E-002   0.0000000000000000     
   4.7498663229689410E-002   7.5907524895851619E-002   0.0000000000000000     
   4.9413923128402829E-002   8.1958547049967218E-002   0.0000000000000000     
   3.7069361259162277E-002   5.8221515685732174E-002   0.0000000000000000     
   3.8997099548107067E-002   6.3750415856210954E-002   0.0000000000000000     
   4.0862863247417905E-002   6.9459793236404693E-002   0.0000000000000000     
   4.2666652357094798E-002   7.5349647826313412E-002   0.0000000000000000     
   4.4408466877137738E-002   8.1419979625937097E-002   0.0000000000000000     
   3.2944562239457020E-002   5.7665502013943812E-002   0.0000000000000000     
   3.4681646881809587E-002   6.3210672553178665E-002   0.0000000000000000     
   3.6362720739616348E-002   6.8936763464214429E-002   0.0000000000000000     
   3.7987783812877318E-002   7.4843774747051103E-002   0.0000000000000000     
   3.9556836101592482E-002   8.0931706401688674E-002   0.0000000000000000     
   2.8972141275239536E-002   5.7170526202083904E-002   0.0000000000000000     
   3.0518612833773204E-002   6.2728305070495635E-002   0.0000000000000000     
   3.2015251607705686E-002   6.8468098222489213E-002   0.0000000000000000     
   3.3462057597036979E-002   7.4389905658064664E-002   0.0000000000000000     
   3.4859030801767082E-002   8.0493727377221977E-002   0.0000000000000000     
   5.4573204855387782E-002   8.2547408673779049E-002   0.0000000000000000     
   5.6588835898135181E-002   8.8746367354162789E-002   0.0000000000000000     
   5.8530211792165006E-002   9.5101694824459293E-002   0.0000000000000000     
   6.0397332537477234E-002  0.10161339108466853        0.0000000000000000     
   6.2190198134071888E-002  0.10828145613479052        0.0000000000000000     
   4.9413923128402829E-002   8.1958547049967218E-002   0.0000000000000000     
   5.1261126088154377E-002   8.8178270845202814E-002   0.0000000000000000     
   5.3039939369847827E-002   9.4554713125354350E-002   0.0000000000000000     
   5.4750362973483138E-002  0.10108787389042187        0.0000000000000000     
   5.6392396899060351E-002  0.10777775314040534        0.0000000000000000     
   4.4408466877137738E-002   8.1419979625937097E-002   0.0000000000000000     
   4.6088064451768843E-002   8.7659022697834696E-002   0.0000000000000000     
   4.7705202725210220E-002   9.4055011104565184E-002   0.0000000000000000     
   4.9259881697461906E-002  0.10060794484612855        0.0000000000000000     
   5.0752101368523872E-002  0.10731782392252479        0.0000000000000000     
   3.9556836101592482E-002   8.0931706401688674E-002   0.0000000000000000     
   4.1069650988978551E-002   8.7188622912058478E-002   0.0000000000000000     
   4.2526001858252227E-002   9.3602588762091751E-002   0.0000000000000000     
   4.3925888709413531E-002  0.10017360395178854        0.0000000000000000     
   4.5269311542462422E-002  0.10690166848114882        0.0000000000000000     
   3.4859030801767082E-002   8.0493727377221977E-002   0.0000000000000000     
   3.6205885699783523E-002   8.6767071487874131E-002   0.0000000000000000     
   3.7502336768973833E-002   9.3197446097934108E-002   0.0000000000000000     
   3.8748384009337992E-002   9.9784851207401895E-002   0.0000000000000000     
   3.9944027420876028E-002  0.10652928681627748        0.0000000000000000     
   6.2190198134071888E-002  0.10828145613479052        0.0000000000000000     
   6.3910138384436641E-002  0.11509563228948683        0.0000000000000000     
   6.5558483091059203E-002  0.12204566186341892        0.0000000000000000     
   6.7135232253939553E-002  0.12913154485658684        0.0000000000000000     
   6.8640385873077719E-002  0.13635328126899060        0.0000000000000000     
   5.6392396899060351E-002  0.10777775314040534        0.0000000000000000     
   5.7966503799578219E-002  0.11461383698548078        0.0000000000000000     
   5.9473146328035478E-002  0.12158561153582412        0.0000000000000000     
   6.0912324484432151E-002  0.12869307679143538        0.0000000000000000     
   6.2284038268768230E-002  0.13593623275231459        0.0000000000000000     
   5.0752101368523872E-002  0.10731782392252479        0.0000000000000000     
   5.2181902971607227E-002  0.11417405748777314        0.0000000000000000     
   5.3549327739923110E-002  0.12116605469589289        0.0000000000000000     
   5.4854375673471498E-002  0.12829381554688402        0.0000000000000000     
   5.6097046772252412E-002  0.13555734004074652        0.0000000000000000     
   4.5269311542462422E-002  0.10690166848114882        0.0000000000000000     
   4.6556335900523702E-002  0.11377629379636395        0.0000000000000000     
   4.7787027326722097E-002  0.12078699134362525        0.0000000000000000     
   4.8961385821057621E-002  0.12793376112293275        0.0000000000000000     
   5.0079411383530274E-002  0.13521660313428643        0.0000000000000000     
   3.9944027420876028E-002  0.10652928681627748        0.0000000000000000     
   4.1089802586327606E-002  0.11342054591125315        0.0000000000000000     
   4.2186245088432439E-002  0.12044842147902117        0.0000000000000000     
   4.3233354927190500E-002  0.12761291351958157        0.0000000000000000     
   4.4231132102601822E-002  0.13491402203293429        0.0000000000000000     
   6.8640385873077719E-002  0.13635328126899060        0.0000000000000000     
   7.0072762527577659E-002  0.14369494562671853        0.0000000000000000     
   7.1431180796543384E-002  0.15114061245585891        0.0000000000000000     
   7.2715640679974866E-002  0.15869028175641181        0.0000000000000000     
   7.3926142177872120E-002  0.16634395352837716        0.0000000000000000     
   6.2284038268768230E-002  0.13593623275231459        0.0000000000000000     
   6.3583467328384685E-002  0.14330084500488152        0.0000000000000000     
   6.4805791310622543E-002  0.15077267913555611        0.0000000000000000     
   6.5951010215481748E-002  0.15835173514433831        0.0000000000000000     
   6.7019124042962328E-002  0.16603801303122812        0.0000000000000000     
   5.6097046772252412E-002  0.13555734004074652        0.0000000000000000     
   5.7271101039633274E-002  0.14294302800055114        0.0000000000000000     
   5.8370298478981501E-002  0.15043727924936862        0.0000000000000000     
   5.9394639090297109E-002  0.15804009378719899        0.0000000000000000     
   6.0344122873580097E-002  0.16575147161404216        0.0000000000000000     
   5.0079411383530274E-002  0.13521660313428643        0.0000000000000000     
   5.1135663661323390E-002  0.14262149461372731        0.0000000000000000     
   5.2124702301620279E-002  0.15013441279729639        0.0000000000000000     
   5.3046527304420943E-002  0.15775535768499371        0.0000000000000000     
   5.3901138669725387E-002  0.16548432927681928        0.0000000000000000     
   4.4231132102601822E-002  0.13491402203293429        0.0000000000000000     
   4.5177155193455054E-002  0.14233624484441007        0.0000000000000000     
   4.6069002778538856E-002  0.14986407977933949        0.0000000000000000     
   4.6906674857853249E-002  0.15749752683772261        0.0000000000000000     
   4.7690171431398226E-002  0.16523658601955943        0.0000000000000000     
   0.0000000000000000        0.0000000000000000        0.0000000000000000     
   1.7983692288183182E-003   1.2767982816974199E-003   0.0000000000000000     
   3.6214124280042484E-003   2.9390866428958351E-003   0.0000000000000000     
   5.4691295975577902E-003   4.9868650835952454E-003   0.0000000000000000     
   7.3415207374789458E-003   7.4201336037956495E-003   0.0000000000000000     
   0.0000000000000000        0.0000000000000000        0.0000000000000000     
   1.5350549620947920E-003   1.2175246826146302E-003   0.0000000000000000     
   3.0994311446228351E-003   2.8207993015091728E-003   0.0000000000000000     
   4.6931285475841295E-003   4.8098238566836272E-003   0.0000000000000000     
   6.3161471709786750E-003   7.1845983481379936E-003   0.0000000000000000     
   0.0000000000000000        0.0000000000000000        0.0000000000000000     
   1.2878312202756449E-003   1.1699556857888537E-003   0.0000000000000000     
   2.6055502450054351E-003   2.7245266704396358E-003   0.0000000000000000     
   3.9531570741893705E-003   4.6637129539523455E-003   0.0000000000000000     
   5.3306517078274508E-003   6.9875145363269831E-003   0.0000000000000000     
   0.0000000000000000        0.0000000000000000        0.0000000000000000     
   1.0566980033608778E-003   1.1340912912200908E-003   0.0000000000000000     
   2.1397697291520492E-003   2.6502687496872241E-003   0.0000000000000000     
   3.2492151773735132E-003   4.5485323754013984E-003   0.0000000000000000     
   4.3850343480252713E-003   6.8288821683626143E-003   0.0000000000000000     
   0.0000000000000000        0.0000000000000000        0.0000000000000000     
   8.4165531135049017E-004   1.1099314989083415E-003   0.0000000000000000     
   1.7020895970626762E-003   2.5980255392519373E-003   0.0000000000000000     
   2.5813028571365581E-003   4.4642821210307869E-003   0.0000000000000000     
   3.4792950915721365E-003   6.7087012442448917E-003   0.0000000000000000     
   7.3415207374789458E-003   7.4201336037956495E-003   0.0000000000000000     
   9.2309608058955463E-003   1.0186471580885065E-002   0.0000000000000000     
   1.1129824760935429E-002   1.3233458392251504E-002   0.0000000000000000     
   1.3038112602598594E-002   1.6561094037894970E-002   0.0000000000000000     
   1.4955824330885038E-002   2.0169378517815459E-002   0.0000000000000000     
   6.3161471709786750E-003   7.1845983481379936E-003   0.0000000000000000     
   7.9558268344945230E-003   9.8955614863442988E-003   0.0000000000000000     
   9.5995073578197237E-003   1.2893151981774572E-002   0.0000000000000000     
   1.1247188740954272E-002   1.6177369834428804E-002   0.0000000000000000     
   1.2898870983898169E-002   1.9748215044307009E-002   0.0000000000000000     
   5.3306517078274508E-003   6.9875145363269831E-003   0.0000000000000000     
   6.7235917357504095E-003   9.6498352181561206E-003   0.0000000000000000     
   8.1175347477889792E-003   1.2604578800032337E-002   0.0000000000000000     
   9.5124807439431556E-003   1.5851745281955622E-002   0.0000000000000000     
   1.0908429724212944E-002   1.9391334663925983E-002   0.0000000000000000     
   4.3850343480252713E-003   6.8288821683626143E-003   0.0000000000000000     
   5.5342555096632049E-003   9.4492927763205285E-003   0.0000000000000000     
   6.6839069308431975E-003   1.2367738847024801E-002   0.0000000000000000     
   7.8339886115652482E-003   1.5584220380475416E-002   0.0000000000000000     
   8.9845005518293594E-003   1.9098737376672392E-002   0.0000000000000000     
   3.4792950915721365E-003   6.7087012442448917E-003   0.0000000000000000     
   4.3878181562329102E-003   9.2939341608375241E-003   0.0000000000000000     
   5.2986239069823813E-003   1.2182632122751958E-002   0.0000000000000000     
   6.2117123438205487E-003   1.5374795129988190E-002   0.0000000000000000     
   7.1270834667474126E-003   1.8870423182546229E-002   0.0000000000000000     
   1.4955824330885038E-002   2.0169378517815459E-002   0.0000000000000000     
   1.6857591721642421E-002   2.4029735878895491E-002   0.0000000000000000     
   1.8718046550718393E-002   2.8113590168017569E-002   0.0000000000000000     
   2.0537188818112954E-002   3.2420941385181708E-002   0.0000000000000000     
   2.2315018523826110E-002   3.6951789530387899E-002   0.0000000000000000     
   1.2898870983898169E-002   1.9748215044307009E-002   0.0000000000000000     
   1.4538200248464429E-002   2.3579545212753076E-002   0.0000000000000000     
   1.6148822696466059E-002   2.7645217941110918E-002   0.0000000000000000     
   1.7730738327903055E-002   3.1945233229380525E-002   0.0000000000000000     
   1.9283947142775419E-002   3.6479591077561907E-002   0.0000000000000000     
   1.0908429724212944E-002   1.9391334663925983E-002   0.0000000000000000     
   1.2295159121959385E-002   2.3198469679076537E-002   0.0000000000000000     
   1.3662446370543518E-002   2.7248273060540402E-002   0.0000000000000000     
   1.5010291469965343E-002   3.1540744808317575E-002   0.0000000000000000     
   1.6338694420224859E-002   3.6075884922408055E-002   0.0000000000000000     
   8.9845005518293594E-003   1.9098737376672392E-002   0.0000000000000000     
   1.0128468342127278E-002   2.2886509277865875E-002   0.0000000000000000     
   1.1258917572950765E-002   2.6922755526306026E-002   0.0000000000000000     
   1.2375848244299815E-002   3.1207476121992844E-002   0.0000000000000000     
   1.3479260356174430E-002   3.5740671064926330E-002   0.0000000000000000     
   7.1270834667474126E-003   1.8870423182546229E-002   0.0000000000000000     
   8.0381279089681169E-003   2.2643664009121087E-002   0.0000000000000000     
   8.9382363036878045E-003   2.6668665338407792E-002   0.0000000000000000     
   9.8274086509064790E-003   3.0945427170406343E-002   0.0000000000000000     
   1.0705644950624139E-002   3.5473949505116738E-002   0.0000000000000000     
   2.2315018523826110E-002   3.6951789530387899E-002   0.0000000000000000     
   2.4048968764443786E-002   4.1697408029289312E-002   0.0000000000000000     
   2.5736472636551919E-002   4.6649070307539106E-002   0.0000000000000000     
   2.7377530140150499E-002   5.1806776365137315E-002   0.0000000000000000     
   2.8972141275239536E-002   5.7170526202083904E-002   0.0000000000000000     
   1.9283947142775419E-002   3.6479591077561907E-002   0.0000000000000000     
   2.0802550828249947E-002   4.1234220852396926E-002   0.0000000000000000     
   2.2280651071493449E-002   4.6195051920627443E-002   0.0000000000000000     
   2.3718247872505920E-002   5.1362084282253459E-002   0.0000000000000000     
   2.5115341231287357E-002   5.6735317937274994E-002   0.0000000000000000     
   1.6338694420224859E-002   3.6075884922408055E-002   0.0000000000000000     
   1.7640125236493200E-002   4.0835910769357872E-002   0.0000000000000000     
   1.8907053933941511E-002   4.5803039715713069E-002   0.0000000000000000     
   2.0139480512569790E-002   5.0977271761473646E-002   0.0000000000000000     
   2.1337404972378033E-002   5.6358606906639609E-002   0.0000000000000000     
   1.3479260356174430E-002   3.5740671064926330E-002   0.0000000000000000     
   1.4561691989173548E-002   4.0502477780172158E-002   0.0000000000000000     
   1.5615681223896108E-002   4.5473033692795997E-002   0.0000000000000000     
   1.6641228060342107E-002   5.0652338802797882E-002   0.0000000000000000     
   1.7638332498511551E-002   5.6040393110177764E-002   0.0000000000000000     
   1.0705644950624139E-002   3.5473949505116738E-002   0.0000000000000000     
   1.1567251086290989E-002   4.0233921884839770E-002   0.0000000000000000     
   1.2406532941357237E-002   4.5205033851876228E-002   0.0000000000000000     
   1.3223490515822880E-002   5.0387285406226133E-002   0.0000000000000000     
   1.4018123809687921E-002   5.5780676547889457E-002   0.0000000000000000     
   2.8972141275239536E-002   5.7170526202083904E-002   0.0000000000000000     
   3.0518612833773204E-002   6.2728305070495635E-002   0.0000000000000000     
   3.2015251607705686E-002   6.8468098222489213E-002   0.0000000000000000     
   3.3462057597036979E-002   7.4389905658064664E-002   0.0000000000000000     
   3.4859030801767082E-002   8.0493727377221977E-002   0.0000000000000000     
   2.5115341231287357E-002   5.6735317937274994E-002   0.0000000000000000     
   2.6470425195118417E-002   6.2303303643331434E-002   0.0000000000000000     
   2.7781993811279753E-002   6.8054592158062199E-002   0.0000000000000000     
   2.9050047079771355E-002   7.3989183481467297E-002   0.0000000000000000     
   3.0274585000593237E-002   8.0107077613546726E-002   0.0000000000000000     
   2.1337404972378033E-002   5.6358606906639609E-002   0.0000000000000000     
   2.2499511756965740E-002   6.1935658506855666E-002   0.0000000000000000     
   2.3624485309932414E-002   6.7697039917766516E-002   0.0000000000000000     
   2.4712325631278047E-002   7.3642751139372173E-002   0.0000000000000000     
   2.5763032721002645E-002   7.9772792171672643E-002   0.0000000000000000     
   1.7638332498511551E-002   5.6040393110177764E-002   0.0000000000000000     
   1.8605872519315163E-002   6.1625369661068331E-002   0.0000000000000000     
   1.9542726103663661E-002   6.7395441501602163E-002   0.0000000000000000     
   2.0448893251557045E-002   7.3350608631779321E-002   0.0000000000000000     
   2.1324373962995323E-002   7.9490871051599771E-002   0.0000000000000000     
   1.4018123809687921E-002   5.5780676547889457E-002   0.0000000000000000     
   1.4789507482166685E-002   6.1372437105969416E-002   0.0000000000000000     
   1.5536716192473495E-002   6.7149796909569154E-002   0.0000000000000000     
   1.6259749940608352E-002   7.3112755958688727E-002   0.0000000000000000     
   1.6958608726571255E-002   7.9261314253328080E-002   0.0000000000000000     
   3.4859030801767082E-002   8.0493727377221977E-002   0.0000000000000000     
   3.6205885699783523E-002   8.6767071487874131E-002   0.0000000000000000     
   3.7502336768973833E-002   9.3197446097934108E-002   0.0000000000000000     
   3.8748384009337992E-002   9.9784851207401895E-002   0.0000000000000000     
   3.9944027420876028E-002  0.10652928681627748        0.0000000000000000     
   3.0274585000593237E-002   8.0107077613546726E-002   0.0000000000000000     
   3.1455211532737976E-002   8.6395118728059467E-002   0.0000000000000000     
   3.2591530635198179E-002   9.2840150998764567E-002   0.0000000000000000     
   3.3683542307973845E-002   9.9442174425662042E-002   0.0000000000000000     
   3.4731246551064958E-002  0.10620118900875183        0.0000000000000000     
   2.5763032721002645E-002   7.9772792171672643E-002   0.0000000000000000     
   2.6776071436396143E-002   8.6073514935392323E-002   0.0000000000000000     
   2.7750906634748447E-002   9.2531271351255592E-002   0.0000000000000000     
   2.8687538316059573E-002   9.9146061419262493E-002   0.0000000000000000     
   2.9585966480329511E-002  0.10591788513941303        0.0000000000000000     
   2.1324373962995323E-002   7.9490871051599771E-002   0.0000000000000000     
   2.2168465410758013E-002   8.5802260109872658E-002   0.0000000000000000     
   2.2980464767624637E-002   9.2270807155407183E-002   0.0000000000000000     
   2.3760372033595191E-002   9.8896512188203278E-002   0.0000000000000000     
   2.4508187208669686E-002  0.10567937520826104        0.0000000000000000     
   1.6958608726571255E-002   7.9261314253328080E-002   0.0000000000000000     
   1.7632393455823590E-002   8.5581354251500527E-002   0.0000000000000000     
   1.8280205033826734E-002   9.2058758411219299E-002   0.0000000000000000     
   1.8902043460580699E-002   9.8693526732484410E-002   0.0000000000000000     
   1.9497908736085472E-002  0.10548565921529586        0.0000000000000000     
   3.9944027420876028E-002  0.10652928681627748        0.0000000000000000     
   4.1089802586327606E-002  0.11342054591125315        0.0000000000000000     
   4.2186245088432439E-002  0.12044842147902117        0.0000000000000000     
   4.3233354927190500E-002  0.12761291351958157        0.0000000000000000     
   4.4231132102601822E-002  0.13491402203293429        0.0000000000000000     
   3.4731246551064958E-002  0.10620118900875183        0.0000000000000000     
   3.5735667109887702E-002  0.11310732308280463        0.0000000000000000     
   3.6697827729858253E-002  0.12015070498259110        0.0000000000000000     
   3.7617728410976582E-002  0.12733133470811125        0.0000000000000000     
   3.8495369153242726E-002  0.13464921225936505        0.0000000000000000     
   2.9585966480329511E-002  0.10591788513941303        0.0000000000000000     
   3.0447293552072718E-002  0.11283713456138229        0.0000000000000000     
   3.1272621955803645E-002  0.11989420173484550        0.0000000000000000     
   3.2061951691522296E-002  0.12708908665980262        0.0000000000000000     
   3.2815282759228660E-002  0.13442178933625365        0.0000000000000000     
   2.4508187208669686E-002  0.10567937520826104        0.0000000000000000     
   2.5224681912882647E-002  0.11260998034698612        0.0000000000000000     
   2.5910627766268627E-002  0.11967891173578432        0.0000000000000000     
   2.6566024768827620E-002  0.12688616937465563        0.0000000000000000     
   2.7190872920559630E-002  0.13423175326360004        0.0000000000000000     
   1.9497908736085472E-002  0.10548565921529586        0.0000000000000000     
   2.0067832192317489E-002  0.11242586043961608        0.0000000000000000     
   2.0611845161253192E-002  0.11950483498540758        0.0000000000000000     
   2.1129947642892572E-002  0.12672258285267030        0.0000000000000000     
   2.1622139637235638E-002  0.13407910404140425        0.0000000000000000     
   4.4231132102601822E-002  0.13491402203293429        0.0000000000000000     
   4.5177155193455054E-002  0.14233624484441007        0.0000000000000000     
   4.6069002778538856E-002  0.14986407977933949        0.0000000000000000     
   4.6906674857853249E-002  0.15749752683772261        0.0000000000000000     
   4.7690171431398226E-002  0.16523658601955943        0.0000000000000000     
   3.8495369153242726E-002  0.13464921225936505        0.0000000000000000     
   3.9331422061471596E-002  0.14208726979056036        0.0000000000000000     
   4.0126559240478171E-002  0.14962843945590487        0.0000000000000000     
   4.0880780690262443E-002  0.15727272125539865        0.0000000000000000     
   4.1594086410824398E-002  0.16502011518904169        0.0000000000000000     
   3.2815282759228660E-002  0.13442178933625365        0.0000000000000000     
   3.3534310690816395E-002  0.14187456055013911        0.0000000000000000     
   3.4220731018179136E-002  0.14942965108739953        0.0000000000000000     
   3.4874543741316912E-002  0.15708706094803490        0.0000000000000000     
   3.5495748860229687E-002  0.16484679013204517        0.0000000000000000     
   2.7190872920559630E-002  0.13423175326360004        0.0000000000000000     
   2.7785821081489422E-002  0.14169811712314637        0.0000000000000000     
   2.8351518111641764E-002  0.14926771467382349        0.0000000000000000     
   2.8887964011016658E-002  0.15694054591563128        0.0000000000000000     
   2.9395158779614107E-002  0.16471661084856984        0.0000000000000000     
   2.1622139637235638E-002  0.13407910404140425        0.0000000000000000     
   2.2085953233490691E-002  0.14155793950958215        0.0000000000000000     
   2.2518920520866039E-002  0.14914263021517668        0.0000000000000000     
   2.2921041499361691E-002  0.15683317615818787        0.0000000000000000     
   2.3292316168977638E-002  0.16462957733861569        0.0000000000000000     
   0.0000000000000000        0.0000000000000000        0.0000000000000000     
   8.4165531135049017E-004   1.1099314989083415E-003   0.0000000000000000     
   1.7020895970626762E-003   2.5980255392519373E-003   0.0000000000000000     
   2.5813028571365581E-003   4.4642821210307869E-003   0.0000000000000000     
   3.4792950915721365E-003   6.7087012442448917E-003   0.0000000000000000     
   0.0000000000000000        0.0000000000000000        0.0000000000000000     
   6.3380130615997305E-004   1.0939162952917976E-003   0.0000000000000000     
   1.2779807866528513E-003   2.5619501634325790E-003   0.0000000000000000     
   1.9325384414786346E-003   4.4041016044223434E-003   0.0000000000000000     
   2.5974742706373227E-003   6.6203706182610912E-003   0.0000000000000000     
   0.0000000000000000        0.0000000000000000        0.0000000000000000     
   4.2423414970481777E-004   1.0824856668086523E-003   0.0000000000000000     
   8.5291423583810845E-004   2.5361957465279529E-003   0.0000000000000000     
   1.2860402583998723E-003   4.3611302391579005E-003   0.0000000000000000     
   1.7236122173901088E-003   6.5572891446984962E-003   0.0000000000000000     
   0.0000000000000000        0.0000000000000000        0.0000000000000000     
   2.1295384198502412E-004   1.0756396134589054E-003   0.0000000000000000     
   4.2688994461844766E-004   2.5207622885380578E-003   0.0000000000000000     
   6.4180830790027071E-004   4.3353680252374571E-003   0.0000000000000000     
   8.5770893183049330E-004   6.5194568235571052E-003   0.0000000000000000     
   0.0000000000000000        0.0000000000000000        0.0000000000000000     
  -3.9616999407936096E-008   1.0733781352425566E-003   0.0000000000000000     
  -9.2087006131071590E-008   2.5156497894628952E-003   0.0000000000000000     
  -1.5741002016948780E-007   4.3268149626610151E-003   0.0000000000000000     
  -2.3558604152315761E-007   6.5068736548369172E-003   0.0000000000000000     
   3.4792950915721365E-003   6.7087012442448917E-003   0.0000000000000000     
   4.3878181562329102E-003   9.2939341608375241E-003   0.0000000000000000     
   5.2986239069823813E-003   1.2182632122751958E-002   0.0000000000000000     
   6.2117123438205487E-003   1.5374795129988190E-002   0.0000000000000000     
   7.1270834667474126E-003   1.8870423182546229E-002   0.0000000000000000     
   2.5974742706373227E-003   6.6203706182610912E-003   0.0000000000000000     
   3.2698183205122611E-003   9.1777677054647160E-003   0.0000000000000000     
   3.9466006374867940E-003   1.2043303366549112E-002   0.0000000000000000     
   4.6278212215609222E-003   1.5216977601514274E-002   0.0000000000000000     
   5.3134800727346453E-003   1.8698790410360204E-002   0.0000000000000000     
   1.7236122173901088E-003   6.5572891446984962E-003   0.0000000000000000     
   2.1657946475539939E-003   9.0948017439597198E-003   0.0000000000000000     
   2.6127520836367033E-003   1.1943797317751552E-002   0.0000000000000000     
   3.0644845256382371E-003   1.5104275866073991E-002   0.0000000000000000     
   3.5209919735585959E-003   1.8576237388927039E-002   0.0000000000000000     
   8.5770893183049330E-004   6.5194568235571052E-003   0.0000000000000000     
   1.0757471373581081E-003   9.0450362763225337E-003   0.0000000000000000     
   1.2970782454321081E-003   1.1884113976359282E-002   0.0000000000000000     
   1.5217022560524932E-003   1.5036689923667346E-002   0.0000000000000000     
   1.7496191692192636E-003   1.8502764118246730E-002   0.0000000000000000     
  -2.3558604152315761E-007   6.5068736548369172E-003   0.0000000000000000     
  -3.2421007539580539E-007   9.0284713025531593E-003   0.0000000000000000     
  -4.2087712699167049E-007   1.1864253342372297E-002   0.0000000000000000     
  -5.2558719631033956E-007   1.5014219774294334E-002   0.0000000000000000     
  -6.3834028335202266E-007   1.8478370598319270E-002   0.0000000000000000     
   7.1270834667474126E-003   1.8870423182546229E-002   0.0000000000000000     
   8.0381279089681169E-003   2.2643664009121087E-002   0.0000000000000000     
   8.9382363036878045E-003   2.6668665338407792E-002   0.0000000000000000     
   9.8274086509064790E-003   3.0945427170406343E-002   0.0000000000000000     
   1.0705644950624139E-002   3.5473949505116738E-002   0.0000000000000000     
   5.3134800727346453E-003   1.8698790410360204E-002   0.0000000000000000     
   5.9965719288338640E-003   2.2461436034854513E-002   0.0000000000000000     
   6.6700915276844772E-003   2.6477608716764814E-002   0.0000000000000000     
   7.3340388692864867E-003   3.0747308456091100E-002   0.0000000000000000     
   7.9884139536398908E-003   3.5270535252833378E-002   0.0000000000000000     
   3.5209919735585959E-003   1.8576237388927039E-002   0.0000000000000000     
   3.9762345080764866E-003   2.2331327517078510E-002   0.0000000000000000     
   4.4241722098706162E-003   2.6341191881296213E-002   0.0000000000000000     
   4.8648050789409855E-003   3.0605830481580158E-002   0.0000000000000000     
   5.2981331152875937E-003   3.5125243317930328E-002   0.0000000000000000     
   1.7496191692192636E-003   1.8502764118246730E-002   0.0000000000000000     
   1.9771156466959847E-003   2.2253338455793064E-002   0.0000000000000000     
   2.2004783502462227E-003   2.6259414832001993E-002   0.0000000000000000     
   2.4197072798699776E-003   3.0520993246873514E-002   0.0000000000000000     
   2.6348024355672493E-003   3.5038073700407631E-002   0.0000000000000000     
  -6.3834028335202266E-007   1.8478370598319270E-002   0.0000000000000000     
  -7.8465530764130565E-007   2.2227468850998182E-002   0.0000000000000000     
  -9.9005118870269305E-007   2.6232277568882148E-002   0.0000000000000000     
  -1.2545279265368964E-006   3.0492796751971168E-002   0.0000000000000000     
  -1.5780855211421606E-006   3.5009026400265243E-002   0.0000000000000000     
   1.0705644950624139E-002   3.5473949505116738E-002   0.0000000000000000     
   1.1567251086290989E-002   4.0233921884839770E-002   0.0000000000000000     
   1.2406532941357237E-002   4.5205033851876228E-002   0.0000000000000000     
   1.3223490515822880E-002   5.0387285406226133E-002   0.0000000000000000     
   1.4018123809687921E-002   5.5780676547889457E-002   0.0000000000000000     
   7.9884139536398908E-003   3.5270535252833378E-002   0.0000000000000000     
   8.6298481927483631E-003   4.0027308262452911E-002   0.0000000000000000     
   9.2549729986155741E-003   4.4997646640410990E-002   0.0000000000000000     
   9.8637883712415237E-003   5.0181550386707630E-002   0.0000000000000000     
   1.0456294310626214E-002   5.5579019501342794E-002   0.0000000000000000     
   5.2981331152875937E-003   3.5125243317930328E-002   0.0000000000000000     
   5.7225289734485095E-003   3.9879702092103786E-002   0.0000000000000000     
   6.1363653079618014E-003   4.4849478505857521E-002   0.0000000000000000     
   6.5396421188274670E-003   5.0034572559191554E-002   0.0000000000000000     
   6.9323594060455070E-003   5.5434984252105877E-002   0.0000000000000000     
   2.6348024355672493E-003   3.5038073700407631E-002   0.0000000000000000     
   2.8452934283914317E-003   3.9791103373792380E-002   0.0000000000000000     
   3.0507098693959181E-003   4.4760529448215805E-002   0.0000000000000000     
   3.2510517585807070E-003   4.9946351923677912E-002   0.0000000000000000     
   3.4463190959458001E-003   5.5348570800178694E-002   0.0000000000000000     
  -1.5780855211421606E-006   3.5009026400265243E-002   0.0000000000000000     
  -1.8584424228718652E-006   3.9761512107518694E-002   0.0000000000000000     
  -1.9933170820753783E-006   4.4730799467485843E-002   0.0000000000000000     
  -1.9827094987545158E-006   4.9916888480166718E-002   0.0000000000000000     
  -1.8266196729077328E-006   5.5319779145561271E-002   0.0000000000000000     
   1.4018123809687921E-002   5.5780676547889457E-002   0.0000000000000000     
   1.4789507482166685E-002   6.1372437105969416E-002   0.0000000000000000     
   1.5536716192473495E-002   6.7149796909569154E-002   0.0000000000000000     
   1.6259749940608352E-002   7.3112755958688727E-002   0.0000000000000000     
   1.6958608726571255E-002   7.9261314253328080E-002   0.0000000000000000     
   1.0456294310626214E-002   5.5579019501342794E-002   0.0000000000000000     
   1.1031766891202839E-002   6.1176223746571744E-002   0.0000000000000000     
   1.1589482187404595E-002   6.6959332884649725E-002   0.0000000000000000     
   1.2129440199231479E-002   7.2928346915576731E-002   0.0000000000000000     
   1.2651640926683493E-002   7.9083265839352768E-002   0.0000000000000000     
   6.9323594060455070E-003   5.5434984252105877E-002   0.0000000000000000     
   7.3140009921061526E-003   6.1036092487888174E-002   0.0000000000000000     
   7.6840506994996288E-003   6.6823276169826126E-002   0.0000000000000000     
   8.0425085282259372E-003   7.2796535297919698E-002   0.0000000000000000     
   8.3893744782850763E-003   7.8955869872168960E-002   0.0000000000000000     
   3.4463190959458001E-003   5.5348570800178694E-002   0.0000000000000000     
   3.6362097848766212E-003   6.0952043329918666E-002   0.0000000000000000     
   3.8204217287585965E-003   6.6741626765098316E-002   0.0000000000000000     
   3.9989549275917247E-003   7.2717321105717658E-002   0.0000000000000000     
   4.1718093813760066E-003   7.8879126351776713E-002   0.0000000000000000     
  -1.8266196729077328E-006   5.5319779145561271E-002   0.0000000000000000     
  -1.6067304857514484E-006   6.0924076272663240E-002   0.0000000000000000     
  -1.4047248185014311E-006   6.6714384670466351E-002   0.0000000000000000     
  -1.2206026711558920E-006   7.2690704338970596E-002   0.0000000000000000     
  -1.0543640437167285E-006   7.8853035278175970E-002   0.0000000000000000     
   1.6958608726571255E-002   7.9261314253328080E-002   0.0000000000000000     
   1.7632393455823590E-002   8.5581354251500527E-002   0.0000000000000000     
   1.8280205033826734E-002   9.2058758411219299E-002   0.0000000000000000     
   1.8902043460580699E-002   9.8693526732484410E-002   0.0000000000000000     
   1.9497908736085472E-002  0.10548565921529586        0.0000000000000000     
   1.2651640926683493E-002   7.9083265839352768E-002   0.0000000000000000     
   1.3155082786228782E-002   8.5409938194598328E-002   0.0000000000000000     
   1.3638764194335497E-002   9.1894212519933904E-002   0.0000000000000000     
   1.4102685151003633E-002   9.8536088815359524E-002   0.0000000000000000     
   1.4546845656233192E-002  0.10533556708087514        0.0000000000000000     
   8.3893744782850763E-003   7.8955869872168960E-002   0.0000000000000000     
   8.7237606166094984E-003   8.5287152773488514E-002   0.0000000000000000     
   9.0447790101316535E-003   9.1776256882792936E-002   0.0000000000000000     
   9.3524296588515469E-003   9.8423182200082282E-002   0.0000000000000000     
   9.6467125627691715E-003  0.10522792872535652        0.0000000000000000     
   4.1718093813760066E-003   7.8879126351776713E-002   0.0000000000000000     
   4.3384269469657370E-003   8.5212997988171071E-002   0.0000000000000000     
   4.4982494812152128E-003   9.1704891499796423E-002   0.0000000000000000     
   4.6512769841244340E-003   9.8354806886652726E-002   0.0000000000000000     
   4.7975094556934007E-003  0.10516274414874001        0.0000000000000000     
  -1.0543640437167285E-006   7.8853035278175970E-002   0.0000000000000000     
  -9.1822270250176488E-007   8.5187473838646027E-002   0.0000000000000000     
  -8.2439241383018081E-007   9.1680116370944323E-002   0.0000000000000000     
  -7.7287317770106825E-007   9.8330962875070857E-002   0.0000000000000000     
  -7.6366499411487446E-007  0.10514001335102560        0.0000000000000000     
   1.9497908736085472E-002  0.10548565921529586        0.0000000000000000     
   2.0067832192317489E-002  0.11242586043961608        0.0000000000000000     
   2.0611845161253192E-002  0.11950483498540758        0.0000000000000000     
   2.1129947642892572E-002  0.12672258285267030        0.0000000000000000     
   2.1622139637235638E-002  0.13407910404140425        0.0000000000000000     
   1.4546845656233192E-002  0.10533556708087514        0.0000000000000000     
   1.4970567291319566E-002  0.11228340246355695        0.0000000000000000     
   1.5373171637558141E-002  0.11937035011048108        0.0000000000000000     
   1.5754658694948919E-002  0.12659641002164751        0.0000000000000000     
   1.6115028463491901E-002  0.13396158219705628        0.0000000000000000     
   9.6467125627691715E-003  0.10522792872535652        0.0000000000000000     
   9.9267101108311932E-003  0.11218123404309338        0.0000000000000000     
   1.0191504691984279E-002  0.11927383573777066        0.0000000000000000     
   1.0441096306228427E-002  0.12650573380938826        0.0000000000000000     
   1.0675484953563640E-002  0.13387692825794620        0.0000000000000000     
   4.7975094556934007E-003  0.10516274414874001        0.0000000000000000     
   4.9362606508523707E-003  0.11211935517822547        0.0000000000000000     
   5.0668443245316047E-003  0.11921529186727628        0.0000000000000000     
   5.1892604767310993E-003  0.12645055421589246        0.0000000000000000     
   5.3035091074508578E-003  0.13382514222407402        0.0000000000000000     
  -7.6366499411487446E-007  0.10514001335102560        0.0000000000000000     
  -7.8108861689945436E-007  0.11209776586895313        0.0000000000000000     
  -8.0946479988244606E-007  0.11919471849899800        0.0000000000000000     
  -8.4879354306531324E-007  0.12643087124116018        0.0000000000000000     
  -8.9907484644626695E-007  0.13380622409543966        0.0000000000000000     
   2.1622139637235638E-002  0.13407910404140425        0.0000000000000000     
   2.2085953233490691E-002  0.14155793950958215        0.0000000000000000     
   2.2518920520866039E-002  0.14914263021517668        0.0000000000000000     
   2.2921041499361691E-002  0.15683317615818787        0.0000000000000000     
   2.3292316168977638E-002  0.16462957733861569        0.0000000000000000     
   1.6115028463491901E-002  0.13396158219705628        0.0000000000000000     
   1.6448861620340351E-002  0.14145053258762716        0.0000000000000000     
   1.6750738842647533E-002  0.14904792714427995        0.0000000000000000     
   1.7020660130413451E-002  0.15675376586701464        0.0000000000000000     
   1.7258625483638108E-002  0.16456804875583125        0.0000000000000000     
   1.0675484953563640E-002  0.13387692825794620        0.0000000000000000     
   1.0888700715558553E-002  0.14137240123546224        0.0000000000000000     
   1.1074773673781804E-002  0.14897713489395406        0.0000000000000000     
   1.1233703828233391E-002  0.15669112923342168        0.0000000000000000     
   1.1365491178913320E-002  0.16451438425386503        0.0000000000000000     
   5.3035091074508578E-003  0.13382514222407402        0.0000000000000000     
   5.4054705191453013E-003  0.14132354545308734        0.0000000000000000     
   5.4910250142688509E-003  0.14893025346419897        0.0000000000000000     
   5.5601725928215075E-003  0.15664526625740888        0.0000000000000000     
   5.6129132548032737E-003  0.16446858383271704        0.0000000000000000     
  -8.9907484644626695E-007  0.13380622409543966        0.0000000000000000     
  -8.2896889940626238E-007  0.14130396524050251        0.0000000000000000     
  -5.0713589132332735E-007  0.14890728285501473        0.0000000000000000     
   6.6424177803161557E-008  0.15661617693897631        0.0000000000000000     
   8.9171130797111725E-007  0.16443064749238728        0.0000000000000000     
   0.0000000000000000        0.0000000000000000        0.0000000000000000     
  -3.9616999407936096E-008   1.0733781352425566E-003   0.0000000000000000     
  -9.2087006131071590E-008   2.5156497894628952E-003   0.0000000000000000     
  -1.5741002016948780E-007   4.3268149626610151E-003   0.0000000000000000     
  -2.3558604152315761E-007   6.5068736548369172E-003   0.0000000000000000     
   0.0000000000000000        0.0000000000000000        0.0000000000000000     
  -2.1303095555786535E-004   1.0756924004996120E-003   0.0000000000000000     
  -4.2706879762690350E-004   2.5208467772411917E-003   0.0000000000000000     
  -6.4211352620711405E-004   4.3354631302247393E-003   0.0000000000000000     
  -8.5816514129849778E-004   6.5195414594502558E-003   0.0000000000000000     
   0.0000000000000000        0.0000000000000000        0.0000000000000000     
  -4.2430490199973523E-004   1.0825735775700774E-003   0.0000000000000000     
  -8.5307712583514487E-004   2.5363417798116767E-003   0.0000000000000000     
  -1.2863166715062287E-003   4.3613046067247970E-003   0.0000000000000000     
  -1.7240235390129869E-003   6.5574620583094406E-003   0.0000000000000000     
   0.0000000000000000        0.0000000000000000        0.0000000000000000     
  -6.3386145632501748E-004   1.0940216664539529E-003   0.0000000000000000     
  -1.2781170716308554E-003   2.5621347971743502E-003   0.0000000000000000     
  -1.9327668459175132E-003   4.4043393921611908E-003   0.0000000000000000     
  -2.5978107791849916E-003   6.6206354514144750E-003   0.0000000000000000     
   0.0000000000000000        0.0000000000000000        0.0000000000000000     
  -8.4170061853371223E-004   1.1100366671512386E-003   0.0000000000000000     
  -1.7021886350140347E-003   2.5982258293292108E-003   0.0000000000000000     
  -2.5814640494409673E-003   4.4645674865339165E-003   0.0000000000000000     
  -3.4795268618145105E-003   6.7090616387653563E-003   0.0000000000000000     
  -2.3558604152315761E-007   6.5068736548369172E-003   0.0000000000000000     
  -3.2421007539580539E-007   9.0284713025531593E-003   0.0000000000000000     
  -4.2087712699167049E-007   1.1864253342372297E-002   0.0000000000000000     
  -5.2558719631033956E-007   1.5014219774294334E-002   0.0000000000000000     
  -6.3834028335202266E-007   1.8478370598319270E-002   0.0000000000000000     
  -8.5816514129849778E-004   6.5195414594502558E-003   0.0000000000000000     
  -1.0763751215519641E-003   9.0451163745950587E-003   0.0000000000000000     
  -1.2978949456184245E-003   1.1884222485336474E-002   0.0000000000000000     
  -1.5227246134978788E-003   1.5036859791674500E-002   0.0000000000000000     
  -1.7508641251903262E-003   1.8503028293609135E-002   0.0000000000000000     
  -1.7240235390129869E-003   6.5574620583094406E-003   0.0000000000000000     
  -2.1663613238770431E-003   9.0949810443917041E-003   0.0000000000000000     
  -2.6134936216200195E-003   1.1944028474797679E-002   0.0000000000000000     
  -3.0654204322419169E-003   1.5104604349527371E-002   0.0000000000000000     
  -3.5221417557427348E-003   1.8576708668580775E-002   0.0000000000000000     
  -2.5978107791849916E-003   6.6206354514144750E-003   0.0000000000000000     
  -3.2702828170506314E-003   9.1780653119430886E-003   0.0000000000000000     
  -3.9472169051317767E-003   1.2043671310755913E-002   0.0000000000000000     
  -4.6286130434284251E-003   1.5217453447852950E-002   0.0000000000000000     
  -5.3144712319405790E-003   1.8699411723234197E-002   0.0000000000000000     
  -3.4795268618145105E-003   6.7090616387653563E-003   0.0000000000000000     
  -4.3881396010727308E-003   9.2943691772492138E-003   0.0000000000000000     
  -5.2990647961536951E-003   1.2183150993211173E-002   0.0000000000000000     
  -6.2123024470574044E-003   1.5375407086651235E-002   0.0000000000000000     
  -7.1278525537838561E-003   1.8871137457569399E-002   0.0000000000000000     
  -6.3834028335202266E-007   1.8478370598319270E-002   0.0000000000000000     
  -7.8465530764130565E-007   2.2227468850998182E-002   0.0000000000000000     
  -9.9005118870269305E-007   2.6232277568882148E-002   0.0000000000000000     
  -1.2545279265368964E-006   3.0492796751971168E-002   0.0000000000000000     
  -1.5780855211421606E-006   3.5009026400265243E-002   0.0000000000000000     
  -1.7508641251903262E-003   1.8503028293609135E-002   0.0000000000000000     
  -1.9786473838046730E-003   2.2253675105531470E-002   0.0000000000000000     
  -2.2024082924498255E-003   2.6259747341832607E-002   0.0000000000000000     
  -2.4221468511257832E-003   3.0521245002512534E-002   0.0000000000000000     
  -2.6378630598325450E-003   3.5038168087571257E-002   0.0000000000000000     
  -3.5221417557427348E-003   1.8576708668580775E-002   0.0000000000000000     
  -3.9776535246653921E-003   2.2331913622230533E-002   0.0000000000000000     
  -4.4259516715528099E-003   2.6341791400749284E-002   0.0000000000000000     
  -4.8670361964049860E-003   3.0606342004137026E-002   0.0000000000000000     
  -5.3009070992219211E-003   3.5125565432393757E-002   0.0000000000000000     
  -5.3144712319405790E-003   1.8699411723234197E-002   0.0000000000000000     
  -5.9978030778898017E-003   2.2462184401095368E-002   0.0000000000000000     
  -6.6716201884976564E-003   2.6478409745632189E-002   0.0000000000000000     
  -7.3359225637641490E-003   3.0748087756844643E-002   0.0000000000000000     
  -7.9907102036892736E-003   3.5271218434732743E-002   0.0000000000000000     
  -7.1278525537838561E-003   1.8871137457569399E-002   0.0000000000000000     
  -8.0390960434778974E-003   2.2644487442125980E-002   0.0000000000000000     
  -8.9394138432843662E-003   2.6669602376481315E-002   0.0000000000000000     
  -9.8288059532032675E-003   3.0946482260635382E-002   0.0000000000000000     
  -1.0707272373234598E-002   3.5475127094588201E-002   0.0000000000000000     
  -1.5780855211421606E-006   3.5009026400265243E-002   0.0000000000000000     
  -1.8584424228718652E-006   3.9761512107518694E-002   0.0000000000000000     
  -1.9933170820753783E-006   4.4730799467485843E-002   0.0000000000000000     
  -1.9827094987545158E-006   4.9916888480166718E-002   0.0000000000000000     
  -1.8266196729077328E-006   5.5319779145561271E-002   0.0000000000000000     
  -2.6378630598325450E-003   3.5038168087571257E-002   0.0000000000000000     
  -2.8489068952431114E-003   3.9791048390023780E-002   0.0000000000000000     
  -3.0546283340304788E-003   4.4760417702885094E-002   0.0000000000000000     
  -3.2550273761946481E-003   4.9946276026155201E-002   0.0000000000000000     
  -3.4501040217356184E-003   5.5348623359834100E-002   0.0000000000000000     
  -5.3009070992219211E-003   3.5125565432393757E-002   0.0000000000000000     
  -5.7258321863179959E-003   3.9879832318048675E-002   0.0000000000000000     
  -6.1400792640075906E-003   4.4849513293630981E-002   0.0000000000000000     
  -6.5436483322907019E-003   5.0034608359140635E-002   0.0000000000000000     
  -6.9365393911673357E-003   5.5435117514577678E-002   0.0000000000000000     
  -7.9907102036892736E-003   3.5271218434732743E-002   0.0000000000000000     
  -8.6326343156475274E-003   4.0027863891593379E-002   0.0000000000000000     
  -9.2583461070134109E-003   4.4998086239723470E-002   0.0000000000000000     
  -9.8678455777869208E-003   5.0181885479123028E-002   0.0000000000000000     
  -1.0461132727968057E-002   5.5579261609792020E-002   0.0000000000000000     
  -1.0707272373234598E-002   3.5475127094588201E-002   0.0000000000000000     
  -1.1569313283231707E-002   4.0235143110657887E-002   0.0000000000000000     
  -1.2409428863047939E-002   4.5206136541162602E-002   0.0000000000000000     
  -1.3227619112683301E-002   5.0388107386102346E-002   0.0000000000000000     
  -1.4023884032137786E-002   5.5781055645477098E-002   0.0000000000000000     
  -1.8266196729077328E-006   5.5319779145561271E-002   0.0000000000000000     
  -1.6067304857514484E-006   6.0924076272663240E-002   0.0000000000000000     
  -1.4047248185014311E-006   6.6714384670466351E-002   0.0000000000000000     
  -1.2206026711558920E-006   7.2690704338970596E-002   0.0000000000000000     
  -1.0543640437167285E-006   7.8853035278175970E-002   0.0000000000000000     
  -3.4501040217356184E-003   5.5348623359834100E-002   0.0000000000000000     
  -3.6396868505054413E-003   6.0952153816942550E-002   0.0000000000000000     
  -3.8236044423561643E-003   6.6741561510501327E-002   0.0000000000000000     
  -4.0018567972877868E-003   7.2716846440510421E-002   0.0000000000000000     
  -4.1744439153003120E-003   7.8878008606969835E-002   0.0000000000000000     
  -6.9365393911673357E-003   5.5435117514577678E-002   0.0000000000000000     
  -7.3182688717069212E-003   6.1036238463577197E-002   0.0000000000000000     
  -7.6883532049788926E-003   6.6823168909774328E-002   0.0000000000000000     
  -8.0467923909832498E-003   7.2795908853169042E-002   0.0000000000000000     
  -8.3935864297199972E-003   7.8954458293761354E-002   0.0000000000000000     
  -1.0461132727968057E-002   5.5579261609792020E-002   0.0000000000000000     
  -1.1037352794090190E-002   6.1176330212567208E-002   0.0000000000000000     
  -1.1595651012686687E-002   6.6959206868285354E-002   0.0000000000000000     
  -1.2136027383757549E-002   7.2927891576946471E-002   0.0000000000000000     
  -1.2658481907302769E-002   7.9082384338550554E-002   0.0000000000000000     
  -1.4023884032137786E-002   5.5781055645477098E-002   0.0000000000000000     
  -1.4796938617655249E-002   6.1372429063912562E-002   0.0000000000000000     
  -1.5545497865479546E-002   6.7149675386034446E-002   0.0000000000000000     
  -1.6269561775610678E-002   7.3112794611842738E-002   0.0000000000000000     
  -1.6969130348048634E-002   7.9261786741337409E-002   0.0000000000000000     
  -1.0543640437167285E-006   7.8853035278175970E-002   0.0000000000000000     
  -9.1822270250176488E-007   8.5187473838646027E-002   0.0000000000000000     
  -8.2439241383018081E-007   9.1680116370944323E-002   0.0000000000000000     
  -7.7287317770106825E-007   9.8330962875070857E-002   0.0000000000000000     
  -7.6366499411487446E-007  0.10514001335102560        0.0000000000000000     
  -4.1744439153003120E-003   7.8878008606969835E-002   0.0000000000000000     
  -4.3408460432547979E-003   8.5211242017823166E-002   0.0000000000000000     
  -4.5005434280123054E-003   9.1702740681014014E-002   0.0000000000000000     
  -4.6535360695728325E-003   9.8352504596542337E-002   0.0000000000000000     
  -4.7998239679363838E-003  0.10516053376440818        0.0000000000000000     
  -8.3935864297199972E-003   7.8954458293761354E-002   0.0000000000000000     
  -8.7279276655507273E-003   8.5284964218612300E-002   0.0000000000000000     
  -9.0490084428370369E-003   9.1773573614782819E-002   0.0000000000000000     
  -9.3568287615789347E-003   9.8420286482272940E-002   0.0000000000000000     
  -9.6513886217764119E-003  0.10522510282108263        0.0000000000000000     
  -1.2658481907302769E-002   7.9082384338550554E-002   0.0000000000000000     
  -1.3162163089590288E-002   8.5408640441013386E-002   0.0000000000000000     
  -1.3646219436888032E-002   9.1892615172250738E-002   0.0000000000000000     
  -1.4110650949196002E-002   9.8534308532262582E-002   0.0000000000000000     
  -1.4555457626514201E-002  0.10533372052104897        0.0000000000000000     
  -1.6969130348048634E-002   7.9261786741337409E-002   0.0000000000000000     
  -1.7643552315373484E-002   8.5582270685026440E-002   0.0000000000000000     
  -1.8292176410165287E-002   9.2059865353417744E-002   0.0000000000000000     
  -1.8915002632424044E-002   9.8694570746511320E-002   0.0000000000000000     
  -1.9512030982149747E-002  0.10548638686430720        0.0000000000000000     
  -7.6366499411487446E-007  0.10514001335102560        0.0000000000000000     
  -7.8108861689945436E-007  0.11209776586895313        0.0000000000000000     
  -8.0946479988244606E-007  0.11919471849899800        0.0000000000000000     
  -8.4879354306531324E-007  0.12643087124116018        0.0000000000000000     
  -8.9907484644626695E-007  0.13380622409543966        0.0000000000000000     
  -4.7998239679363838E-003  0.10516053376440818        0.0000000000000000     
  -4.9387018007616464E-003  0.11211721641611298        0.0000000000000000     
  -5.0694642457073131E-003  0.11921294078315826        0.0000000000000000     
  -5.1921113027733829E-003  0.12644770686554394        0.0000000000000000     
  -5.3066429719598575E-003  0.13382151466327011        0.0000000000000000     
  -9.6513886217764119E-003  0.10522510282108263        0.0000000000000000     
  -9.9317881787668993E-003  0.11217845712054163        0.0000000000000000     
  -1.0197127587887817E-002  0.11927078386997957        0.0000000000000000     
  -1.0447406849139172E-002  0.12650208306939645        0.0000000000000000     
  -1.0682625962520956E-002  0.13387235471879225        0.0000000000000000     
  -1.4555457626514201E-002  0.10533372052104897        0.0000000000000000     
  -1.4980040222632654E-002  0.11228148798223903        0.0000000000000000     
  -1.5383799491341395E-002  0.11936824775946189        0.0000000000000000     
  -1.5766735432640427E-002  0.12659399985271758        0.0000000000000000     
  -1.6128848046529747E-002  0.13395874426200610        0.0000000000000000     
  -1.9512030982149747E-002  0.10548638686430720        0.0000000000000000     
  -2.0083457932358911E-002  0.11242630900120522        0.0000000000000000     
  -2.0629479956068047E-002  0.11950533245160530        0.0000000000000000     
  -2.1150097053277150E-002  0.12672345721550746        0.0000000000000000     
  -2.1645309223986227E-002  0.13408068329291167        0.0000000000000000     
  -8.9907484644626695E-007  0.13380622409543966        0.0000000000000000     
  -8.2896889940626238E-007  0.14130396524050251        0.0000000000000000     
  -5.0713589132332735E-007  0.14890728285501473        0.0000000000000000     
   6.6424177803161557E-008  0.15661617693897631        0.0000000000000000     
   8.9171130797111725E-007  0.16443064749238728        0.0000000000000000     
  -5.3066429719598575E-003  0.13382151466327011        0.0000000000000000     
  -5.4087218894056360E-003  0.14131625027668962        0.0000000000000000     
  -5.4940106912496215E-003  0.14891379980615543        0.0000000000000000     
  -5.5625093774918141E-003  0.15661416325166749        0.0000000000000000     
  -5.6142179481322128E-003  0.16441734061322588        0.0000000000000000     
  -1.0682625962520956E-002  0.13387235471879225        0.0000000000000000     
  -1.0896732383203458E-002  0.14136299024063065        0.0000000000000000     
  -1.1083673566356944E-002  0.14895538105737527        0.0000000000000000     
  -1.1243449511981430E-002  0.15664952716902605        0.0000000000000000     
  -1.1376060220076905E-002  0.16444542857558309        0.0000000000000000     
  -1.6128848046529747E-002  0.13395874426200610        0.0000000000000000     
  -1.6464860450292870E-002  0.14144418513232559        0.0000000000000000     
  -1.6769495761213300E-002  0.14903202660867423        0.0000000000000000     
  -1.7042753979291048E-002  0.15672226869105196        0.0000000000000000     
  -1.7284635104526103E-002  0.16451491137945884        0.0000000000000000     
  -2.1645309223986227E-002  0.13408068329291167        0.0000000000000000     
  -2.2113106090673868E-002  0.14155983495177446        0.0000000000000000     
  -2.2551477275818677E-002  0.14914373646005230        0.0000000000000000     
  -2.2960422779420658E-002  0.15683238781774519        0.0000000000000000     
  -2.3339942601479809E-002  0.16462578902485317        0.0000000000000000     
   0.0000000000000000        0.0000000000000000        0.0000000000000000     
  -8.4170061853371223E-004   1.1100366671512386E-003   0.0000000000000000     
  -1.7021886350140347E-003   2.5982258293292108E-003   0.0000000000000000     
  -2.5814640494409673E-003   4.4645674865339165E-003   0.0000000000000000     
  -3.4795268618145105E-003   6.7090616387653563E-003   0.0000000000000000     
   0.0000000000000000        0.0000000000000000        0.0000000000000000     
  -1.0567264549650821E-003   1.1341893770811377E-003   0.0000000000000000     
  -2.1398272551628565E-003   2.6504719668081229E-003   0.0000000000000000     
  -3.2493024005933232E-003   4.5488477691809559E-003   0.0000000000000000     
  -4.3851518912564830E-003   6.8293167841996377E-003   0.0000000000000000     
   0.0000000000000000        0.0000000000000000        0.0000000000000000     
  -1.2878430319583894E-003   1.1700505936628532E-003   0.0000000000000000     
  -2.6055683712554933E-003   2.7247303001429494E-003   0.0000000000000000     
  -3.9531760178913118E-003   4.6640391194402876E-003   0.0000000000000000     
  -5.3306659718658439E-003   6.9879770515548709E-003   0.0000000000000000     
   0.0000000000000000        0.0000000000000000        0.0000000000000000     
  -1.5350503495136347E-003   1.2176203168963856E-003   0.0000000000000000     
  -3.0994119832919451E-003   2.8210008293336896E-003   0.0000000000000000     
  -4.6930849013349330E-003   4.8101415373119141E-003   0.0000000000000000     
  -6.3160691036425959E-003   7.1850424408310548E-003   0.0000000000000000     
   0.0000000000000000        0.0000000000000000        0.0000000000000000     
  -1.7983484076308171E-003   1.2768985467817347E-003   0.0000000000000000     
  -3.6213580912722119E-003   2.9392835543803446E-003   0.0000000000000000     
  -5.4690290509241861E-003   4.9871550227958295E-003   0.0000000000000000     
  -7.3413612865867381E-003   7.4205129520281913E-003   0.0000000000000000     
  -3.4795268618145105E-003   6.7090616387653563E-003   0.0000000000000000     
  -4.3881396010727308E-003   9.2943691772492138E-003   0.0000000000000000     
  -5.2990647961536951E-003   1.2183150993211173E-002   0.0000000000000000     
  -6.2123024470574044E-003   1.5375407086651235E-002   0.0000000000000000     
  -7.1278525537838561E-003   1.8871137457569399E-002   0.0000000000000000     
  -4.3851518912564830E-003   6.8293167841996377E-003   0.0000000000000000     
  -5.5344194372150502E-003   9.4498400967381064E-003   0.0000000000000000     
  -6.6841487485317401E-003   1.2368378791670302E-002   0.0000000000000000     
  -7.8343398252065533E-003   1.5584932868996223E-002   0.0000000000000000     
  -8.9849926672394918E-003   1.9099502328715875E-002   0.0000000000000000     
  -5.3306659718658439E-003   6.9879770515548709E-003   0.0000000000000000     
  -6.7236100867492975E-003   9.6504255268377876E-003   0.0000000000000000     
  -8.1175802161118724E-003   1.2605265975640136E-002   0.0000000000000000     
  -9.5125763599535774E-003   1.5852498397961916E-002   0.0000000000000000     
  -1.0908598518274405E-002   1.9392122793803122E-002   0.0000000000000000     
  -6.3160691036425959E-003   7.1850424408310548E-003   0.0000000000000000     
  -7.9557115496754725E-003   9.8961254675482609E-003   0.0000000000000000     
  -9.5993591988940974E-003   1.2893812545120675E-002   0.0000000000000000     
  -1.1247012051298471E-002   1.6178103673548303E-002   0.0000000000000000     
  -1.2898670106888594E-002   1.9748998852831136E-002   0.0000000000000000     
  -7.3413612865867381E-003   7.4205129520281913E-003   0.0000000000000000     
  -9.2307238259935753E-003   1.0186939918869523E-002   0.0000000000000000     
  -1.1129485696878411E-002   1.3234018500111923E-002   0.0000000000000000     
  -1.3037646899241240E-002   1.6561748695755388E-002   0.0000000000000000     
  -1.4955207433082065E-002   2.0170130505799921E-002   0.0000000000000000     
  -7.1278525537838561E-003   1.8871137457569399E-002   0.0000000000000000     
  -8.0390960434778974E-003   2.2644487442125980E-002   0.0000000000000000     
  -8.9394138432843662E-003   2.6669602376481315E-002   0.0000000000000000     
  -9.8288059532032675E-003   3.0946482260635382E-002   0.0000000000000000     
  -1.0707272373234598E-002   3.5475127094588201E-002   0.0000000000000000     
  -8.9849926672394918E-003   1.9099502328715875E-002   0.0000000000000000     
  -1.0129099740260028E-002   2.2887356584210719E-002   0.0000000000000000     
  -1.1259653509897639E-002   2.6923765048862212E-002   0.0000000000000000     
  -1.2376653976152324E-002   3.1208727722670363E-002   0.0000000000000000     
  -1.3480101139024082E-002   3.5742244605635159E-002   0.0000000000000000     
  -1.0908598518274405E-002   1.9392122793803122E-002   0.0000000000000000     
  -1.2295381487066543E-002   2.3199325666237912E-002   0.0000000000000000     
  -1.3662660062322170E-002   2.7249293518340437E-002   0.0000000000000000     
  -1.5010434244041297E-002   3.1542026350110691E-002   0.0000000000000000     
  -1.6338704032223914E-002   3.6077524161548684E-002   0.0000000000000000     
  -1.2898670106888594E-002   1.9748998852831136E-002   0.0000000000000000     
  -1.4537941283897439E-002   2.3580394688207572E-002   0.0000000000000000     
  -1.6148433500557970E-002   2.7646187784915986E-002   0.0000000000000000     
  -1.7730146756870190E-002   3.1946378142956387E-002   0.0000000000000000     
  -1.9283081052834099E-002   3.6480965762328767E-002   0.0000000000000000     
  -1.4955207433082065E-002   2.0170130505799921E-002   0.0000000000000000     
  -1.6856779130752717E-002   2.4030563650119689E-002   0.0000000000000000     
  -1.8716973824605028E-002   2.8114447848588860E-002   0.0000000000000000     
  -2.0535791514638992E-002   3.2421783101207427E-002   0.0000000000000000     
  -2.2313232200854623E-002   3.6952569407975394E-002   0.0000000000000000     
  -1.0707272373234598E-002   3.5475127094588201E-002   0.0000000000000000     
  -1.1569313283231707E-002   4.0235143110657887E-002   0.0000000000000000     
  -1.2409428863047939E-002   4.5206136541162602E-002   0.0000000000000000     
  -1.3227619112683301E-002   5.0388107386102346E-002   0.0000000000000000     
  -1.4023884032137786E-002   5.5781055645477098E-002   0.0000000000000000     
  -1.3480101139024082E-002   3.5742244605635159E-002   0.0000000000000000     
  -1.4562847867916354E-002   4.0504251729023902E-002   0.0000000000000000     
  -1.5617747032232576E-002   4.5474685124103846E-002   0.0000000000000000     
  -1.6644798631972744E-002   5.0653544790874992E-002   0.0000000000000000     
  -1.7644002667136859E-002   5.6040830729337340E-002   0.0000000000000000     
  -1.6338704032223914E-002   3.6077524161548684E-002   0.0000000000000000     
  -1.7640216848547299E-002   4.0837771500473123E-002   0.0000000000000000     
  -1.8907720114688713E-002   4.5804752914702665E-002   0.0000000000000000     
  -2.0141213830648149E-002   5.0978468404237344E-002   0.0000000000000000     
  -2.1340697996425618E-002   5.6358917969077126E-002   0.0000000000000000     
  -1.9283081052834099E-002   3.6480965762328767E-002   0.0000000000000000     
  -2.0801420225124531E-002   4.1235702425005523E-002   0.0000000000000000     
  -2.2279348110416344E-002   4.6196339912959079E-002   0.0000000000000000     
  -2.3716864708709519E-002   5.1362878226189387E-002   0.0000000000000000     
  -2.5113970020004064E-002   5.6735317364696489E-002   0.0000000000000000     
  -2.2313232200854623E-002   3.6952569407975394E-002   0.0000000000000000     
  -2.4046457997648065E-002   4.1698044502621143E-002   0.0000000000000000     
  -2.5732631019415475E-002   4.6649446118873061E-002   0.0000000000000000     
  -2.7371751266156850E-002   5.1806774256731143E-002   0.0000000000000000     
  -2.8963818737872196E-002   5.7170028916195388E-002   0.0000000000000000     
  -1.4023884032137786E-002   5.5781055645477098E-002   0.0000000000000000     
  -1.4796938617655249E-002   6.1372429063912562E-002   0.0000000000000000     
  -1.5545497865479546E-002   6.7149675386034446E-002   0.0000000000000000     
  -1.6269561775610678E-002   7.3112794611842738E-002   0.0000000000000000     
  -1.6969130348048634E-002   7.9261786741337409E-002   0.0000000000000000     
  -1.7644002667136859E-002   5.6040830729337340E-002   0.0000000000000000     
  -1.8613741318370923E-002   6.1625189837509357E-002   0.0000000000000000     
  -1.9552396766320937E-002   6.7395269013409531E-002   0.0000000000000000     
  -2.0459969010986897E-002   7.3351068257037813E-002   0.0000000000000000     
  -2.1336458052368799E-002   7.9492587568394266E-002   0.0000000000000000     
  -2.1340697996425618E-002   5.6358917969077126E-002   0.0000000000000000     
  -2.2504475872206040E-002   6.1935267353253672E-002   0.0000000000000000     
  -2.3630850718174327E-002   6.7696682300798575E-002   0.0000000000000000     
  -2.4719822534330478E-002   7.3643162811711849E-002   0.0000000000000000     
  -2.5771391320674495E-002   7.9774708885993459E-002   0.0000000000000000     
  -2.5113970020004064E-002   5.6735317364696489E-002   0.0000000000000000     
  -2.6469142279160592E-002   6.2302661611145498E-002   0.0000000000000000     
  -2.7780859721039709E-002   6.8053915248201605E-002   0.0000000000000000     
  -2.9049122345641415E-002   7.3989078275864748E-002   0.0000000000000000     
  -3.0273930152965711E-002   8.0108150694134975E-002   0.0000000000000000     
  -2.8963818737872196E-002   5.7170028916195388E-002   0.0000000000000000     
  -3.0507740539234586E-002   6.2727372611184842E-002   0.0000000000000000     
  -3.2002423774917091E-002   6.8466967855618593E-002   0.0000000000000000     
  -3.3447868444919711E-002   7.4388814649496579E-002   0.0000000000000000     
  -3.4844074549242446E-002   8.0492912992818841E-002   0.0000000000000000     
  -1.6969130348048634E-002   7.9261786741337409E-002   0.0000000000000000     
  -1.7643552315373484E-002   8.5582270685026440E-002   0.0000000000000000     
  -1.8292176410165287E-002   9.2059865353417744E-002   0.0000000000000000     
  -1.8915002632424044E-002   9.8694570746511320E-002   0.0000000000000000     
  -1.9512030982149747E-002  0.10548638686430720        0.0000000000000000     
  -2.1336458052368799E-002   7.9492587568394266E-002   0.0000000000000000     
  -2.2181451437873617E-002   8.5805246574336386E-002   0.0000000000000000     
  -2.2994536714908299E-002   9.2274464901721656E-002   0.0000000000000000     
  -2.3775713883472854E-002   9.8900242550550105E-002   0.0000000000000000     
  -2.4524982943567274E-002  0.10568257952082173        0.0000000000000000     
  -2.5771391320674495E-002   7.9774708885993459E-002   0.0000000000000000     
  -2.6785216552063989E-002   8.6076959732628036E-002   0.0000000000000000     
  -2.7760957703356570E-002   9.2535554560600183E-002   0.0000000000000000     
  -2.8698614774552249E-002   9.9150493369909887E-002   0.0000000000000000     
  -2.9598187765651009E-002  0.10592177616055710        0.0000000000000000     
  -3.0273930152965711E-002   8.0108150694134975E-002   0.0000000000000000     
  -3.1454847657944610E-002   8.6397410159901447E-002   0.0000000000000000     
  -3.2591439375510116E-002   9.2843134330053326E-002   0.0000000000000000     
  -3.3683705305662219E-002   9.9445323204590624E-002   0.0000000000000000     
  -3.4731645448400947E-002  0.10620397678351333        0.0000000000000000     
  -3.4844074549242446E-002   8.0492912992818841E-002   0.0000000000000000     
  -3.6190344755515455E-002   8.6766597856156605E-002   0.0000000000000000     
  -3.7485981731368904E-002   9.3197204210081111E-002   0.0000000000000000     
  -3.8730985476802773E-002   9.9784732054592359E-002   0.0000000000000000     
  -3.9925355991817076E-002  0.10652918138969035        0.0000000000000000     
  -1.9512030982149747E-002  0.10548638686430720        0.0000000000000000     
  -2.0083457932358911E-002  0.11242630900120522        0.0000000000000000     
  -2.0629479956068047E-002  0.11950533245160530        0.0000000000000000     
  -2.1150097053277150E-002  0.12672345721550746        0.0000000000000000     
  -2.1645309223986227E-002  0.13408068329291167        0.0000000000000000     
  -2.4524982943567274E-002  0.10568257952082173        0.0000000000000000     
  -2.5243309748240347E-002  0.11261272535755144        0.0000000000000000     
  -2.5931660150540839E-002  0.11968192960575412        0.0000000000000000     
  -2.6590034150468761E-002  0.12689019226542975        0.0000000000000000     
  -2.7218431748024106E-002  0.13423751333657835        0.0000000000000000     
  -2.9598187765651009E-002  0.10592177616055710        0.0000000000000000     
  -3.0460864110571619E-002  0.11284054223138906        0.0000000000000000     
  -3.1287831243232832E-002  0.11989793088125278        0.0000000000000000     
  -3.2079089163634660E-002  0.12709394211014829        0.0000000000000000     
  -3.2834637871777095E-002  0.13442857591807561        0.0000000000000000     
  -3.4731645448400947E-002  0.10620397678351333        0.0000000000000000     
  -3.5736121019352723E-002  0.11310975962271801        0.0000000000000000     
  -3.6697993234144036E-002  0.12015333627810125        0.0000000000000000     
  -3.7617262092774856E-002  0.12733470674966305        0.0000000000000000     
  -3.8493927595245198E-002  0.13465387103740342        0.0000000000000000     
  -3.9925355991817076E-002  0.10652918138969035        0.0000000000000000     
  -4.1069080474583679E-002  0.11342037753153833        0.0000000000000000     
  -4.2162146123274430E-002  0.12044814579629957        0.0000000000000000     
  -4.3204552937889336E-002  0.12761248618397408        0.0000000000000000     
  -4.4196300918428404E-002  0.13491339869456184        0.0000000000000000     
  -2.1645309223986227E-002  0.13408068329291167        0.0000000000000000     
  -2.2113106090673868E-002  0.14155983495177446        0.0000000000000000     
  -2.2551477275818677E-002  0.14914373646005230        0.0000000000000000     
  -2.2960422779420658E-002  0.15683238781774519        0.0000000000000000     
  -2.3339942601479809E-002  0.16462578902485317        0.0000000000000000     
  -2.7218431748024106E-002  0.13423751333657835        0.0000000000000000     
  -2.7818168685449056E-002  0.14170796107152941        0.0000000000000000     
  -2.8390560704985784E-002  0.14928560372261232        0.0000000000000000     
  -2.8935607806634296E-002  0.15697044128982718        0.0000000000000000     
  -2.9453309990394604E-002  0.16476247377317391        0.0000000000000000     
  -3.2834637871777095E-002  0.13442857591807561        0.0000000000000000     
  -3.3556747615721021E-002  0.14188658486414260        0.0000000000000000     
  -3.4247688643527327E-002  0.14945272150745714        0.0000000000000000     
  -3.4907460955196014E-002  0.15712698584801923        0.0000000000000000     
  -3.5536064550727067E-002  0.16490937788582885        0.0000000000000000     
  -3.8493927595245198E-002  0.13465387103740342        0.0000000000000000     
  -3.9328842881489766E-002  0.14209570632961410        0.0000000000000000     
  -4.0122861091443300E-002  0.14964508981458677        0.0000000000000000     
  -4.0875982225105773E-002  0.15730202149232145        0.0000000000000000     
  -4.1588206282477204E-002  0.16506650136281811        0.0000000000000000     
  -4.4196300918428404E-002  0.13491339869456184        0.0000000000000000     
  -4.5134454482755298E-002  0.14233532546794386        0.0000000000000000     
  -4.6016078048733700E-002  0.14986270864400117        0.0000000000000000     
  -4.6841171616363600E-002  0.15749554822273373        0.0000000000000000     
  -4.7609735185645007E-002  0.16523384420414158        0.0000000000000000     
   0.0000000000000000        0.0000000000000000        0.0000000000000000     
  -1.7983484076308171E-003   1.2768985467817347E-003   0.0000000000000000     
  -3.6213580912722119E-003   2.9392835543803446E-003   0.0000000000000000     
  -5.4690290509241861E-003   4.9871550227958295E-003   0.0000000000000000     
  -7.3413612865867381E-003   7.4205129520281913E-003   0.0000000000000000     
   0.0000000000000000        0.0000000000000000        0.0000000000000000     
  -2.0694609269256135E-003   1.3549996036069057E-003   0.0000000000000000     
  -4.1640563185721185E-003   3.0940931919918027E-003   0.0000000000000000     
  -6.2837861749395155E-003   5.2172807651546917E-003   0.0000000000000000     
  -8.4286504960278032E-003   7.7245623230955711E-003   0.0000000000000000     
   0.0000000000000000        0.0000000000000000        0.0000000000000000     
  -2.3401116280136994E-003   1.4590378076599036E-003   0.0000000000000000     
  -4.7201562885674881E-003   3.2999444588769529E-003   0.0000000000000000     
  -7.1401339816613649E-003   5.5227199536511491E-003   0.0000000000000000     
  -9.6000447072953320E-003   8.1273642919824900E-003   0.0000000000000000     
   0.0000000000000000        0.0000000000000000        0.0000000000000000     
  -2.6103005108950765E-003   1.5890131589407282E-003   0.0000000000000000     
  -5.2896580012583216E-003   3.5568373550357952E-003   0.0000000000000000     
  -8.0380724710897369E-003   5.9034725882852008E-003   0.0000000000000000     
  -1.0855543920389317E-002   8.6289188586889456E-003   0.0000000000000000     
   0.0000000000000000        0.0000000000000000        0.0000000000000000     
  -2.8800275755697432E-003   1.7449256574493803E-003   0.0000000000000000     
  -5.8725614566446189E-003   3.8647718804683297E-003   0.0000000000000000     
  -8.9776016432246263E-003   6.3595386690568486E-003   0.0000000000000000     
  -1.2195148135309766E-002   9.2292260232149370E-003   0.0000000000000000     
  -7.3413612865867381E-003   7.4205129520281913E-003   0.0000000000000000     
  -9.2307238259935753E-003   1.0186939918869523E-002   0.0000000000000000     
  -1.1129485696878411E-002   1.3234018500111923E-002   0.0000000000000000     
  -1.3037646899241240E-002   1.6561748695755388E-002   0.0000000000000000     
  -1.4955207433082065E-002   2.0170130505799921E-002   0.0000000000000000     
  -8.4286504960278032E-003   7.7245623230955711E-003   0.0000000000000000     
  -1.0590370438574798E-002   1.0558523118222850E-002   0.0000000000000000     
  -1.2760667159318305E-002   1.3661748402944939E-002   0.0000000000000000     
  -1.4939540658258327E-002   1.7034238177261837E-002   0.0000000000000000     
  -1.7126990935394867E-002   2.0675992441173543E-002   0.0000000000000000     
  -9.6000447072953320E-003   8.1273642919824900E-003   0.0000000000000000     
  -1.2076374910290325E-002   1.1046529303029523E-002   0.0000000000000000     
  -1.4545611035467273E-002   1.4212866815950796E-002   0.0000000000000000     
  -1.7007753082826191E-002   1.7626376830746301E-002   0.0000000000000000     
  -1.9462801052367064E-002   2.1287059347416055E-002   0.0000000000000000     
  -1.0855543920389317E-002   8.6289188586889456E-003   0.0000000000000000     
  -1.3688737241140152E-002   1.1650958473289537E-002   0.0000000000000000     
  -1.6484317325325317E-002   1.4887373739129487E-002   0.0000000000000000     
  -1.9242284172944817E-002   1.8338164656208800E-002   0.0000000000000000     
  -2.1962637783998644E-002   2.2003331224527471E-002   0.0000000000000000     
  -1.2195148135309766E-002   9.2292260232149370E-003   0.0000000000000000     
  -1.5427457431124288E-002   1.2371810629002897E-002   0.0000000000000000     
  -1.8576786028892435E-002   1.5685269172481021E-002   0.0000000000000000     
  -2.1643133928614215E-002   1.9169601653649313E-002   0.0000000000000000     
  -2.4626501130289621E-002   2.2824808072507780E-002   0.0000000000000000     
  -1.4955207433082065E-002   2.0170130505799921E-002   0.0000000000000000     
  -1.6856779130752717E-002   2.4030563650119689E-002   0.0000000000000000     
  -1.8716973824605028E-002   2.8114447848588860E-002   0.0000000000000000     
  -2.0535791514638992E-002   3.2421783101207427E-002   0.0000000000000000     
  -2.2313232200854623E-002   3.6952569407975394E-002   0.0000000000000000     
  -1.7126990935394867E-002   2.0675992441173543E-002   0.0000000000000000     
  -1.9291652238011256E-002   2.4559289097648814E-002   0.0000000000000000     
  -2.1402158813390817E-002   2.8656406049656431E-002   0.0000000000000000     
  -2.3458510661533573E-002   3.2967343297196375E-002   0.0000000000000000     
  -2.5460707782439498E-002   3.7492100840268668E-002   0.0000000000000000     
  -1.9462801052367064E-002   2.1287059347416055E-002   0.0000000000000000     
  -2.1882317816051933E-002   2.5176027576469497E-002   0.0000000000000000     
  -2.4237866245842832E-002   2.9274394728416073E-002   0.0000000000000000     
  -2.6529446341739767E-002   3.3582160803255802E-002   0.0000000000000000     
  -2.8757058103742725E-002   3.8099325800988668E-002   0.0000000000000000     
  -2.1962637783998644E-002   2.2003331224527471E-002   0.0000000000000000     
  -2.4628775864874750E-002   2.5880779086581724E-002   0.0000000000000000     
  -2.7224096121961052E-002   2.9968413884867803E-002   0.0000000000000000     
  -2.9748598555257570E-002   3.4266235619385695E-002   0.0000000000000000     
  -3.2202283164764291E-002   3.8774244290135401E-002   0.0000000000000000     
  -2.4626501130289621E-002   2.2824808072507780E-002   0.0000000000000000     
  -2.7531026384479705E-002   2.6673543627985508E-002   0.0000000000000000     
  -3.0360848441745494E-002   3.0738463519011595E-002   0.0000000000000000     
  -3.3115967302086997E-002   3.5019567745586053E-002   0.0000000000000000     
  -3.5796382965504220E-002   3.9516856307708868E-002   0.0000000000000000     
  -2.2313232200854623E-002   3.6952569407975394E-002   0.0000000000000000     
  -2.4046457997648065E-002   4.1698044502621143E-002   0.0000000000000000     
  -2.5732631019415475E-002   4.6649446118873061E-002   0.0000000000000000     
  -2.7371751266156850E-002   5.1806774256731143E-002   0.0000000000000000     
  -2.8963818737872196E-002   5.7170028916195388E-002   0.0000000000000000     
  -2.5460707782439498E-002   3.7492100840268668E-002   0.0000000000000000     
  -2.7408936558930602E-002   4.2226627745799085E-002   0.0000000000000000     
  -2.9303383373828883E-002   4.7166873080713441E-002   0.0000000000000000     
  -3.1144048227134329E-002   5.2312836845011750E-002   0.0000000000000000     
  -3.2930931118846950E-002   5.7664519038693962E-002   0.0000000000000000     
  -2.8757058103742725E-002   3.8099325800988668E-002   0.0000000000000000     
  -3.0922462301784862E-002   4.2823282167018480E-002   0.0000000000000000     
  -3.3027419705799331E-002   4.7751422346749013E-002   0.0000000000000000     
  -3.5071930315786128E-002   5.2883746340180303E-002   0.0000000000000000     
  -3.7055994131745255E-002   5.8220254147312328E-002   0.0000000000000000     
  -3.2202283164764291E-002   3.8774244290135401E-002   0.0000000000000000     
  -3.4587035226210844E-002   4.3488007766279313E-002   0.0000000000000000     
  -3.6904740015326822E-002   4.8403093916979785E-002   0.0000000000000000     
  -3.9155397532112259E-002   5.3519502742236845E-002   0.0000000000000000     
  -4.1339007776567127E-002   5.8837234242050479E-002   0.0000000000000000     
  -3.5796382965504220E-002   3.9516856307708868E-002   0.0000000000000000     
  -3.8402655332208539E-002   4.4220804543581585E-002   0.0000000000000000     
  -4.0935344302411372E-002   4.9121887791405749E-002   0.0000000000000000     
  -4.3394449876112712E-002   5.4220106051181362E-002   0.0000000000000000     
  -4.5779972053312544E-002   5.9515459322908415E-002   0.0000000000000000     
  -2.8963818737872196E-002   5.7170028916195388E-002   0.0000000000000000     
  -3.0507740539234586E-002   6.2727372611184842E-002   0.0000000000000000     
  -3.2002423774917091E-002   6.8466967855618593E-002   0.0000000000000000     
  -3.3447868444919711E-002   7.4388814649496579E-002   0.0000000000000000     
  -3.4844074549242446E-002   8.0492912992818841E-002   0.0000000000000000     
  -3.2930931118846950E-002   5.7664519038693962E-002   0.0000000000000000     
  -3.4663423245105192E-002   6.3209456975375555E-002   0.0000000000000000     
  -3.6340915802047492E-002   6.8935187968671929E-002   0.0000000000000000     
  -3.7963408789673865E-002   7.4841712018583098E-002   0.0000000000000000     
  -3.9530902207984303E-002   8.0929029125109048E-002   0.0000000000000000     
  -3.7055994131745255E-002   5.8220254147312328E-002   0.0000000000000000     
  -3.8979342989449578E-002   6.3748971325721451E-002   0.0000000000000000     
  -4.0841708724671959E-002   6.9457923432984028E-002   0.0000000000000000     
  -4.2643091337412391E-002   7.5347110469100059E-002   0.0000000000000000     
  -4.4383490827670874E-002   8.1416532434069572E-002   0.0000000000000000     
  -4.1339007776567127E-002   5.8837234242050479E-002   0.0000000000000000     
  -4.3455499772267758E-002   6.4345915662222558E-002   0.0000000000000000     
  -4.5504802542790469E-002   7.0035174248554904E-002   0.0000000000000000     
  -4.7486916088135274E-002   7.5905010001047560E-002   0.0000000000000000     
  -4.9401840408302151E-002   8.1955422919700469E-002   0.0000000000000000     
  -4.5779972053312544E-002   5.9515459322908415E-002   0.0000000000000000     
  -4.8091893593559712E-002   6.5000289984878834E-002   0.0000000000000000     
  -5.0330197256403038E-002   7.0666940415384516E-002   0.0000000000000000     
  -5.2494883041842515E-002   7.6515410614425475E-002   0.0000000000000000     
  -5.4585950949878143E-002   8.2545700582001710E-002   0.0000000000000000     
  -3.4844074549242446E-002   8.0492912992818841E-002   0.0000000000000000     
  -3.6190344755515455E-002   8.6766597856156605E-002   0.0000000000000000     
  -3.7485981731368904E-002   9.3197204210081111E-002   0.0000000000000000     
  -3.8730985476802773E-002   9.9784732054592359E-002   0.0000000000000000     
  -3.9925355991817076E-002  0.10652918138969035        0.0000000000000000     
  -3.9530902207984303E-002   8.0929029125109048E-002   0.0000000000000000     
  -4.1042462259212077E-002   8.7185421819103270E-002   0.0000000000000000     
  -4.2497155145590479E-002   9.3599172631419314E-002   0.0000000000000000     
  -4.3894980867119487E-002  0.10017028156205712        0.0000000000000000     
  -4.5235939423799117E-002  0.10689874861101675        0.0000000000000000     
  -4.4383490827670874E-002   8.1416532434069572E-002   0.0000000000000000     
  -4.6061954583470004E-002   8.7654781046451233E-002   0.0000000000000000     
  -4.7677529992832354E-002   9.4050448024803696E-002   0.0000000000000000     
  -4.9230217055757940E-002  0.10060353336912699        0.0000000000000000     
  -5.0720015772246753E-002  0.10731403707942114        0.0000000000000000     
  -4.9401840408302151E-002   8.1955422919700469E-002   0.0000000000000000     
  -5.1248821728289214E-002   8.8174675538200464E-002   0.0000000000000000     
  -5.3027106273094538E-002   9.4551030390234297E-002   0.0000000000000000     
  -5.4736694042718130E-002  0.10108448747580197        0.0000000000000000     
  -5.6377585037159998E-002  0.10777504679490343        0.0000000000000000     
  -5.4585950949878143E-002   8.2545700582001710E-002   0.0000000000000000     
  -5.6603063693669721E-002   8.8745105294350993E-002   0.0000000000000000     
  -5.8545883986377022E-002   9.5100919727711092E-002   0.0000000000000000     
  -6.0414411828000066E-002  0.10161314388208202        0.0000000000000000     
  -6.2208647218538832E-002  0.10828177775746373        0.0000000000000000     
  -3.9925355991817076E-002  0.10652918138969035        0.0000000000000000     
  -4.1069080474583679E-002  0.11342037753153833        0.0000000000000000     
  -4.2162146123274430E-002  0.12044814579629957        0.0000000000000000     
  -4.3204552937889336E-002  0.12761248618397408        0.0000000000000000     
  -4.4196300918428404E-002  0.13491339869456184        0.0000000000000000     
  -4.5235939423799117E-002  0.10689874861101675        0.0000000000000000     
  -4.6519270667302312E-002  0.11377360568908849        0.0000000000000000     
  -4.7744214449302005E-002  0.12078388470706267        0.0000000000000000     
  -4.8910770769798211E-002  0.12792958566493928        0.0000000000000000     
  -5.0018939628790927E-002  0.13521070856271836        0.0000000000000000     
  -5.0720015772246753E-002  0.10731403707942114        0.0000000000000000     
  -5.2146219788546458E-002  0.11417065382660699        0.0000000000000000     
  -5.3508122750904732E-002  0.12116207828160550        0.0000000000000000     
  -5.4805724659321563E-002  0.12828831044441669        0.0000000000000000     
  -5.6039025513796942E-002  0.13554935031504051        0.0000000000000000     
  -5.6377585037159998E-002  0.10777504679490343        0.0000000000000000     
  -5.7949927838316144E-002  0.11461152194409381        0.0000000000000000     
  -5.9453871028082611E-002  0.12158272651992807        0.0000000000000000     
  -6.0889414606459386E-002  0.12868866052240624        0.0000000000000000     
  -6.2256558573446467E-002  0.13592932395152832        0.0000000000000000     
  -6.2208647218538832E-002  0.10828177775746373        0.0000000000000000     
  -6.3930394816611349E-002  0.11509621004154896        0.0000000000000000     
  -6.5581459280835641E-002  0.12204582942203036        0.0000000000000000     
  -6.7161840611211679E-002  0.12913063589890800        0.0000000000000000     
  -6.8671538807739491E-002  0.13635062947218177        0.0000000000000000     
  -4.4196300918428404E-002  0.13491339869456184        0.0000000000000000     
  -4.5134454482755298E-002  0.14233532546794386        0.0000000000000000     
  -4.6016078048733700E-002  0.14986270864400117        0.0000000000000000     
  -4.6841171616363600E-002  0.15749554822273373        0.0000000000000000     
  -4.7609735185645007E-002  0.16523384420414158        0.0000000000000000     
  -5.0018939628790927E-002  0.13521070856271836        0.0000000000000000     
  -5.1062239852828276E-002  0.14261127352374386        0.0000000000000000     
  -5.2034190268458382E-002  0.15011530067135981        0.0000000000000000     
  -5.2934790875681238E-002  0.15772279000556619        0.0000000000000000     
  -5.3764041674496880E-002  0.16543374152636306        0.0000000000000000     
  -5.6039025513796942E-002  0.13554935031504051        0.0000000000000000     
  -5.7200856425019340E-002  0.14292938174162598        0.0000000000000000     
  -5.8284048503677188E-002  0.15041258857232212        0.0000000000000000     
  -5.9288601749770485E-002  0.15799897080712885        0.0000000000000000     
  -6.0214516163299224E-002  0.16568852844604631        0.0000000000000000     
  -6.2256558573446467E-002  0.13592932395152832        0.0000000000000000     
  -6.3550304199328486E-002  0.14328965012159028        0.0000000000000000     
  -6.4765652754390113E-002  0.15075457234688808        0.0000000000000000     
  -6.5902604238631285E-002  0.15832409062742181        0.0000000000000000     
  -6.6961158652052044E-002  0.16599820496319131        0.0000000000000000     
  -6.8671538807739491E-002  0.13635062947218177        0.0000000000000000     
  -7.0110583175755747E-002  0.14369207866363670        0.0000000000000000     
  -7.1479003020597148E-002  0.15114125199505773        0.0000000000000000     
  -7.2776798342263679E-002  0.15869814946644487        0.0000000000000000     
  -7.4003969140755341E-002  0.16636277107779807        0.0000000000000000     
   0.0000000000000000        0.0000000000000000        0.0000000000000000     
  -2.8800275755697432E-003   1.7449256574493803E-003   0.0000000000000000     
  -5.8725614566446189E-003   3.8647718804683297E-003   0.0000000000000000     
  -8.9776016432246263E-003   6.3595386690568486E-003   0.0000000000000000     
  -1.2195148135309766E-002   9.2292260232149370E-003   0.0000000000000000     
   0.0000000000000000        0.0000000000000000        0.0000000000000000     
  -3.2831467302093156E-003   1.9994207975421838E-003   0.0000000000000000     
  -6.6768560660589605E-003   4.3310467343280227E-003   0.0000000000000000     
  -1.0181128007548931E-002   6.9948778103575190E-003   0.0000000000000000     
  -1.3795962554679230E-002   9.9909140256306695E-003   0.0000000000000000     
   0.0000000000000000        0.0000000000000000        0.0000000000000000     
  -3.9535118829854103E-003   2.4251440735754645E-003   0.0000000000000000     
  -7.9105312408339259E-003   5.0629606157683426E-003   0.0000000000000000     
  -1.1871058073545545E-002   7.9134496265786357E-003   0.0000000000000000     
  -1.5835092381120269E-002   1.0976611106006342E-002   0.0000000000000000     
   0.0000000000000000        0.0000000000000000        0.0000000000000000     
  -4.8911230338980283E-003   3.0220954855492213E-003   0.0000000000000000     
  -9.5735869809695177E-003   6.0605135247892876E-003   0.0000000000000000     
  -1.4047391841214467E-002   9.1152541177201996E-003   0.0000000000000000     
  -1.8312537614632880E-002   1.2186317264341953E-002   0.0000000000000000     
   0.0000000000000000        0.0000000000000000        0.0000000000000000     
  -6.0959801829471669E-003   3.7902750334634560E-003   0.0000000000000000     
  -1.1666023286465734E-002   7.3237054613908593E-003   0.0000000000000000     
  -1.6710129310555696E-002   1.0600291283782211E-002   0.0000000000000000     
  -2.1228298255217062E-002   1.3620032500637508E-002   0.0000000000000000     
  -1.2195148135309766E-002   9.2292260232149370E-003   0.0000000000000000     
  -1.5427457431124288E-002   1.2371810629002897E-002   0.0000000000000000     
  -1.8576786028892435E-002   1.5685269172481021E-002   0.0000000000000000     
  -2.1643133928614215E-002   1.9169601653649313E-002   0.0000000000000000     
  -2.4626501130289621E-002   2.2824808072507780E-002   0.0000000000000000     
  -1.3795962554679230E-002   9.9909140256306695E-003   0.0000000000000000     
  -1.7404254128302616E-002   1.3221200506461908E-002   0.0000000000000000     
  -2.0888897149271848E-002   1.6587782379165673E-002   0.0000000000000000     
  -2.4249891617586922E-002   2.0090659643741952E-002   0.0000000000000000     
  -2.7487237533247839E-002   2.3729832300190760E-002   0.0000000000000000     
  -1.5835092381120269E-002   1.0976611106006342E-002   0.0000000000000000     
  -1.9730845980735025E-002   1.4211242841958890E-002   0.0000000000000000     
  -2.3486530689566760E-002   1.7576142622343718E-002   0.0000000000000000     
  -2.7102146507615475E-002   2.1071310447160818E-002   0.0000000000000000     
  -3.0577693434881158E-002   2.4696746316410199E-002   0.0000000000000000     
  -1.8312537614632880E-002   1.2186317264341953E-002   0.0000000000000000     
  -2.2407232988421524E-002   1.5341937635493848E-002   0.0000000000000000     
  -2.6369686649777197E-002   1.8650349902015164E-002   0.0000000000000000     
  -3.0199898598699877E-002   2.2111554063905907E-002   0.0000000000000000     
  -3.3897868835189575E-002   2.5725550121166077E-002   0.0000000000000000     
  -2.1228298255217062E-002   1.3620032500637508E-002   0.0000000000000000     
  -2.5433415151362111E-002   1.6613284887066766E-002   0.0000000000000000     
  -2.9538365029903133E-002   1.9810404218180006E-002   0.0000000000000000     
  -3.3543147890840126E-002   2.3211390493977215E-002   0.0000000000000000     
  -3.7447763734173078E-002   2.6816243714458409E-002   0.0000000000000000     
  -2.4626501130289621E-002   2.2824808072507780E-002   0.0000000000000000     
  -2.7531026384479705E-002   2.6673543627985508E-002   0.0000000000000000     
  -3.0360848441745494E-002   3.0738463519011595E-002   0.0000000000000000     
  -3.3115967302086997E-002   3.5019567745586053E-002   0.0000000000000000     
  -3.5796382965504220E-002   3.9516856307708868E-002   0.0000000000000000     
  -2.7487237533247839E-002   2.3729832300190760E-002   0.0000000000000000     
  -3.0623978454405683E-002   2.7547840475106684E-002   0.0000000000000000     
  -3.3683157939211519E-002   3.1587224295084301E-002   0.0000000000000000     
  -3.6664775987665356E-002   3.5847983760123631E-002   0.0000000000000000     
  -3.9568832599767186E-002   4.0330118870224654E-002   0.0000000000000000     
  -3.0577693434881158E-002   2.4696746316410199E-002   0.0000000000000000     
  -3.3942541154191583E-002   2.8497188902371091E-002   0.0000000000000000     
  -3.7226059348374523E-002   3.2517376877322743E-002   0.0000000000000000     
  -4.0428248017429953E-002   3.6757310241265176E-002   0.0000000000000000     
  -4.3549107161357917E-002   4.1216988994198345E-002   0.0000000000000000     
  -3.3897868835189575E-002   2.5725550121166077E-002   0.0000000000000000     
  -3.7486714483837398E-002   2.9521588909778733E-002   0.0000000000000000     
  -4.0989552669234479E-002   3.3528921265726937E-002   0.0000000000000000     
  -4.4406383391380817E-002   3.7747547189010668E-002   0.0000000000000000     
  -4.7737206650276399E-002   4.2177466679629967E-002   0.0000000000000000     
  -3.7447763734173078E-002   2.6816243714458409E-002   0.0000000000000000     
  -4.1256498443343143E-002   3.0621040497329610E-002   0.0000000000000000     
  -4.4973637901791416E-002   3.4621857460296855E-002   0.0000000000000000     
  -4.8599182109517913E-002   3.8818694603360154E-002   0.0000000000000000     
  -5.2133131066522634E-002   4.3211551926519487E-002   0.0000000000000000     
  -3.5796382965504220E-002   3.9516856307708868E-002   0.0000000000000000     
  -3.8402655332208539E-002   4.4220804543581585E-002   0.0000000000000000     
  -4.0935344302411372E-002   4.9121887791405749E-002   0.0000000000000000     
  -4.3394449876112712E-002   5.4220106051181362E-002   0.0000000000000000     
  -4.5779972053312544E-002   5.9515459322908415E-002   0.0000000000000000     
  -3.9568832599767186E-002   4.0330118870224654E-002   0.0000000000000000     
  -4.2394025504174086E-002   4.5019800582033739E-002   0.0000000000000000     
  -4.5139052429543094E-002   4.9903199852197239E-002   0.0000000000000000     
  -4.7803913375874238E-002   5.4980316680715159E-002   0.0000000000000000     
  -5.0388608343167510E-002   6.0251151067587473E-002   0.0000000000000000     
  -4.3549107161357917E-002   4.1216988994198345E-002   0.0000000000000000     
  -4.6585848626503570E-002   4.5883123964744192E-002   0.0000000000000000     
  -4.9535684259212148E-002   5.0742425981524578E-002   0.0000000000000000     
  -5.2398614059483609E-002   5.5794895044539522E-002   0.0000000000000000     
  -5.5174638027317979E-002   6.1040531153789004E-002   0.0000000000000000     
  -4.7737206650276399E-002   4.2177466679629967E-002   0.0000000000000000     
  -5.0978124699197040E-002   4.6810774691712957E-002   0.0000000000000000     
  -5.4125239791418506E-002   5.1639566179387794E-002   0.0000000000000000     
  -5.7178551926940817E-002   5.6663841142654478E-002   0.0000000000000000     
  -6.0138061105763974E-002   6.1883599581513016E-002   0.0000000000000000     
  -5.2133131066522634E-002   4.3211551926519487E-002   0.0000000000000000     
  -5.5570853722254433E-002   4.7802752762940007E-002   0.0000000000000000     
  -5.8907719026162174E-002   5.2594620445786847E-002   0.0000000000000000     
  -6.2143726978245856E-002   5.7587154975060000E-002   0.0000000000000000     
  -6.5278877578505479E-002   6.2780356350759473E-002   0.0000000000000000     
  -4.5779972053312544E-002   5.9515459322908415E-002   0.0000000000000000     
  -4.8091893593559712E-002   6.5000289984878834E-002   0.0000000000000000     
  -5.0330197256403038E-002   7.0666940415384516E-002   0.0000000000000000     
  -5.2494883041842515E-002   7.6515410614425475E-002   0.0000000000000000     
  -5.4585950949878143E-002   8.2545700582001710E-002   0.0000000000000000     
  -5.0388608343167510E-002   6.0251151067587473E-002   0.0000000000000000     
  -5.2893447710696623E-002   6.5710409093659328E-002   0.0000000000000000     
  -5.5318741857735304E-002   7.1352796839775773E-002   0.0000000000000000     
  -5.7664490784283588E-002   7.7178314305936843E-002   0.0000000000000000     
  -5.9930694490341427E-002   8.3186961492142511E-002   0.0000000000000000     
  -5.5174638027317979E-002   6.1040531153789004E-002   0.0000000000000000     
  -5.7865085381049640E-002   6.6474587788533032E-002   0.0000000000000000     
  -6.0471285339012949E-002   7.2092318428031543E-002   0.0000000000000000     
  -6.2993237901207921E-002   7.7893723072284551E-002   0.0000000000000000     
  -6.5430943067634584E-002   8.3878801721292057E-002   0.0000000000000000     
  -6.0138061105763974E-002   6.1883599581513016E-002   0.0000000000000000     
  -6.3006806604618770E-002   6.7292826069499947E-002   0.0000000000000000     
  -6.5787827700235946E-002   7.2885505180151827E-002   0.0000000000000000     
  -6.8481124392615583E-002   7.8661636913468627E-002   0.0000000000000000     
  -7.1086696681757600E-002   8.4621221269450375E-002   0.0000000000000000     
  -6.5278877578505479E-002   6.2780356350759473E-002   0.0000000000000000     
  -6.8318611381403993E-002   6.8165123936560074E-002   0.0000000000000000     
  -7.1268368941404314E-002   7.3732357096136597E-002   0.0000000000000000     
  -7.4128150258506484E-002   7.9482055829489057E-002   0.0000000000000000     
  -7.6897955332710488E-002   8.5414220136617439E-002   0.0000000000000000     
  -5.4585950949878143E-002   8.2545700582001710E-002   0.0000000000000000     
  -5.6603063693669721E-002   8.8745105294350993E-002   0.0000000000000000     
  -5.8545883986377022E-002   9.5100919727711092E-002   0.0000000000000000     
  -6.0414411828000066E-002  0.10161314388208202        0.0000000000000000     
  -6.2208647218538832E-002  0.10828177775746373        0.0000000000000000     
  -5.9930694490341427E-002   8.3186961492142511E-002   0.0000000000000000     
  -6.2117148265833783E-002   8.9364960951050676E-002   0.0000000000000000     
  -6.4223647400685577E-002   9.5698535235319210E-002   0.0000000000000000     
  -6.6250191894896823E-002  0.10218768434494813        0.0000000000000000     
  -6.8196781748467508E-002  0.10883240827993740        0.0000000000000000     
  -6.5430943067634584E-002   8.3878801721292057E-002   0.0000000000000000     
  -6.7783543231003662E-002   9.0033133144447372E-002   0.0000000000000000     
  -7.0050180784025973E-002   9.6342296111143783E-002   0.0000000000000000     
  -7.2230855726701487E-002  0.10280629062138126        0.0000000000000000     
  -7.4325568059030248E-002  0.10942511667515986        0.0000000000000000     
  -7.1086696681757600E-002   8.4621221269450375E-002   0.0000000000000000     
  -7.3602248589179381E-002   9.0749621874541095E-002   0.0000000000000000     
  -7.6025484136398203E-002   9.7032202355184768E-002   0.0000000000000000     
  -7.8356403323414092E-002  0.10346896271138147        0.0000000000000000     
  -8.0595006150227022E-002  0.11005990294313116        0.0000000000000000     
  -7.6897955332710488E-002   8.5414220136617439E-002   0.0000000000000000     
  -7.9573264340360883E-002   9.1514427141331803E-002   0.0000000000000000     
  -8.2149557457802252E-002   9.7768253967442237E-002   0.0000000000000000     
  -8.4626834685034596E-002  0.10417570061494870        0.0000000000000000     
  -8.7005096022057901E-002  0.11073676708385125        0.0000000000000000     
  -6.2208647218538832E-002  0.10828177775746373        0.0000000000000000     
  -6.3930394816611349E-002  0.11509621004154896        0.0000000000000000     
  -6.5581459280835641E-002  0.12204582942203036        0.0000000000000000     
  -6.7161840611211679E-002  0.12913063589890800        0.0000000000000000     
  -6.8671538807739491E-002  0.13635062947218177        0.0000000000000000     
  -6.8196781748467508E-002  0.10883240827993740        0.0000000000000000     
  -7.0066684483964636E-002  0.11562291893328155        0.0000000000000000     
  -7.1863167623955185E-002  0.12254942819797510        0.0000000000000000     
  -7.3586231168439167E-002  0.12961193607401802        0.0000000000000000     
  -7.5235875117416584E-002  0.13681044256141034        0.0000000000000000     
  -7.4325568059030248E-002  0.10942511667515986        0.0000000000000000     
  -7.6337860600908511E-002  0.11618984943360071        0.0000000000000000     
  -7.8271276172232618E-002  0.12309156405782495        0.0000000000000000     
  -8.0125814773002554E-002  0.13013026054783255        0.0000000000000000     
  -8.1901476403218362E-002  0.13730593890362355        0.0000000000000000     
  -8.0595006150227022E-002  0.11005990294313116        0.0000000000000000     
  -8.2743923167443001E-002  0.11679700154250643        0.0000000000000000     
  -8.4805784925667940E-002  0.12367223700157989        0.0000000000000000     
  -8.6780591424901868E-002  0.13068560932035156        0.0000000000000000     
  -8.8668342665144770E-002  0.13783711849882144        0.0000000000000000     
  -8.7005096022057901E-002  0.11073676708385125        0.0000000000000000     
  -8.9284872183568120E-002  0.11744437525999871        0.0000000000000000     
  -9.1466693884261166E-002  0.12429144702923997        0.0000000000000000     
  -9.3550561124137094E-002  0.13127798239157504        0.0000000000000000     
  -9.5536473903195834E-002  0.13840398134700391        0.0000000000000000     
  -6.8671538807739491E-002  0.13635062947218177        0.0000000000000000     
  -7.0110583175755747E-002  0.14369207866363670        0.0000000000000000     
  -7.1479003020597148E-002  0.15114125199505773        0.0000000000000000     
  -7.2776798342263679E-002  0.15869814946644487        0.0000000000000000     
  -7.4003969140755341E-002  0.16636277107779807        0.0000000000000000     
  -7.5235875117416584E-002  0.13681044256141034        0.0000000000000000     
  -7.6815522586868121E-002  0.14413154722635668        0.0000000000000000     
  -7.8328596692774449E-002  0.15156184963506175        0.0000000000000000     
  -7.9775097435135514E-002  0.15910134978752544        0.0000000000000000     
  -8.1155024813951371E-002  0.16675004768374779        0.0000000000000000     
  -8.1901476403218362E-002  0.13730593890362355        0.0000000000000000     
  -8.3598951665232638E-002  0.14460293566834173        0.0000000000000000     
  -8.5218931161398087E-002  0.15200558738513081        0.0000000000000000     
  -8.6761414891714669E-002  0.15951389405399080        0.0000000000000000     
  -8.8226402856182412E-002  0.16712785567492164        0.0000000000000000     
  -8.8668342665144770E-002  0.13783711849882144        0.0000000000000000     
  -9.0460870410849298E-002  0.14510624398959179        0.0000000000000000     
  -9.2150006426468062E-002  0.15247246524526498        0.0000000000000000     
  -9.3735750712001145E-002  0.15993578226584088        0.0000000000000000     
  -9.5218103267448492E-002  0.16749619505131966        0.0000000000000000     
  -9.5536473903195834E-002  0.13840398134700391        0.0000000000000000     
  -9.7401278823718074E-002  0.14564147219010687        0.0000000000000000     
  -9.9121822487984429E-002  0.15296248321546416        0.0000000000000000     
 -0.10069810489599493       0.16036701442307583        0.0000000000000000     
 -0.10213012604774956       0.16785506581294179        0.0000000000000000     
 </DataArray>
 <DataArray  type="Float64" Name="stress" NumberOfComponents="3" format="ascii">
   13416737866.159519        4025021359.8478560        2893913885.3046579     
   11766594132.330074        1890603249.9804626        1715775165.6779735     
   10313695019.583357        413667210.38882208        810739144.35953784     
   9058040527.9193630       -405786758.92706776        178805821.34935051     
   7999630657.3380957       -567758657.96720695       -180024803.35258627     
   10539966456.012808        3161989936.8038425        2225733171.3017397     
   9667618747.6209087        1589677910.6288149        1446691718.6784852     
   8943888182.6116619        512756362.39596224        863135414.15454674     
   8368774760.9850683       -68774707.894715309        475064257.72992486     
   7942278482.7411280       -154915300.24321795        282478249.40461826     
   8337918892.0654116        2501375667.6196232        1712367438.2883906     
   8021602779.9426756        1424640396.3864465        1275691195.3518143     
   7805276333.5025225        681204010.76186872        956882550.30562186     
   7688939552.7449465        271066510.74588823        755941503.14981151     
   7672592437.6699495        194227896.33850670        672868053.88438451     
   6810595174.3173275        2043178552.2951984        1353816686.2646103     
   6828546229.2953777        1395490707.2533584        1202773595.6979609     
   6897859472.2559328        919010155.48654032        1091980552.8127613     
   7018534903.1989956        613736896.99474430        1021437557.6090121     
   7190572522.1245651        479670931.77796984        991144610.08671236     
   5957995302.7685556        1787398590.8305666        1150080915.2303989     
   6088449095.6790094        1502228843.2295499        1227938919.7169240     
   6221637598.8718967        1226174796.5699782        1268429421.6759663     
   6357560812.3472195        959236450.85185230        1271552421.1075251     
   6496218736.1049728        701413806.07517004        1237307918.0116019     
   7999630657.3380957       -567758657.96720695       -180024803.35258627     
   7917564124.8529778       -200480578.98202276       -78196003.313676402     
   7794086142.6674261        28759334.335046768       -9025188.4293111023     
   7629196710.7814407        119961081.98400354        27487641.300517149     
   7422895829.1950207        73124663.964851856        31342485.875806268     
   7942278482.7411280       -154915300.24321795        282478249.40461826     
   7739725157.2473707        16141725.466636181        281180573.14924037     
   7513839127.2061081        109423069.35146618        265140515.10529393     
   7264620392.6173363        124928731.41126394        234358075.27278239     
   6992068953.4810591        62658711.646039486        188833253.65170145     
   7672592437.6699495        194227896.33850670        672868053.88438451     
   7400739757.3560486        184420100.22958231        589535770.67980039     
   7123633117.6475668        157099106.13871479        509376709.05262017     
   6841272518.5444984        112264914.06590223        432390869.00284624     
   6553657960.0468521        49917524.011151075        358578250.53047609     
   7190572522.1245651        479670931.77796984        991144610.08671236     
   6900607925.1790123        304354545.30681205        846869589.27800095     
   6623468113.9918013        171787444.69679785        723683393.41266704     
   6359153088.5629320        81969629.947924852        621586022.49071097     
   6107662848.8924084        34901101.060191393        540577476.51213098     
   6496218736.1049728        701413806.07517004        1237307918.0116019     
   6239329660.7162609        375945060.69832873        1053182028.9438437     
   6013344116.2388153        153488085.02571487        908060568.18543470     
   5818262102.6726379        34042879.057326794        801943535.73637605     
   5654083620.0177279        17609442.793162823        734830931.59666634     
   7422895829.1950207        73124663.964851856        31342485.875806268     
   7219295369.9852304       -17555491.784501076        14683916.773884961     
   7027664252.0517998       -68337843.279330254        2578286.0965605266     
   6848002475.3947229       -79222390.519639015       -4974406.1561848102     
   6680310040.0140038       -50209133.505424500       -7974159.9843393601     
   6992068953.4810591        62658711.646039486        188833253.65170145     
   6808826805.8871536        3377719.5018677711        180612012.17652556     
   6633222576.1319809       -30443546.513196945        176252111.14932504     
   6465256264.2155380       -38805086.399180651        175753550.57010505     
   6304927870.1378174       -21706900.156063557        179116330.43885928     
   6553657960.0468521        49917524.011151075        358578250.53047609     
   6388798129.8499451        21442897.206502438        353741009.33814245     
   6227244794.0541420        3989918.4055228233        352073510.61717606     
   6068997952.6594353       -2441412.3917934895        353575754.36757356     
   5914057605.6658335        2148904.8145618439        358247740.58933192     
   6107662848.8924084        34901101.060191393        540577476.51213098     
   5959209341.8736086        36640041.329395056        534070908.25874442     
   5809730905.8182812        34962551.476837635        530042484.50010812     
   5659227540.7264261        29868631.502521515        528492205.23622572     
   5507699246.5980425        21358281.406442642        529420070.46709239     
   5654083620.0177279        17609442.793162823        734830931.59666634     
   5520060441.9581394        48969151.870548010        721601708.93832374     
   5380680911.4243984        62474352.700748682        710159032.79811966     
   5235945028.4164991        58125045.283761740        700502903.17605817     
   5085852792.9344444        35921229.619584799        692633320.07213199     
   6680310040.0140038       -50209133.505424500       -7974159.9843393601     
   6504851900.7940407       -12252140.613866091       -2166858.3209041217     
   6324857462.2949467        10583854.680582762        6170820.6431954922     
   6140326724.5167160        18298852.377914906        17038876.907970373     
   5951259687.4593468        10892852.478115082        30437310.473410908     
   6304927870.1378174       -21706900.156063557        179116330.43885928     
   6132026133.6928244       -854918.91661310196        175722219.64758512     
   5956448543.8309736        11077550.933324575        175711505.60995334     
   5778195100.5522776        14090509.393765926        179084188.32595438     
   5597265803.8567219        8183956.4646837711        185840267.79560038     
   5914057605.6658335        2148904.8145618439        358247740.58933192     
   5746149470.4328566        6627033.9330077171        347822737.51601791     
   5577425927.6453142        8387137.8695664406        341634150.64931417     
   5407886977.3031988        7429216.6242215633        339681979.98921651     
   5237532619.4065189        3753270.1969857216        341966225.53572720     
   5507699246.5980425        21358281.406442642        529420070.46709239     
   5347221911.0141401        10193717.935010910        514134695.28440064     
   5187789613.7379551        2512615.4892952442        503938755.76128495     
   5029402354.7694836       -1685025.9307096004        498832251.89774793     
   4872060134.1087265       -2399206.3249893188        498815183.69379163     
   5085852792.9344444        35921229.619584799        692633320.07213199     
   4935243455.4366751        9845133.0893867016        674658092.95272815     
   4787539602.1089020       -6546016.2074873447        662625320.94586945     
   4642741232.9511318       -13252218.271022320        656535004.05155551     
   4500848347.9633551       -10273473.101241350        656387142.26978803     
   5951259687.4593468        10892852.478115082        30437310.473410908     
   5770839671.1295280        931002.34871697426        30283508.618707586     
   5591560378.3989191       -5228435.7833101749        33192833.516327590     
   5413421809.2675323       -7585461.9179356098        39165285.166271880     
   5236423963.7353563       -6140076.0551884174        48200863.568536289     
   5597265803.8567219        8183956.4646837711        185840267.79560038     
   5426318716.5494108        2227170.8475961685        184851118.24013218     
   5256039859.2493954       -1502181.4118442535        187161464.75450721     
   5086429231.9566774       -3004100.3136322498        192771307.33871919     
   4917486834.6712503       -2278585.8577649593        201680645.99278045     
   5237532619.4065189        3753270.1969857216        341966225.53572720     
   5076733802.0289106        2004151.3643698692        339590485.75559312     
   4916130721.0666771        907487.24966788292        340750611.36280763     
   4755723376.5198202        463277.85289049149        345446602.35739261     
   4595511768.3883400        671523.17403101921        353678458.73933136     
   4872060134.1087265       -2399206.3249893188        498815183.69379163     
   4722084927.5680180        261943.89902114868        494501611.16507649     
   4571832963.8507586        2000570.2012143135        493960273.34124094     
   4421304242.9569654        2816672.5816071033        497191170.22228056     
   4270498764.8866215        2710251.0401780605        504194301.80819911     
   4500848347.9633551       -10273473.101241350        656387142.26978803     
   4362372093.1667347       -2999451.5484423637        649584494.46859562     
   4223146587.6016502        1777067.4428062439        646790450.68979192     
   4083171831.2681026        4056083.8725152016        648005010.93338954     
   3942447824.1660933        3837597.7406849861        653228175.19938040     
   5236423963.7353563       -6140076.0551884174        48200863.568536289     
   5047769156.5684566       -6476643.5201368332        42774790.778023526     
   4859104484.1513815       -6846095.1523234844        41884326.444897331     
   4670429946.4841347       -7248430.9517531395        45529470.569160908     
   4481745543.5667219       -7683650.9184105396        53710223.150814898     
   4917486834.6712503       -2278585.8577649593        201680645.99278045     
   4740472928.3183165       -2873595.4553685188        195190655.04396287     
   4563516678.9911423       -3276414.9671132565        193179235.21755949     
   4386618086.6897097       -3487044.3930425644        195646386.51359650     
   4209777151.4140387       -3505483.7330975533        202592108.93205798     
   4595511768.3883400        671523.17403101921        353678458.73933136     
   4429975799.0352049       -230817.70046353340        346203325.62077719     
   4264565008.9837446       -715894.23603630066        343149726.28968883     
   4099279398.2339573       -783706.43269658089        344517660.74606657     
   3934118966.7858458       -434254.29044461250        350307128.98991781     
   4270498764.8866215        2710251.0401780605        504194301.80819911     
   4116277768.7191038        1451689.7445337772        495812802.50849128     
   3962249474.1291857        835467.04088211060        491795799.66128337     
   3808413881.1168680        861582.92923140526        492143293.26658851     
   3654770989.6821451        1530037.4095599651        496855283.32439584     
   3942447824.1660933        3837597.7406849861        653228175.19938040     
   3799378837.3700175        2173926.8796305656        644019085.70709288     
   3656570074.4274683        1377668.8636610508        639117455.33235109     
   3514021535.3384376        1448823.6927490234        638523284.07515323     
   3371733220.1029305        2387391.3669168949        642236571.93549287     
   4481745543.5667219       -7683650.9184105396        53710223.150814898     
   4301654896.8715029       -5844208.8322153091        53254357.934908226     
   4121374028.7360411       -4638838.2135155201        58404561.575303711     
   3940902939.1603255       -4067539.0623180866        69160834.071990475     
   3760241628.1443610       -4130311.3786156178        85523175.424980700     
   4209777151.4140387       -3505483.7330975533        202592108.93205798     
   4043666513.0052228       -501093.95320653915        200261176.35166091     
   3877368815.4123569        1879765.2132043839        202809193.35980460     
   3710884058.6354294        3637093.7660729885        210236159.95648488     
   3544212242.6744690        4770891.7054893970        222542076.14170143     
   3934118966.7858458       -434254.29044461250        350307128.98991781     
   3779910853.0412474        3111838.0965104103        346104818.34393519     
   3625518842.3687930        6044940.7239396572        346054338.01873159     
   3470942934.7684965        8365053.5918860435        350155688.01429695     
   3316183130.2403436        10072176.700321198        358408868.33063519     
   3654770989.6821451        1530037.4095599651        496855283.32439584     
   3510387916.9795809        4994587.3168981075        490785283.91173202     
   3365824109.6053696        7856688.3187372684        488139995.55207646     
   3221079567.5595026        10116340.415063977        488919418.24542952     
   3076154290.8419852        11773543.605884671        493123551.99179018     
   3371733220.1029305        2387391.3669168949        642236571.93549287     
   3235097704.8202238        5147153.7080005407        634302573.05503833     
   3098284617.1220636        7315007.9975527525        629066165.95984018     
   2961293957.0084581        8890954.2356245518        626527350.64987850     
   2824125724.4793983        9874992.4221830368        626686127.12516749     
   3760241628.1443610       -4130311.3786156178        85523175.424980700     
   3510792193.3074245       -31497167.242427111        95682172.270658776     
   3257136729.5362821       -72884119.553558111        129241334.81253499     
   2999275236.8309708       -128291168.31194460        186200663.05057153     
   2737207715.1914854       -197718313.51755714        266560156.98480749     
   3544212242.6744690        4770891.7054893970        222542076.14170143     
   3351589153.1599298       -5950739.6613373756        221126884.88402173     
   3156469575.1985664       -24993999.184271336        236182895.60193253     
   2958853508.7903824       -52358886.863255978        267710108.29544339     
   2758740953.9353833       -88045402.698290110        315708522.96455884     
   3316183130.2403436        10072176.700321198        358408868.33063519     
   3160589346.8465362        10056658.069979310        347413952.87151551     
   3004208615.4932623        7417979.5747393370        345961275.66740584     
   2847040936.1805325        2156141.2146445513        354050836.71829492     
   2689086308.9083295       -5728857.0103482008        371682636.02419877     
   3076154290.8419852        11773543.605884671        493123551.99179018     
   2937792774.3672323        16525025.951511145        474543376.23314965     
   2800353850.4203687        24351816.723466277        458576475.00893074     
   2663837519.0014110        35253915.921741605        445222848.31912285     
   2528243780.1103377        49231323.546332002        434482496.16374141     
   2824125724.4793983        9874992.4221830368        626686127.12516749     
   2683199435.7220163        13454363.983296156        602515154.96892107     
   2544905279.9798875        25807512.261912942        574028493.62650311     
   2409243257.2530336        46934437.258077741        541226143.09792781     
   2276213367.5414076        76835138.971730828        504108103.38318032     
   5957995302.7685556        1787398590.8305666        1150080915.2303989     
   6088449095.6790094        1502228843.2295499        1227938919.7169240     
   6221637598.8718967        1226174796.5699782        1268429421.6759663     
   6357560812.3472195        959236450.85185230        1271552421.1075251     
   6496218736.1049728        701413806.07517004        1237307918.0116019     
   5434712870.4330168        1630413861.1299052        1033487874.1753250     
   5489934535.2898817        1372490514.3799274        1113883024.5827947     
   5547358686.6589479        1121908789.3372836        1167487178.8185925     
   5606985324.5402117        878668686.00197148        1194300336.8827195     
   5668814448.9336777        642770204.37399268        1194322498.7751744     
   4895341470.3246279        1468602441.0973883        936365312.08895755     
   4905549596.7159367        1246991072.0748599        1018676680.6854324     
   4917427985.8492117        1030947245.5255523        1084773559.4660475     
   4930976637.7244530        820470961.44946539        1134655948.4308023     
   4946195552.3416624        615562219.84659898        1168323847.5796971     
   4339881102.4433889        1301964330.7330167        858713228.97129691     
   4335294279.9571743        1125730516.3143470        942319888.02483773     
   4331845496.4426918        953290165.13478613        1020288563.6183296     
   4329534751.8999434        784643277.19433379        1092619255.7517734     
   4328362046.3289270        619789852.49298966        1159311964.4251680     
   3768331766.7893004        1130499530.0367901        800531624.82234263     
   3779168585.0135956        1008708847.0983894        884812646.60101008     
   3790611218.4393892        888937548.16498494        974032191.27544045     
   3802659667.0666819        771185633.23657680        1068190258.8456340     
   3815313930.8954730        655453102.31316447        1167286849.3115895     
   6496218736.1049728        701413806.07517004        1237307918.0116019     
   6239329660.7162609        375945060.69832873        1053182028.9438437     
   6013344116.2388153        153488085.02571487        908060568.18543470     
   5818262102.6726379        34042879.057326794        801943535.73637605     
   5654083620.0177279        17609442.793162823        734830931.59666634     
   5668814448.9336777        642770204.37399268        1194322498.7751744     
   5518863805.6344433        383287799.84873247        1073491089.0943223     
   5393051340.0497322        204265987.70521665        980687966.36104703     
   5291377052.1795416        105704767.94343948        915913130.57534802     
   5213840942.0238762        87604140.563406706        879166581.73722684     
   4946195552.3416624        615562219.84659898        1168323847.5796971     
   4871822937.2411261        412658035.00568700        1102894005.2228816     
   4814823146.6583681        267663265.22403336        1054516308.4518708     
   4775196180.5933876        180577910.50163698        1023190757.2666636     
   4752942039.0461845        151401970.83849883        1008917351.6672603     
   4328362046.3289270        619789852.49298966        1159311964.4251680     
   4298207055.5363121        464055766.16919255        1141390777.3295209     
   4278659536.0647302        343679917.58216846        1129545594.4579039     
   4269719487.9141784        258662306.73191857        1123776415.8103180     
   4271386911.0846601        209002933.61844110        1124083241.3867645     
   3815313930.8954730        655453102.31316447        1167286849.3115895     
   3798016160.5199981        537480993.33924794        1188981405.4142394     
   3784560508.2688103        432315944.77961910        1205775824.3791482     
   3774946974.1419091        339957956.63428056        1217670106.2063148     
   3769175558.1392946        260407028.90323055        1224664250.8957393     
   5654083620.0177279        17609442.793162823        734830931.59666634     
   5520060441.9581394        48969151.870548010        721601708.93832374     
   5380680911.4243984        62474352.700748682        710159032.79811966     
   5235945028.4164991        58125045.283761740        700502903.17605817     
   5085852792.9344444        35921229.619584799        692633320.07213199     
   5213840942.0238762        87604140.563406706        879166581.73722684     
   5077175323.5508003        85186709.987403870        855451664.58394766     
   4938408043.3846874        75763740.434611559        835712278.97601199     
   4797539101.5255365        59335231.905028343        819948424.91342115     
   4654568497.9733496        35901184.398656368        808160102.39617121     
   4752942039.0461845        151401970.83849883        1008917351.6672603     
   4619888223.0944901        117083673.48956728        978513879.26368380     
   4487987436.2308779        86608806.434244156        954274923.43265283     
   4357239678.4553490        59977369.672529936        936200484.17417192     
   4227644949.7679009        37189363.204423428        924290561.48823655     
   4271386911.0846601        209002933.61844110        1124083241.3867645     
   4148199140.5892124        144660042.37704015        1090788352.9775288     
   4029419089.9629679        95009550.699646950        1065846966.1680461     
   3915046759.2059264        60051458.586259365        1049259080.9583132     
   3805082148.3180852        39785766.036877871        1041024697.3483351     
   3769175558.1392946        260407028.90323055        1224664250.8957393     
   3662108076.0349669        167915816.64982450        1192275085.7254853     
   3562703004.5809603        100965973.23081911        1170428407.1821873     
   3470960343.7772756        59557498.646221876        1159124215.2658451     
   3386880093.6239109        43690392.896028876        1158362509.9764588     
   5085852792.9344444        35921229.619584799        692633320.07213199     
   4935243455.4366751        9845133.0893867016        674658092.95272815     
   4787539602.1089020       -6546016.2074873447        662625320.94586945     
   4642741232.9511318       -13252218.271022320        656535004.05155551     
   4500848347.9633551       -10273473.101241350        656387142.26978803     
   4654568497.9733496        35901184.398656368        808160102.39617121     
   4520512232.5496998        15207394.675552130        794460415.22188604     
   4388601116.5188904        1664102.9285945892        786309334.49812245     
   4258835149.8809285       -4728690.8422093391        783706860.22488225     
   4131214332.6358113       -3970986.6368660927        786652992.40216553     
   4227644949.7679009        37189363.204423428        924290561.48823655     
   4109016474.5268669        21540295.720963001        913979357.01905966     
   3991772813.9015231        10507276.956470013        908822910.33838069     
   3875913967.8918748        4090306.9109513760        908821221.44619811     
   3761439936.4979119        2289385.5843985081        913974290.34251499     
   3805082148.3180852        39785766.036877871        1041024697.3483351     
   3700756181.3681736        28843836.225612879        1033214918.3442521     
   3597054694.2568026        19983505.876138687        1030166048.4666420     
   3493977686.9839644        13204774.988454342        1031878087.7155064     
   3391525159.5496674        8507643.5625615120        1038351036.0908462     
   3386880093.6239109        43690392.896028876        1158362509.9764588     
   3295731353.0736256        37118016.189508677        1152167099.1974576     
   3204446757.5847244        30092789.687600732        1150338748.8829069     
   3113026307.1572051        22614713.390306115        1152877459.0328045     
   3021470001.7910690        14683787.297616839        1159783229.6471524     
   4500848347.9633551       -10273473.101241350        656387142.26978803     
   4362372093.1667347       -2999451.5484423637        649584494.46859562     
   4223146587.6016502        1777067.4428062439        646790450.68979192     
   4083171831.2681026        4056083.8725152016        648005010.93338954     
   3942447824.1660933        3837597.7406849861        653228175.19938040     
   4131214332.6358113       -3970986.6368660927        786652992.40216553     
   4002099245.6664596       -919730.72794413567        779246449.56288719     
   3872646811.0322952        1007032.9649343491        776006685.40923631     
   3742857028.7333245        1809304.4417872429        776933699.94121671     
   3612729898.7695360        1487083.7025918961        782027493.15882671     
   3761439936.4979119        2289385.5843985081        913974290.34251499     
   3642137944.9650726        1253454.1322212219        906444406.08608258     
   3522910508.8710713        466040.80950903893        903239475.17851365     
   3403757628.2159095       -72854.383738517761        904359497.61980760     
   3284679302.9995918       -363231.44751548767        909804473.40996325     
   3391525159.5496674        8507643.5625615120        1038351036.0908462     
   3282488191.0625772        3520103.0320537090        1031178364.0381820     
   3173937681.1179776        154090.97651755810        1028488819.9976152     
   3065873629.7158704       -1590392.6040449142        1030282403.9691473     
   2958296036.8562522       -1713347.7096406221        1036559115.9527757     
   3021470001.7910690        14683787.297616839        1159783229.6471524     
   2923149983.9589696        5880215.9715539217        1153448323.4191868     
   2825728327.7730131        71183.465968489647        1151754719.8665557     
   2729205033.2331953       -2743310.2191510201        1154702418.9892499     
   2633580100.3395233       -2563265.0837861300        1162291420.7872779     
   3942447824.1660933        3837597.7406849861        653228175.19938040     
   3799378837.3700175        2173926.8796305656        644019085.70709288     
   3656570074.4274683        1377668.8636610508        639117455.33235109     
   3514021535.3384376        1448823.6927490234        638523284.07515323     
   3371733220.1029305        2387391.3669168949        642236571.93549287     
   3612729898.7695360        1487083.7025918961        782027493.15882671     
   3481121242.5985680        485502.70460939407        773684170.71537077     
   3349695053.3913302        92144.919067144394        769696238.12835228     
   3218451331.1478252        307010.34596312046        770063695.39778042     
   3087390075.8680482        1130098.9852986336        774786542.52365720     
   3284679302.9995918       -363231.44751548767        909804473.40996325     
   3164667922.4220095       -661639.09195208549        902236201.64391017     
   3044761251.9183712       -611013.15657627583        899071250.47320318     
   2924959291.4886780       -211353.64138698578        900309619.89783740     
   2805262041.1329250        537339.45361161232        905951309.91781604     
   2958296036.8562522       -1713347.7096406221        1036559115.9527757     
   2850018876.8403440       -1267498.5100519657        1029675178.4927155     
   2741768670.0085902       -731805.36327135563        1027242492.3668946     
   2633545416.3609943       -106268.26930272579        1029261057.5753161     
   2525349115.8975506        609112.77184915543        1035730874.1179848     
   2633580100.3395233       -2563265.0837861300        1162291420.7872779     
   2537174105.8535776       -1332075.5496603251        1156001101.2617803     
   2440717307.6619940       -270231.70099687576        1154209963.8094275     
   2344209705.7647810        622266.46223604679        1156918008.4302180     
   2247651300.1619334        1345418.9400137663        1164125235.1241527     
   3371733220.1029305        2387391.3669168949        642236571.93549287     
   3235097704.8202238        5147153.7080005407        634302573.05503833     
   3098284617.1220636        7315007.9975527525        629066165.95984018     
   2961293957.0084581        8890954.2356245518        626527350.64987850     
   2824125724.4793983        9874992.4221830368        626686127.12516749     
   3087390075.8680482        1130098.9852986336        774786542.52365720     
   2958358141.6731701        2795632.8568371534        767860793.57145286     
   2829297794.7387681        4366457.5966377258        764338875.62529922     
   2700209035.0648570        5842573.2047333717        764220788.68519318     
   2571091862.6514225        7223979.6810920238        767506532.75113487     
   2805262041.1329250        537339.45361161232        905951309.91781604     
   2685851514.3710175        1713992.7591465712        900207830.51578569     
   2566561734.5455241        3293135.8527421951        898574421.34060621     
   2447392701.6564503        5274768.7343939543        901051082.39228213     
   2328344415.7037964        7658891.4041107893        907637813.67080569     
   2525349115.8975506        609112.77184915543        1035730874.1179848     
   2417577822.9137607        1902233.4149250984        1031343683.8880501     
   2310076436.5423274        4095042.7658568621        1031772803.1057724     
   2202844956.7832432        7187540.8246212006        1037018231.7711464     
   2095883383.6365118        11179727.591226459        1047079969.8841707     
   2247651300.1619334        1345418.9400137663        1164125235.1241527     
   2153537067.3014088        3360354.8241750002        1161268353.6882405     
   2059841900.7291813        6772178.3359928131        1163934020.9207821     
   1966565800.4452305        11580889.475398898        1172122236.8217812     
   1873708766.4495714        17786488.242445350        1185833001.3912344     
   2824125724.4793983        9874992.4221830368        626686127.12516749     
   2683199435.7220163        13454363.983296156        602515154.96892107     
   2544905279.9798875        25807512.261912942        574028493.62650311     
   2409243257.2530336        46934437.258077741        541226143.09792781     
   2276213367.5414076        76835138.971730828        504108103.38318032     
   2571091862.6514225        7223979.6810920238        767506532.75113487     
   2422341366.8614573        4861488.9377493858        751305192.10971761     
   2275034294.6636992        7310410.1684241295        734772118.85350072     
   2129170646.0581439        14570743.373111606        717907312.98250151     
   1984750421.0448003        26642488.551837921        700710774.49669504     
   2328344415.7037964        7658891.4041107893        907637813.67080569     
   2183152445.9423151        2769358.2746343613        898019276.88398767     
   2038215190.3499908       -1271127.6243200302        892052964.05375254     
   1893532648.9268212       -4462566.2927609682        889738875.18009424     
   1749104821.6728072       -6804957.7306778431        891077010.26301348     
   2095883383.6365118        11179727.591226459        1047079969.8841707     
   1965632672.9645741        7177971.9939330816        1042657409.2917295     
   1834447967.0387583        62898.883678078651        1045871029.2272381     
   1702329265.8590333       -10165491.739578128        1056720829.6907023     
   1569276569.4254231       -23507199.875807166        1075206810.6821208     
   1873708766.4495714        17786488.242445350        1185833001.3912344     
   1769782047.9282558        18087330.095672131        1185219589.3329415     
   1663732624.7300000        11312489.692420363        1196226314.3739853     
   1555560496.8547893       -2538032.9673420191        1218853176.5143454     
   1445265664.3026431       -23464237.883555532        1253100175.7540355     
   3768331766.7893004        1130499530.0367901        800531624.82234263     
   3779168585.0135956        1008708847.0983894        884812646.60101008     
   3790611218.4393892        888937548.16498494        974032191.27544045     
   3802659667.0666819        771185633.23657680        1068190258.8456340     
   3815313930.8954730        655453102.31316447        1167286849.3115895     
   3207865006.1605258        962359501.84815776        756664404.53514397     
   3235915638.6991811        868205799.53753078        853019554.32609200     
   3263689417.5850310        773129251.71755803        951299812.08745229     
   3291186342.8180790        677129858.38823986        1051505177.8192250     
   3318406414.3983221        580207619.54957604        1153635651.5214100     
   2685652363.3552299        805695709.00656891        721955473.00274956     
   2722307053.2786708        736596060.24484348        829354970.47595894     
   2757802220.6950054        663631336.45943069        935666160.99422979     
   2792137865.6042347        586801537.65033054        1040889044.5575622     
   2825313988.0063572        506106663.81754321        1145023621.1659563     
   2201693838.3734102        660508151.51202309        696404830.22515941     
   2238342828.7520652        613879629.22032762        813818895.05061007     
   2272949627.7693110        560443802.39060259        927131237.99577153     
   2305514235.4251485        500200671.02284861        1036341859.0606443     
   2336036651.7195764        433150235.11706525        1141450758.2452283     
   1755989431.2150691        526796829.36452073        680012476.20237362     
   1784022965.1193640        500056506.46398294        806411328.05004609     
   1809131638.8079476        463566649.51107401        925695043.09207892     
   1831315452.2808199        417327258.50579393        1037863621.3284724     
   1850574405.5379810        361338333.44814336        1142917062.7592258     
   3815313930.8954730        655453102.31316447        1167286849.3115895     
   3798016160.5199981        537480993.33924794        1188981405.4142394     
   3784560508.2688103        432315944.77961910        1205775824.3791482     
   3774946974.1419091        339957956.63428056        1217670106.2063148     
   3769175558.1392946        260407028.90323055        1224664250.8957393     
   3318406414.3983221        580207619.54957604        1153635651.5214100     
   3293928029.5620518        473007500.64882922        1181975838.8276083     
   3273175942.4639959        378228374.20879591        1207206769.8232820     
   3256150153.1041546        295870240.22947311        1229328444.5084305     
   3242850661.4825239        225933098.71086276        1248340862.8830554     
   2825313988.0063572        506106663.81754321        1145023621.1659563     
   2798771791.0727687        411213575.69901049        1179874315.8919511     
   2775840071.4913211        328355412.08761346        1213406635.1346378     
   2756518829.2620130        257532172.98335028        1245620578.8940167     
   2740808064.3848462        198743858.38622248        1276516147.1700871     
   2336036651.7195764        433150235.11706525        1141450758.2452283     
   2312547445.0521460        352099218.48978984        1182676836.6072679     
   2292552895.3507829        282697058.41607195        1224375420.3132157     
   2276053002.6154876        224943754.89591253        1266546509.3630717     
   2263047766.8462596        178839307.92930984        1309190103.7568381     
   1850574405.5379810        361338333.44814336        1142917062.7592258     
   1835254991.5001853        295664429.02116728        1190383400.9735577     
   1823314414.0423841        241253313.19417220        1240113125.3590150     
   1814752673.1645772        198104985.96715760        1292106235.9155974     
   1809569768.8667645        166219447.34012425        1346362732.6433067     
   3769175558.1392946        260407028.90323055        1224664250.8957393     
   3662108076.0349669        167915816.64982450        1192275085.7254853     
   3562703004.5809603        100965973.23081911        1170428407.1821873     
   3470960343.7772756        59557498.646221876        1159124215.2658451     
   3386880093.6239109        43690392.896028876        1158362509.9764588     
   3242850661.4825239        225933098.71086276        1248340862.8830554     
   3165438437.9311147        151615979.55314577        1231225955.8600144     
   3094093658.5798397        97523674.395871520        1222186278.0747955     
   3028816323.4286976        63656183.239043236        1221221829.5274003     
   2969606432.4776869        50013506.082654357        1228332610.2178254     
   2740808064.3848462        198743858.38622248        1276516147.1700871     
   2686001792.5602584        140486040.27636552        1272814704.1023746     
   2635667998.4856148        97136481.332991004        1274721232.8833494     
   2589806682.1609173        68695181.556100368        1282235733.5130129     
   2548417843.5861650        55162140.945693016        1295358205.9913645     
   2263047766.8462596        178839307.92930984        1309190103.7568381     
   2223798139.9223957        134525998.81948304        1317041330.4525661     
   2187426024.2982888        99804394.042179465        1328033271.6078484     
   2153931419.9739380        74674493.597396851        1342165927.2226849     
   2123314326.9493458        59136297.485140324        1359439297.2970748     
   1809569768.8667645        166219447.34012425        1346362732.6433067     
   1778827480.0175281        133735855.18250060        1363905834.9105906     
   1749367736.0178611        105527412.52344078        1382122394.2482932     
   1721190536.8677611        81594119.362939417        1401012410.6564159     
   1694295882.5672314        61935975.701002300        1420575884.1349597     
   3386880093.6239109        43690392.896028876        1158362509.9764588     
   3295731353.0736256        37118016.189508677        1152167099.1974576     
   3204446757.5847244        30092789.687600732        1150338748.8829069     
   3113026307.1572051        22614713.390306115        1152877459.0328045     
   3021470001.7910690        14683787.297616839        1159783229.6471524     
   2969606432.4776869        50013506.082654357        1228332610.2178254     
   2888708308.4714913        39575123.007268190        1220904854.8116748     
   2808145441.8020124        30254264.387602329        1217887283.9062669     
   2727917832.4692535        22050930.223663568        1219279897.5016019     
   2648025480.4732089        14965120.515447378        1225082695.5976801     
   2548417843.5861650        55162140.945693016        1295358205.9913645     
   2477893547.6563263        40894714.961118698        1287247736.9459543     
   2408175621.3385372        29315187.683377981        1283590576.4375789     
   2339264064.6327987        20423559.112472653        1284386724.4662402     
   2271158877.5391116        14219829.248401403        1289636181.0319359     
   2123314326.9493458        59136297.485140324        1359439297.2970748     
   2063287070.6281281        41076792.051060081        1351195745.6002946     
   2004537296.1942949        27275559.574922800        1347448626.4768403     
   1947065003.6478448        17732600.056731582        1348197939.9267159     
   1890870192.9887798        12447913.496487737        1353443685.9499209     
   1694295882.5672314        61935975.701002300        1420575884.1349597     
   1644888877.3869009        40121354.277092516        1412748880.7746975     
   1597230466.3692861        24135380.062236369        1409461434.0240543     
   1551320649.5143900        13978053.056441069        1410713543.8830347     
   1507159426.8222117        9649373.2597030997        1416505210.3516347     
   3021470001.7910690        14683787.297616839        1159783229.6471524     
   2923149983.9589696        5880215.9715539217        1153448323.4191868     
   2825728327.7730131        71183.465968489647        1151754719.8665557     
   2729205033.2331953       -2743310.2191510201        1154702418.9892499     
   2633580100.3395233       -2563265.0837861300        1162291420.7872779     
   2648025480.4732089        14965120.515447378        1225082695.5976801     
   2562312380.7300997        7753013.1246705055        1218525468.5463669     
   2477332107.1502047        2983659.6112823486        1216657307.2108018     
   2393084659.7335258        657059.97527742386        1219478211.5909853     
   2309570038.4800663        773214.21666312218        1226988181.6869204     
   2271158877.5391116        14219829.248401403        1289636181.0319359     
   2198189161.7147570        8640125.5418442488        1282663508.4271932     
   2125786736.5706906        4951390.7695857286        1280427664.5786178     
   2053951602.1069164        3153624.9316236973        1282928649.4862065     
   1982683758.3234286        3246828.0279614925        1290166463.1499650     
   1890870192.9887798        12447913.496487737        1353443685.9499209     
   1830780326.9129460        8541553.2230803967        1345862443.0616689     
   1771092216.0344734        5974376.9408793449        1343065791.9700007     
   1711805860.3533640        4746384.6498873234        1345053732.6749156     
   1652921259.8696196        4857576.3501067162        1351826265.1764157     
   1507159426.8222117        9649373.2597030997        1416505210.3516347     
   1460085876.3246610        7457296.1683695316        1408122272.4497941     
   1413248545.5415463        6052618.1251532435        1404571689.3849516     
   1366647434.4728699        5435339.1300650239        1405853461.1571119     
   1320282543.1186295        5605459.1830976605        1411967587.7662749     
   2633580100.3395233       -2563265.0837861300        1162291420.7872779     
   2537174105.8535776       -1332075.5496603251        1156001101.2617803     
   2440717307.6619940       -270231.70099687576        1154209963.8094275     
   2344209705.7647810        622266.46223604679        1156918008.4302180     
   2247651300.1619334        1345418.9400137663        1164125235.1241527     
   2309570038.4800663        773214.21666312218        1226988181.6869204     
   2224751123.1933908        1611046.5754797459        1219664906.5220249     
   2139933205.6956272        2452204.8973335028        1216846361.8623443     
   2055116285.9867818        3296689.1822425127        1218532547.7078767     
   1970300364.0668480        4144499.4301881790        1224723464.0586205     
   1982683758.3234286        3246828.0279614925        1290166463.1499650     
   1909467774.8990874        3696059.0103970766        1281870667.4226439     
   1836304590.7582006        4321287.6043521166        1278085150.6326056     
   1763194205.9007769        5122513.8098504543        1278809912.7798524     
   1690136620.3268099        6099737.6268684864        1284044953.8643799     
   1652921259.8696196        4857576.3501067162        1351826265.1764157     
   1591324060.9706607        4922961.7550696731        1342618383.9636388     
   1529831462.8497071        5337016.4200492501        1337926330.1202154     
   1468443465.5067613        6099740.3450484276        1337750103.6461434     
   1407160068.9418185        7211133.5300652385        1342089704.5414243     
   1320282543.1186295        5605459.1830976605        1411967587.7662749     
   1270319981.4081156        5291754.8095133901        1401908056.1450112     
   1220513821.9701505        5499391.3444265723        1396369900.3251722     
   1170864064.8047423        6228368.7878612876        1395353120.3067553     
   1121370709.9118800        7478687.1397812963        1398857716.0897558     
   2247651300.1619334        1345418.9400137663        1164125235.1241527     
   2153537067.3014088        3360354.8241750002        1161268353.6882405     
   2059841900.7291813        6772178.3359928131        1163934020.9207821     
   1966565800.4452305        11580889.475398898        1172122236.8217812     
   1873708766.4495714        17786488.242445350        1185833001.3912344     
   1970300364.0668480        4144499.4301881790        1224723464.0586205     
   1889995014.1524770        6923608.3697304726        1221048716.1542366     
   1810069849.1458585        10970000.335107088        1222297289.6041200     
   1730524869.0469878        16283675.326312542        1228469184.4082701     
   1651360073.8558629        22864633.343335390        1239564400.5666883     
   1690136620.3268099        6099737.6268684864        1284044953.8643799     
   1621928075.3180571        9129396.2096276283        1279506977.8808908     
   1554060833.8365209        13296733.216430664        1279293095.9374859     
   1486534895.8821855        18601748.647245169        1283403308.0341604     
   1419350261.4550626        25044442.502094746        1291837614.1709139     
   1407160068.9418185        7211133.5300652385        1342089704.5414243     
   1349336250.7981536        9977718.3438873291        1336643138.8682067     
   1291814854.8011556        13752376.979935646        1334921439.9208786     
   1234595880.9508245        18535109.438206553        1336924607.6994469     
   1177679329.2471666        24325915.718720376        1342652642.2039108     
   1121370709.9118800        7478687.1397812963        1398857716.0897558     
   1072219540.5927625        9468574.7724990249        1392457199.1161773     
   1023331912.0397725        12336931.625639617        1389182321.5543051     
   974707824.25291312        16083757.699215710        1389033083.4041357     
   926347277.23218536        20709052.993230402        1392009484.6656730     
   1873708766.4495714        17786488.242445350        1185833001.3912344     
   1769782047.9282558        18087330.095672131        1185219589.3329415     
   1663732624.7300000        11312489.692420363        1196226314.3739853     
   1555560496.8547893       -2538032.9673420191        1218853176.5143454     
   1445265664.3026431       -23464237.883555532        1253100175.7540355     
   1651360073.8558629        22864633.343335390        1239564400.5666883     
   1574700447.2483532        29193211.674403906        1231895148.5173447     
   1496998703.6928511        32048066.845487952        1232189429.3459444     
   1418254843.1893506        31429198.856585443        1240447243.0524848     
   1338468865.7378507        27336607.707683802        1256668589.6369786     
   1419350261.4550626        25044442.502094746        1291837614.1709139     
   1359510286.1288390        34266525.121252358        1278373207.8142855     
   1299708781.5835702        43616843.676928520        1269215730.1142282     
   1239945747.8192565        53095398.169095993        1264365181.0707221     
   1180221184.8358836        62702188.597777486        1263821560.6837873     
   1177679329.2471666        24325915.718720376        1342652642.2039108     
   1124211564.5697155        33307270.436217904        1324653767.2237709     
   1071862858.4021630        46018820.186718166        1307305216.6788177     
   1020633210.7445090        62460564.970213920        1290606990.5690448     
   970522621.59676051        82632504.786720991        1274559088.8944547     
   926347277.23218536        20709052.993230402        1392009484.6656730     
   868804282.57097960        26315447.619303107        1370736826.7457998     
   813460934.14862585        39253996.374884665        1346457889.0397305     
   760317231.96511698        59524699.259944260        1319172671.5474534     
   709373176.02045953        87127556.274511099        1288881174.2689812     
   1755989431.2150691        526796829.36452073        680012476.20237362     
   1784022965.1193640        500056506.46398294        806411328.05004609     
   1809131638.8079476        463566649.51107401        925695043.09207892     
   1831315452.2808199        417327258.50579393        1037863621.3284724     
   1850574405.5379810        361338333.44814336        1142917062.7592258     
   1326302703.8105049        397890811.14315146        669679391.16354907     
   1339513357.7384911        375506008.50584579        791826092.96747303     
   1350528208.3531950        345801861.49093318        908680596.14989960     
   1359347255.6546168        308778370.09841371        1020242900.7108285     
   1365970499.6427569        264435534.32828778        1126513006.6502590     
   890397218.09001768        267119165.42700532        662306555.33784258     
   893993386.85352862        250652401.49648190        781051673.48418581     
   896122809.20618701        229296482.86311585        896327531.19317317     
   896785485.14799225        203051409.52690697        1008134128.4648048     
   895981414.67894459        171917181.48785567        1116471465.2990804     
   448272974.05360746        134481892.21608225        657893968.72525418     
   447463052.46447712        125495685.43589120        774088069.60018420     
   445915441.36692327        114050513.62762162        888635848.22190022     
   443630140.76094586        100146376.79127374        1001537304.5904018     
   440607150.64654493        83783274.926847100        1112792438.7056899     
  -70028.298725927292       -21008.489617778188        656441631.32578397     
  -77645.428663702944        35860.324073752614        770935281.31546807     
  -93895.164595793773        63953.784451072912        885605547.23607993     
  -118777.50652221695        63271.891513865339        1000452429.0876195     
  -152292.45444273800        33814.645262824692        1115475926.8700869     
   1850574405.5379810        361338333.44814336        1142917062.7592258     
   1835254991.5001853        295664429.02116728        1190383400.9735577     
   1823314414.0423841        241253313.19417220        1240113125.3590150     
   1814752673.1645772        198104985.96715760        1292106235.9155974     
   1809569768.8667645        166219447.34012425        1346362732.6433067     
   1365970499.6427569        264435534.32828778        1126513006.6502590     
   1360232061.6644893        216902498.29665512        1181874180.7787447     
   1357031166.1171405        177827937.03475228        1238155596.0752785     
   1356367813.0007110        147211850.54258001        1295357252.5398586     
   1358242002.3152010        125054238.82013905        1353479150.1724868     
   895981414.67894459        171917181.48785567        1116471465.2990804     
   895986395.60855198        141373746.70607054        1178745965.5011330     
   897687624.82000327        116484472.86376473        1240597561.8681543     
   901085102.31329823        97249359.960938543        1302026254.4001439     
   906178828.08843720        83668407.997591555        1363032043.0971029     
   440607150.64654493        83783274.926847100        1112792438.7056899     
   442517993.33237422        69078174.249413610        1180998755.1407211     
   445283790.15097237        57222920.681208879        1247439022.7376425     
   448904541.10233891        48217514.222233504        1312113241.4964547     
   453380246.18647403        42061954.872485355        1375021411.4171572     
  -152292.45444273800        33814.645262824692        1115475926.8700869     
  -173145.16404456319        15780.926684204038        1188632549.6975095     
  -180337.88995265643        43280.487083995940        1258679978.6837440     
  -173870.63216703566        116313.32646300820        1325618213.8287902     
  -153743.39068844204        234879.44481894322        1389447255.1326478     
   1809569768.8667645        166219447.34012425        1346362732.6433067     
   1778827480.0175281        133735855.18250060        1363905834.9105906     
   1749367736.0178611        105527412.52344078        1382122394.2482932     
   1721190536.8677611        81594119.362939417        1401012410.6564159     
   1694295882.5672314        61935975.701002300        1420575884.1349597     
   1358242002.3152010        125054238.82013905        1353479150.1724868     
   1332301194.5533805        99847326.005139291        1372403042.0355608     
   1307314183.7213001        77819736.289275885        1392667690.1240840     
   1283280969.8189628        58971469.672554255        1414273094.4380543     
   1260201552.8463666        43302526.154970288        1437219254.9774714     
   906178828.08843720        83668407.997591555        1363032043.0971029     
   886946070.42839658        66310145.229523838        1382953185.3161716     
   868338361.77827096        51035379.161173165        1404882382.9157152     
   850355702.13805902        37844109.792534947        1428819635.8957348     
   832998091.50776243        26736337.123613864        1454764944.2562287     
   453380246.18647403        42061954.872485355        1375021411.4171572     
   442762107.64257932        33124312.855660886        1395556264.7524204     
   432440270.18877208        25174341.139129013        1418766472.6231871     
   422414733.82505131        18212039.722884849        1444652035.0294561     
   412685498.55141908        12237408.606936082        1473212951.9712305     
  -153743.39068844204        234879.44481894322        1389447255.1326478     
  -250693.80407286074        289828.88354620303        1410212280.3443081     
  -380091.04719598091        236622.22314463119        1434319959.2464998     
  -541935.12005999580        75259.463606310019        1461770291.8392227     
  -736226.02266283229       -194259.39506072260        1492563278.1224763     
   1694295882.5672314        61935975.701002300        1420575884.1349597     
   1644888877.3869009        40121354.277092516        1412748880.7746975     
   1597230466.3692861        24135380.062236369        1409461434.0240543     
   1551320649.5143900        13978053.056441069        1410713543.8830347     
   1507159426.8222117        9649373.2597030997        1416505210.3516347     
   1260201552.8463666        43302526.154970288        1437219254.9774714     
   1224045475.6798816        27162641.677419603        1433497578.3637455     
   1189211683.1868632        15430372.778092980        1434119812.0095782     
   1155700175.3673153        8105719.4569990635        1439085955.9149733     
   1123510952.2212324        5188681.7141231298        1448396010.0799284     
   832998091.50776243        26736337.123613864        1454764944.2562287     
   809533952.78352165        16103492.720944375        1454651233.3182466     
   786965789.24349833        8457232.2656668127        1458685786.2897644     
   765293600.88769495        3797555.7577882707        1466868603.1707835     
   744517387.71610868        2124463.1973014474        1479199683.9613016     
   412685498.55141908        12237408.606936082        1473212951.9712305     
   401354308.69782126        6943907.4076662362        1476209845.6382017     
   390492784.53919208        3215958.5249599516        1483159356.8646123     
   380100926.07553148        1053561.9588137865        1494061485.6504641     
   370178733.30684191        456717.70923936367        1508916231.9957538     
  -736226.02266283229       -194259.39506072260        1492563278.1224763     
  -493456.57721928449       -316114.26241062430        1498173415.3236098     
  -207330.92605697870       -293448.44403202715        1507540523.7341232     
   122150.93082597778       -126261.93991723339        1520664603.3540161     
   494988.99342779507        185445.24992640244        1537545654.1832888     
   1507159426.8222117        9649373.2597030997        1416505210.3516347     
   1460085876.3246610        7457296.1683695316        1408122272.4497941     
   1413248545.5415463        6052618.1251532435        1404571689.3849516     
   1366647434.4728699        5435339.1300650239        1405853461.1571119     
   1320282543.1186295        5605459.1830976605        1411967587.7662749     
   1123510952.2212324        5188681.7141231298        1448396010.0799284     
   1089003419.4503810        3810192.4771226645        1441774852.8909800     
   1054646596.3313138        2934068.7460677028        1439799757.3037975     
   1020440482.8640310        2560310.5209616423        1442470723.3183842     
   986385079.04853284        2688917.8018046021        1449787750.9347348     
   744517387.71610868        2124463.1973014474        1479199683.9613016     
   722043606.28556979        1399881.8987132013        1474240545.7454853     
   699635024.44416356        892632.56390187144        1473741175.8962038     
   677291642.19189084        602715.19286954403        1477701574.4134517     
   655013459.52875102        530129.78561255336        1486121741.2972345     
   370178733.30684191        456717.70923936367        1508916231.9957538     
   359206436.83022797        226364.43314532936        1505519351.0133133     
   348213829.88009775       -71690.421337753534        1506395945.1621692     
   337200912.45644820       -437446.85421749949        1511546014.4423230     
   326167684.55927950       -870904.86549465358        1520969558.8537738     
   494988.99342779507        185445.24992640244        1537545654.1832888     
   491911.08435704873        289640.08042124880        1535611268.6944616     
   383012.63911606593        41099.790348640192        1537764065.1016951     
   168293.65770585320       -560175.62028841523        1544004043.4049919     
  -152245.85987605999       -1514186.1514971117        1554331203.6043503     
   1320282543.1186295        5605459.1830976605        1411967587.7662749     
   1270319981.4081156        5291754.8095133901        1401908056.1450112     
   1220513821.9701505        5499391.3444265723        1396369900.3251722     
   1170864064.8047423        6228368.7878612876        1395353120.3067553     
   1121370709.9118800        7478687.1397812963        1398857716.0897558     
   986385079.04853284        2688917.8018046021        1449787750.9347348     
   948250891.51479435        2041848.5629026890        1440854341.4278319     
   910261351.64512646        1876938.2042331100        1436575235.8397951     
   872416459.43953466        2194186.7258199453        1436950434.1706188     
   834716214.89801610        2993594.1276481748        1441979936.4203086     
   655013459.52875102        530129.78561255336        1486121741.2972345     
   629087440.79304218       -336365.93224561214        1478300740.1948035     
   603294315.11293197       -759884.79811111093        1475266971.1286759     
   577634082.48841798       -740426.81198731065        1477020434.0988519     
   552106742.91950250       -277991.97386983037        1483561129.1053326     
   326167684.55927950       -870904.86549465358        1520969558.8537738     
   312829629.24286437       -1842888.6759140790        1514247252.4459231     
   299612712.37356806       -2411077.6626046747        1512445106.1918163     
   286516933.95139349       -2575471.8255569339        1515563120.0914545     
   273542293.97633427       -2336071.1647891998        1523601294.1448359     
  -152245.85987605999       -1514186.1514971117        1554331203.6043503     
  -522543.13574386598       -2477719.6681166789        1548693878.1811891     
  -783456.57296703605       -3076640.3892537802        1548109641.0292165     
  -934986.17154848680       -3310948.3149186573        1552578492.1484261     
  -977131.93148505001       -3180643.4451005762        1562100431.5388227     
   1121370709.9118800        7478687.1397812963        1398857716.0897558     
   1072219540.5927625        9468574.7724990249        1392457199.1161773     
   1023331912.0397725        12336931.625639617        1389182321.5543051     
   974707824.25291312        16083757.699215710        1389033083.4041357     
   926347277.23218536        20709052.993230402        1392009484.6656730     
   834716214.89801610        2993594.1276481748        1441979936.4203086     
   794308285.57518315        3451145.0107766390        1437659426.9980197     
   754065894.68653572        4460490.6745220423        1437292463.5649199     
   713989042.23206758        6021631.1188654602        1440879046.1210079     
   674077728.21178246        8134566.3438192904        1448419174.6662853     
   552106742.91950250       -277991.97386983037        1483561129.1053326     
   522807500.95718718       -643143.63105827570        1481206291.1804037     
   493575795.09710765       -783174.94745996594        1483632905.8221416     
   464411625.33926451       -698085.92307540774        1490840973.0305490     
   435314991.68365890       -387876.55789959431        1502830492.8056238     
   273542293.97633427       -2336071.1647891998        1523601294.1448359     
   257717186.73876750       -2814291.1530265212        1523097791.6633275     
   241861613.27148661       -3394065.2403096259        1528203648.3259671     
   225975573.57450324       -4075393.4266020507        1538918864.1327591     
   210059067.64780760       -4858275.7119343579        1555243439.0836949     
  -977131.93148505001       -3180643.4451005762        1562100431.5388227     
  -962657.08007264987       -3062297.5551192700        1563333928.4467943     
  -1076650.7903154022       -3372180.2039877796        1571004691.0763974     
  -1319113.0622148404       -4110291.3917126018        1585112719.4276316     
  -1690043.8957714899       -5276631.1182941012        1605658013.5004952     
   926347277.23218536        20709052.993230402        1392009484.6656730     
   868804282.57097960        26315447.619303107        1370736826.7457998     
   813460934.14862585        39253996.374884665        1346457889.0397305     
   760317231.96511698        59524699.259944260        1319172671.5474534     
   709373176.02045953        87127556.274511099        1288881174.2689812     
   674077728.21178246        8134566.3438192904        1448419174.6662853     
   611919715.43173516        5459171.4744238257        1435972589.2768724     
   550839469.40446591        6376332.4476217031        1424893451.9273500     
   490836990.12997800        10886049.263426334        1415181762.6177206     
   431912277.60827810        18988321.921852291        1406837521.3479819     
   435314991.68365890       -387876.55789959431        1502830492.8056238     
   381038326.00216496       -7596151.3575748950        1497901120.5462620     
   326717547.58739036       -14951468.601518929        1498712924.1528814     
   272352656.43933076       -22453828.289747283        1505265903.6254895     
   217943652.55799058       -30103230.422244966        1517560058.9640796     
   210059067.64780760       -4858275.7119343579        1555243439.0836949     
   176160114.28227612       -12850520.876658373        1556522420.5539758     
   141095168.69739848       -24729406.772536285        1567916305.7163303     
   104864230.89317033       -40494933.399583213        1589425094.5707576     
   67467300.869598791       -60147100.757773526        1621048787.1172695     
  -1690043.8957714899       -5276631.1182941012        1605658013.5004952     
  -2714919.7279328220       -10303937.082837882        1611836489.3000059     
  -6027667.2655042298       -22957482.065415248        1632503596.6176853     
  -11628286.508492965       -43237266.066052109        1667659335.4535275     
  -19516777.456893746       -71143289.084725648        1717303705.8075447     
  -70028.298725927292       -21008.489617778188        656441631.32578397     
  -77645.428663702944        35860.324073752614        770935281.31546807     
  -93895.164595793773        63953.784451072912        885605547.23607993     
  -118777.50652221695        63271.891513865339        1000452429.0876195     
  -152292.45444273800        33814.645262824692        1115475926.8700869     
  -448409696.28612715       -134522908.88583815        657940735.29498696     
  -447623910.25439703       -125459548.44189896        774122397.13508844     
  -446109862.20091176       -113968647.92544279        888659332.02318072     
  -443867552.12567127       -100050207.33646959        1001551539.9592630     
  -440896980.02867573       -83704226.674979270        1112799020.9433358     
  -890523937.22774088       -267157181.16832227        662382472.78841841     
  -894148584.84273505       -250648480.13665313        781111856.87797832     
  -896308075.80822444       -229255923.60663563        896375171.13259137     
  -897002410.12420917       -202979511.57826999        1008172415.5522580     
  -896231587.79069006       -171819244.05155623        1116503590.1369774     
  -1326412751.1235673       -397923825.33707023        669766843.80607843     
  -1339651669.1936779       -375530934.76018870        791903660.54413772     
  -1350688535.9865341       -345797873.25912762        908753064.56431293     
  -1359523351.5021367       -308724640.83388722        1020315055.8666040     
  -1366156115.7404857       -264311237.48446706        1126589634.4510114     
  -1756076137.9736063       -526822841.39208192        680093848.34796691     
  -1784133163.3072250       -500106912.31250578        806497808.13356638     
  -1809251242.7358406       -463594496.88291854        925793012.31834447     
  -1831430376.2594533       -417285595.10332108        1037979460.9023017     
  -1850670563.8780620       -361180206.97371244        1143057153.8854370     
  -152292.45444273800        33814.645262824692        1115475926.8700869     
  -173145.16404456319        15780.926684204038        1188632549.6975095     
  -180337.88995265643        43280.487083995940        1258679978.6837440     
  -173870.63216703566        116313.32646300820        1325618213.8287902     
  -153743.39068844204        234879.44481894322        1389447255.1326478     
  -440896980.02867573       -83704226.674979270        1112799020.9433358     
  -442841545.60179049       -69003111.515535086        1181037752.1543033     
  -445626674.86765742       -57103875.331931829        1247509171.4165208     
  -449252367.82627648       -48006518.124170318        1312213278.7299883     
  -453718624.47764862       -41711039.892249927        1375150074.0947061     
  -896231587.79069006       -171819244.05155623        1116503590.1369774     
  -896265917.96320808       -141248795.53485611        1178827835.4423027     
  -897995035.50492418       -116327638.24881715        1240726650.6913164     
  -901418940.41583848       -97055772.193439186        1302200035.8840187     
  -906537632.69595206       -83433197.368724078        1363247991.0204091     
  -1366156115.7404857       -264311237.48446706        1126589634.4510114     
  -1360446262.2482972       -216721271.13127872        1182002799.5615072     
  -1357285419.8017533       -177628008.26357108        1238332416.5081298     
  -1356673588.4008534       -147031448.88134485        1295578485.2908790     
  -1358610768.0455990       -124931592.98460096        1353741005.9097552     
  -1850670563.8780620       -361180206.97371244        1143057153.8854370     
  -1835382578.4570584       -295420538.30480218        1190562644.5119169     
  -1823497827.7581437       -241004985.37619239        1240326468.8669617     
  -1815016311.7813201       -197933548.18788451        1292348626.9505715     
  -1809938030.5265875       -166206226.73987895        1346629118.7627466     
  -153743.39068844204        234879.44481894322        1389447255.1326478     
  -250693.80407286074        289828.88354620303        1410212280.3443081     
  -380091.04719598091        236622.22314463119        1434319959.2464998     
  -541935.12005999580        75259.463606310019        1461770291.8392227     
  -736226.02266283229       -194259.39506072260        1492563278.1224763     
  -453718624.47764862       -41711039.892249927        1375150074.0947061     
  -443299237.86176091       -32722790.975471973        1395636989.1196504     
  -433208247.30827421       -24829195.600030199        1418809209.8277998     
  -423445652.81719071       -18030253.765932262        1444666736.2191536     
  -414011454.38850927       -12325965.473174393        1473209568.2937140     
  -906537632.69595206       -83433197.368724078        1363247991.0204091     
  -887480046.21458113       -66075090.123029619        1383111521.7538645     
  -869046805.02827454       -50798133.860883415        1405003010.1631980     
  -851237909.13703358       -37602328.582287848        1428922456.2484107     
  -834053358.54085684       -26487674.287240475        1454869860.0095010     
  -1358610768.0455990       -124931592.98460096        1353741005.9097552     
  -1332793118.8625340       -99767068.559127092        1372635878.2469490     
  -1307895764.2071967       -77670192.559411407        1392901360.2526946     
  -1283918704.0795872       -58640964.985455751        1414537451.9269927     
  -1260861938.4797051       -42679385.837255716        1437544153.2698429     
  -1809938030.5265875       -166206226.73987895        1346629118.7627466     
  -1779238455.8056188       -133798726.28376383        1364210058.5989053     
  -1749755124.8450408       -105445371.69561690        1382504260.0962894     
  -1721488037.6448519       -81146162.975433588        1401511723.2548990     
  -1694437194.2050536       -60901100.123220146        1421232448.0747356     
  -736226.02266283229       -194259.39506072260        1492563278.1224763     
  -493456.57721928449       -316114.26241062430        1498173415.3236098     
  -207330.92605697870       -293448.44403202715        1507540523.7341232     
   122150.93082597778       -126261.93991723339        1520664603.3540161     
   494988.99342779507        185445.24992640244        1537545654.1832888     
  -414011454.38850927       -12325965.473174393        1473209568.2937140     
  -402218068.78833091       -7078018.5277159065        1476286475.6007547     
  -390863823.93811148       -3293874.0821210742        1483252316.0144868     
  -379948719.83785129       -973532.13638994098        1494107089.5349107     
  -369472756.48754835       -116992.69051687419        1508850796.1620247     
  -834053358.54085684       -26487674.287240475        1454869860.0095010     
  -810332322.79362392       -15756815.331275672        1454850624.3074923     
  -787532924.75202847       -8098082.0607673526        1458852283.6094861     
  -765655164.41607070       -3511474.4757185876        1466874837.9154818     
  -744699041.78575158       -1996992.5761299431        1478918287.2254832     
  -1260861938.4797051       -42679385.837255716        1437544153.2698429     
  -1224836218.5930994       -26352504.673089206        1433865861.4438241     
  -1190214633.3678095       -14706072.379976869        1434340426.5191200     
  -1156997182.8038356       -7740088.9579159617        1438967848.4957311     
  -1125183866.9011784       -5454554.4069109559        1447748127.3736553     
  -1694437194.2050536       -60901100.123220146        1421232448.0747356     
  -1645729756.1867568       -38865086.553158402        1413332187.0097497     
  -1598908949.7854524       -23117845.039739370        1409716744.7433901     
  -1553974775.0011451       -13659375.582976937        1410386121.2756569     
  -1510927231.8338311       -10489678.182857931        1415340316.6065502     
   494988.99342779507        185445.24992640244        1537545654.1832888     
   491911.08435704873        289640.08042124880        1535611268.6944616     
   383012.63911606593        41099.790348640192        1537764065.1016951     
   168293.65770585320       -560175.62028841523        1544004043.4049919     
  -152245.85987605999       -1514186.1514971117        1554331203.6043503     
  -369472756.48754835       -116992.69051687419        1508850796.1620247     
  -358524937.15660071        118222.13040874898        1505086526.5646973     
  -347640975.81357998        140576.99157546461        1505628606.7966080     
  -336820872.45849442       -49928.107040375471        1510477036.8577559     
  -326064627.09134012       -453293.16542725265        1519631816.7481408     
  -744699041.78575158       -1996992.5761299431        1478918287.2254832     
  -722174131.11999202       -1442899.5363242328        1473373089.8259327     
  -699671115.89392591       -961791.29549643397        1472353410.1887956     
  -677189996.10755205       -553667.85364133120        1475859248.3140733     
  -654730771.76087272       -218529.21076795459        1483890604.2017632     
  -1125183866.9011784       -5454554.4069109559        1447748127.3736553     
  -1090455670.8058224       -4393724.9197953939        1440470958.4781637     
  -1055707407.6019216       -3266005.0708663464        1437938475.2782588     
  -1020939077.2894715       -2071394.8601049185        1440150677.7739456     
  -986150679.86847937       -809894.28753751516        1447107565.9652214     
  -1510927231.8338311       -10489678.182857931        1415340316.6065502     
  -1463369556.2140882       -8734254.0199939013        1406380132.5213921     
  -1415749850.9375634       -6772064.3345230222        1402383802.0649993     
  -1368068116.0042491       -4603109.1264200211        1403351325.2373707     
  -1320324351.4141557       -2227388.3957213759        1409282702.0385103     
  -152245.85987605999       -1514186.1514971117        1554331203.6043503     
  -522543.13574386598       -2477719.6681166789        1548693878.1811891     
  -783456.57296703605       -3076640.3892537802        1548109641.0292165     
  -934986.17154848680       -3310948.3149186573        1552578492.1484261     
  -977131.93148505001       -3180643.4451005762        1562100431.5388227     
  -326064627.09134012       -453293.16542725265        1519631816.7481408     
  -313162970.08047414       -358126.25653654337        1513005279.2108085     
  -300293119.82399112       -368981.86225514114        1511290533.5246639     
  -287455076.32188827       -485859.98257493973        1514487579.6897020     
  -274648839.57416821       -708760.61750355363        1522596417.7059290     
  -654730771.76087272       -218529.21076795459        1483890604.2017632     
  -628960864.52041900        814226.90647339821        1476110132.1917334     
  -603363954.62736917        1270325.1990343630        1473100155.6128891     
  -577940042.08172405        1149765.6669133902        1474860674.4652290     
  -552689126.88348305        452548.31011226773        1481391688.7487581     
  -986150679.86847937       -809894.28753751516        1447107565.9652214     
  -947916226.45557809        1039339.8209152818        1438008437.1239638     
  -909995960.98310018        1841280.7946211100        1433538507.2938948     
  -872389883.45105386        1595928.6335551739        1433697776.4750071     
  -835097993.85943627        303283.33773076534        1438486244.6673117     
  -1320324351.4141557       -2227388.3957213759        1409282702.0385103     
  -1270029055.8859451        317212.48680651188        1398700194.0074983     
  -1220189138.8911853        1343884.9244974256        1392605588.5676737     
  -1170804600.4298768        852628.91735213995        1390998885.7190361     
  -1121875440.5020211       -1156555.5346368551        1393880085.4615855     
  -977131.93148505001       -3180643.4451005762        1562100431.5388227     
  -962657.08007264987       -3062297.5551192700        1563333928.4467943     
  -1076650.7903154022       -3372180.2039877796        1571004691.0763974     
  -1319113.0622148404       -4110291.3917126018        1585112719.4276316     
  -1690043.8957714899       -5276631.1182941012        1605658013.5004952     
  -274648839.57416821       -708760.61750355363        1522596417.7059290     
  -258918226.59627113       -211866.45393052697        1521747665.9446449     
  -243259664.93250263        44856.662547528744        1526463628.1881964     
  -227673154.58285093        61408.731970578432        1536744304.4365869     
  -212158695.54732785       -162210.24570259452        1552589694.6898081     
  -552689126.88348305        452548.31011226773        1481391688.7487581     
  -523735380.68423265        580089.27572175860        1478526508.4403386     
  -494797268.55157202        655516.68603190780        1480353490.4199626     
  -465874790.48549980        678830.54104670882        1486872634.6876302     
  -436967946.48602068        650030.84075129032        1498083941.2433386     
  -835097993.85943627        303283.33773076534        1438486244.6673117     
  -795414119.34395516       -686430.36615711451        1433670455.9338782     
  -755689461.64752924       -1540200.1335569322        1432674277.7716949     
  -715924020.77016151       -2258025.9644861221        1435497710.1807599     
  -676117796.71184862       -2839907.8589303195        1442140753.1610713     
  -1121875440.5020211       -1156555.5346368551        1393880085.4615855     
  -1073954442.5754354       -4011425.3795516491        1387179508.4252641     
  -1025936244.2203701       -6542293.7962024808        1383425990.2433951     
  -977820845.43682992       -8749160.7846055031        1382619530.9159801     
  -929608246.22481883       -10632026.344767988        1384760130.4430225     
  -1690043.8957714899       -5276631.1182941012        1605658013.5004952     
  -2714919.7279328220       -10303937.082837882        1611836489.3000059     
  -6027667.2655042298       -22957482.065415248        1632503596.6176853     
  -11628286.508492965       -43237266.066052109        1667659335.4535275     
  -19516777.456893746       -71143289.084725648        1717303705.8075447     
  -212158695.54732785       -162210.24570259452        1552589694.6898081     
  -178982209.32006848        2969337.3270184100        1549433253.6300063     
  -147015061.84933105        2069755.7113337591        1556214108.7429922     
  -116257253.13511437       -2860955.0927512050        1572932260.0287540     
  -86708783.177417666       -11822795.085241241        1599587707.4873164     
  -436967946.48602068        650030.84075129032        1498083941.2433386     
  -382593913.47185642        8039287.3689790219        1486850871.7645922     
  -328350686.26532322        14992524.538440660        1481003763.1132536     
  -274238264.86641508        21509742.349146098        1480542615.2893229     
  -220256649.27513647        27590940.801091358        1485467428.2927954     
  -676117796.71184862       -2839907.8589303195        1442140753.1610713     
  -613550032.18329942        4905913.0430364609        1424089343.7037654     
  -550034540.51348293        15810824.415893525        1406872559.7284775     
  -485571321.70240241        29874826.259634018        1390490401.2352226     
  -420160375.75005543        47097918.574257225        1374942868.2239902     
  -929608246.22481883       -10632026.344767988        1384760130.4430225     
  -871850565.45438993       -6430785.6507869959        1361148669.4475198     
  -812066624.59380949        4524655.3437030315        1333820498.5886652     
  -750256423.64306617        22234296.638730645        1302775617.8664541     
  -686419962.60217118        46698138.234270751        1268014027.2808914     
  -1756076137.9736063       -526822841.39208192        680093848.34796691     
  -1784133163.3072250       -500106912.31250578        806497808.13356638     
  -1809251242.7358406       -463594496.88291854        925793012.31834447     
  -1831430376.2594533       -417285595.10332108        1037979460.9023017     
  -1850670563.8780620       -361180206.97371244        1143057153.8854370     
  -2201753211.1094208       -660525963.33282626        696474661.48298860     
  -2238406762.7703266       -613908659.37994802        813906296.63388753     
  -2273010571.6579728       -560458879.51620293        927241349.85539460     
  -2305564637.7723584       -500176623.74159062        1036479821.1475087     
  -2336068961.1134834       -433061892.05611151        1141621710.5102315     
  -2685683083.8625736       -805704925.15877211        722020458.28004813     
  -2722326951.3609695       -736604383.18565273        829442365.14254653     
  -2757810279.2178478       -663635375.74081016        935779863.74708188     
  -2792133067.4332099       -586797902.82424474        1041032954.0936534     
  -2825295316.0070553       -506091964.43595588        1145201636.1822624     
  -3207865756.2330647       -962359726.86991942        756731238.73914552     
  -3235893729.0791535       -868194083.72961986        853106013.65954304     
  -3263650365.4154682       -773123985.55674100        951408553.99340618     
  -3291135665.2420096       -677149432.35128307        1051638859.7407348     
  -3318349628.5587769       -580270424.11324549        1153796930.9015296     
  -3768301228.2208939       -1130490368.4662681        800607002.86028087     
  -3779107095.9248781       -1008677761.0118490        884897242.18487692     
  -3790530830.2508326       -888924708.96399498        974127420.59436786     
  -3802572431.1987557       -771231212.32270479        1068297538.0887532     
  -3815231898.7686481       -655597271.08797920        1167407594.6680331     
  -1850670563.8780620       -361180206.97371244        1143057153.8854370     
  -1835382578.4570584       -295420538.30480218        1190562644.5119169     
  -1823497827.7581437       -241004985.37619239        1240326468.8669617     
  -1815016311.7813201       -197933548.18788451        1292348626.9505715     
  -1809938030.5265875       -166206226.73987895        1346629118.7627466     
  -2336068961.1134834       -433061892.05611151        1141621710.5102315     
  -2312629400.3326793       -351974724.49477226        1182864561.8932059     
  -2292697206.0794539       -282578778.69203109        1224582407.0030546     
  -2276272378.3538084       -224874054.64789051        1266775245.8397784     
  -2263354917.1557431       -178860552.36234915        1309443078.4033773     
  -2825295316.0070553       -506091964.43595588        1145201636.1822624     
  -2798799437.0141363       -411205875.12649238        1180060361.2153268     
  -2775915056.3542867       -328358113.59392619        1213610739.9735758     
  -2756642174.0275054       -257548679.83825803        1245852772.4570096     
  -2740980790.0337954       -198777573.85948753        1276786458.6656272     
  -3318349628.5587769       -580270424.11324549        1153796930.9015296     
  -3293892688.5014305       -473113990.19996452        1182150042.4782801     
  -3273151378.5826435       -378342990.08187950        1207411467.7785246     
  -3256125698.8024139       -295957423.75898850        1229581206.8022637     
  -3242815649.1607447       -225957291.23129511        1248659259.5494967     
  -3815231898.7686481       -655597271.08797920        1167407594.6680331     
  -3797909154.7945614       -537699069.71518672        1189133605.6820657     
  -3784406172.7645226       -432533408.15588832        1205984590.4179015     
  -3774722952.6785326       -340100286.41008234        1217960548.8755414     
  -3768859494.5365901       -260399704.47777176        1225061481.0549850     
  -1809938030.5265875       -166206226.73987895        1346629118.7627466     
  -1779238455.8056188       -133798726.28376383        1364210058.5989053     
  -1749755124.8450408       -105445371.69561690        1382504260.0962894     
  -1721488037.6448519       -81146162.975433588        1401511723.2548990     
  -1694437194.2050536       -60901100.123220146        1421232448.0747356     
  -2263354917.1557431       -178860552.36234915        1309443078.4033773     
  -2224045055.3929515       -134568821.47043538        1317406994.4213018     
  -2187583535.8254685       -99771564.562882781        1328538431.7865255     
  -2153970358.4532938       -74468781.639688730        1342837390.4990497     
  -2123205523.2764249       -58660472.700851798        1360303870.5588720     
  -2740980790.0337954       -198777573.85948753        1276786458.6656272     
  -2686048470.6975427       -140497961.37228382        1273229236.0245805     
  -2635596591.9915161       -97153150.985834002        1275293794.4169061     
  -2589625153.9157143       -68743142.700133443        1282980133.8426058     
  -2548134156.4701381       -55267936.515184760        1296288254.3016779     
  -3242815649.1607447       -225957291.23129511        1248659259.5494967     
  -3165248701.7193913       -151586145.98931205        1231676783.4087408     
  -3093794293.3431821       -97590130.964471459        1222770347.9874313     
  -3028452424.0321164       -63969246.156776309        1221939953.2855697     
  -2969223093.7861905       -50723491.566220880        1229185599.3031538     
  -3768859494.5365901       -260399704.47777176        1225061481.0549850     
  -3661645748.4584980       -167833375.32151425        1192749636.5737834     
  -3562176639.8804655       -101082504.49879265        1170968092.4981012     
  -3470452168.8024960       -60147092.009607792        1159716848.8279412     
  -3386472335.2245846       -45027137.853956938        1158995905.5632999     
  -1694437194.2050536       -60901100.123220146        1421232448.0747356     
  -1645729756.1867568       -38865086.553158402        1413332187.0097497     
  -1598908949.7854524       -23117845.039739370        1409716744.7433901     
  -1553974775.0011451       -13659375.582976937        1410386121.2756569     
  -1510927231.8338311       -10489678.182857931        1415340316.6065502     
  -2123205523.2764249       -58660472.700851798        1360303870.5588720     
  -2064377012.3223805       -40789849.474097133        1351952105.7796004     
  -2006891448.2577975       -27395715.878882885        1348062206.8468866     
  -1950748831.0826781       -18478071.915207148        1348634173.7607329     
  -1895949160.7970178       -14036917.583070993        1353668006.5211360     
  -2548134156.4701381       -55267936.515184760        1296288254.3016779     
  -2478678723.8719683       -41410949.019227147        1288119284.6569080     
  -2410022553.4357276       -30218168.729696512        1284589227.9066291     
  -2342165645.1614151       -21689595.646597028        1285698084.0508420     
  -2275107999.0490336       -15825229.769930243        1291445853.0895436     
  -2969223093.7861905       -50723491.566220880        1229185599.3031538     
  -2888634890.8355179       -40728385.188543797        1221833723.6416757     
  -2808302265.3192430       -31585203.592191696        1219297807.9226198     
  -2728225217.2373629       -23293946.777152538        1221577852.1459858     
  -2648403746.5898786       -15854614.743440151        1228673856.3117762     
  -3386472335.2245846       -45027137.853956938        1158995905.5632999     
  -3294245513.2130303       -38742157.982050061        1153095422.7339001     
  -3201730583.9083414       -31496820.466355085        1152187946.8948548     
  -3108927547.3105154       -23291125.306868672        1156273478.0461650     
  -3015836403.4195528       -14125072.503597498        1165352016.1878295     
  -1510927231.8338311       -10489678.182857931        1415340316.6065502     
  -1463369556.2140882       -8734254.0199939013        1406380132.5213921     
  -1415749850.9375634       -6772064.3345230222        1402383802.0649993     
  -1368068116.0042491       -4603109.1264200211        1403351325.2373707     
  -1320324351.4141557       -2227388.3957213759        1409282702.0385103     
  -1895949160.7970178       -14036917.583070993        1353668006.5211360     
  -1835121876.7983239       -10211805.272034526        1346548072.4386699     
  -1774550102.7024875       -7238392.6371818781        1344194055.4462845     
  -1714233838.5095010       -5116679.6785022020        1346605955.5439770     
  -1654173084.2193713       -3846666.3960067034        1353783772.7317510     
  -2275107999.0490336       -15825229.769930243        1291445853.0895436     
  -2201576639.6390653       -10100089.201026678        1285795706.1901934     
  -2128618329.6915874       -6285113.5070937872        1284713539.8422372     
  -2056233069.2066007       -4380302.6881302595        1288199354.0456743     
  -1984420858.1841092       -4385656.7441505194        1296253148.8005054     
  -2648403746.5898786       -15854614.743440151        1228673856.3117762     
  -2562733844.7363071       -8399105.8069664240        1224123033.7759612     
  -2477954531.9048681       -3912226.9442597628        1223942255.2528565     
  -2394065808.0955586       -2393978.1553249359        1228131520.7424588     
  -2311067673.3083782       -3844359.4401510954        1236690830.2447665     
  -3015836403.4195528       -14125072.503597498        1165352016.1878295     
  -2918593492.0900569       -5108855.0898654461        1161530055.1959748     
  -2822558709.3423238       -119732.94867479801        1161880201.6781425     
  -2727732055.1763611        842293.91994190216        1166402455.6343300     
  -2634113529.5921707       -2222774.4840086699        1175096817.0645411     
  -1320324351.4141557       -2227388.3957213759        1409282702.0385103     
  -1270029055.8859451        317212.48680651188        1398700194.0074983     
  -1220189138.8911853        1343884.9244974256        1392605588.5676737     
  -1170804600.4298768        852628.91735213995        1390998885.7190361     
  -1121875440.5020211       -1156555.5346368551        1393880085.4615855     
  -1654173084.2193713       -3846666.3960067034        1353783772.7317510     
  -1592620956.4051189       -2884801.2240053415        1344078681.8351521     
  -1531311490.2271736       -2731808.1730212569        1338910036.8082883     
  -1470244685.6855357       -3387687.2430605292        1338277837.6511576     
  -1409420542.7802000       -4852438.4341151714        1342182084.3637619     
  -1984420858.1841092       -4385656.7441505194        1296253148.8005054     
  -1911473203.0022550       -4964918.7581983805        1287673644.7516549     
  -1838555492.5595620       -5643996.5694528818        1283679129.8510871     
  -1765667726.8560309       -6422890.1779139042        1284269604.0987992     
  -1692809905.8916607       -7301599.5835813284        1289445067.4947927     
  -2311067673.3083782       -3844359.4401510954        1236690830.2447665     
  -2226585795.6773572       -5923140.1157832146        1229485082.7570007     
  -2141921145.8883545       -7392680.2648110390        1226912867.6960652     
  -2057073723.9413695       -8252979.8872253895        1228974185.0619555     
  -1972043529.8363986       -8504038.9830256701        1235669034.8546731     
  -2634113529.5921707       -2222774.4840086699        1175096817.0645411     
  -2537958734.4304228       -5759465.2967571020        1169512995.8511963     
  -2441408450.2135477       -7977859.2590851784        1168611250.3432257     
  -2344462676.9415450       -8877956.3709861040        1172391580.5406313     
  -2247121414.6144147       -8459756.6324601173        1180853986.4434090     
  -1121875440.5020211       -1156555.5346368551        1393880085.4615855     
  -1073954442.5754354       -4011425.3795516491        1387179508.4252641     
  -1025936244.2203701       -6542293.7962024808        1383425990.2433951     
  -977820845.43682992       -8749160.7846055031        1382619530.9159801     
  -929608246.22481883       -10632026.344767988        1384760130.4430225     
  -1409420542.7802000       -4852438.4341151714        1342182084.3637619     
  -1352869174.0677745       -8196851.2438386083        1337333134.7888021     
  -1296469316.9239578       -12046302.615601540        1336288844.5711460     
  -1240220971.3487577       -16400792.549417973        1339049213.7107909     
  -1184124137.3421690       -21260321.045267940        1345614242.2077386     
  -1692809905.8916607       -7301599.5835813284        1289445067.4947927     
  -1625177879.2424014       -10400469.212824404        1286157581.3845906     
  -1557946076.1588407       -14833417.394396603        1287532355.1345422     
  -1491114496.6409822       -20600444.128312945        1293569388.7446413     
  -1424683140.6888249       -27701549.414566278        1304268682.2148905     
  -1972043529.8363986       -8504038.9830256701        1235669034.8546731     
  -1890880558.0993130       -10622279.286489367        1233652848.2126312     
  -1810366521.9250135       -14903638.132574916        1237156521.9335861     
  -1730501421.3135059       -21348115.521297693        1246180056.0175390     
  -1651285256.2647886       -29955711.452653587        1260723450.4644890     
  -2247121414.6144147       -8459756.6324601173        1180853986.4434090     
  -2149977210.6385098       -8862281.4648432732        1179818935.2729211     
  -2053730654.2224803       -12256964.830144763        1185161344.9682758     
  -1958381745.3663278       -18643806.728374362        1196881215.5294762     
  -1863930484.0700581       -28022807.159539342        1214978546.9565244     
  -929608246.22481883       -10632026.344767988        1384760130.4430225     
  -871850565.45438993       -6430785.6507869959        1361148669.4475198     
  -812066624.59380949        4524655.3437030315        1333820498.5886652     
  -750256423.64306617        22234296.638730645        1302775617.8664541     
  -686419962.60217118        46698138.234270751        1268014027.2808914     
  -1184124137.3421690       -21260321.045267940        1345614242.2077386     
  -1133120685.6276770       -26256289.814881504        1330873425.5951295     
  -1081048200.7530129       -27688814.717247546        1316776190.9867530     
  -1027906682.7181816       -25557895.752382040        1303322538.3826087     
  -973696131.52317142       -19863532.920271099        1290512467.7826905     
  -1424683140.6888249       -27701549.414566278        1304268682.2148905     
  -1367975941.2657435       -38157334.618409812        1297281745.2335298     
  -1311156935.6124713       -48240432.388281226        1295298682.1239827     
  -1254226123.7290158       -57950842.724210322        1298319492.8862541     
  -1197183505.6153705       -67288565.626172543        1306344177.5203326     
  -1651285256.2647886       -29955711.452653587        1260723450.4644890     
  -1576416332.3685842       -42133920.061353743        1260373628.3627250     
  -1502392829.1721771       -57130197.669382632        1269387972.0003564     
  -1429214746.6755722       -74944544.276741982        1287766481.3773842     
  -1356882084.8787649       -95576959.883436024        1315509156.4938195     
  -1863930484.0700581       -28022807.159539342        1214978546.9565244     
  -1758441858.9362094       -38186046.143759608        1220149074.9827006     
  -1654755881.4321365       -54358110.560561597        1239044060.6158652     
  -1552872551.5578570       -76539000.410014212        1271663503.8560107     
  -1452791869.3133554       -104728715.69205159        1318007404.7031434     
  -3768301228.2208939       -1130490368.4662681        800607002.86028087     
  -3779107095.9248781       -1008677761.0118490        884897242.18487692     
  -3790530830.2508326       -888924708.96399498        974127420.59436786     
  -3802572431.1987557       -771231212.32270479        1068297538.0887532     
  -3815231898.7686481       -655597271.08797920        1167407594.6680331     
  -4339819663.2583761       -1301945898.9775128        858795774.43784118     
  -4335206548.0179358       -1125708273.9623387        942398758.74790883     
  -4331738349.0091457       -953287036.38599992        1020362940.6470803     
  -4329415066.2320070       -784682186.24849677        1092688320.1353557     
  -4328236699.6865177       -619893723.54982889        1159374897.2127349     
  -4895251224.7778215       -1468575367.4333465        936445577.26621330     
  -4905444102.2952175       -1246980217.5680952        1018746415.3504579     
  -4917308945.6539450       -1030958287.1739506        1084829709.5280154     
  -4930845754.8540020       -820509576.25091183        1134695459.7988861     
  -4946054529.8953943       -615634084.79897952        1168343666.1630700     
  -5434595912.7792368       -1630378773.8337710        1033556411.3453975     
  -5489819758.7567244       -1372493591.8291202        1113940211.9925237     
  -5547242620.1852264       -1121938461.3278461        1167527727.2371726     
  -5606864497.0647411       -878713382.32994998        1194318957.0793436     
  -5668685389.3952703       -642818354.83543086        1194313901.5190370     
  -5957853727.2626162       -1787356118.1787848        1150128276.6753936     
  -6088333517.4024572       -1502248396.7454119        1227980148.6741066     
  -6221539372.6029940       -1226227558.8476875        1268456993.7745519     
  -6357471292.8642244       -959293604.48561084        1271558811.9767289     
  -6496129278.1861506       -701446533.65918279        1237285603.2806368     
  -3815231898.7686481       -655597271.08797920        1167407594.6680331     
  -3797909154.7945614       -537699069.71518672        1189133605.6820657     
  -3784406172.7645226       -432533408.15588832        1205984590.4179015     
  -3774722952.6785326       -340100286.41008234        1217960548.8755414     
  -3768859494.5365901       -260399704.47777176        1225061481.0549850     
  -4328236699.6865177       -619893723.54982889        1159374897.2127349     
  -4297993685.8470335       -464192296.96050918        1141489844.5117376     
  -4278346259.2687860       -343809494.57531786        1129694666.0123525     
  -4269294419.9517751       -258745316.39425135        1123989361.7145793     
  -4270838167.8960028       -208999762.41731310        1124373931.6184194     
  -4946054529.8953943       -615634084.79897952        1168343666.1630700     
  -4871562959.1053410       -412730946.86758375        1102942420.2103202     
  -4814442800.8937149       -267732517.53094816        1054595948.9389925     
  -4774694055.2605171       -180638796.78907013        1023304252.3490850     
  -4752316722.2057495       -151449784.64195323        1009067330.4405996     
  -5668685389.3952703       -642818354.83543086        1194313901.5190370     
  -5518616974.5694818       -383315019.43640685        1073491332.7778139     
  -5392695797.6393099       -204302477.02277565        980688439.19782197     
  -5290921858.6047564       -105780727.59453702        915905220.77905881     
  -5213295157.4658203       -87749771.151692390        879141677.52152753     
  -6496129278.1861506       -701446533.65918279        1237285603.2806368     
  -6239155732.2394571       -375944514.66698122        1053136582.2142189     
  -6013105249.5055733       -153519373.05080724        907972136.78884077     
  -5817977829.9844971       -34171108.810655117        801792267.00450122     
  -5653773473.6762266       -17899721.946529865        734596972.86120141     
  -3768859494.5365901       -260399704.47777176        1225061481.0549850     
  -3661645748.4584980       -167833375.32151425        1192749636.5737834     
  -3562176639.8804655       -101082504.49879265        1170968092.4981012     
  -3470452168.8024960       -60147092.009607792        1159716848.8279412     
  -3386472335.2245846       -45027137.853956938        1158995905.5632999     
  -4270838167.8960028       -208999762.41731310        1124373931.6184194     
  -4147546760.5355740       -144618658.86485744        1091030740.8678181     
  -4028702621.0892119       -95061781.692634106        1066028964.2989875     
  -3914305749.5569201       -60329130.900634527        1049368601.9119273     
  -3804356145.9386935       -40420706.488866091        1041049653.7066381     
  -4752316722.2057495       -151449784.64195323        1009067330.4405996     
  -4619201614.2022667       -117130094.88508677        978539724.60425699     
  -4487236404.5268593       -86643399.555142641        954164646.72593462     
  -4356421093.1795282       -59989698.652117491        935942096.80563331     
  -4226755680.1602769       -37168992.176016569        923872074.84335256     
  -5213295157.4658203       -87749771.151692390        879141677.52152753     
  -5076610309.4585714       -85367683.382201433        855276587.78310084     
  -4937777990.1934061       -75827358.086318970        835375139.77894497     
  -4796798199.6703272       -59128795.264060497        819437333.50905800     
  -4653670937.8893280       -35271994.915407181        807463168.97344327     
  -5653773473.6762266       -17899721.946529865        734596972.86120141     
  -5519772846.3044949       -49331424.356197834        721241330.40434742     
  -5380327378.0888567       -62613657.286174059        709660443.45801485     
  -5235437069.0293074       -57746420.736451864        699854312.02220201     
  -5085101919.1258535       -34729714.707040787        691822936.09691191     
  -3386472335.2245846       -45027137.853956938        1158995905.5632999     
  -3294245513.2130303       -38742157.982050061        1153095422.7339001     
  -3201730583.9083414       -31496820.466355085        1152187946.8948548     
  -3108927547.3105154       -23291125.306868672        1156273478.0461650     
  -3015836403.4195528       -14125072.503597498        1165352016.1878295     
  -3804356145.9386935       -40420706.488866091        1041049653.7066381     
  -3697692439.9861259       -29079574.174404383        1033391238.0214086     
  -3591580272.3596711       -19576902.946981668        1030678306.2752453     
  -3486019643.0593266       -11912692.806601524        1032910858.4681501     
  -3381010552.0851011       -6086943.7532677650        1040088894.6001195     
  -4226755680.1602769       -37168992.176016569        923872074.84335256     
  -4105790870.4132323       -20812441.462958574        913476139.74650288     
  -3986217244.6115484       -9093170.5677742958        907978165.53743291     
  -3868034802.7552295       -2011179.4904651642        907378152.21613920     
  -3751243544.8442721        433531.76897144318        911676099.78262591     
  -4653670937.8893280       -35271994.915407181        807463168.97344327     
  -4518540804.4943476       -13940759.847717762        793350127.90918434     
  -4385641500.6639767       -45623.328729629517        784087524.68141353     
  -4254973026.3982182        6413414.6415505409        779675359.29013193     
  -4126535381.6970744        5436354.0631234646        780113631.73534036     
  -5085101919.1258535       -34729714.707040787        691822936.09691191     
  -4935942242.2294731       -8464529.3286805153        673013202.50944912     
  -4789853040.5169544        7565738.7701482773        659006383.70719039     
  -4646834313.9882965        13361089.589435339        649802479.69012976     
  -4506886062.6434994        8921523.1291875839        645401490.45827115     
  -3015836403.4195528       -14125072.503597498        1165352016.1878295     
  -2918593492.0900569       -5108855.0898654461        1161530055.1959748     
  -2822558709.3423238       -119732.94867479801        1161880201.6781425     
  -2727732055.1763611        842293.91994190216        1166402455.6343300     
  -2634113529.5921707       -2222774.4840086699        1175096817.0645411     
  -3381010552.0851011       -6086943.7532677650        1040088894.6001195     
  -3274027325.3692150       -1473431.6556315422        1033501469.4509428     
  -3167682325.8293185        1012656.5220403671        1031250496.0440630     
  -3061975553.4654160        1371320.7797341347        1033335974.3794835     
  -2956907008.2775021       -397438.88253569603        1039757904.4572039     
  -3751243544.8442721        433531.76897144318        911676099.78262591     
  -3634050447.6897769        785205.06617689133        902988095.44952893     
  -3516925676.3054943        909125.79600286484        898800887.12700987     
  -3399869230.6914253        805293.95844817162        899114474.81507063     
  -3282881110.8475747        473709.55350971222        903928858.51370549     
  -4126535381.6970744        5436354.0631234646        780113631.73534036     
  -3998662859.0517421        1667055.0755667686        769989933.19173455     
  -3870288760.7708516       -430325.12679052353        764531374.92698503     
  -3741413086.8543925       -855786.54392433167        763737956.94108975     
  -3612035837.3023777        390670.82413554192        767609679.23405194     
  -4506886062.6434994        8921523.1291875839        645401490.45827115     
  -4367864559.4551144        1172118.3725278378        634506982.67756355     
  -4227771579.2253876       -3005696.2463378906        628441959.44398439     
  -4086607121.9543209       -3611920.7273886204        627206420.75754404     
  -3944371187.6419144       -646555.07065224648        630800366.61823463     
  -2634113529.5921707       -2222774.4840086699        1175096817.0645411     
  -2537958734.4304228       -5759465.2967571020        1169512995.8511963     
  -2441408450.2135477       -7977859.2590851784        1168611250.3432257     
  -2344462676.9415450       -8877956.3709861040        1172391580.5406313     
  -2247121414.6144147       -8459756.6324601173        1180853986.4434090     
  -2956907008.2775021       -397438.88253569603        1039757904.4572039     
  -2848138528.8978853       -1785695.9865235090        1033304742.7775012     
  -2739212796.6494551       -2649776.8611495495        1031376547.0118417     
  -2630129811.5322175       -2989681.5064138174        1033973317.1602253     
  -2520889573.5461707       -2805409.9223053455        1041095053.2226553     
  -3282881110.8475747        473709.55350971222        903928858.51370549     
  -3161947832.3681674        1099220.6228576899        896328414.15027392     
  -3041095537.2062702        1454787.3005133867        893095825.90955341     
  -2920324225.3618822        1540409.5864673853        894231093.79154789     
  -2799633896.8350043        1356087.4807226658        899734217.79625654     
  -3612035837.3023777        390670.82413554192        767609679.23405194     
  -3479386644.8412733        2895284.5314016342        758584009.96951497     
  -3347056671.8839946        4335833.2258970737        753769087.03636241     
  -3215045918.4305434        4712316.9076412916        753164910.43459594     
  -3083354384.4809203        4024735.5766326189        756771480.16420972     
  -3944371187.6419144       -646555.07065224648        630800366.61823463     
  -3800454966.3172002        3602495.7390844822        620071530.23522437     
  -3657096200.6826234        5993360.9150221348        613396330.39227021     
  -3514294890.7381973        6526040.4571275711        610774767.08936930     
  -3372051036.4839191        5200534.3654079437        612206840.32651877     
  -2247121414.6144147       -8459756.6324601173        1180853986.4434090     
  -2149977210.6385098       -8862281.4648432732        1179818935.2729211     
  -2053730654.2224803       -12256964.830144763        1185161344.9682758     
  -1958381745.3663278       -18643806.728374362        1196881215.5294762     
  -1863930484.0700581       -28022807.159539342        1214978546.9565244     
  -2520889573.5461707       -2805409.9223053455        1041095053.2226553     
  -2408642254.3989024       -2327433.0537623167        1036798811.8460797     
  -2296953343.5472097       -3710817.1704730988        1037539697.8044914     
  -2185822840.9910879       -6955562.2724221945        1043317711.0978930     
  -2075250746.7305481       -12061668.359640241        1054132851.7262843     
  -2799633896.8350043        1356087.4807226658        899734217.79625654     
  -2676112986.8902497        1565708.7380273342        892572565.35527790     
  -2552811245.9767637        1044766.5577512980        889107706.71843493     
  -2429728674.0945539       -206739.06009197235        889339641.88572538     
  -2306865271.2436128       -2188808.1155167818        893268370.85714781     
  -3083354384.4809203        4024735.5766326189        756771480.16420972     
  -2952389408.1125522        2817143.9105294943        747140195.80051768     
  -2821304361.5111489        2009786.3545296192        739865371.71010303     
  -2690099244.6767187        1602662.9086269140        734947007.89296973     
  -2558774057.6092525        1595773.5728324652        732385104.34911096     
  -3372051036.4839191        5200534.3654079437        612206840.32651877     
  -3237471518.0658026        1426872.4637539387        600501703.18179941     
  -3102432690.1503630       -815757.78014636040        589812692.77950168     
  -2966934552.7375793       -1527356.3662443161        580139809.11962676     
  -2830977105.8274732       -707923.29458928108        571483052.20217550     
  -1863930484.0700581       -28022807.159539342        1214978546.9565244     
  -1758441858.9362094       -38186046.143759608        1220149074.9827006     
  -1654755881.4321365       -54358110.560561597        1239044060.6158652     
  -1552872551.5578570       -76539000.410014212        1271663503.8560107     
  -1452791869.3133554       -104728715.69205159        1318007404.7031434     
  -2075250746.7305481       -12061668.359640241        1054132851.7262843     
  -1937969678.3080289       -11096880.757572293        1047947138.3547428     
  -1801410508.3323309       -12538421.311579704        1049924686.8475813     
  -1665573236.8034720       -16386290.021702349        1060065497.2048134     
  -1530457863.7214305       -22640486.887889147        1078369569.4264371     
  -2306865271.2436128       -2188808.1155167818        893268370.85714781     
  -2153680890.2255597        5137266.8648914099        876987290.13466418     
  -2000137658.4713767        13659510.965734363        863308275.53397202     
  -1846235575.9810555        23377924.187022448        852231327.05506587     
  -1691974642.7546129        34292506.528734565        843756444.69795597     
  -2558774057.6092525        1595773.5728324652        732385104.34911096     
  -2405575494.6888027        10516396.723636866        707269530.32247066     
  -2250937331.8492584        24235686.271397352        679194826.67502379     
  -2094859569.0906267        42753642.216135740        648160993.40677702     
  -1937342206.4129057        66070264.557821870        614168030.51772106     
  -2830977105.8274732       -707923.29458928108        571483052.20217550     
  -2693653491.6977463        5040508.8186786175        538793858.91816163     
  -2553809528.4659743        19190104.605425715        497584340.27075028     
  -2411445216.1321583        41740864.065678477        447854496.25993037     
  -2266560554.6963005        72692787.199391603        389604326.88572001     
  -5957853727.2626162       -1787356118.1787848        1150128276.6753936     
  -6088333517.4024572       -1502248396.7454119        1227980148.6741066     
  -6221539372.6029940       -1226227558.8476875        1268456993.7745519     
  -6357471292.8642244       -959293604.48561084        1271558811.9767289     
  -6496129278.1861506       -701446533.65918279        1237285603.2806368     
  -6810441341.3045845       -2043132402.3913753        1353834999.0796473     
  -6828438373.1563625       -1395521832.4658678        1202792280.7061005     
  -6897784253.2743149       -919074090.09428239        1091995284.4157639     
  -7018478981.6584454       -613789175.27661824        1021444010.2086377     
  -7190522558.3087521       -479667088.01287770        991138458.08472216     
  -8337775427.9817696       -2501332628.3945308        1712350404.3816054     
  -8021516133.0269690       -1424687139.4213343        1275686515.2294021     
  -7805228469.5438299       -681280422.02033472        956889097.14188790     
  -7688912437.5323448       -271112476.19152975        755958150.11906362     
  -7672568036.9925251       -194183301.93492365        672893674.16092718     
  -10539855987.294168       -3161956796.1882505        2225674492.5812674     
  -9667566797.0142803       -1589744317.6118126        1446662852.2440112     
  -8943872021.4115353       -512846554.62584448        863138431.95292389     
  -8368771660.4859314        68736492.769652843        475101231.70800453     
  -7942265714.2374678        155004824.57467985        282551251.50925308     
  -13416683019.241779       -4025004905.7725339        2893807263.6786332     
  -11766590365.118294       -1890693367.0373011        1715721291.7499294     
  -10313714908.877434       -413772487.91081238        810743288.84887230     
  -9058056650.5191956        405757731.60693264        178873254.97546169     
  -7999615590.0435801        567897291.51593208       -179888809.87030101     
  -6496129278.1861506       -701446533.65918279        1237285603.2806368     
  -6239155732.2394571       -375944514.66698122        1053136582.2142189     
  -6013105249.5055733       -153519373.05080724        907972136.78884077     
  -5817977829.9844971       -34171108.810655117        801792267.00450122     
  -5653773473.6762266       -17899721.946529865        734596972.86120141     
  -7190522558.3087521       -479667088.01287770        991138458.08472216     
  -6900506300.5248184       -304296965.71968937        846823312.21818817     
  -6623341138.6290970       -171763829.72053957        723586883.66980398     
  -6359027072.6215849       -82067680.015433073        621429172.43956840     
  -6107564102.5022907       -35208516.604365587        540350178.52748358     
  -7672568036.9925251       -194183301.93492365        672893674.16092718     
  -7400668662.5796032       -184292954.90322161        589496365.37297106     
  -7123548416.7303009       -156999703.08357668        509271915.58027595     
  -6841207299.4446173       -112303546.47599411        432220324.78283954     
  -6553645310.7225456       -50204485.080461264        358341592.98066437     
  -7942265714.2374678        155004824.57467985        282551251.50925308     
  -7739642818.4038162       -15932482.217585087        281155741.67856997     
  -7513727083.8091888       -109226993.13992214        265027232.52025813     
  -7264518510.4535837       -124878708.19233131        234165724.03431365     
  -6992017098.3369989       -62887627.374816418        188571216.22074160     
  -7999615590.0435801        567897291.51593208       -179888809.87030101     
  -7917428767.9974575        200784452.33722305       -78198558.865017608     
  -7793877139.8657608       -28445699.889570236       -9147165.5102532599     
  -7628960705.6484909       -119793165.16445732        27265370.193994097     
  -7422679465.3456469       -73257943.487427235        31039048.247719936     
  -5653773473.6762266       -17899721.946529865        734596972.86120141     
  -5519772846.3044949       -49331424.356197834        721241330.40434742     
  -5380327378.0888567       -62613657.286174059        709660443.45801485     
  -5235437069.0293074       -57746420.736451864        699854312.02220201     
  -5085101919.1258535       -34729714.707040787        691822936.09691191     
  -6107564102.5022907       -35208516.604365587        540350178.52748358     
  -5959201923.8484459       -37061113.744375229        533862360.06707293     
  -5809712730.4787636       -35156995.164925575        529821185.86630839     
  -5659096522.3932428       -29496160.866015911        528226655.92518842     
  -5507353299.5918875       -20078610.847660303        529078770.24371272     
  -6553645310.7225456       -50204485.080461264        358341592.98066437     
  -6389001898.6462355       -21902072.308701754        353684134.70061654     
  -6227549297.9821606       -4235697.5777237415        352145209.42933518     
  -6069287508.7303209        2794639.1124706268        353724817.16682351     
  -5914216530.8907146       -811062.23811745644        358422957.91307914     
  -6992017098.3369989       -62887627.374816418        188571216.22074160     
  -6809172770.6978693       -3854300.0491828918        180706654.30497399     
  -6633837080.5990477        30150235.475429535        176632514.14709452     
  -6466010028.0405321        39125979.199023008        176348795.74710664     
  -6305691613.0223198        23072931.121592999        179855499.10501051     
  -7422679465.3456469       -73257943.487427235        31039048.247719936     
  -7219714540.0033474        17082203.034183502        14929918.880145540     
  -7028576078.3294258        68000803.994534969        3283100.0195854809     
  -6849264080.3238783        79497859.393635273       -3901408.3339644489     
  -6681778545.9867153        51573369.231464863       -6623606.1804951616     
  -5085101919.1258535       -34729714.707040787        691822936.09691191     
  -4935942242.2294731       -8464529.3286805153        673013202.50944912     
  -4789853040.5169544        7565738.7701482773        659006383.70719039     
  -4646834313.9882965        13361089.589435339        649802479.69012976     
  -4506886062.6434994        8921523.1291875839        645401490.45827115     
  -5507353299.5918875       -20078610.847660303        529078770.24371272     
  -5350179168.4505939       -9227106.2190725803        513189300.06555599     
  -5194260833.0526686       -2561587.4017202854        502218883.15593034     
  -5039598293.3981113       -82054.395598411560        496167519.51483476     
  -4886191549.4869213       -1788507.2007055283        495035209.14226574     
  -5914216530.8907146       -811062.23811745644        358422957.91307914     
  -5748696121.2664204       -5273691.0878844261        347570877.15813553     
  -5582616827.9450026       -7873374.2805738449        341753988.15505046     
  -5415978650.9264641       -8610111.8161883354        340972290.90382379     
  -5248781590.2108021       -7483903.6947312355        345225785.40445381     
  -6305691613.0223198        23072931.121592999        179855499.10501051     
  -6131493100.6769447        3395716.0649015903        176157933.78718355     
  -5954921025.1939583       -8369621.8664109707        177611698.70454979     
  -5775975386.5733538       -12223082.672340393        184216793.85709766     
  -5594656184.8151417       -8164666.3528954983        195973219.24483240     
  -6681778545.9867153        51573369.231464863       -6623606.1804951616     
  -6498570106.6821804        16781115.239270926       -1049530.0472893685     
  -6311173424.7995367       -4050330.1592447758        9792014.8044283297     
  -6119588500.3387880       -10920966.964062691        25901028.374662578     
  -5923815333.2999334       -3830795.1752023697        47277510.663409688     
  -4506886062.6434994        8921523.1291875839        645401490.45827115     
  -4367864559.4551144        1172118.3725278378        634506982.67756355     
  -4227771579.2253876       -3005696.2463378906        628441959.44398439     
  -4086607121.9543209       -3611920.7273886204        627206420.75754404     
  -3944371187.6419144       -646555.07065224648        630800366.61823463     
  -4886191549.4869213       -1788507.2007055283        495035209.14226574     
  -4734429018.1677895       -5002813.9423048496        490506086.65786034     
  -4582079651.6496048       -6261003.3537364006        489901709.41572881     
  -4429143449.9323711       -5563075.4350008965        493222077.41586971     
  -4275620413.0160832       -2909030.1860859394        500467190.65828866     
  -5248781590.2108021       -7483903.6947312355        345225785.40445381     
  -5086863000.2033806       -6938603.2540209293        346496632.73368406     
  -4924842216.8391972       -6052658.2907609940        350787486.00032562     
  -4762719240.1182480       -4826068.8049588203        358098345.20438564     
  -4600494070.0405397       -3258834.7966156006        368429210.34585249     
  -5594656184.8151417       -8164666.3528954983        195973219.24483240     
  -5425166505.5618849       -4635249.5625967979        202478620.90502694     
  -5256059274.7941599       -2380661.0573935509        211099289.19777516     
  -5087334492.5119572       -1400900.8372619152        221835224.12308007     
  -4918992158.7152777       -1695968.9022197723        234686425.68093434     
  -5923815333.2999334       -3830795.1752023697        47277510.663409688     
  -5749339534.2433071        1907247.1319389343        58452051.171894148     
  -5575730825.5144939        4754988.3463678360        70837119.008081689     
  -5402989207.1134949        4712428.4680783749        84432714.171958208     
  -5231114679.0403128        1779567.4970765114        99238836.663527563     
  -3944371187.6419144       -646555.07065224648        630800366.61823463     
  -3800454966.3172002        3602495.7390844822        620071530.23522437     
  -3657096200.6826234        5993360.9150221348        613396330.39227021     
  -3514294890.7381973        6526040.4571275711        610774767.08936930     
  -3372051036.4839191        5200534.3654079437        612206840.32651877     
  -4275620413.0160832       -2909030.1860859394        500467190.65828866     
  -4121189860.5523419        149777.92681646347        491480937.54193991     
  -3967258775.2438488        1543695.5222275257        486803666.30713665     
  -3813827157.0906091        1272722.6001131535        486435376.95387924     
  -3660895006.0926251       -663140.83949470520        490376069.48215896     
  -4600494070.0405397       -3258834.7966156006        368429210.34585249     
  -4434819628.3192301       -1171401.9449808598        361253193.78687817     
  -4269586665.2182779       -555564.49453759193        358641504.45093656     
  -4104795180.7376857       -1411322.4452905655        360594142.33802766     
  -3940445174.8774476       -3738675.7972285748        367111107.44815260     
  -4918992158.7152777       -1695968.9022197723        234686425.68093434     
  -4741344269.6178627       -361043.87629890442        229388298.97004119     
  -4564079870.6059036       -304419.13525009155        228909844.82367027     
  -4387198961.6794138       -1526094.6790862083        233251063.24182227     
  -4210701542.8383875       -4026070.5078043938        242411954.22449690     
  -5231114679.0403128        1779567.4970765114        99238836.663527563     
  -5040763784.4482384        2580852.1328537464        95886253.091423184     
  -4850738391.4067383        2297131.6000678539        97608687.425339073     
  -4661038499.9158077        928405.89869952202        104406139.66526313     
  -4471664109.9754419       -1525324.9712045193        116278609.81119257     
  -3372051036.4839191        5200534.3654079437        612206840.32651877     
  -3237471518.0658026        1426872.4637539387        600501703.18179941     
  -3102432690.1503630       -815757.78014636040        589812692.77950168     
  -2966934552.7375793       -1527356.3662443161        580139809.11962676     
  -2830977105.8274732       -707923.29458928108        571483052.20217550     
  -3660895006.0926251       -663140.83949470520        490376069.48215896     
  -3521716808.3046861       -6621226.1217215061        483527680.15035534     
  -3381970595.5898147       -10685928.314162016        479704707.44843107     
  -3241656367.9479971       -12857247.416793346        478907151.37638366     
  -3100774125.3792467       -13135183.429639101        481135011.93421948     
  -3940445174.8774476       -3738675.7972285748        367111107.44815260     
  -3790927469.4698052       -10158935.985061407        365246288.93046647     
  -3640733043.7056198       -14323461.651077509        368416176.93012333     
  -3489861897.5848880       -16232252.795277834        376620771.44711363     
  -3338314031.1076121       -15885309.417657852        389860072.48144805     
  -4210701542.8383875       -4026070.5078043938        242411954.22449690     
  -4045103501.5611639       -9186257.1262860298        245657529.52214253     
  -3878720034.4977870       -11728357.790927649        255947101.22458991     
  -3711551141.6482477       -11652372.501692772        273280669.33182549     
  -3543596823.0125666       -8958301.2586479187        297658233.84386277     
  -4471664109.9754419       -1525324.9712045193        116278609.81119257     
  -4284244904.5787573       -3703189.5453681946        124761401.92537433     
  -4095931567.9662957       -2900616.7336373329        142297480.33181810     
  -3906724100.1380906        882393.46391987801        168886845.03050181     
  -3716622501.0941176        7645841.0473697186        204529496.02145839     
  -2830977105.8274732       -707923.29458928108        571483052.20217550     
  -2693653491.6977463        5040508.8186786175        538793858.91816163     
  -2553809528.4659743        19190104.605425715        497584340.27075028     
  -2411445216.1321583        41740864.065678477        447854496.25993037     
  -2266560554.6963005        72692787.199391603        389604326.88572001     
  -3100774125.3792467       -13135183.429639101        481135011.93421948     
  -2974380104.3829379       -17891306.798036933        466352708.00289220     
  -2848640947.2479649       -24830309.704238892        454107478.28964484     
  -2723556653.9743233       -33952192.148206711        444399322.79448974     
  -2599127224.5620217       -45256954.129977345        437228241.51740241     
  -3338314031.1076121       -15885309.417657852        389860072.48144805     
  -3191257033.0119009       -21668217.197890162        389280242.77885830     
  -3048030111.7409091       -40218047.727195621        402294886.87583804     
  -2908633267.2946215       -71534801.005523086        428904004.77238721     
  -2773066499.6730647       -115618477.03293633        469107596.46850729     
  -3543596823.0125666       -8958301.2586479187        297658233.84386277     
  -3344284277.5846438       -6290222.3808743954        307576463.24606520     
  -3151977021.9448137       -26973109.463434100        342146566.02932912     
  -2966675056.0930691       -71006962.506282091        401368542.19364113     
  -2788378380.0294518       -138391781.50952184        485242391.73901093     
  -3716622501.0941176        7645841.0473697186        204529496.02145839     
  -3433461838.1011639        28242677.653001785        221241369.40450850     
  -3160481677.8596773        14904505.087041259        273662515.75010306     
  -2897682020.3696642       -32368676.650489807        361792935.05823529     
  -2645062865.6311488       -113576867.55966008        485632627.32891780     
 </DataArray>
 <DataArray  type="Float64" Name="VM" NumberOfComponents="1" format="ascii">
   12935656463.913065     
   11340758805.014273     
   10210234177.087605     
   9272772431.8269520     
   8303946465.5807047     
   10130324271.002390     
   9322031909.6266365     
   8826382473.5589771     
   8443561994.0335340     
   8035766832.5799093     
   7982362493.4698038     
   7734983912.8354015     
   7669176269.2198038     
   7669641266.1654634     
   7666447805.5674057     
   6491685612.8811951     
   6586900491.1375084     
   6757448234.4979792     
   6961248119.8057728     
   7171639400.5368710     
   5657848325.7067957     
   5890938975.8940945     
   6116388102.4368210     
   6331733306.1728325     
   6536749523.8695307     
   8303946465.5807047     
   8020827626.7719641     
   7779762048.5139017     
   7570078806.2059031     
   7386804451.0916529     
   8035766832.5799093     
   7746990453.7506037     
   7473851950.3652611     
   7214397268.6057625     
   6968630735.3071547     
   7666447805.5674057     
   7381244599.4146252     
   7101415804.1849680     
   6827039168.1399994     
   6558316637.9161539     
   7171639400.5368710     
   6911031351.5867901     
   6658315483.8586626     
   6409633152.4221449     
   6161839938.5736771     
   6536749523.8695307     
   6328704551.0130358     
   6142850426.7991467     
   5965283121.8186197     
   5786997140.7170639     
   7386804451.0916529     
   7228133850.9448700     
   7062082572.5379972     
   6887960761.4087706     
   6705569813.8292713     
   6968630735.3071547     
   6814322979.6727991     
   6655501618.5193691     
   6491887025.8383598     
   6323424314.1207037     
   6558316637.9161539     
   6407464795.4792538     
   6255047139.4337797     
   6101033230.4386005     
   5945451838.5885077     
   6161839938.5736771     
   6012559189.0201378     
   5864631929.4811478     
   5718096461.5724850     
   5573008972.6996250     
   5786997140.7170639     
   5636069522.4258270     
   5489303518.1046457     
   5346613158.9711027     
   5208043934.9502897     
   6705569813.8292713     
   6510987698.6674852     
   6319581220.3937912     
   6131268805.8433132     
   5946054458.0070868     
   6323424314.1207037     
   6140001833.5299063     
   5958694714.8621349     
   5779492442.2204304     
   5602432819.0447979     
   5945451838.5885077     
   5774351885.4334869     
   5604561834.8724651     
   5436108160.3753681     
   5269053695.8281021     
   5573008972.6996250     
   5415845405.8719044     
   5259467204.7442236     
   5103906974.6084824     
   4949253938.3731794     
   5208043934.9502897     
   5066914977.5369844     
   4926371337.1805925     
   4786424869.5935431     
   4647204856.8640575     
   5946054458.0070868     
   5770612617.7419519     
   5594471843.5951481     
   5417643241.1106825     
   5240161795.1792927     
   5602432819.0447979     
   5434644812.9342403     
   5266777100.4297333     
   5098875741.8446970     
   4931015324.0463581     
   5269053695.8281021     
   5109698686.2589941     
   4950981084.7582512     
   4792984653.9008894     
   4635828753.1161871     
   4949253938.3731794     
   4799004557.2781849     
   4650215547.0213623     
   4503008211.7667322     
   4357548462.6756382     
   4647204856.8640575     
   4506580083.1718616     
   4368349700.2121572     
   4232668006.1928463     
   4099744039.7162032     
   5240161795.1792927     
   5051553924.7337017     
   4863072283.9556589     
   4674723575.9796619     
   4486556885.6581154     
   4931015324.0463581     
   4753947014.7007589     
   4577401210.2319393     
   4401426956.7519789     
   4226123986.1263852     
   4635828753.1161871     
   4470489724.6447306     
   4306137876.3133307     
   4142871236.9940691     
   3980847384.0760136     
   4357548462.6756382     
   4204195550.1410384     
   4052369749.9231539     
   3902223831.5021372     
   3753978810.4624658     
   4099744039.7162032     
   3958700096.2813239     
   3819801359.9612961     
   3683258639.4622803     
   3549358308.6800852     
   4486556885.6581154     
   4305568122.3288145     
   4124936007.9078822     
   3944757528.7095857     
   3765223468.9177780     
   4226123986.1263852     
   4058765698.1642427     
   3892312760.8101163     
   3726898793.9933496     
   3562741789.2264605     
   3980847384.0760136     
   3825616147.2008801     
   3671752740.2820320     
   3519418591.8164835     
   3368848701.0060067     
   3753978810.4624658     
   3609421826.1827092     
   3466587861.1626158     
   3325657375.0306292     
   3186872936.4849076     
   3549358308.6800852     
   3414125271.6222925     
   3280842852.7972069     
   3149701856.2348256     
   3020943877.1361713     
   3765223468.9177780     
   3530538080.6995921     
   3301780622.7015734     
   3082353509.1092110     
   2878499201.4371343     
   3562741789.2264605     
   3376362094.7759089     
   3195334842.8078508     
   3021172607.0976310     
   2856626282.2608614     
   3368848701.0060067     
   3212433743.0303411     
   3059756017.4728289     
   2911282209.5896435     
   2767863315.4978557     
   3186872936.4849076     
   3042684112.3505912     
   2899182323.5371861     
   2756452904.7853389     
   2614631267.6475334     
   3020943877.1361713     
   2872753561.6239047     
   2720304646.9146624     
   2563660791.0253897     
   2403025739.0257821     
   5657848325.7067957     
   5890938975.8940945     
   6116388102.4368210     
   6331733306.1728325     
   6536749523.8695307     
   5151486552.9866247     
   5311349594.6831083     
   5467843834.6381950     
   5618070891.8505278     
   5760562859.9480286     
   4643510611.6820307     
   4755558176.3096924     
   4868731088.0698843     
   4980392797.9081869     
   5088616512.6665211     
   4134183587.5628066     
   4224402080.1932859     
   4320544883.9819231     
   4420955373.9001617     
   4524178962.3866100     
   3625025358.2079754     
   3719705392.1707244     
   3825642803.5367389     
   3942776002.8175941     
   4071014071.9531145     
   6536749523.8695307     
   6328704551.0130358     
   6142850426.7991467     
   5965283121.8186197     
   5786997140.7170639     
   5760562859.9480286     
   5652132644.5885086     
   5559708360.4737129     
   5474231581.8000755     
   5390163210.3989697     
   5088616512.6665211     
   5054074996.0577021     
   5030052505.3531628     
   5011344128.4405575     
   4994749088.6729612     
   4524178962.3866100     
   4539123549.5175657     
   4558746944.5526180     
   4580569342.4235306     
   4602867082.1684704     
   4071014071.9531145     
   4112600323.6832614     
   4151548564.2254443     
   4186960027.6066117     
   4218101940.7469530     
   5786997140.7170639     
   5636069522.4258270     
   5489303518.1046457     
   5346613158.9711027     
   5208043934.9502897     
   5390163210.3989697     
   5248604655.6306248     
   5110255074.0511837     
   4975156807.9612551     
   4843403816.4022789     
   4994749088.6729612     
   4867096725.1482563     
   4742652735.1737995     
   4621386498.1340656     
   4503341045.5645084     
   4602867082.1684704     
   4494203118.1683216     
   4389817876.1576271     
   4289397031.4070826     
   4192856092.9265876     
   4218101940.7469530     
   4133868049.8921967     
   4056235079.4089665     
   3984356651.5801315     
   3917946223.5451927     
   5208043934.9502897     
   5066914977.5369844     
   4926371337.1805925     
   4786424869.5935431     
   4647204856.8640575     
   4843403816.4022789     
   4718052453.0670328     
   4594275411.1759138     
   4472183721.3424873     
   4351990512.3041334     
   4503341045.5645084     
   4393409352.3663664     
   4286058233.9997582     
   4181475837.1983595     
   4079935203.0420632     
   4192856092.9265876     
   4097838878.9804811     
   4006375707.8689780     
   3918703155.0980277     
   3835124512.0751004     
   3917946223.5451927     
   3837102938.7361960     
   3760690304.6368761     
   3688959653.2409396     
   3622212222.0837135     
   4647204856.8640575     
   4506580083.1718616     
   4368349700.2121572     
   4232668006.1928463     
   4099744039.7162032     
   4351990512.3041334     
   4223997533.0473709     
   4098786842.6539617     
   3976567359.6189713     
   3857609117.2247858     
   4079935203.0420632     
   3965542776.5211005     
   3854449571.4959297     
   3746920372.5747371     
   3643287511.8248854     
   3835124512.0751004     
   3735394607.5800304     
   3639609747.0454392     
   3548084706.0444841     
   3461206634.9140973     
   3622212222.0837135     
   3538217172.0842509     
   3458924145.8167834     
   3384681332.7834969     
   3315910933.6132517     
   4099744039.7162032     
   3958700096.2813239     
   3819801359.9612961     
   3683258639.4622803     
   3549358308.6800852     
   3857609117.2247858     
   3729916464.9697065     
   3605196970.8730550     
   3483738688.8621507     
   3365913287.7612219     
   3643287511.8248854     
   3529774476.5996222     
   3420149000.2610273     
   3314766558.5038171     
   3214067727.6634903     
   3461206634.9140973     
   3362575578.2124515     
   3268789352.4621272     
   3180247837.4437504     
   3097428875.1457477     
   3315910933.6132517     
   3232591771.9047289     
   3155053490.7995720     
   3083705343.1590104     
   3019019184.0729599     
   3549358308.6800852     
   3414125271.6222925     
   3280842852.7972069     
   3149701856.2348256     
   3020943877.1361713     
   3365913287.7612219     
   3242290983.4955268     
   3121735545.9412398     
   3004577681.0273929     
   2891226533.8689370     
   3214067727.6634903     
   3104886500.2344775     
   3000184313.9336596     
   2900435930.6910896     
   2806213292.3462377     
   3097428875.1457477     
   3005178319.8182764     
   2919019596.0167074     
   2839536047.5592752     
   2767408558.3481383     
   3019019184.0729599     
   2945526966.6709795     
   2879804180.3000760     
   2822472709.7807450     
   2774233934.4863081     
   3020943877.1361713     
   2872753561.6239047     
   2720304646.9146624     
   2563660791.0253897     
   2403025739.0257821     
   2891226533.8689370     
   2747610529.3504634     
   2603626941.4194021     
   2459416409.9676352     
   2315178639.7922039     
   2806213292.3462377     
   2679446249.7396598     
   2558161269.6628227     
   2443121286.3964210     
   2335245443.9918303     
   2767408558.3481383     
   2666656612.9675798     
   2578104457.2185469     
   2503060130.4042249     
   2443006323.1566110     
   2774233934.4863081     
   2704566775.1779561     
   2653711635.8881421     
   2623076850.2862253     
   2614198848.5285759     
   3625025358.2079754     
   3719705392.1707244     
   3825642803.5367389     
   3942776002.8175941     
   4071014071.9531145     
   3137998948.7718916     
   3255521108.3609581     
   3382463258.4101644     
   3518357750.8510027     
   3662748008.7894258     
   2694756894.8356624     
   2830508399.4287567     
   2973571784.9548650     
   3122865530.4865999     
   3277479233.8567109     
   2298788618.2615047     
   2449460621.0836244     
   2604851959.5915742     
   2763040025.0360370     
   2922594915.4682012     
   1955304329.4020698     
   2119334765.5251312     
   2284717087.7734318     
   2448489975.2145128     
   2608694268.6085272     
   4071014071.9531145     
   4112600323.6832614     
   4151548564.2254443     
   4186960027.6066117     
   4218101940.7469530     
   3662748008.7894258     
   3702275779.2661810     
   3740424306.6109066     
   3776294528.2411494     
   3809136858.7904863     
   3277479233.8567109     
   3320788670.1016946     
   3364329094.3584309     
   3407277281.3378386     
   3448954858.9665861     
   2922594915.4682012     
   2975529683.3836207     
   3030660646.5655198     
   3087305173.7673340     
   3144929725.7616496     
   2608694268.6085272     
   2676564335.7081351     
   2748897899.3885140     
   2825186165.9097471     
   2905075522.2056446     
   4218101940.7469530     
   4133868049.8921967     
   4056235079.4089665     
   3984356651.5801315     
   3917946223.5451927     
   3809136858.7904863     
   3756435667.3921289     
   3709770471.0082726     
   3668668125.4365139     
   3633035409.8471613     
   3448954858.9665861     
   3423034912.7747865     
   3402191123.9086790     
   3386191941.9313903     
   3375019826.3881583     
   3144929725.7616496     
   3141338941.2630272     
   3141257059.1202331     
   3144579659.1130404     
   3151288862.3739905     
   2905075522.2056446     
   2919749449.5031748     
   2935575616.1148529     
   2952494329.0116749     
   2970461961.0280795     
   3917946223.5451927     
   3837102938.7361960     
   3760690304.6368761     
   3688959653.2409396     
   3622212222.0837135     
   3633035409.8471613     
   3564225987.3163962     
   3500198005.4125061     
   3441191541.2836823     
   3387494311.8450823     
   3375019826.3881583     
   3318330343.6684308     
   3266862009.1583533     
   3220829887.1410184     
   3180495841.4394889     
   3151288862.3739905     
   3106650520.0150180     
   3067750357.2690735     
   3034759150.9391203     
   3007895789.7177148     
   2970461961.0280795     
   2937490795.3923125     
   2910828493.2162561     
   2890578628.9107628     
   2876897727.9792314     
   3622212222.0837135     
   3538217172.0842509     
   3458924145.8167834     
   3384681332.7834969     
   3315910933.6132517     
   3387494311.8450823     
   3316632653.2533545     
   3251239266.0581641     
   3191655298.7231903     
   3138284334.1728988     
   3180495841.4394889     
   3122305981.1107459     
   3070334375.5167150     
   3024891319.5658007     
   2986334961.4745698     
   3007895789.7177148     
   2961457243.1275473     
   2921934175.0049920     
   2889582249.0450702     
   2864689485.7591262     
   2876897727.9792314     
   2840676519.2829342     
   2811977795.7452765     
   2790985206.6120729     
   2777901011.8502030     
   3315910933.6132517     
   3232591771.9047289     
   3155053490.7995720     
   3083705343.1590104     
   3019019184.0729599     
   3138284334.1728988     
   3067357727.8412027     
   3002701748.1917048     
   2944690721.7787323     
   2893747999.2267032     
   2986334961.4745698     
   2927217204.5564923     
   2874822251.9145517     
   2829472113.3583679     
   2791523588.0903864     
   2864689485.7591262     
   2816447203.4738936     
   2775317756.0990829     
   2741556549.4416876     
   2715440768.2776070     
   2777901011.8502030     
   2739170901.8634257     
   2707862412.5644641     
   2684157198.9513168     
   2668248591.9970059     
   3019019184.0729599     
   2945526966.6709795     
   2879804180.3000760     
   2822472709.7807450     
   2774233934.4863081     
   2893747999.2267032     
   2834064820.4021502     
   2781842685.2292166     
   2737555805.1814609     
   2701724421.8893585     
   2791523588.0903864     
   2743600029.6498513     
   2702663579.1398854     
   2669054519.1993952     
   2643136170.7146020     
   2715440768.2776070     
   2677160663.3838887     
   2645232499.1137013     
   2619883468.7432580     
   2601349760.6927242     
   2668248591.9970059     
   2637499414.2854228     
   2612320461.5453992     
   2592850899.2655869     
   2579231587.9452548     
   2774233934.4863081     
   2704566775.1779561     
   2653711635.8881421     
   2623076850.2862253     
   2614198848.5285759     
   2701724421.8893585     
   2643342609.1813078     
   2597870022.2102537     
   2565928305.6360779     
   2548196387.4276814     
   2643136170.7146020     
   2589511709.7309923     
   2543065445.4681468     
   2504058126.1155357     
   2472768887.3041306     
   2601349760.6927242     
   2547869581.9503665     
   2495760934.7761564     
   2445167347.7285023     
   2396257120.5849442     
   2579231587.9452548     
   2523768760.2470813     
   2463772415.6117091     
   2399378552.9889073     
   2330802352.5733223     
   1955304329.4020698     
   2119334765.5251312     
   2284717087.7734318     
   2448489975.2145128     
   2608694268.6085272     
   1653808864.9944527     
   1820239316.1866367     
   1988364020.4906511     
   2155485732.4162745     
   2319845917.5593276     
   1393652615.4162543     
   1571016983.5919433     
   1749383973.6870623     
   1926749539.3555663     
   2101863271.4201303     
   1207154862.9219127     
   1399090664.1099441     
   1590601215.7737606     
   1780909869.9266076     
   1969558281.2505574     
   1136990259.3633332     
   1335299080.3674078     
   1533913809.4421372     
   1732834445.1299038     
   1932060987.5897231     
   2608694268.6085272     
   2676564335.7081351     
   2748897899.3885140     
   2825186165.9097471     
   2905075522.2056446     
   2319845917.5593276     
   2406807005.2422996     
   2496182314.7595592     
   2587582422.3469882     
   2680731879.4728303     
   2101863271.4201303     
   2205546498.5313873     
   2309132297.1929240     
   2412384494.9748950     
   2515136374.5518231     
   1969558281.2505574     
   2086695907.9991574     
   2200996143.5141134     
   2312383754.9455423     
   2420806568.4377851     
   1932060987.5897231     
   2058771975.6111612     
   2180097683.2284369     
   2296038111.7235742     
   2406593264.2022190     
   2905075522.2056446     
   2919749449.5031748     
   2935575616.1148529     
   2952494329.0116749     
   2970461961.0280795     
   2680731879.4728303     
   2702302643.8899322     
   2726162380.8271685     
   2752292839.4151597     
   2780685295.4800773     
   2515136374.5518231     
   2543606766.5416188     
   2575535608.8412299     
   2610925640.0774689     
   2649783474.8316641     
   2420806568.4377851     
   2454628521.3370390     
   2493079791.6167102     
   2536164694.7262020     
   2583888170.8346972     
   2406593264.2022190     
   2442559363.9476099     
   2484315102.1712022     
   2531860481.6329408     
   2585195515.6904063     
   2970461961.0280795     
   2937490795.3923125     
   2910828493.2162561     
   2890578628.9107628     
   2876897727.9792314     
   2780685295.4800773     
   2762340085.5989280     
   2750674726.2887573     
   2745768741.5674982     
   2747731290.9911609     
   2649783474.8316641     
   2643974063.9525962     
   2644999772.2351198     
   2652902743.9341903     
   2667737631.2634616     
   2583888170.8346972     
   2587650103.2559671     
   2598177088.2932868     
   2615480172.5175190     
   2639573454.4697614     
   2585195515.6904063     
   2594912510.0061054     
   2611136794.6468887     
   2633868363.0674143     
   2663107227.2262034     
   2876897727.9792314     
   2840676519.2829342     
   2811977795.7452765     
   2790985206.6120729     
   2777901011.8502030     
   2747731290.9911609     
   2723589145.1890106     
   2707076591.0281172     
   2698306515.6956196     
   2697399491.0526743     
   2667737631.2634616     
   2653392868.2787476     
   2646621357.0913372     
   2647474635.7534423     
   2656006242.6367736     
   2639573454.4697614     
   2632244964.4298525     
   2632292550.3937697     
   2639728435.9435573     
   2654565006.7061887     
   2663107227.2262034     
   2659756772.5292039     
   2663485515.7106462     
   2674293531.8596530     
   2692181003.7410884     
   2777901011.8502030     
   2739170901.8634257     
   2707862412.5644641     
   2684157198.9513168     
   2668248591.9970059     
   2697399491.0526743     
   2669350377.3986545     
   2649172695.6870108     
   2636983257.3095908     
   2632903289.2562637     
   2656006242.6367736     
   2636680101.9976954     
   2625578212.6154351     
   2622757607.0775156     
   2628276295.4980278     
   2654565006.7061887     
   2641453483.9690442     
   2636847848.8453407     
   2640763377.4594426     
   2653215514.9265742     
   2692181003.7410884     
   2682417436.2649732     
   2681405984.0033512     
   2689146456.3561125     
   2705638785.5758929     
   2668248591.9970059     
   2637499414.2854228     
   2612320461.5453992     
   2592850899.2655869     
   2579231587.9452548     
   2632903289.2562637     
   2613195395.2904696     
   2600519302.5772352     
   2594978710.9888434     
   2596674400.3556972     
   2628276295.4980278     
   2618316361.3479867     
   2616773592.1896048     
   2623704111.5362835     
   2639160209.4667397     
   2653215514.9265742     
   2650779509.6316433     
   2658109972.5214715     
   2675222667.2189384     
   2702131640.7697501     
   2705638785.5758929     
   2707775151.6570215     
   2721061579.2862740     
   2745498172.0061870     
   2781085174.9454179     
   2579231587.9452548     
   2523768760.2470813     
   2463772415.6117091     
   2399378552.9889073     
   2330802352.5733223     
   2596674400.3556972     
   2560700450.5595136     
   2528026204.5958700     
   2498782592.5900297     
   2473111990.3810568     
   2639160209.4667397     
   2622835418.5874057     
   2617302828.5885873     
   2622645958.8569622     
   2638926305.4987674     
   2702131640.7697501     
   2702174570.2375684     
   2720127426.2804050     
   2756029609.8466825     
   2809915476.2381315     
   2781085174.9454179     
   2791798017.8127823     
   2827654324.2768092     
   2888730669.3913560     
   2975138625.0701756     
   1136990259.3633332     
   1335299080.3674078     
   1533913809.4421372     
   1732834445.1299038     
   1932060987.5897231     
   1207271438.2039456     
   1399194420.6981726     
   1590693732.0607269     
   1780992944.6189041     
   1969633617.4127331     
   1393824808.9930892     
   1571183174.3721032     
   1749545041.3696756     
   1926908340.6428742     
   2102023757.7242620     
   1653984823.5086644     
   1820424032.1693003     
   1988558991.9037969     
   2155695880.3189397     
   2320078697.5110893     
   1955450744.8531849     
   2119503924.0992725     
   2284913368.6516027     
   2448721923.8378110     
   2608974141.6424022     
   1932060987.5897231     
   2058771975.6111612     
   2180097683.2284369     
   2296038111.7235742     
   2406593264.2022190     
   1969633617.4127331     
   2086830883.2763627     
   2201189309.0214453     
   2312634069.7281666     
   2421113071.3474259     
   2102023757.7242620     
   2205799749.1594720     
   2309474707.9757471     
   2412812221.8883190     
   2515645344.5885005     
   2320078697.5110893     
   2407142777.8757939     
   2496614715.1064634     
   2588103286.9089270     
   2681332103.2132182     
   2608974141.6424022     
   2676940609.3439140     
   2749360818.7392278     
   2825721890.7146239     
   2905668109.7410169     
   2406593264.2022190     
   2442559363.9476099     
   2484315102.1712022     
   2531860481.6329408     
   2585195515.6904063     
   2421113071.3474259     
   2454890389.2505660     
   2493308722.1318269     
   2536371899.8953152     
   2584084677.2568998     
   2515645344.5885005     
   2544079179.3402686     
   2576000236.7048306     
   2611411408.3036976     
   2650319489.5663834     
   2681332103.2132182     
   2702907668.7789078     
   2726822706.2226014     
   2753060910.7686043     
   2781614840.7936149     
   2905668109.7410169     
   2920400485.3064461     
   2936360371.5094438     
   2953492669.0140476     
   2971756765.6634421     
   2585195515.6904063     
   2594912510.0061054     
   2611136794.6468887     
   2633868363.0674143     
   2663107227.2262034     
   2584084677.2568998     
   2587904140.4944119     
   2598386080.0769582     
   2615542022.2542295     
   2639386118.2286820     
   2650319489.5663834     
   2644596285.0631795     
   2645495442.5266333     
   2653058038.0028739     
   2667337885.0884151     
   2781614840.7936149     
   2763431678.2847848     
   2751603375.6598811     
   2746203294.7120700     
   2747335987.9746146     
   2971756765.6634421     
   2939132373.4135022     
   2912384733.5747399     
   2891602477.5276322     
   2876930070.1027751     
   2663107227.2262034     
   2659756772.5292039     
   2663485515.7106462     
   2674293531.8596530     
   2692181003.7410884     
   2639386118.2286820     
   2631432858.2468615     
   2630903959.2812810     
   2637812374.3761048     
   2652171397.0005264     
   2667337885.0884151     
   2651976681.3395433     
   2644303566.4146991     
   2644370099.2007780     
   2652229878.6420469     
   2747335987.9746146     
   2721983001.2719574     
   2704455957.7787180     
   2694866981.1948848     
   2693335490.4194365     
   2876930070.1027751     
   2839447223.5403619     
   2809777026.2239304     
   2788103121.8280210     
   2774626764.4229631     
   2692181003.7410884     
   2682417436.2649732     
   2681405984.0033512     
   2689146456.3561125     
   2705638785.5758929     
   2652171397.0005264     
   2639226012.8608174     
   2634779406.5937390     
   2638846126.8417845     
   2651440623.6558838     
   2652229878.6420469     
   2633022581.7489734     
   2622000829.3869009     
   2619221742.6312962     
   2624743720.9730172     
   2693335490.4194365     
   2665170961.7593403     
   2644781570.0147877     
   2632285484.2396383     
   2627807080.2338104     
   2774626764.4229631     
   2735409196.1977611     
   2703433762.9047332     
   2678883368.3901825     
   2661956687.9105330     
   2705638785.5758929     
   2707775151.6570215     
   2721061579.2862740     
   2745498172.0061870     
   2781085174.9454179     
   2651440623.6558838     
   2648420607.3221354     
   2655081882.5332508     
   2671441225.6052599     
   2697513893.2478828     
   2624743720.9730172     
   2613948126.3491082     
   2611415034.8670468     
   2617198258.9413633     
   2631347931.4738035     
   2627807080.2338104     
   2607368601.6146898     
   2593756307.0222635     
   2587063345.7594514     
   2587379578.5788050     
   2661956687.9105330     
   2630947949.6824965     
   2605278951.2699032     
   2585065829.6455317     
   2570424628.0844207     
   2781085174.9454179     
   2791798017.8127823     
   2827654324.2768092     
   2888730669.3913560     
   2975138625.0701756     
   2697513893.2478828     
   2689759306.9149632     
   2699505335.1151981     
   2726818477.8432961     
   2771763978.6283612     
   2631347931.4738035     
   2604168784.8110991     
   2587098412.0730400     
   2580230105.3231020     
   2583639251.3839526     
   2587379578.5788050     
   2542355032.1763129     
   2499871131.7626352     
   2459993707.3818407     
   2422797000.8008718     
   2570424628.0844207     
   2512515707.4926977     
   2449566974.8434148     
   2381540136.2490325     
   2308459732.2927222     
   1955450744.8531849     
   2119503924.0992725     
   2284913368.6516027     
   2448721923.8378110     
   2608974141.6424022     
   2298897007.7717142     
   2449592162.3607364     
   2605012825.1167045     
   2763238440.0342393     
   2922840867.8682132     
   2694833314.2908492     
   2830599935.3277540     
   2973684725.6236138     
   3123006540.3651910     
   3277655229.7445698     
   3138047903.3885226     
   3255572916.3050294     
   3382523131.7141662     
   3518429699.0564299     
   3662834960.7114801     
   3625050219.6396580     
   3719718990.9410286     
   3825648610.7391682     
   3942774533.3679338     
   4071003325.7300467     
   2608974141.6424022     
   2676940609.3439140     
   2749360818.7392278     
   2825721890.7146239     
   2905668109.7410169     
   2922840867.8682132     
   2975846025.8007421     
   3031047654.3847404     
   3087761041.9402857     
   3145451508.8084683     
   3277655229.7445698     
   3321010863.7135172     
   3364607303.0880656     
   3407621639.4022861     
   3449375840.1863251     
   3662834960.7114801     
   3702379687.0030646     
   3740563706.6179271     
   3776490516.6292291     
   3809412294.7288971     
   4071003325.7300467     
   4112568323.4125581     
   4151521362.9287095     
   4186967985.6456161     
   4218178148.6974964     
   2905668109.7410169     
   2920400485.3064461     
   2936360371.5094438     
   2953492669.0140476     
   2971756765.6634421     
   3145451508.8084683     
   3141955063.4881630     
   3142015364.9417558     
   3145531295.0627565     
   3152487012.8622093     
   3449375840.1863251     
   3423528850.7926207     
   3402774515.4592714     
   3386883398.8595128     
   3375840905.9234319     
   3809412294.7288971     
   3756734346.2061801     
   3710076164.2683182     
   3668964442.2915154     
   3633309923.9284244     
   4218178148.6974964     
   4133911749.2420206     
   4056198364.3734121     
   3984187223.3966970     
   3917595396.5469022     
   2971756765.6634421     
   2939132373.4135022     
   2912384733.5747399     
   2891602477.5276322     
   2876930070.1027751     
   3152487012.8622093     
   3108445611.9096675     
   3070048651.5704050     
   3037459261.9208527     
   3010889933.0442271     
   3375840905.9234319     
   3319739827.0225954     
   3269067731.1718998     
   3224045348.9597225     
   3184942685.9496779     
   3633309923.9284244     
   3564667424.0514531     
   3501274035.6760635     
   3443393915.5258870     
   3391345262.3147731     
   3917595396.5469022     
   3835989499.1793633     
   3759499653.2996087     
   3688423459.6869135     
   3623121000.8645372     
   2876930070.1027751     
   2839447223.5403619     
   2809777026.2239304     
   2788103121.8280210     
   2774626764.4229631     
   3010889933.0442271     
   2964559294.4954391     
   2925202308.7340565     
   2893077158.7663832     
   2868472040.5326219     
   3184942685.9496779     
   3128037305.6813869     
   3077197349.3257341     
   3032734644.8380618     
   2995005686.9707246     
   3391345262.3147731     
   3322887635.2776127     
   3259552665.5971541     
   3201678712.8161707     
   3149662938.1123090     
   3623121000.8645372     
   3542705125.8359256     
   3466467443.6518264     
   3394746602.0235434     
   3327951558.4802341     
   2774626764.4229631     
   2735409196.1977611     
   2703433762.9047332     
   2678883368.3901825     
   2661956687.9105330     
   2868472040.5326219     
   2819840056.9652181     
   2778269129.0857935     
   2744014011.4967194     
   2717353294.8292041     
   2995005686.9707246     
   2935740859.3431110     
   2883303258.1175342     
   2838014857.8390422     
   2800232886.2073994     
   3149662938.1123090     
   3078868577.1918483     
   3014629639.5238562     
   2957325831.2169285     
   2907385691.3541269     
   3327951558.4802341     
   3244985726.6637001     
   3168283197.1414742     
   3098269852.4643760     
   3035434817.4697499     
   2661956687.9105330     
   2630947949.6824965     
   2605278951.2699032     
   2585065829.6455317     
   2570424628.0844207     
   2717353294.8292041     
   2680412778.5386081     
   2649974296.0610652     
   2626258712.9072866     
   2609494238.5578971     
   2800232886.2073994     
   2754453243.1862831     
   2716159980.3066831     
   2685720478.7553296     
   2663526587.6279049     
   2907385691.3541269     
   2849763973.7597737     
   2800417253.5346909     
   2759898940.7222929     
   2728817651.1442962     
   3035434817.4697499     
   2962995950.5877862     
   2899415384.1251493     
   2845464618.2327328     
   2802018588.6868453     
   2570424628.0844207     
   2512515707.4926977     
   2449566974.8434148     
   2381540136.2490325     
   2308459732.2927222     
   2609494238.5578971     
   2562922659.9140768     
   2518173455.2904520     
   2475262236.5600290     
   2434215471.1175675     
   2663526587.6279049     
   2620960820.3623962     
   2586813657.6404638     
   2561378247.2733703     
   2544960641.4876413     
   2728817651.1442962     
   2680684272.6556563     
   2647386172.0012789     
   2629864475.7184420     
   2629119682.5914440     
   2802018588.6868453     
   2737283196.7036386     
   2693865805.9759936     
   2673911043.4386601     
   2679711523.5318532     
   3625050219.6396580     
   3719718990.9410286     
   3825648610.7391682     
   3942774533.3679338     
   4071003325.7300467     
   4134184075.1427689     
   4224382003.6869483     
   4320502849.9966803     
   4420887848.0080194     
   4524080552.9629030     
   4643484010.4127064     
   4755510753.4490032     
   4868657755.9742622     
   4980288246.8258743     
   5088475385.8083191     
   5151430328.2782536     
   5311280974.6556520     
   5467754999.0746727     
   5617956313.8179159     
   5760419390.2224598     
   5657759430.7672710     
   5890854924.0236931     
   6116298929.0053339     
   6331634018.4980059     
   6536639998.2223883     
   4071003325.7300467     
   4112568323.4125581     
   4151521362.9287095     
   4186967985.6456161     
   4218178148.6974964     
   4524080552.9629030     
   4538956471.0573769     
   4558524512.7115669     
   4580307883.0204563     
   4602584666.1353130     
   5088475385.8083191     
   5053837517.4802561     
   5029719190.8678513     
   5010917429.5426683     
   4994233129.6590099     
   5760419390.2224598     
   5651888699.1792421     
   5559353901.5820055     
   5473756775.0763283     
   5389559465.4522543     
   6536639998.2223883     
   6328515792.6602135     
   6142565831.5638313     
   5964883859.6964092     
   5786464555.8556528     
   4218178148.6974964     
   4133911749.2420206     
   4056198364.3734121     
   3984187223.3966970     
   3917595396.5469022     
   4602584666.1353130     
   4493805766.8071060     
   4389277749.3127785     
   4288683461.0559964     
   4191937249.0471039     
   4994233129.6590099     
   4866447931.1195221     
   4741866587.2509203     
   4620457330.4145002     
   4502261620.2267523     
   5389559465.4522543     
   5247892485.4406204     
   5109455693.2555666     
   4974291197.2223597     
   4842493506.6417742     
   5786464555.8556528     
   5635476446.3751307     
   5488698846.3550510     
   5346044928.2918377     
   5207563774.6265631     
   3917595396.5469022     
   3835989499.1793633     
   3759499653.2996087     
   3688423459.6869135     
   3623121000.8645372     
   4191937249.0471039     
   4095111724.1462731     
   4002051149.4223943     
   3913011820.5218940     
   3828321317.3853111     
   4502261620.2267523     
   4390423245.0638733     
   4281008794.7751489     
   4174197324.1885018     
   4070247478.5545945     
   4842493506.6417742     
   4716208936.2970915     
   4591081683.6500378     
   4467192237.9972944     
   4344708155.0997343     
   5207563774.6265631     
   5067608642.2753801     
   4927662367.5232754     
   4787699261.4182529     
   4647788626.3395119     
   3623121000.8645372     
   3542705125.8359256     
   3466467443.6518264     
   3394746602.0235434     
   3327951558.4802341     
   3828321317.3853111     
   3730791994.3135815     
   3637011530.6093073     
   3547286967.3997922     
   3461995598.4063368     
   4070247478.5545945     
   3956682859.3272719     
   3846491059.5401659     
   3739929122.9804873     
   3637324001.0023117     
   4344708155.0997343     
   4215996551.5043979     
   4090353831.1704078     
   3967979053.4349575     
   3849141205.3286848     
   4647788626.3395119     
   4504570919.7551889     
   4364192027.4340801     
   4226792400.5005388     
   4092583724.0450368     
   3327951558.4802341     
   3244985726.6637001     
   3168283197.1414742     
   3098269852.4643760     
   3035434817.4697499     
   3461995598.4063368     
   3363029353.6188593     
   3269135697.5716724     
   3180728057.3866987     
   3098299003.2032113     
   3637324001.0023117     
   3523010766.2635527     
   3412557514.9380794     
   3306318526.2222385     
   3204732957.9512920     
   3849141205.3286848     
   3720559463.5549359     
   3594693721.7925444     
   3471810035.9492102     
   3352254370.4872026     
   4092583724.0450368     
   3951028747.0009785     
   3811177247.6847749     
   3673197931.9452829     
   3537327147.9373865     
   3035434817.4697499     
   2962995950.5877862     
   2899415384.1251493     
   2845464618.2327328     
   2802018588.6868453     
   3098299003.2032113     
   3003466713.9422731     
   2914952955.4094820     
   2833408156.9780092     
   2759595688.9814348     
   3204732957.9512920     
   3091250642.8319163     
   2981786542.2224622     
   2876778432.2961421     
   2776754946.3798714     
   3352254370.4872026     
   3224838581.3587761     
   3099618502.8641748     
   2976808551.1586242     
   2856671887.2885580     
   3537327147.9373865     
   3401124845.0749879     
   3265914185.4098716     
   3131749990.1882854     
   2998700784.8563294     
   2802018588.6868453     
   2737283196.7036386     
   2693865805.9759936     
   2673911043.4386601     
   2679711523.5318532     
   2759595688.9814348     
   2651211762.7095690     
   2555323019.0695128     
   2473525161.9173570     
   2407655776.4498048     
   2776754946.3798714     
   2637565529.6279807     
   2502790776.9468813     
   2373012471.3381047     
   2248944426.4187016     
   2856671887.2885580     
   2704236048.6957936     
   2550642289.5300956     
   2395864225.0272532     
   2239925875.0803227     
   2998700784.8563294     
   2853115558.7300963     
   2704457388.6160598     
   2553269881.2637753     
   2400566222.3894835     
   5657759430.7672710     
   5890854924.0236931     
   6116298929.0053339     
   6331634018.4980059     
   6536639998.2223883     
   6491569572.3180790     
   6586800800.1665220     
   6757359773.2484074     
   6961175298.7403660     
   7171590094.9035435     
   7982233146.2597761     
   7734884090.9010792     
   7669100036.0014095     
   7669598068.4010658     
   7666451625.8477430     
   10130194795.006275     
   9321945913.4675446     
   8826326995.4679756     
   8443545899.9542360     
   8035807756.7935019     
   12935539965.406088     
   11340699031.610508     
   10210205945.873177     
   9272776987.7255306     
   8303998849.9929037     
   6536639998.2223883     
   6328515792.6602135     
   6142565831.5638313     
   5964883859.6964092     
   5786464555.8556528     
   7171590094.9035435     
   6910941316.7887754     
   6658170480.4696350     
   6409415922.2591219     
   6161531918.2817650     
   7666451625.8477430     
   7381225328.1411276     
   7101356885.6900425     
   6826923229.8368835     
   6558124049.8051548     
   8035807756.7935019     
   7747009663.8716793     
   7473823767.7437706     
   7214301140.9418831     
   6968444869.6962605     
   8303998849.9929037     
   8020849975.8779392     
   7779709425.8704882     
   7569922370.9453831     
   7386518612.0593195     
   5786464555.8556528     
   5635476446.3751307     
   5488698846.3550510     
   5346044928.2918377     
   5207563774.6265631     
   6161531918.2817650     
   6012290203.7006416     
   5864458836.8918858     
   5718075904.7058859     
   5573198053.9725962     
   6558124049.8051548     
   6407430840.9477825     
   6255240117.6955261     
   6101523078.7675886     
   5946306591.8824081     
   6968444869.6962605     
   6814438257.5988951     
   6655998222.1960955     
   6492850082.3683863     
   6324935878.6178045     
   7386518612.0593195     
   7228317036.3405294     
   7062824290.5164318     
   6889360336.5937757     
   6707723741.9689388     
   5207563774.6265631     
   5067608642.2753801     
   4927662367.5232754     
   4787699261.4182529     
   4647788626.3395119     
   5573198053.9725962     
   5418969032.5410452     
   5265331711.3168659     
   5112307117.7919827     
   4959970931.6826344     
   5946306591.8824081     
   5777511107.9880257     
   5610000532.1911955     
   5443808685.9321909     
   5279017460.0335340     
   6324935878.6178045     
   6140776403.4419031     
   5958687084.9367638     
   5778689152.9831142     
   5600873368.9436636     
   6707723741.9689388     
   6506977147.3152256     
   6309172031.0726519     
   6114299914.7052727     
   5922466998.1247740     
   4647788626.3395119     
   4504570919.7551889     
   4364192027.4340801     
   4226792400.5005388     
   4092583724.0450368     
   4959970931.6826344     
   4807592573.4052010     
   4656910539.4911385     
   4508049139.2301817     
   4361181341.8599024     
   5279017460.0335340     
   5118701725.2790413     
   4959178832.1619177     
   4800545376.8187113     
   4642928419.3743000     
   5600873368.9436636     
   5434178767.1834965     
   5267574451.4686594     
   5101125361.1394682     
   4934914126.0287542     
   5922466998.1247740     
   5751184578.4847231     
   5579459030.7567110     
   5407324886.5762300     
   5234827419.6858492     
   4092583724.0450368     
   3951028747.0009785     
   3811177247.6847749     
   3673197931.9452829     
   3537327147.9373865     
   4361181341.8599024     
   4208263737.9716949     
   4056624488.5301204     
   3906403880.2787914     
   3757809343.8816671     
   4642928419.3743000     
   4478162922.6317167     
   4314263524.1543360     
   4151341552.3818288     
   3989574137.9928613     
   4934914126.0287542     
   4757782125.6537123     
   4581117212.6311264     
   4405001697.2578697     
   4229581749.7075691     
   5234827419.6858492     
   5044789210.4589167     
   4854831961.1193628     
   4665009112.6675959     
   4475435581.4186192     
   3537327147.9373865     
   3401124845.0749879     
   3265914185.4098716     
   3131749990.1882854     
   2998700784.8563294     
   3757809343.8816671     
   3616712884.3220887     
   3477362451.9450855     
   3339892021.8510561     
   3204483760.5894108     
   3989574137.9928613     
   3838350823.9877148     
   3689198530.1989040     
   3542355268.2021685     
   3398166474.7880607     
   4229581749.7075691     
   4062859858.5512843     
   3898158847.4472623     
   3735846122.5116205     
   3576480862.5059919     
   4475435581.4186192     
   4287843160.2977943     
   4101893320.6655622     
   3918100246.3314247     
   3737279080.2439723     
   2998700784.8563294     
   2853115558.7300963     
   2704457388.6160598     
   2553269881.2637753     
   2400566222.3894835     
   3204483760.5894108     
   3073515267.8995104     
   2943345028.9045606     
   2814056707.7118082     
   2685775036.2451844     
   3398166474.7880607     
   3251162781.8540182     
   3107256468.4869013     
   2968008110.7239742     
   2835988986.1617169     
   3576480862.5059919     
   3383348998.6425362     
   3194035205.2223945     
   3013111085.3536100     
   2848630927.3213906     
   3737279080.2439723     
   3468900579.3007894     
   3203224237.1060748     
   2948982379.3340302     
   2723298819.3343616     
 </DataArray>
 <DataArray  type="Float64" Name="strain" NumberOfComponents="3" format="ascii">
  0.20348719097008605        0.0000000000000000       0.12540293502986852     
  0.18665688595559893       -2.7322916495309331E-002   7.4350257179378848E-002
  0.16982658094111186       -4.4674021591436429E-002   3.5132029588913309E-002
  0.15299627592662474       -5.2053315288381280E-002   7.7482522584718556E-003
  0.13616597091213764       -4.9460797586143926E-002  -7.8010748119454049E-003
  0.15985615791619426        0.0000000000000000        9.6448437423075392E-002
  0.15317858957387109       -2.1843461894290966E-002   6.2689974476067695E-002
  0.14650102123154790       -3.6173501539792277E-002   3.7402534613363694E-002
  0.13982345288922471       -4.2990118936503931E-002   2.0586117834963412E-002
  0.13314588454690154       -4.2293314084425937E-002   1.2240724140866792E-002
  0.12645843652965874        0.0000000000000000        7.4202588992496932E-002
  0.12657017768377904       -1.6364007293272607E-002   5.5279951798578621E-002
  0.12668191883789937       -2.7672981488148136E-002   4.1464910513243615E-002
  0.12679365999201966       -3.3926922584626588E-002   3.2757465136491831E-002
  0.12690540114613996       -3.5125830582707969E-002   2.9157615668323329E-002
  0.10329402681047947        0.0000000000000000        5.8665389738133115E-002
  0.10683165028532284       -1.0884552692254246E-002   5.2120189146911640E-002
  0.11036927376016618       -1.9172461436503994E-002   4.7319157288552995E-002
  0.11390689723500955       -2.4863726232749243E-002   4.4262294163057193E-002
  0.11744452070985291       -2.7958347080989997E-002   4.2949599770424202E-002
   9.0362928758656424E-002   0.0000000000000000        4.9836839659983950E-002
   9.3963007378502411E-002  -5.4050980912358831E-003   5.3210686521066704E-002
   9.7563085998348398E-002  -1.0671941384859850E-002   5.4965274939291875E-002
  0.10116316461819440       -1.5800529880871893E-002   5.5100604914659422E-002
  0.10476324323804037       -2.0790863579272033E-002   5.3616676447169422E-002
  0.13616597091213764       -4.9460797586143926E-002  -7.8010748119454049E-003
  0.13296180497579307       -4.2929163607298600E-002  -3.3884934769259772E-003
  0.12975763903944854       -3.8491108474419680E-002  -3.9109149860348108E-004
  0.12655347310310400       -3.6146632187507147E-002   1.1911311230224098E-003
  0.12334930716675943       -3.5895734746560909E-002   1.3581743879516051E-003
  0.13314588454690154       -4.2293314084425937E-002   1.2240724140866792E-002
  0.12891471066012300       -3.8429597028459578E-002   1.2184491503133749E-002
  0.12468353677334448       -3.5745477813506114E-002   1.1489422321229403E-002
  0.12045236288656594       -3.4240956439565609E-002   1.0155516595153903E-002
  0.11622118899978745       -3.3916032906637972E-002   8.1827743249070634E-003
  0.12690540114613996       -3.5125830582707969E-002   2.9157615668323329E-002
  0.12242356212145290       -3.3930030449620535E-002   2.5546550062791350E-002
  0.11794172309676587       -3.2999847152592583E-002   2.2072990725613542E-002
  0.11345988407207880       -3.2335280691624120E-002   1.8736937656790003E-002
  0.10897804504739178       -3.1936331066715076E-002   1.5538390856320632E-002
  0.11744452070985291       -2.7958347080989997E-002   4.2949599770424202E-002
  0.11348835935978281       -2.9430463870781527E-002   3.6697682202046708E-002
  0.10953219800971271       -3.0254216491679049E-002   3.1359613714548908E-002
  0.10557603665964259       -3.0429604943682586E-002   2.6935394307930807E-002
  0.10161987530957252       -2.9956629226792188E-002   2.3425023982192344E-002
  0.10476324323804037       -2.0790863579272033E-002   5.3616676447169422E-002
  0.10210910237511270       -2.4930897291942488E-002   4.5637887920899893E-002
   9.9454961512185025E-002  -2.7508585830765500E-002   3.9349291288035507E-002
   9.6800820649257338E-002  -2.8523929195741080E-002   3.4750886548576297E-002
   9.4146679786329651E-002  -2.7976927386869258E-002   3.1842673702522209E-002
  0.12334930716675943       -3.5895734746560909E-002   1.3581743879516051E-003
  0.12040936695867635       -3.6389068379667835E-002   6.3630306020168170E-004
  0.11746942675059331       -3.6277285314914497E-002   1.1172573085095616E-004
  0.11452948654251024       -3.5560385552300934E-002  -2.1555760010134178E-004
  0.11158954633442719       -3.4238369091827092E-002  -3.4554693265470560E-004
  0.11622118899978745       -3.3916032906637972E-002   8.1827743249070634E-003
  0.11346355816727656       -3.3987838704404638E-002   7.8265205276494415E-003
  0.11070592733476567       -3.3673505322546524E-002   7.6375914831374181E-003
  0.10794829650225486       -3.2973032761064031E-002   7.6159871913712186E-003
  0.10519066566974394       -3.1886421019956812E-002   7.7617076523505690E-003
  0.10897804504739178       -3.1936331066715076E-002   1.5538390856320632E-002
  0.10637275434479990       -3.1586609029141351E-002   1.5328777071319508E-002
  0.10376746364220810       -3.1069725330178665E-002   1.5256518793410962E-002
  0.10116217293961623       -3.0385679969827068E-002   1.5321616022594855E-002
   9.8556882237024426E-002  -2.9534472948086476E-002   1.5524068758871051E-002
  0.10161987530957252       -2.9956629226792188E-002   2.3425023982192344E-002
   9.9136955491246501E-002  -2.9185379353878122E-002   2.3143072691212258E-002
   9.6654035672920496E-002  -2.8465945337810779E-002   2.2968507661671352E-002
   9.4171115854594492E-002  -2.7798327178590106E-002   2.2901328893569783E-002
   9.1688196036268502E-002  -2.7182524876216169E-002   2.2941536386907338E-002
   9.4146679786329651E-002  -2.7976927386869258E-002   3.1842673702522209E-002
   9.1756161606616260E-002  -2.6784149678614901E-002   3.1269407387327364E-002
   8.9365643426902897E-002  -2.5862165345442844E-002   3.0773558087918519E-002
   8.6975125247189519E-002  -2.5210974387353136E-002   3.0355125804295852E-002
   8.4584607067476142E-002  -2.4830576804345805E-002   3.0014110536459054E-002
  0.11158954633442719       -3.4238369091827092E-002  -3.4554693265470560E-004
  0.10847545904963668       -3.2728461847534640E-002  -9.3897193905845278E-005
  0.10536137176484620       -3.1447889733465018E-002   2.6740222787180468E-004
  0.10224728448005570       -3.0396652749618336E-002   7.3835133267871611E-004
   9.9133197195265199E-002  -2.9574750895994817E-002   1.3189501205144727E-003
  0.10519066566974394       -3.1886421019956812E-002   7.7617076523505690E-003
  0.10220471015613014       -3.0674379317074341E-002   7.6146295180620216E-003
   9.9218754642516283E-002  -2.9597616870266130E-002   7.6141652430979784E-003
   9.6232799128902466E-002  -2.8656133679531959E-002   7.7603148274580230E-003
   9.3246843615288622E-002  -2.7849929744872215E-002   8.0530782711426829E-003
   9.8556882237024426E-002  -2.9534472948086476E-002   1.5524068758871051E-002
   9.5736022670882562E-002  -2.8620296786614152E-002   1.5072318625694109E-002
   9.2915163104740739E-002  -2.7747344007067132E-002   1.4804146528136948E-002
   9.0094303538598874E-002  -2.6915614609445637E-002   1.4719552466199382E-002
   8.7273443972457052E-002  -2.6125108593749502E-002   1.4818536439881513E-002
   9.1688196036268502E-002  -2.7182524876216169E-002   2.2941536386907338E-002
   8.9069396593893943E-002  -2.6566214256153853E-002   2.2279170128990694E-002
   8.6450597151519440E-002  -2.5897071143868189E-002   2.1837346082989015E-002
   8.3831797709144937E-002  -2.5175095539359246E-002   2.1616064248902410E-002
   8.1212998266770392E-002  -2.4400287442626789E-002   2.1615324626730971E-002
   8.4584607067476142E-002  -2.4830576804345805E-002   3.0014110536459054E-002
   8.2204831925164312E-002  -2.4512131725693595E-002   2.9235184027951555E-002
   7.9825056782852469E-002  -2.4046798280669301E-002   2.8713763907654344E-002
   7.7445281640540653E-002  -2.3434576469272703E-002   2.8449850175567407E-002
   7.5065506498228796E-002  -2.2675466291504132E-002   2.8443442831690813E-002
   9.9133197195265199E-002  -2.9574750895994817E-002   1.3189501205144727E-003
   9.6176006173748552E-002  -2.8838681649835690E-002   1.3122853734773288E-003
   9.3218815152231876E-002  -2.8044942488383101E-002   1.4383561190408622E-003
   9.0261624130715215E-002  -2.7193533411636585E-002   1.6971623572051148E-003
   8.7304433109198554E-002  -2.6284454419596592E-002   2.0887040879699059E-003
   9.3246843615288622E-002  -2.7849929744872215E-002   8.0530782711426829E-003
   9.0427509421585534E-002  -2.7094474068620450E-002   8.0102151237390617E-003
   8.7608175227882473E-002  -2.6305235653111048E-002   8.1103301393619792E-003
   8.4788841034179455E-002  -2.5482214498343925E-002   8.3534233180111647E-003
   8.1969506840476325E-002  -2.4625410604318998E-002   8.7394946596871526E-003
   8.7273443972457052E-002  -2.6125108593749502E-002   1.4818536439881513E-002
   8.4602209276993329E-002  -2.5350266487405057E-002   1.4715587716075701E-002
   8.1930974581529620E-002  -2.4565528817838925E-002   1.4765859825721664E-002
   7.9259739886065897E-002  -2.3770895585050928E-002   1.4969352768820346E-002
   7.6588505190602174E-002  -2.2966366789041182E-002   1.5326066545371025E-002
   8.1212998266770392E-002  -2.4400287442626789E-002   2.1615324626730971E-002
   7.8700105739971868E-002  -2.3606058906189741E-002   2.1428403150486650E-002
   7.6187213213173247E-002  -2.2825821982566892E-002   2.1404945178120440E-002
   7.3674320686374722E-002  -2.2059576671758042E-002   2.1544950709632159E-002
   7.1161428159576143E-002  -2.1307322973763476E-002   2.1848419745021962E-002
   7.5065506498228796E-002  -2.2675466291504132E-002   2.8443442831690813E-002
   7.2721198810521137E-002  -2.1861851324974382E-002   2.8148661426972477E-002
   7.0376891122813479E-002  -2.1086115147294818E-002   2.8027586196557652E-002
   6.8032583435105806E-002  -2.0348257758465261E-002   2.8080217140446881E-002
   6.5688275747398134E-002  -1.9648279158485715E-002   2.8306554258639816E-002
   8.7304433109198554E-002  -2.6284454419596592E-002   2.0887040879699059E-003
   8.4161869160408298E-002  -2.5346789841511230E-002   1.8535742670476862E-003
   8.1019305211617987E-002  -2.4409624006628966E-002   1.8149874792788845E-003
   7.7876741262827676E-002  -2.3472956914949890E-002   1.9729437246636394E-003
   7.4734177314037420E-002  -2.2536788566473787E-002   2.3274430032019788E-003
   8.1969506840476325E-002  -2.4625410604318998E-002   8.7394946596871526E-003
   7.9022250115915460E-002  -2.3750257899181060E-002   8.4582617185717246E-003
   7.6074993391354595E-002  -2.2872190311074264E-002   8.3711001927609108E-003
   7.3127736666793702E-002  -2.1991207839999256E-002   8.4780100822558491E-003
   7.0180479942232810E-002  -2.1107310485955155E-002   8.7789913870558456E-003
   7.6588505190602174E-002  -2.2966366789041182E-002   1.5326066545371025E-002
   7.3834084072422410E-002  -2.2153725956850417E-002   1.5002144110233678E-002
   7.1079662954242590E-002  -2.1334756615519326E-002   1.4869821472553182E-002
   6.8325241836062769E-002  -2.0509458765048064E-002   1.4929098632329552E-002
   6.5570820717882977E-002  -1.9677832405436635E-002   1.5179975589563105E-002
   7.1161428159576143E-002  -2.1307322973763476E-002   2.1848419745021962E-002
   6.8597371029929063E-002  -2.0557194014519956E-002   2.1485221442034623E-002
   6.6033313900282026E-002  -1.9797322919964562E-002   2.1311151318655613E-002
   6.3469256770634974E-002  -1.9027709690097150E-002   2.1326209374885503E-002
   6.0905199640987950E-002  -1.8248354324918059E-002   2.1530395610723820E-002
   6.5688275747398134E-002  -1.9648279158485715E-002   2.8306554258639816E-002
   6.3312110988435477E-002  -1.8960662072189577E-002   2.7907493713974024E-002
   6.0935946229472834E-002  -1.8259889224409659E-002   2.7695089731068545E-002
   5.8559781470510212E-002  -1.7545960615146371E-002   2.7669342309923309E-002
   5.6183616711547590E-002  -1.6818876244399372E-002   2.7830251450538024E-002
   7.4734177314037420E-002  -2.2536788566473787E-002   2.3274430032019788E-003
   7.1723469325352784E-002  -2.1605677964894432E-002   2.3076888438460230E-003
   6.8712761336668260E-002  -2.0684184113905463E-002   2.5308643349298277E-003
   6.5702053347983680E-002  -1.9772307013506928E-002   2.9969694764529209E-003
   6.2691345359299100E-002  -1.8870046663698736E-002   3.7060042684158301E-003
   7.0180479942232810E-002  -2.1107310485955155E-002   8.7789913870558456E-003
   6.7396947353186409E-002  -2.0226684130912886E-002   8.6779843085719732E-003
   6.4613414764139926E-002  -1.9355514656841710E-002   8.7883983789248665E-003
   6.1829882175093456E-002  -1.8493802063742598E-002   9.1102335981143451E-003
   5.9046349586047042E-002  -1.7641546351614190E-002   9.6434899661403950E-003
   6.5570820717882977E-002  -1.9677832405436635E-002   1.5179975589563105E-002
   6.2982955026871568E-002  -1.8847690296931063E-002   1.4997875461570526E-002
   6.0395089335860186E-002  -1.8026845199778305E-002   1.4995687980811703E-002
   5.7807223644848846E-002  -1.7215297113977717E-002   1.5173413147286201E-002
   5.5219357953837450E-002  -1.6413046039529700E-002   1.5531050960994192E-002
   6.0905199640987950E-002  -1.8248354324918059E-002   2.1530395610723820E-002
   5.8481492346408523E-002  -1.7468696462949601E-002   2.1267362302841722E-002
   5.6057785051829137E-002  -1.6698175742714559E-002   2.1152733140589981E-002
   5.3634077757249723E-002  -1.5936792164213114E-002   2.1186508123968613E-002
   5.1210370462670331E-002  -1.5184545727445181E-002   2.1368687252977574E-002
   5.6183616711547590E-002  -1.6818876244399372E-002   2.7830251450538024E-002
   5.3892559311797067E-002  -1.6089702628967778E-002   2.7486444832384993E-002
   5.1601501912046627E-002  -1.5369506285651105E-002   2.7259533858259744E-002
   4.9310444512296187E-002  -1.4658287214448552E-002   2.7149518528161401E-002
   4.7019387112545719E-002  -1.3956045415360607E-002   2.7156398842090590E-002
   6.2691345359299100E-002  -1.8870046663698736E-002   3.7060042684158301E-003
   5.8670689058002545E-002  -1.8078913753910908E-002   4.1462274650618802E-003
   5.4650032756705824E-002  -1.7500418973574045E-002   5.6004578418765161E-003
   5.0629376455409242E-002  -1.7134562322687265E-002   8.0686953988581001E-003
   4.6608720154112548E-002  -1.6981343801250048E-002   1.1550940136008325E-002
   5.9046349586047042E-002  -1.7641546351614190E-002   9.6434899661403950E-003
   5.5889572917638852E-002  -1.6857124760155273E-002   9.5821650116409418E-003
   5.2732796249230801E-002  -1.6198914529064024E-002   1.0234592142750409E-002
   4.9576019580822653E-002  -1.5666915658339511E-002   1.1600771359469214E-002
   4.6419242912414505E-002  -1.5261128147981751E-002   1.3680702661797550E-002
   5.5219357953837450E-002  -1.6413046039529700E-002   1.5531050960994192E-002
   5.2626205823759042E-002  -1.5635335766399694E-002   1.5054604624432338E-002
   5.0033053693680676E-002  -1.4897410084553989E-002   1.4991655278920921E-002
   4.7439901563602317E-002  -1.4199268993991921E-002   1.5342202924459446E-002
   4.4846749433523903E-002  -1.3540912494714119E-002   1.6106247561048614E-002
   5.1210370462670331E-002  -1.5184545727445181E-002   2.1368687252977574E-002
   4.8880587776362984E-002  -1.4413546772644309E-002   2.0563546303436486E-002
   4.6550805090055478E-002  -1.3595905640044072E-002   1.9871647250386999E-002
   4.4221022403748138E-002  -1.2731622329644693E-002   1.9292990093828656E-002
   4.1891239717440631E-002  -1.1820696841446154E-002   1.8827574833762128E-002
   4.7019387112545719E-002  -1.3956045415360607E-002   2.7156398842090590E-002
   4.4652718775450462E-002  -1.3191757778888480E-002   2.6108990048653247E-002
   4.2286050438355233E-002  -1.2294401195534224E-002   2.4874568057148466E-002
   3.9919382101260170E-002  -1.1263975665297205E-002   2.3453132867576873E-002
   3.7552713764164802E-002  -1.0100481188178190E-002   2.1844684479937815E-002
   9.0362928758656424E-002   0.0000000000000000        4.9836839659983950E-002
   9.3963007378502411E-002  -5.4050980912358831E-003   5.3210686521066704E-002
   9.7563085998348398E-002  -1.0671941384859850E-002   5.4965274939291875E-002
  0.10116316461819440       -1.5800529880871893E-002   5.5100604914659422E-002
  0.10476324323804037       -2.0790863579272033E-002   5.3616676447169422E-002
   8.2426478534900760E-002   0.0000000000000000        4.4784474547597417E-002
   8.4636456349598391E-002  -4.5748307701172844E-003   4.8268264398587765E-002
   8.6846434164296049E-002  -9.0383136110066820E-003   5.0591111082139012E-002
   8.9056411978993680E-002  -1.3390448522668203E-002   5.1753014598251178E-002
   9.1266389793691324E-002  -1.7631235505101844E-002   5.1753974946924228E-002
   7.4246012299923517E-002   0.0000000000000000        4.0575830190521495E-002
   7.5524204584891313E-002  -3.7445634489986844E-003   4.4142656163035407E-002
   7.6802396869859110E-002  -7.4046858371535230E-003   4.7006854243528726E-002
   7.8080589154826893E-002  -1.0980367164464511E-002   4.9168424432001437E-002
   7.9358781439794704E-002  -1.4471607430931659E-002   5.0627366728453541E-002
   6.5821530053724736E-002   0.0000000000000000        3.7210906588756198E-002
   6.6626252084381166E-002  -2.9142961278800852E-003   4.0833861814409636E-002
   6.7430974115037609E-002  -5.7710580633003597E-003   4.4212504423460953E-002
   6.8235696145694053E-002  -8.5702858062608189E-003   4.7346834415910179E-002
   6.9040418176350496E-002  -1.1311979356761473E-002   5.0236851791757284E-002
   5.7153031796304390E-002   0.0000000000000000        3.4689703742301514E-002
   5.7942598848067975E-002  -2.0840288067614857E-003   3.8341881352710439E-002
   5.8732165899831566E-002  -4.1374302894471963E-003   4.2208061621935751E-002
   5.9521732951595151E-002  -6.1602044480571303E-003   4.6288244549977473E-002
   6.0311300003358728E-002  -8.1523512825912910E-003   5.0582430136835548E-002
  0.10476324323804037       -2.0790863579272033E-002   5.3616676447169422E-002
  0.10210910237511270       -2.4930897291942488E-002   4.5637887920899893E-002
   9.9454961512185025E-002  -2.7508585830765500E-002   3.9349291288035507E-002
   9.6800820649257338E-002  -2.8523929195741080E-002   3.4750886548576297E-002
   9.4146679786329651E-002  -2.7976927386869258E-002   3.1842673702522209E-002
   9.1266389793691324E-002  -1.7631235505101844E-002   5.1753974946924228E-002
   9.0064624427997050E-002  -2.1206189030693341E-002   4.6517947194087299E-002
   8.8862859062302790E-002  -2.3560823571828385E-002   4.2496478542312040E-002
   8.7661093696608489E-002  -2.4695139128507050E-002   3.9689568991598416E-002
   8.6459328330914242E-002  -2.4609135700729270E-002   3.8097218541946497E-002
   7.9358781439794704E-002  -1.4471607430931659E-002   5.0627366728453541E-002
   7.9133758778990329E-002  -1.7481480769444176E-002   4.7792073559658199E-002
   7.8908736118185968E-002  -1.9613061312891283E-002   4.5695706699581069E-002
   7.8683713457381607E-002  -2.0866349061272986E-002   4.4338266148222089E-002
   7.8458690796577246E-002  -2.1241344014589277E-002   4.3719751905581278E-002
   6.9040418176350496E-002  -1.1311979356761473E-002   5.0236851791757284E-002
   6.9316505428092576E-002  -1.3756772508195018E-002   4.9460267017612573E-002
   6.9592592679834656E-002  -1.5665299053954175E-002   4.8946975759842498E-002
   6.9868679931576708E-002  -1.7037558994038915E-002   4.8696978018447114E-002
   7.0144767183318787E-002  -1.7873552328449279E-002   4.8710273793426462E-002
   6.0311300003358728E-002  -8.1523512825912910E-003   5.0582430136835548E-002
   6.0612864375303735E-002  -1.0032064246945862E-002   5.1522527567950373E-002
   6.0914428747248742E-002  -1.1717536795017065E-002   5.2250285723096423E-002
   6.1215993119193755E-002  -1.3208768926804872E-002   5.2765704602273644E-002
   6.1517557491138755E-002  -1.4505760642309296E-002   5.3068784205482042E-002
   9.4146679786329651E-002  -2.7976927386869258E-002   3.1842673702522209E-002
   9.1756161606616260E-002  -2.6784149678614901E-002   3.1269407387327364E-002
   8.9365643426902897E-002  -2.5862165345442844E-002   3.0773558087918519E-002
   8.6975125247189519E-002  -2.5210974387353136E-002   3.0355125804295852E-002
   8.4584607067476142E-002  -2.4830576804345805E-002   3.0014110536459054E-002
   8.6459328330914242E-002  -2.4609135700729270E-002   3.8097218541946497E-002
   8.4193655175909654E-002  -2.3966098117963935E-002   3.7069572131971068E-002
   8.1927982020905066E-002  -2.3429311209679914E-002   3.6214198755627189E-002
   7.9662308865900477E-002  -2.2998774975877212E-002   3.5531098412914915E-002
   7.7396635710895889E-002  -2.2674489416555810E-002   3.5020271103834086E-002
   7.8458690796577246E-002  -2.1241344014589277E-002   4.3719751905581278E-002
   7.6412718684126996E-002  -2.1148046557312995E-002   4.2402268101426298E-002
   7.4366746571676745E-002  -2.0996457073916987E-002   4.1351913348748291E-002
   7.2320774459226495E-002  -2.0786575564401243E-002   4.0568687647547452E-002
   7.0274802346776244E-002  -2.0518402028765786E-002   4.0052590997823587E-002
   7.0144767183318787E-002  -1.7873552328449279E-002   4.8710273793426462E-002
   6.8413352131268340E-002  -1.8329994996662061E-002   4.7267495295692914E-002
   6.6681937079217893E-002  -1.8563602938154056E-002   4.6186701867282000E-002
   6.4950522027167473E-002  -1.8574376152925308E-002   4.5467893508193573E-002
   6.3219106975117026E-002  -1.8362314640975791E-002   4.5111070218427855E-002
   6.1517557491138755E-002  -1.4505760642309296E-002   5.3068784205482042E-002
   6.0195555517333660E-002  -1.5511943436011096E-002   5.1665253714771035E-002
   5.8873553543528571E-002  -1.6130748802391147E-002   5.0718564311228120E-002
   5.7551551569723483E-002  -1.6362176741449345E-002   5.0228715994853283E-002
   5.6229549595918374E-002  -1.6206227253185740E-002   5.0195708765646552E-002
   8.4584607067476142E-002  -2.4830576804345805E-002   3.0014110536459054E-002
   8.2204831925164312E-002  -2.4512131725693595E-002   2.9235184027951555E-002
   7.9825056782852469E-002  -2.4046798280669301E-002   2.8713763907654344E-002
   7.7445281640540653E-002  -2.3434576469272703E-002   2.8449850175567407E-002
   7.5065506498228796E-002  -2.2675466291504132E-002   2.8443442831690813E-002
   7.7396635710895889E-002  -2.2674489416555810E-002   3.5020271103834086E-002
   7.5265833569117230E-002  -2.2349104584822629E-002   3.4426617992948397E-002
   7.3135031427338543E-002  -2.1915270533784545E-002   3.4073404494918642E-002
   7.1004229285559856E-002  -2.1372987263441463E-002   3.3960630609744899E-002
   6.8873427143781196E-002  -2.0722254773793497E-002   3.4088296337427174E-002
   7.0274802346776244E-002  -2.0518402028765786E-002   4.0052590997823587E-002
   6.8375906430176298E-002  -2.0186077443951615E-002   3.9605772137492584E-002
   6.6477010513576379E-002  -1.9783742786899788E-002   3.9382326114663163E-002
   6.4578114596976488E-002  -1.9311398057610181E-002   3.9382252929335254E-002
   6.2679218680376542E-002  -1.8769043256082918E-002   3.9605552581508982E-002
   6.3219106975117026E-002  -1.8362314640975791E-002   4.5111070218427855E-002
   6.1535050508341502E-002  -1.8023050303080653E-002   4.4772646461584256E-002
   5.9850994041566012E-002  -1.7652215040015032E-002   4.4640528766887823E-002
   5.8166937574790474E-002  -1.7249808851778920E-002   4.4714717134338611E-002
   5.6482881108014978E-002  -1.6815831738372311E-002   4.4995211563936668E-002
   5.6229549595918374E-002  -1.6206227253185740E-002   5.0195708765646552E-002
   5.4743265803612884E-002  -1.5860023162209649E-002   4.9927240965223163E-002
   5.3256982011307401E-002  -1.5520687293130275E-002   4.9848012451592635E-002
   5.1770698219001890E-002  -1.5188219645947590E-002   4.9958023224754858E-002
   5.0284414426696400E-002  -1.4862620220661732E-002   5.0257273284709941E-002
   7.5065506498228796E-002  -2.2675466291504132E-002   2.8443442831690813E-002
   7.2721198810521137E-002  -2.1861851324974382E-002   2.8148661426972477E-002
   7.0376891122813479E-002  -2.1086115147294818E-002   2.8027586196557652E-002
   6.8032583435105806E-002  -2.0348257758465261E-002   2.8080217140446881E-002
   6.5688275747398134E-002  -1.9648279158485715E-002   2.8306554258639816E-002
   6.8873427143781196E-002  -2.0722254773793497E-002   3.4088296337427174E-002
   6.6706252748080716E-002  -2.0025825073798034E-002   3.3767346147725114E-002
   6.4539078352380250E-002  -1.9346450172412571E-002   3.3626956367733572E-002
   6.2371903956679811E-002  -1.8684130069636838E-002   3.3667126997452723E-002
   6.0204729560979303E-002  -1.8038864765471146E-002   3.3887858036882490E-002
   6.2679218680376542E-002  -1.8769043256082918E-002   3.9605552581508982E-002
   6.0696031812090108E-002  -1.8189798822621679E-002   3.9279257597063577E-002
   5.8712844943803646E-002  -1.7606785197530207E-002   3.9140377257735594E-002
   5.6729658075517185E-002  -1.7020002380808523E-002   3.9188911563524997E-002
   5.4746471207230772E-002  -1.6429450372456550E-002   3.9424860514431739E-002
   5.6482881108014978E-002  -1.6815831738372311E-002   4.4995211563936668E-002
   5.4690536002549354E-002  -1.6353772571445328E-002   4.4684395774987888E-002
   5.2898190897083711E-002  -1.5867120222647930E-002   4.4567848866563328E-002
   5.1105845791618067E-002  -1.5355874691980100E-002   4.4645570838663051E-002
   4.9313500686152409E-002  -1.4820035979441940E-002   4.4917561691286946E-002
   5.0284414426696400E-002  -1.4862620220661732E-002   5.0257273284709941E-002
   4.8689765319458386E-002  -1.4517746320268948E-002   4.9982760681498095E-002
   4.7095116212220373E-002  -1.4127455247765590E-002   4.9909371194217414E-002
   4.5500467104982345E-002  -1.3691747003151828E-002   5.0037104822867502E-002
   4.3905817997744317E-002  -1.3210621586427385E-002   5.0365961567448714E-002
   6.5688275747398134E-002  -1.9648279158485715E-002   2.8306554258639816E-002
   6.3312110988435477E-002  -1.8960662072189577E-002   2.7907493713974024E-002
   6.0935946229472834E-002  -1.8259889224409659E-002   2.7695089731068545E-002
   5.8559781470510212E-002  -1.7545960615146371E-002   2.7669342309923309E-002
   5.6183616711547590E-002  -1.6818876244399372E-002   2.7830251450538024E-002
   6.0204729560979303E-002  -1.8038864765471146E-002   3.3887858036882490E-002
   5.8016259863119757E-002  -1.7397514501249350E-002   3.3526314064332735E-002
   5.5827790165260169E-002  -1.6746939518305533E-002   3.3353503652228597E-002
   5.3639320467400609E-002  -1.6087139816639742E-002   3.3369426800570486E-002
   5.1450850769540979E-002  -1.5418115396251930E-002   3.3574083509358477E-002
   5.4746471207230772E-002  -1.6429450372456550E-002   3.9424860514431739E-002
   5.2747773569159918E-002  -1.5834366930309249E-002   3.9096902071236110E-002
   5.0749075931089072E-002  -1.5233989812201462E-002   3.8959754187172138E-002
   4.8750378293018232E-002  -1.4628319018133173E-002   3.9013416862239622E-002
   4.6751680654947364E-002  -1.4017354548104433E-002   3.9257890096438694E-002
   4.9313500686152409E-002  -1.4820035979441940E-002   4.4917561691286946E-002
   4.7506652106555990E-002  -1.4271219359369251E-002   4.4619257734684337E-002
   4.5699803526959529E-002  -1.3721040106097475E-002   4.4513841335898766E-002
   4.3892954947363089E-002  -1.3169498219626685E-002   4.4601312494930365E-002
   4.2086106367766600E-002  -1.2616593699956935E-002   4.4881671211779342E-002
   4.3905817997744317E-002  -1.3210621586427385E-002   5.0365961567448714E-002
   4.2292895475307929E-002  -1.2708071788428893E-002   5.0093381054677144E-002
   4.0679972952871554E-002  -1.2208090399993252E-002   5.0015765098408521E-002
   3.9067050430435173E-002  -1.1710677421119971E-002   5.0133113698642776E-002
   3.7454127907998819E-002  -1.1215832851809437E-002   5.0445426855379949E-002
   5.6183616711547590E-002  -1.6818876244399372E-002   2.7830251450538024E-002
   5.3892559311797067E-002  -1.6089702628967778E-002   2.7486444832384993E-002
   5.1601501912046627E-002  -1.5369506285651105E-002   2.7259533858259744E-002
   4.9310444512296187E-002  -1.4658287214448552E-002   2.7149518528161401E-002
   4.7019387112545719E-002  -1.3956045415360607E-002   2.7156398842090590E-002
   5.1450850769540979E-002  -1.5418115396251930E-002   3.3574083509358477E-002
   4.9291990863601989E-002  -1.4745196827418566E-002   3.3273967721429626E-002
   4.7133130957662944E-002  -1.4073714680416544E-002   3.3121351277096298E-002
   4.4974271051723955E-002  -1.3403668955245397E-002   3.3116234176358374E-002
   4.2815411145784910E-002  -1.2735059651905578E-002   3.3258616419215847E-002
   4.6751680654947364E-002  -1.4017354548104433E-002   3.9257890096438694E-002
   4.4755621942387892E-002  -1.3400691025869313E-002   3.9009005989017381E-002
   4.2759563229828365E-002  -1.2777923075181920E-002   3.8938224924759603E-002
   4.0763504517268866E-002  -1.2149050696042352E-002   3.9045546903665559E-002
   3.8767445804709380E-002  -1.1514073888450466E-002   3.9330971925734912E-002
   4.2086106367766600E-002  -1.2616593699956935E-002   4.4881671211779342E-002
   4.0283452548154720E-002  -1.2056185224320053E-002   4.4691559635148835E-002
   3.8480798728542834E-002  -1.1482131469947355E-002   4.4710154801250138E-002
   3.6678144908930947E-002  -1.0894432436839196E-002   4.4937456710083014E-002
   3.4875491089319061E-002  -1.0293088124995450E-002   4.5373465361647394E-002
   3.7454127907998819E-002  -1.1215832851809437E-002   5.0445426855379949E-002
   3.5875482680902598E-002  -1.0711679422770792E-002   5.0321628659823758E-002
   3.4296837453806392E-002  -1.0186339864712693E-002   5.0437140906567229E-002
   3.2718192226710179E-002  -9.6398141776361697E-003   5.0791963595610515E-002
   3.1139546999613965E-002  -9.0721023615404350E-003   5.1386096726953490E-002
   4.7019387112545719E-002  -1.3956045415360607E-002   2.7156398842090590E-002
   4.4652718775450462E-002  -1.3191757778888480E-002   2.6108990048653247E-002
   4.2286050438355233E-002  -1.2294401195534224E-002   2.4874568057148466E-002
   3.9919382101260170E-002  -1.1263975665297205E-002   2.3453132867576873E-002
   3.7552713764164802E-002  -1.0100481188178190E-002   2.1844684479937815E-002
   4.2815411145784910E-002  -1.2735059651905578E-002   3.3258616419215847E-002
   4.0348048669668873E-002  -1.2030682018678129E-002   3.2556558324754431E-002
   3.7880686193552865E-002  -1.1253331303844760E-002   3.1840125150318366E-002
   3.5413323717436843E-002  -1.0403007507405526E-002   3.1109316895908401E-002
   3.2945961241320820E-002  -9.4797106293600386E-003   3.0364133561523454E-002
   3.8767445804709380E-002  -1.1514073888450466E-002   3.9330971925734912E-002
   3.6372027307665408E-002  -1.0869606258467668E-002   3.8914168664972798E-002
   3.3976608810621450E-002  -1.0212261412155289E-002   3.8655628442329275E-002
   3.1581190313577492E-002  -9.5420393495134568E-003   3.8555351257804085E-002
   2.9185771816533507E-002  -8.8589400705419985E-003   3.8613337111397250E-002
   3.4875491089319061E-002  -1.0293088124995450E-002   4.5373465361647394E-002
   3.2724654689439900E-002  -9.7085304982573173E-003   4.5181821069308278E-002
   3.0573818289560913E-002  -9.1711915204658219E-003   4.5321077933180319E-002
   2.8422981889681783E-002  -8.6810711916214707E-003   4.5791235953263766E-002
   2.6272145489802758E-002  -8.2381695117239029E-003   4.6592295129558564E-002
   3.1139546999613965E-002  -9.0721023615404350E-003   5.1386096726953490E-002
   2.9405930814992570E-002  -8.5474547380467447E-003   5.1359515537760803E-002
   2.7672314630371231E-002  -8.1301216287763267E-003   5.1836473622872692E-002
   2.5938698445749864E-002  -7.8201030337296459E-003   5.2816970982288297E-002
   2.4205082261128497E-002  -7.6173989529058073E-003   5.4301007616008201E-002
   5.7153031796304390E-002   0.0000000000000000        3.4689703742301514E-002
   5.7942598848067975E-002  -2.0840288067614857E-003   3.8341881352710439E-002
   5.8732165899831566E-002  -4.1374302894471963E-003   4.2208061621935751E-002
   5.9521732951595151E-002  -6.1602044480571303E-003   4.6288244549977473E-002
   6.0311300003358728E-002  -8.1523512825912910E-003   5.0582430136835548E-002
   4.8652619260101310E-002   0.0000000000000000        3.2788790863189574E-002
   4.9590898313965362E-002  -1.7094815345370575E-003   3.6964180687463988E-002
   5.0529177367829400E-002  -3.4329595592991896E-003   4.1222991857122936E-002
   5.1467456421693453E-002  -5.1704340742863980E-003   4.5565224372166417E-002
   5.2405735475557491E-002  -6.9219050794986775E-003   4.9990878232594432E-002
   4.0732394177554317E-002   0.0000000000000000        3.1284737163452481E-002
   4.1688803920086961E-002  -1.3349342623126285E-003   3.5938715387291556E-002
   4.2645213662619606E-002  -2.7284888291511829E-003   4.0545533643083290E-002
   4.3601623405152258E-002  -4.1806637005156648E-003   4.5105191930827696E-002
   4.4558033147684910E-002  -5.6914588764060683E-003   4.9617690250524774E-002
   3.3392356548663391E-002   0.0000000000000000        3.0177542643090242E-002
   3.4236315666432787E-002  -9.6038699008819993E-004   3.5265485452193102E-002
   3.5080274784202170E-002  -2.0240180990031787E-003   4.0175686979816765E-002
   3.5924233901971560E-002  -3.1908933267449304E-003   4.4908147225961252E-002
   3.6768193019740950E-002  -4.4610126733134609E-003   4.9462866190626557E-002
   2.6632506373428549E-002   0.0000000000000000        2.9467207302102855E-002
   2.7233433553002818E-002  -5.8583971786377136E-004   3.4944490882168666E-002
   2.7834360732577092E-002  -1.3195473688551711E-003   4.0113451867323423E-002
   2.8435287912151361E-002  -2.2011229529741994E-003   4.4974090257567136E-002
   2.9036215091725635E-002  -3.2305664702208491E-003   4.9526406052899791E-002
   6.0311300003358728E-002  -8.1523512825912910E-003   5.0582430136835548E-002
   6.0612864375303735E-002  -1.0032064246945862E-002   5.1522527567950373E-002
   6.0914428747248742E-002  -1.1717536795017065E-002   5.2250285723096423E-002
   6.1215993119193755E-002  -1.3208768926804872E-002   5.2765704602273644E-002
   6.1517557491138755E-002  -1.4505760642309296E-002   5.3068784205482042E-002
   5.2405735475557491E-002  -6.9219050794986775E-003   4.9990878232594432E-002
   5.2533762989456716E-002  -8.5861818036631048E-003   5.1218953015863031E-002
   5.2661790503355954E-002  -1.0062073475506713E-002   5.2312293359008888E-002
   5.2789818017255206E-002  -1.1349580095029553E-002   5.3270899262031990E-002
   5.2917845531154424E-002  -1.2448701662231575E-002   5.4094770724932399E-002
   4.4558033147684910E-002  -5.6914588764060683E-003   4.9617690250524774E-002
   4.4590128639384420E-002  -7.1402993603803333E-003   5.1127887021984543E-002
   4.4622224131083951E-002  -8.4066101559963826E-003   5.2580954189167639E-002
   4.4654319622783469E-002  -9.4903912632542282E-003   5.3976891752074055E-002
   4.4686415114482986E-002  -1.0391642682153854E-002   5.5315699710703777E-002
   3.6768193019740950E-002  -4.4610126733134609E-003   4.9462866190626557E-002
   3.6781961325086814E-002  -5.6944169170975653E-003   5.1249329586314937E-002
   3.6795729630432691E-002  -6.7511468364860492E-003   5.3056268213572684E-002
   3.6809497935778562E-002  -7.6312024314788961E-003   5.4883682072399777E-002
   3.6823266241124440E-002  -8.3345837020761329E-003   5.6731571162796320E-002
   2.9036215091725635E-002  -3.2305664702208491E-003   4.9526406052899791E-002
   2.9109261046563917E-002  -4.2485344738148042E-003   5.1583280708854165E-002
   2.9182307001402209E-002  -5.0956835169757185E-003   5.3738235432223981E-002
   2.9255352956240498E-002  -5.7720135997035927E-003   5.5991270223009218E-002
   2.9328398911078787E-002  -6.2775247219984190E-003   5.8342385081209959E-002
   6.1517557491138755E-002  -1.4505760642309296E-002   5.3068784205482042E-002
   6.0195555517333660E-002  -1.5511943436011096E-002   5.1665253714771035E-002
   5.8873553543528571E-002  -1.6130748802391147E-002   5.0718564311228120E-002
   5.7551551569723483E-002  -1.6362176741449345E-002   5.0228715994853283E-002
   5.6229549595918374E-002  -1.6206227253185740E-002   5.0195708765646552E-002
   5.2917845531154424E-002  -1.2448701662231575E-002   5.4094770724932399E-002
   5.1999227401086187E-002  -1.3300259197103145E-002   5.3353124753933959E-002
   5.1080609271017971E-002  -1.3845073719634672E-002   5.2961405383241136E-002
   5.0161991140949741E-002  -1.4083145229826101E-002   5.2919612612854015E-002
   4.9243373010881511E-002  -1.4014473727677529E-002   5.3227746442772436E-002
   4.4686415114482986E-002  -1.0391642682153854E-002   5.5315699710703777E-002
   4.4064266341289141E-002  -1.1088574958195197E-002   5.5155303844436232E-002
   4.3442117568095295E-002  -1.1559398636878226E-002   5.5237920091611811E-002
   4.2819968794901457E-002  -1.1804113718202915E-002   5.5563548452230563E-002
   4.2197820021707619E-002  -1.1822720202169276E-002   5.6132188926292459E-002
   3.6823266241124440E-002  -8.3345837020761329E-003   5.6731571162796320E-002
   3.6390672337942513E-002  -8.8768907192872618E-003   5.7071790986277862E-002
   3.5958078434760579E-002  -9.2737235541217860E-003   5.7548108436340097E-002
   3.5525484531578645E-002  -9.5250822065797418E-003   5.8160523512983009E-002
   3.5092890628396732E-002  -9.6309666766610583E-003   5.8909036216206578E-002
   2.9328398911078787E-002  -6.2775247219984190E-003   5.8342385081209959E-002
   2.8978445391046301E-002  -6.6652064803792987E-003   5.9102586179458926E-002
   2.8628491871013816E-002  -6.9880484713652925E-003   5.9891970417426041E-002
   2.8278538350981323E-002  -7.2460506949564817E-003   6.0710537795111361E-002
   2.7928584830948844E-002  -7.4392131511527848E-003   6.1558288312514919E-002
   5.6229549595918374E-002  -1.6206227253185740E-002   5.0195708765646552E-002
   5.4743265803612884E-002  -1.5860023162209649E-002   4.9927240965223163E-002
   5.3256982011307401E-002  -1.5520687293130275E-002   4.9848012451592635E-002
   5.1770698219001890E-002  -1.5188219645947590E-002   4.9958023224754858E-002
   5.0284414426696400E-002  -1.4862620220661732E-002   5.0257273284709941E-002
   4.9243373010881511E-002  -1.4014473727677529E-002   5.3227746442772436E-002
   4.7947262859488519E-002  -1.3783956158902988E-002   5.2905877041839244E-002
   4.6651152708095535E-002  -1.3536489469216692E-002   5.2775115635938237E-002
   4.5355042556702571E-002  -1.3272073658618540E-002   5.2835462225069421E-002
   4.4058932405309573E-002  -1.2990708727108585E-002   5.3086916809232804E-002
   4.2197820021707619E-002  -1.1822720202169276E-002   5.6132188926292459E-002
   4.1093752219466512E-002  -1.1707889155596320E-002   5.5780735267658019E-002
   3.9989684417225398E-002  -1.1552291645303053E-002   5.5622258312295086E-002
   3.8885616614984284E-002  -1.1355927671289449E-002   5.5656758060203745E-002
   3.7781548812743190E-002  -1.1118797233555536E-002   5.5884234511383891E-002
   3.5092890628396732E-002  -9.6309666766610583E-003   5.8909036216206578E-002
   3.4182733883546840E-002  -9.6318221522896409E-003   5.8551815642679431E-002
   3.3272577138696968E-002  -9.5680938213894284E-003   5.8389440480663080E-002
   3.2362420393847090E-002  -9.4397816839603653E-003   5.8421910730157692E-002
   3.1452263648997225E-002  -9.2468857400024376E-003   5.8649226391163239E-002
   2.7928584830948844E-002  -7.4392131511527848E-003   6.1558288312514919E-002
   2.7214207851729552E-002  -7.5557551489829622E-003   6.1219118166903563E-002
   2.6499830872510254E-002  -7.5838959974758244E-003   6.1076662141042348E-002
   2.5785453893290962E-002  -7.5236356966312656E-003   6.1130920234931503E-002
   2.5071076914071677E-002  -7.3749742464493395E-003   6.1381892448570841E-002
   5.0284414426696400E-002  -1.4862620220661732E-002   5.0257273284709941E-002
   4.8689765319458386E-002  -1.4517746320268948E-002   4.9982760681498095E-002
   4.7095116212220373E-002  -1.4127455247765590E-002   4.9909371194217414E-002
   4.5500467104982345E-002  -1.3691747003151828E-002   5.0037104822867502E-002
   4.3905817997744317E-002  -1.3210621586427385E-002   5.0365961567448714E-002
   4.4058932405309573E-002  -1.2990708727108585E-002   5.3086916809232804E-002
   4.2666441279878307E-002  -1.2682345018239324E-002   5.2802770303675903E-002
   4.1273950154447001E-002  -1.2336932875562985E-002   5.2721816645801417E-002
   3.9881459029015714E-002  -1.1954472299079673E-002   5.2844055835609367E-002
   3.8488967903584456E-002  -1.1534963288789279E-002   5.3169487873099885E-002
   3.7781548812743190E-002  -1.1118797233555536E-002   5.5884234511383891E-002
   3.6593285400870063E-002  -1.0846943716209714E-002   5.5582085365178370E-002
   3.5405021988996914E-002  -1.0546410503360356E-002   5.5485198798406771E-002
   3.4216758577123821E-002  -1.0217197595007520E-002   5.5593574811068955E-002
   3.3028495165250672E-002  -9.8593049911511188E-003   5.5907213403165151E-002
   3.1452263648997225E-002  -9.2468857400024376E-003   5.8649226391163239E-002
   3.0470297682433697E-002  -9.0115424141800557E-003   5.8320705866005657E-002
   2.9488331715870161E-002  -8.7558881311577113E-003   5.8199517652033371E-002
   2.8506365749306629E-002  -8.4799228909353645E-003   5.8285661749246341E-002
   2.7524399782743125E-002  -8.1836466935129859E-003   5.8579138157644678E-002
   2.5071076914071677E-002  -7.3749742464493395E-003   6.1381892448570841E-002
   2.4297478124569172E-002  -7.1761411121504803E-003   6.1018631806157742E-002
   2.3523879335066673E-002  -6.9653657589551776E-003   6.0864773206681239E-002
   2.2750280545564171E-002  -6.7426481868632648E-003   6.0920316650141512E-002
   2.1976681756061670E-002  -6.5079883958748530E-003   6.1185262136538576E-002
   4.3905817997744317E-002  -1.3210621586427385E-002   5.0365961567448714E-002
   4.2292895475307929E-002  -1.2708071788428893E-002   5.0093381054677144E-002
   4.0679972952871554E-002  -1.2208090399993252E-002   5.0015765098408521E-002
   3.9067050430435173E-002  -1.1710677421119971E-002   5.0133113698642776E-002
   3.7454127907998819E-002  -1.1215832851809437E-002   5.0445426855379949E-002
   3.8488967903584456E-002  -1.1534963288789279E-002   5.3169487873099885E-002
   3.7071130153679119E-002  -1.1096904839708960E-002   5.2852145949287749E-002
   3.5653292403773788E-002  -1.0658795946855912E-002   5.2730009014034920E-002
   3.4235454653868486E-002  -1.0220636610229868E-002   5.2803077067341324E-002
   3.2817616903963190E-002  -9.7824268298311035E-003   5.3071350109206883E-002
   3.3028495165250672E-002  -9.8593049911511188E-003   5.5907213403165151E-002
   3.1805982619932803E-002  -9.4857378909888185E-003   5.5547728921647901E-002
   3.0583470074614916E-002  -9.1095014937184679E-003   5.5383689860746245E-002
   2.9360957529297030E-002  -8.7305957993397115E-003   5.5415096220460272E-002
   2.8138444983979154E-002  -8.3490208078529082E-003   5.5641948000789795E-002
   2.7524399782743125E-002  -8.1836466935129859E-003   5.8579138157644678E-002
   2.6497452874068995E-002  -7.8745709422688090E-003   5.8180129971757685E-002
   2.5470505965394873E-002  -7.5602070405810483E-003   5.7976807638542668E-002
   2.4443559056720778E-002  -7.2405549884496647E-003   5.7969171157999551E-002
   2.3416612148046648E-002  -6.9156147858746714E-003   5.8157220530128381E-002
   2.1976681756061670E-002  -6.5079883958748530E-003   6.1185262136538576E-002
   2.1145540916087696E-002  -6.2634039935486885E-003   6.0749349099617156E-002
   2.0314400076113709E-002  -6.0109125874436425E-003   6.0509362347424128E-002
   1.9483259236139736E-002  -5.7505141775593578E-003   6.0465301879959396E-002
   1.8652118396165762E-002  -5.4822087638963790E-003   6.0617167697222751E-002
   3.7454127907998819E-002  -1.1215832851809437E-002   5.0445426855379949E-002
   3.5875482680902598E-002  -1.0711679422770792E-002   5.0321628659823758E-002
   3.4296837453806392E-002  -1.0186339864712693E-002   5.0437140906567229E-002
   3.2718192226710179E-002  -9.6398141776361697E-003   5.0791963595610515E-002
   3.1139546999613965E-002  -9.0721023615404350E-003   5.1386096726953490E-002
   3.2817616903963190E-002  -9.7824268298311035E-003   5.3071350109206883E-002
   3.1465298860692631E-002  -9.3345815979335445E-003   5.2912111033350251E-002
   3.0112980817422107E-002  -8.8675159068108411E-003   5.2966215882845197E-002
   2.8760662774151565E-002  -8.3812297564630628E-003   5.3233664657691707E-002
   2.7408344730881037E-002  -7.8757231468903899E-003   5.3714457357889822E-002
   2.8138444983979154E-002  -8.3490208078529082E-003   5.5641948000789795E-002
   2.6986487607586145E-002  -7.9574837730964909E-003   5.5445302374838606E-002
   2.5834530231193194E-002  -7.5486919489087603E-003   5.5436034157291057E-002
   2.4682572854800203E-002  -7.1226453352901762E-003   5.5614143348146947E-002
   2.3530615478407235E-002  -6.6793439322404002E-003   5.5979629947406268E-002
   2.3416612148046648E-002  -6.9156147858746714E-003   5.8157220530128381E-002
   2.2439048921583125E-002  -6.5803859482593124E-003   5.7921202684288964E-002
   2.1461485695119579E-002  -6.2298679910068495E-003   5.7846595729904741E-002
   2.0483922468656039E-002  -5.8640609141173460E-003   5.7933399666976033E-002
   1.9506359242192510E-002  -5.4829647175904939E-003   5.8181614495502805E-002
   1.8652118396165762E-002  -5.4822087638963790E-003   6.0617167697222751E-002
   1.7822982802683546E-002  -5.2032881234221617E-003   6.0339811961701018E-002
   1.6993847209201343E-002  -4.9110440331048694E-003   6.0197900600686555E-002
   1.6164711615719141E-002  -4.6054764929443041E-003   6.0191433614179210E-002
   1.5335576022236938E-002  -4.2865855029404210E-003   6.0320411002179164E-002
   3.1139546999613965E-002  -9.0721023615404350E-003   5.1386096726953490E-002
   2.9405930814992570E-002  -8.5474547380467447E-003   5.1359515537760803E-002
   2.7672314630371231E-002  -8.1301216287763267E-003   5.1836473622872692E-002
   2.5938698445749864E-002  -7.8201030337296459E-003   5.2816970982288297E-002
   2.4205082261128497E-002  -7.6173989529058073E-003   5.4301007616008201E-002
   2.7408344730881037E-002  -7.8757231468903899E-003   5.3714457357889822E-002
   2.6099041395767200E-002  -7.3869487083350338E-003   5.3382123102418272E-002
   2.4789738060653412E-002  -6.9508590710394558E-003   5.3394875271657594E-002
   2.3480434725539585E-002  -6.5674542350036627E-003   5.3752713865607676E-002
   2.2171131390425758E-002  -6.2367342002278559E-003   5.4455638884269075E-002
   2.3530615478407235E-002  -6.6793439322404002E-003   5.5979629947406268E-002
   2.2487172143207723E-002  -6.2264426786233229E-003   5.5396172338619043E-002
   2.1443728808008197E-002  -5.7715965133023767E-003   5.4999348304949888E-002
   2.0400285472808796E-002  -5.3148054362780160E-003   5.4789157846397964E-002
   1.9356842137609173E-002  -4.8560694475497934E-003   5.4765600962964123E-002
   1.9506359242192510E-002  -5.4829647175904939E-003   5.8181614495502805E-002
   1.8570323057314167E-002  -5.0659366489116120E-003   5.7401663246363401E-002
   1.7634286872435793E-002  -4.5923339555655127E-003   5.6649892722748771E-002
   1.6698250687557412E-002  -4.0621566375523121E-003   5.5926302924658611E-002
   1.5762214502679072E-002  -3.4754046948717865E-003   5.5230893852093038E-002
   1.5335576022236938E-002  -4.2865855029404210E-003   6.0320411002179164E-002
   1.4348494138086476E-002  -3.9054306191998456E-003   5.9398595825651324E-002
   1.3361412253936007E-002  -3.4130713978283850E-003   5.8346508525054991E-002
   1.2374330369785563E-002  -2.8095078388265145E-003   5.7164149100389652E-002
   1.1387248485635104E-002  -2.0947399421937796E-003   5.5851517551655849E-002
   2.6632506373428549E-002   0.0000000000000000        2.9467207302102855E-002
   2.7233433553002818E-002  -5.8583971786377136E-004   3.4944490882168666E-002
   2.7834360732577092E-002  -1.3195473688551711E-003   4.0113451867323423E-002
   2.8435287912151361E-002  -2.2011229529741994E-003   4.4974090257567136E-002
   2.9036215091725635E-002  -3.2305664702208491E-003   4.9526406052899791E-002
   2.0115591007792658E-002   0.0000000000000000        2.9019440283753792E-002
   2.0447692586445621E-002  -4.3913331359502535E-004   3.4312464028590499E-002
   2.0779794165098581E-002  -9.8927668358375371E-004   3.9376159166495651E-002
   2.1111895743751545E-002  -1.6504301099661885E-003   4.4210525697469236E-002
   2.1443997322404512E-002  -2.4225935927423220E-003   4.8815563621511224E-002
   1.3504357807698602E-002   0.0000000000000000        2.8699950731306510E-002
   1.3646627773409735E-002  -2.9242690932627848E-004   3.3845572517648054E-002
   1.3788897739120870E-002  -6.5900599831233714E-004   3.8840859685037504E-002
   1.3931167704832001E-002  -1.0997372669581777E-003   4.3685812233474876E-002
   1.4073437670543133E-002  -1.6146207152637950E-003   4.8380430162960147E-002
   6.7988067731463795E-003   0.0000000000000000        2.8508738644761014E-002
   6.8302391138951625E-003  -1.4572050505753205E-004   3.3543816349341317E-002
   6.8616714546439464E-003  -3.2873531304092275E-004   3.8507553422949009E-002
   6.8931037953927294E-003  -5.4904442395016691E-004   4.3399949865584077E-002
   6.9245361361415132E-003  -8.0664783778527319E-004   4.8221005677246562E-002
  -1.0620958640098974E-006   0.0000000000000000        2.8445804024117304E-002
  -1.4733920980971454E-006   9.8589921121439161E-007   3.3407195523670281E-002
  -1.8846883321852609E-006   1.5353722304968509E-006   3.8376240380230131E-002
  -2.2959845662729426E-006   1.6484190578421737E-006   4.3352938593796846E-002
  -2.7072808003597570E-006   1.3250396932607683E-006   4.8337290164370432E-002
   2.9036215091725635E-002  -3.2305664702208491E-003   4.9526406052899791E-002
   2.9109261046563917E-002  -4.2485344738148042E-003   5.1583280708854165E-002
   2.9182307001402209E-002  -5.0956835169757185E-003   5.3738235432223981E-002
   2.9255352956240498E-002  -5.7720135997035927E-003   5.5991270223009218E-002
   2.9328398911078787E-002  -6.2775247219984190E-003   5.8342385081209959E-002
   2.1443997322404512E-002  -2.4225935927423220E-003   4.8815563621511224E-002
   2.1586021869591545E-002  -3.1861186700448607E-003   5.1214547833745606E-002
   2.1728046416778581E-002  -3.8213568800064979E-003   5.3653409163262070E-002
   2.1870070963965614E-002  -4.3283082226272208E-003   5.6132147610060537E-002
   2.2012095511152654E-002  -4.7069726979070206E-003   5.8650763174141099E-002
   1.4073437670543133E-002  -1.6146207152637950E-003   4.8380430162960147E-002
   1.4226237859945513E-002  -2.1237028662749176E-003   5.1078991838382430E-002
   1.4379038049347898E-002  -2.5470302430372709E-003   5.3759227680953349E-002
   1.4531838238750278E-002  -2.8846028455508485E-003   5.6421137690672904E-002
   1.4684638428152662E-002  -3.1364206738156604E-003   5.9064721867541123E-002
   6.9245361361415132E-003  -8.0664783778527319E-004   4.8221005677246562E-002
   7.0299090176258357E-003  -1.0612870625049777E-003   5.1176612722764581E-002
   7.1352818991101616E-003  -1.2727036060680471E-003   5.4055690985297847E-002
   7.2406547805944814E-003  -1.4408974684744695E-003   5.6858240464846374E-002
   7.3460276620788073E-003  -1.5658686497242811E-003   5.9584261161410149E-002
  -2.7072808003597570E-006   1.3250396932607683E-006   4.8337290164370432E-002
  -2.9646573674970735E-006   1.1287412649595499E-006   5.1507410486892079E-002
  -3.2220339346309204E-006   1.6230309011632145E-006   5.4542799076295570E-002
  -3.4794105017656347E-006   2.8079086018853146E-006   5.7443455932580913E-002
  -3.7367870689020838E-006   4.6833743670912642E-006   6.0209381055748072E-002
   2.9328398911078787E-002  -6.2775247219984190E-003   5.8342385081209959E-002
   2.8978445391046301E-002  -6.6652064803792987E-003   5.9102586179458926E-002
   2.8628491871013816E-002  -6.9880484713652925E-003   5.9891970417426041E-002
   2.8278538350981323E-002  -7.2460506949564817E-003   6.0710537795111361E-002
   2.7928584830948844E-002  -7.4392131511527848E-003   6.1558288312514919E-002
   2.2012095511152654E-002  -4.7069726979070206E-003   5.8650763174141099E-002
   2.1705783279197310E-002  -4.9973838726812478E-003   5.9470798488207639E-002
   2.1399471047241957E-002  -5.2395753137852354E-003   6.0348933238710309E-002
   2.1093158815286610E-002  -5.4335470212189107E-003   6.1285167425649024E-002
   2.0786846583331259E-002  -5.5792989949823291E-003   6.2279501049023758E-002
   1.4684638428152662E-002  -3.1364206738156604E-003   5.9064721867541123E-002
   1.4450883780992324E-002  -3.3295612649832523E-003   5.9927971363700767E-002
   1.4217129133831984E-002  -3.4911021562051359E-003   6.0878236593014327E-002
   1.3983374486671644E-002  -3.6210433474813796E-003   6.1915517555481844E-002
   1.3749619839511305E-002  -3.7193848388119150E-003   6.3039814251103249E-002
   7.3460276620788073E-003  -1.5658686497242811E-003   5.9584261161410149E-002
   7.2137468964313511E-003  -1.6617386572852152E-003   6.0474104805938220E-002
   7.0814661307838905E-003  -1.7426289986250437E-003   6.1479880480338103E-002
   6.9491853651364307E-003  -1.8085396737438425E-003   6.2601588184609772E-002
   6.8169045994889710E-003  -1.8594706826414939E-003   6.3839227918753322E-002
  -3.7367870689020838E-006   4.6833743670912642E-006   6.0209381055748072E-002
  -5.6273744856120272E-006   6.0839504128010202E-006   6.1109198814920024E-002
  -7.5179619023228381E-006   5.8441589550570910E-006   6.2153864900681657E-002
  -9.4085493190314805E-006   3.9639999937384797E-006   6.3343379313032980E-002
  -1.1299136735743592E-005   4.4347352896878522E-007   6.4677742051973977E-002
   2.7928584830948844E-002  -7.4392131511527848E-003   6.1558288312514919E-002
   2.7214207851729552E-002  -7.5557551489829622E-003   6.1219118166903563E-002
   2.6499830872510254E-002  -7.5838959974758244E-003   6.1076662141042348E-002
   2.5785453893290962E-002  -7.5236356966312656E-003   6.1130920234931503E-002
   2.5071076914071677E-002  -7.3749742464493395E-003   6.1381892448570841E-002
   2.0786846583331259E-002  -5.5792989949823291E-003   6.2279501049023758E-002
   2.0264944719610930E-002  -5.6675166837757487E-003   6.2118228395762302E-002
   1.9743042855890590E-002  -5.6888855362994331E-003   6.2145191853748394E-002
   1.9221140992170260E-002  -5.6434055525532590E-003   6.2360391422982171E-002
   1.8699239128449924E-002  -5.5310767325374433E-003   6.2763827103463565E-002
   1.3749619839511305E-002  -3.7193848388119150E-003   6.3039814251103249E-002
   1.3411715082787306E-002  -3.7792782185685353E-003   6.3034886777124016E-002
   1.3073810326063307E-002  -3.7938750751230453E-003   6.3209717405889793E-002
   1.2735905569339307E-002  -3.7631754084753366E-003   6.3564306137400620E-002
   1.2398000812615304E-002  -3.6871792186255192E-003   6.4098652971656400E-002
   6.8169045994889710E-003  -1.8594706826414939E-003   6.3839227918753322E-002
   6.6545189412586898E-003  -1.8910397533613357E-003   6.3969093310988739E-002
   6.4921332830284017E-003  -1.8988646139466280E-003   6.4270238797466531E-002
   6.3297476247981222E-003  -1.8829452643974276E-003   6.4742664378186779E-002
   6.1673619665678350E-003  -1.8432817047135536E-003   6.5386370053149331E-002
  -1.1299136735743592E-005   4.4347352896878522E-007   6.4677742051973977E-002
  -6.6437049749349525E-006  -2.8012881540806500E-006   6.4920847997356423E-002
  -1.9882732141228432E-006  -3.8541527702488920E-006   6.5326756028478677E-002
   2.6671585466857967E-006  -2.7151203194171122E-006   6.5895466145340698E-002
   7.3225903074979060E-006   6.1580919830106495E-007   6.6626978347942512E-002
   2.5071076914071677E-002  -7.3749742464493395E-003   6.1381892448570841E-002
   2.4297478124569172E-002  -7.1761411121504803E-003   6.1018631806157742E-002
   2.3523879335066673E-002  -6.9653657589551776E-003   6.0864773206681239E-002
   2.2750280545564171E-002  -6.7426481868632648E-003   6.0920316650141512E-002
   2.1976681756061670E-002  -6.5079883958748530E-003   6.1185262136538576E-002
   1.8699239128449924E-002  -5.5310767325374433E-003   6.2763827103463565E-002
   1.8131006028454071E-002  -5.3815138892998604E-003   6.2476910291942467E-002
   1.7562772928458224E-002  -5.2243318358887736E-003   6.2391322816497896E-002
   1.6994539828462375E-002  -5.0595305723041273E-003   6.2507064677129978E-002
   1.6426306728466525E-002  -4.8871100985459215E-003   6.2824135873838505E-002
   1.2398000812615304E-002  -3.6871792186255192E-003   6.4098652971656400E-002
   1.2027060695265931E-002  -3.5868866664492960E-003   6.3883756982304363E-002
   1.1656120577916549E-002  -3.4832979128224528E-003   6.3862117622168826E-002
   1.1285180460567167E-002  -3.3764129577449620E-003   6.4033734891249569E-002
   1.0914240343217786E-002  -3.2662318012168789E-003   6.4398608789546827E-002
   6.1673619665678350E-003  -1.8432817047135536E-003   6.5386370053149331E-002
   5.9856421250047394E-003  -1.7922594435987177E-003   6.5239171877243582E-002
   5.8039222834416516E-003  -1.7422639897561182E-003   6.5277157623694002E-002
   5.6222024418785578E-003  -1.6932953431858661E-003   6.5500327292500660E-002
   5.4404826003154657E-003  -1.6453535038879752E-003   6.5908680883663529E-002
   7.3225903074979060E-006   6.1580919830106495E-007   6.6626978347942512E-002
   6.7503176705112355E-006   2.3677792519022356E-006   6.6543154976759999E-002
   6.1780450335245651E-006  -1.2300666897696599E-006   6.6636442821073449E-002
   5.6057723965396294E-006  -1.0177728626669519E-005   6.6906841880882986E-002
   5.0334997595512243E-006  -2.4475206558904894E-005   6.7354352156188513E-002
   2.1976681756061670E-002  -6.5079883958748530E-003   6.1185262136538576E-002
   2.1145540916087696E-002  -6.2634039935486885E-003   6.0749349099617156E-002
   2.0314400076113709E-002  -6.0109125874436425E-003   6.0509362347424128E-002
   1.9483259236139736E-002  -5.7505141775593578E-003   6.0465301879959396E-002
   1.8652118396165762E-002  -5.4822087638963790E-003   6.0617167697222751E-002
   1.6426306728466525E-002  -4.8871100985459215E-003   6.2824135873838505E-002
   1.5793972282432060E-002  -4.7072236481922602E-003   6.2437021461872716E-002
   1.5161637836397610E-002  -4.5200244548217472E-003   6.2251593553057788E-002
   1.4529303390363145E-002  -4.3255125184340076E-003   6.2267852147393485E-002
   1.3896968944328694E-002  -4.1236878390292775E-003   6.2485797244880043E-002
   1.0914240343217786E-002  -3.2662318012168789E-003   6.4398608789546827E-002
   1.0486472509545264E-002  -3.1510433028359708E-003   6.4059698741774820E-002
   1.0058704675872755E-002  -3.0291363221998449E-003   6.3928235415575962E-002
   9.6309368422002363E-003  -2.9005108593085447E-003   6.4004218810950253E-002
   9.2031690085277243E-003  -2.7651669141620094E-003   6.4287648927897748E-002
   5.4404826003154657E-003  -1.6453535038879752E-003   6.5908680883663529E-002
   5.2230415974273102E-003  -1.5948629574795564E-003   6.5617380939323330E-002
   5.0056005945391582E-003  -1.5382481895779183E-003   6.5539287934978707E-002
   4.7881595916510087E-003  -1.4755092001829161E-003   6.5674401870629701E-002
   4.5707185887628506E-003  -1.4066459892948247E-003   6.6022722746276227E-002
   5.0334997595512243E-006  -2.4475206558904894E-005   6.7354352156188513E-002
   3.6795460781856304E-006  -3.8682612123225324E-005   6.7110068054518190E-002
   2.3255923968183018E-006  -4.7360056956061158E-005   6.7084751111266050E-002
   9.7163871545184050E-007  -5.0507541057568522E-005   6.7278401326431800E-002
  -3.8231496591462077E-007  -4.8125064427584352E-005   6.7691018700015648E-002
   1.8652118396165762E-002  -5.4822087638963790E-003   6.0617167697222751E-002
   1.7822982802683546E-002  -5.2032881234221617E-003   6.0339811961701018E-002
   1.6993847209201343E-002  -4.9110440331048694E-003   6.0197900600686555E-002
   1.6164711615719141E-002  -4.6054764929443041E-003   6.0191433614179210E-002
   1.5335576022236938E-002  -4.2865855029404210E-003   6.0320411002179164E-002
   1.3896968944328694E-002  -4.1236878390292775E-003   6.2485797244880043E-002
   1.3221215701199170E-002  -3.9140223443629718E-003   6.2298575169914189E-002
   1.2545462458069652E-002  -3.6959879621906444E-003   6.2282673421146531E-002
   1.1869709214940131E-002  -3.4695846925125798E-003   6.2438091998577007E-002
   1.1193955971810610E-002  -3.2348125353285906E-003   6.2764830902205693E-002
   9.2031690085277243E-003  -2.7651669141620094E-003   6.4287648927897748E-002
   8.7166740674417438E-003  -2.6247565653035737E-003   6.4185605951150831E-002
   8.2301791263557598E-003  -2.4809318912765374E-003   6.4290759252292801E-002
   7.7436841852697863E-003  -2.3336928920809127E-003   6.4603108831323794E-002
   7.2571892441838128E-003  -2.1830395677166214E-003   6.5122654688243700E-002
   4.5707185887628506E-003  -1.4066459892948247E-003   6.6022722746276227E-002
   4.3093579014112579E-003  -1.3354907862442797E-003   6.6000904305410862E-002
   4.0479972140596582E-003  -1.2658758203625935E-003   6.6222158094125239E-002
   3.7866365267080642E-003  -1.1978010916492169E-003   6.6686484112419564E-002
   3.5252758393564650E-003  -1.1312666001046107E-003   6.7393882360293450E-002
  -3.8231496591462077E-007  -4.8125064427584352E-005   6.7691018700015648E-002
  -7.3279689228114564E-007  -4.6225007184957922E-005   6.7744470232694420E-002
  -1.0832788186511400E-006  -5.0819749448219320E-005   6.8076869946643886E-002
  -1.4337607450176648E-006  -6.1909291217469159E-005   6.8688217841864033E-002
  -1.7842426713876591E-006  -7.9493632492710908E-005   6.9578513918354790E-002
   1.5335576022236938E-002  -4.2865855029404210E-003   6.0320411002179164E-002
   1.4348494138086476E-002  -3.9054306191998456E-003   5.9398595825651324E-002
   1.3361412253936007E-002  -3.4130713978283850E-003   5.8346508525054991E-002
   1.2374330369785563E-002  -2.8095078388265145E-003   5.7164149100389652E-002
   1.1387248485635104E-002  -2.0947399421937796E-003   5.5851517551655849E-002
   1.1193955971810610E-002  -3.2348125353285906E-003   6.2764830902205693E-002
   1.0171366066490134E-002  -2.9686123859182789E-003   6.2225478868664474E-002
   9.1487761611696583E-003  -2.6479251395619685E-003   6.1745382916851832E-002
   8.1261862558491688E-003  -2.2727507962594512E-003   6.1324543046767890E-002
   7.1035963505287070E-003  -1.8430893560105188E-003   6.0962959258412552E-002
   7.2571892441838128E-003  -2.1830395677166214E-003   6.5122654688243700E-002
   6.3886195234906240E-003  -2.0317941526370731E-003   6.4909048557004689E-002
   5.5200498027974335E-003  -1.8827788812956006E-003   6.4944226713291531E-002
   4.6514800821042491E-003  -1.7359937536924417E-003   6.5228189157104544E-002
   3.7829103614110682E-003  -1.5914387698273691E-003   6.5760935888443450E-002
   3.5252758393564650E-003  -1.1312666001046107E-003   6.7393882360293450E-002
   3.0002545090878942E-003  -1.0949759193556868E-003   6.7449304890672288E-002
   2.4752331788193229E-003  -1.1176326230292639E-003   6.7943039914374309E-002
   1.9502118485507549E-003  -1.1992367111255718E-003   6.8875087431399501E-002
   1.4251905182821809E-003  -1.3397881836442194E-003   7.0245447441748349E-002
  -1.7842426713876591E-006  -7.9493632492710908E-005   6.9578513918354790E-002
   6.2710232819757072E-006  -1.5815768607430059E-004   6.9846247869666922E-002
   1.4326289235339074E-005  -3.5248636476273298E-004   7.0741822520099695E-002
   2.2381555188711114E-005  -6.6247966855840362E-004   7.2265237869652860E-002
   3.0436821142065806E-005  -1.0881375974609586E-003   7.4416493918326942E-002
  -1.0620958640098974E-006   0.0000000000000000        2.8445804024117304E-002
  -1.4733920980971454E-006   9.8589921121439161E-007   3.3407195523670281E-002
  -1.8846883321852609E-006   1.5353722304968509E-006   3.8376240380230131E-002
  -2.2959845662729426E-006   1.6484190578421737E-006   4.3352938593796846E-002
  -2.7072808003597570E-006   1.3250396932607683E-006   4.8337290164370432E-002
  -6.8008803936729289E-003   0.0000000000000000        2.8510765196116103E-002
  -6.8331007620304560E-003   1.4712707724033602E-004   3.3545303875853832E-002
  -6.8653211303879823E-003   3.3107184558051235E-004   3.8508571054337831E-002
  -6.8975414987455068E-003   5.5183430502052985E-004   4.3400566731568065E-002
  -6.9297618671030330E-003   8.0941445556039111E-004   4.8221290907544553E-002
  -1.3506279714620737E-002   0.0000000000000000        2.8703240487498134E-002
  -1.3649234013362318E-002   2.9326825526945592E-004   3.3848180464712392E-002
  -1.3792188312103895E-002   6.6060831893052785E-004   3.8842924082412293E-002
  -1.3935142610845471E-002   1.1020201909832132E-003   4.3687471340597847E-002
  -1.4078096909587053E-002   1.6175038714275137E-003   4.8381822239269026E-002
  -2.0117260058707440E-002   0.0000000000000000        2.9023229898263399E-002
  -2.0449873146093686E-002   4.3940943329857712E-004   3.4315825290245967E-002
  -2.0782486233479933E-002   9.9014479228054422E-004   3.9379299464453558E-002
  -2.1115099320866176E-002   1.6522060769458970E-003   4.4213652420886172E-002
  -2.1447712408252426E-002   2.4255932872946436E-003   4.8818884159543829E-002
  -2.6633821425933030E-002   0.0000000000000000        2.9470733428411899E-002
  -2.7235018160224556E-002   5.8555061132769658E-004   3.4948238352454544E-002
  -2.7836214894516084E-002   1.3196812656305606E-003   4.0117697200461593E-002
  -2.8437411628807613E-002   2.2023919629085807E-003   4.4979109972433075E-002
  -2.9038608363099138E-002   3.2336827031617691E-003   4.9532476668368935E-002
  -2.7072808003597570E-006   1.3250396932607683E-006   4.8337290164370432E-002
  -2.9646573674970735E-006   1.1287412649595499E-006   5.1507410486892079E-002
  -3.2220339346309204E-006   1.6230309011632145E-006   5.4542799076295570E-002
  -3.4794105017656347E-006   2.8079086018853146E-006   5.7443455932580913E-002
  -3.7367870689020838E-006   4.6833743670912642E-006   6.0209381055748072E-002
  -6.9297618671030330E-003   8.0941445556039111E-004   4.8221290907544553E-002
  -7.0356768691188327E-003   1.0641558694167007E-003   5.1178302593353139E-002
  -7.1415918711346315E-003   1.2764021188060898E-003   5.4058730761382574E-002
  -7.2475068731504234E-003   1.4461532037285440E-003   5.6862575411632831E-002
  -7.3534218751662274E-003   1.5734091241840775E-003   5.9589836544103929E-002
  -1.4078096909587053E-002   1.6175038714275137E-003   4.8381822239269026E-002
  -1.4231521321712520E-002   2.1271829975684380E-003   5.1082539535833117E-002
  -1.4384945733837985E-002   2.5511812067110021E-003   5.3764821529957048E-002
  -1.4538370145963446E-002   2.8894984988552062E-003   5.6428668221640804E-002
  -1.4691794558088913E-002   3.1421348740010256E-003   5.9074079610884393E-002
  -2.1447712408252426E-002   2.4255932872946436E-003   4.8818884159543829E-002
  -2.1590498015148559E-002   3.1902101257201736E-003   5.1220121314331984E-002
  -2.1733283622044700E-002   3.8259602946159148E-003   5.3661071382018963E-002
  -2.1876069228940833E-002   4.3328437939818528E-003   5.6141734362604757E-002
  -2.2018854835836977E-002   4.7108606238179789E-003   5.8662110256089389E-002
  -2.9038608363099138E-002   3.2336827031617691E-003   4.9532476668368935E-002
  -2.9112606949426963E-002   4.2532372538719226E-003   5.1591047928849734E-002
  -2.9186605535754768E-002   5.1007393825208457E-003   5.3747480317568347E-002
  -2.9260604122082579E-002   5.7761890891085245E-003   5.6001773834524766E-002
  -2.9334602708410394E-002   6.2795863736349530E-003   5.8353928479719021E-002
  -3.7367870689020838E-006   4.6833743670912642E-006   6.0209381055748072E-002
  -5.6273744856120272E-006   6.0839504128010202E-006   6.1109198814920024E-002
  -7.5179619023228381E-006   5.8441589550570910E-006   6.2153864900681657E-002
  -9.4085493190314805E-006   3.9639999937384797E-006   6.3343379313032980E-002
  -1.1299136735743592E-005   4.4347352896878522E-007   6.4677742051973977E-002
  -7.3534218751662274E-003   1.5734091241840775E-003   5.9589836544103929E-002
  -7.2247066761519894E-003   1.6711163397176050E-003   6.0477602861851512E-002
  -7.0959914771377523E-003   1.7522213098742009E-003   6.1481732425871322E-002
  -6.9672762781235169E-003   1.8167240346537491E-003   6.2602225236163322E-002
  -6.8385610791092833E-003   1.8646245140563067E-003   6.3839081292727612E-002
  -1.4691794558088913E-002   3.1421348740010256E-003   5.9074079610884393E-002
  -1.4460958652961205E-002   3.3361487290224125E-003   5.9934832609334125E-002
  -1.4230122747833493E-002   3.4985984607933162E-003   6.0883463773738579E-002
  -1.3999286842705787E-002   3.6294840693137037E-003   6.1919973104097803E-002
  -1.3768450937578077E-002   3.7288055545836099E-003   6.3044360600411714E-002
  -2.2018854835836977E-002   4.7108606238179789E-003   5.8662110256089389E-002
  -2.1714383304913265E-002   5.0011811183272182E-003   5.9480888057367787E-002
  -2.1409911773989553E-002   5.2449756117124591E-003   6.0359058944283429E-002
  -2.1105440243065841E-002   5.4422441039736731E-003   6.1296622916836352E-002
  -2.0800968712142140E-002   5.5929865951109305E-003   6.2293579975026526E-002
  -2.9334602708410394E-002   6.2795863736349530E-003   5.8353928479719021E-002
  -2.8984980632008162E-002   6.6662135076320309E-003   5.9115769205952566E-002
  -2.8635358555605932E-002   6.9913527626315908E-003   5.9908517937505873E-002
  -2.8285736479203696E-002   7.2550041386337007E-003   6.0732174674378955E-002
  -2.7936114402801460E-002   7.4571676356382649E-003   6.1586739416571876E-002
  -1.1299136735743592E-005   4.4347352896878522E-007   6.4677742051973977E-002
  -6.6437049749349525E-006  -2.8012881540806500E-006   6.4920847997356423E-002
  -1.9882732141228432E-006  -3.8541527702488920E-006   6.5326756028478677E-002
   2.6671585466857967E-006  -2.7151203194171122E-006   6.5895466145340698E-002
   7.3225903074979060E-006   6.1580919830106495E-007   6.6626978347942512E-002
  -6.8385610791092833E-003   1.8646245140563067E-003   6.3839081292727612E-002
  -6.6682443871669351E-003   1.8931233684797225E-003   6.3972413942699369E-002
  -6.4979276952245859E-003   1.8994212183218728E-003   6.4274267027294427E-002
  -6.3276110032822394E-003   1.8835180635827578E-003   6.4744640546512799E-002
  -6.1572943113398886E-003   1.8454139042624607E-003   6.5383534500354404E-002
  -1.3768450937578077E-002   3.7288055545836099E-003   6.3044360600411714E-002
  -1.3426754636570688E-002   3.7890480251135256E-003   6.3043527053324666E-002
  -1.3085058335563306E-002   3.8026965894140206E-003   6.3216932289744399E-002
  -1.2743362034555918E-002   3.7697512474850433E-003   6.3564576309670884E-002
  -1.2401665733548544E-002   3.6902119993265925E-003   6.4086459113104274E-002
  -2.0800968712142140E-002   5.5929865951109305E-003   6.2293579975026526E-002
  -2.0282174453186207E-002   5.6849726817473425E-003   6.2134187329232378E-002
  -1.9763380194230275E-002   5.7059719605060998E-003   6.2154751815828531E-002
  -1.9244585935274349E-002   5.6559844313872456E-003   6.2355273434815020E-002
  -1.8725791676318420E-002   5.5350100943907105E-003   6.2735752186191734E-002
  -2.7936114402801460E-002   7.4571676356382649E-003   6.1586739416571876E-002
  -2.7234503837013490E-002   7.5808973383811457E-003   6.1244394770422483E-002
  -2.6532893271225509E-002   7.6092473315982727E-003   6.1087725605546907E-002
  -2.5831282705437535E-002   7.5422176152894439E-003   6.1116731921945139E-002
  -2.5129672139649561E-002   7.3798081894548562E-003   6.1331413719617173E-002
   7.3225903074979060E-006   6.1580919830106495E-007   6.6626978347942512E-002
   6.7503176705112355E-006   2.3677792519022356E-006   6.6543154976759999E-002
   6.1780450335245651E-006  -1.2300666897696599E-006   6.6636442821073449E-002
   5.6057723965396294E-006  -1.0177728626669519E-005   6.6906841880882986E-002
   5.0334997595512243E-006  -2.4475206558904894E-005   6.7354352156188513E-002
  -6.1572943113398886E-003   1.8454139042624607E-003   6.5383534500354404E-002
  -5.9760067299287224E-003   1.7945950546231493E-003   6.5220416151136884E-002
  -5.7947191485175440E-003   1.7405478289274912E-003   6.5243906294519677E-002
  -5.6134315671063717E-003   1.6832722271751324E-003   6.5454004930502754E-002
  -5.4321439856951995E-003   1.6227682493662465E-003   6.5850712059086103E-002
  -1.2401665733548544E-002   3.6902119993265925E-003   6.4086459113104274E-002
  -1.2029021020984913E-002   3.5868223299945559E-003   6.3846167225790423E-002
  -1.1656376308421285E-002   3.4823257245446895E-003   6.3801981108181138E-002
  -1.1283731595857660E-002   3.3767221829770714E-003   6.3953900760276516E-002
  -1.0911086883294039E-002   3.2700117052915645E-003   6.4301926182076405E-002
  -1.8725791676318420E-002   5.5350100943907105E-003   6.2735752186191734E-002
  -1.8152292555498061E-002   5.3790496053658550E-003   6.2420408200720430E-002
  -1.7578793434677695E-002   5.2241036201618359E-003   6.2310667262057882E-002
  -1.7005294313857333E-002   5.0701721387789419E-003   6.2406529370204314E-002
  -1.6431795193036967E-002   4.9172551612167714E-003   6.2707994525159599E-002
  -2.5129672139649561E-002   7.3798081894548562E-003   6.1331413719617173E-002
  -2.4345821333468166E-002   7.1712768807372096E-003   6.0943139075926994E-002
  -2.3561970527286775E-002   6.9658815157791001E-003   6.0769964756149972E-002
  -2.2778119721105383E-002   6.7636220945809112E-003   6.0811890760286071E-002
  -2.1994268914923988E-002   6.5644986171420894E-003   6.1068917088335450E-002
   5.0334997595512243E-006  -2.4475206558904894E-005   6.7354352156188513E-002
   3.6795460781856304E-006  -3.8682612123225324E-005   6.7110068054518190E-002
   2.3255923968183018E-006  -4.7360056956061158E-005   6.7084751111266050E-002
   9.7163871545184050E-007  -5.0507541057568522E-005   6.7278401326431800E-002
  -3.8231496591462077E-007  -4.8125064427584352E-005   6.7691018700015648E-002
  -5.4321439856951995E-003   1.6227682493662465E-003   6.5850712059086103E-002
  -5.2175922033918859E-003   1.5598460794600949E-003   6.5563562099135039E-002
  -5.0030404210885757E-003   1.4953159014157030E-003   6.5489256452735442E-002
  -4.7884886387852630E-003   1.4291777152331923E-003   6.5627795119887089E-002
  -4.5739368564819520E-003   1.3614315209124483E-003   6.5979178100590258E-002
  -1.0911086883294039E-002   3.2700117052915645E-003   6.4301926182076405E-002
  -1.0486752209872684E-002   3.1583747710433180E-003   6.3964772394975111E-002
  -1.0062417536451325E-002   3.0379918597874186E-003   6.3834340076558527E-002
  -9.6380828630299696E-003   2.9088629715238439E-003   6.3910629226826596E-002
  -9.2137481896086126E-003   2.7709881062526198E-003   6.4193639845779513E-002
  -1.6431795193036967E-002   4.9172551612167714E-003   6.2707994525159599E-002
  -1.5803800473364212E-002   4.7569034626264786E-003   6.2313698942038434E-002
  -1.5175805753691443E-002   4.5806678181591863E-003   6.2120001982735443E-002
  -1.4547811034018674E-002   4.3885482278145224E-003   6.2126903647250306E-002
  -1.3919816314345926E-002   4.1805446915926942E-003   6.2334403935583510E-002
  -2.1994268914923988E-002   6.5644986171420894E-003   6.1068917088335450E-002
  -2.1168736993866448E-002   6.3554321542098335E-003   6.0610341740324924E-002
  -2.0343205072808911E-002   6.1233437765308846E-003   6.0346242171265857E-002
  -1.9517673151751375E-002   5.8682334841052529E-003   6.0276618381158234E-002
  -1.8692141230693834E-002   5.5901012769328240E-003   6.0401470370002042E-002
  -3.8231496591462077E-007  -4.8125064427584352E-005   6.7691018700015648E-002
  -7.3279689228114564E-007  -4.6225007184957922E-005   6.7744470232694420E-002
  -1.0832788186511400E-006  -5.0819749448219320E-005   6.8076869946643886E-002
  -1.4337607450176648E-006  -6.1909291217469159E-005   6.8688217841864033E-002
  -1.7842426713876591E-006  -7.9493632492710908E-005   6.9578513918354790E-002
  -4.5739368564819520E-003   1.3614315209124483E-003   6.5979178100590258E-002
  -4.3142444443348658E-003   1.2910600254158466E-003   6.5942398857601281E-002
  -4.0545520321877814E-003   1.2170459357049718E-003   6.6146757221488509E-002
  -3.7948596200407022E-003   1.1393892517804309E-003   6.6592253192252093E-002
  -3.5351672078936178E-003   1.0580899736415961E-003   6.7278886769891688E-002
  -9.2137481896086126E-003   2.7709881062526198E-003   6.4193639845779513E-002
  -8.7318234577824869E-003   2.6283450580165263E-003   6.4069482032414679E-002
  -8.2498987259563596E-003   2.4849116208583918E-003   6.4148651251531713E-002
  -7.7679739941302305E-003   2.3406877947782772E-003   6.4431147503130642E-002
  -7.2860492623041014E-003   2.1956735797759586E-003   6.4916970787211342E-002
  -1.3919816314345926E-002   4.1805446915926942E-003   6.2334403935583510E-002
  -1.3253469837235134E-002   3.9656300906171574E-003   6.2125719757134726E-002
  -1.2587123360124370E-002   3.7527773060116974E-003   6.2082552036773445E-002
  -1.1920776883013596E-002   3.5419863377760393E-003   6.2204900774499597E-002
  -1.1254430405902825E-002   3.3332571859104043E-003   6.2492765970313092E-002
  -1.8692141230693834E-002   5.5901012769328240E-003   6.0401470370002042E-002
  -1.7879183582692831E-002   5.3029151232179828E-003   6.0111112031761449E-002
  -1.7066225934691821E-002   5.0206429911651418E-003   5.9948459577213786E-002
  -1.6253268286690804E-002   4.7432848807740582E-003   5.9913513006359137E-002
  -1.5440310638689808E-002   4.4708407920446280E-003   6.0006272319197640E-002
  -1.7842426713876591E-006  -7.9493632492710908E-005   6.9578513918354790E-002
   6.2710232819757072E-006  -1.5815768607430059E-004   6.9846247869666922E-002
   1.4326289235339074E-005  -3.5248636476273298E-004   7.0741822520099695E-002
   2.2381555188711114E-005  -6.6247966855840362E-004   7.2265237869652860E-002
   3.0436821142065806E-005  -1.0881375974609586E-003   7.4416493918326942E-002
  -3.5351672078936178E-003   1.0580899736415961E-003   6.7278886769891688E-002
  -2.9978835086362336E-003   9.4440000205064933E-004   6.7142107657300276E-002
  -2.4605998093788529E-003   7.6957123776888459E-004   6.7435944712196327E-002
  -1.9233161101214835E-003   5.3360368079638509E-004   6.8160397934579342E-002
  -1.3860324108640881E-003   2.3649733113306759E-004   6.9315467324450375E-002
  -7.2860492623041014E-003   2.1956735797759586E-003   6.4916970787211342E-002
  -6.4167616613758360E-003   2.0469576901755993E-003   6.4430204443132327E-002
  -5.5474740604475898E-003   1.8916288403006271E-003   6.4176829734907653E-002
  -4.6781864595193158E-003   1.7296870301511773E-003   6.4156846662537320E-002
  -3.8088988585910644E-003   1.5611322597272048E-003   6.4370255226021134E-002
  -1.1254430405902825E-002   3.3332571859104043E-003   6.2492765970313092E-002
  -1.0250363434936838E-002   3.1495153783004382E-003   6.1710538227163172E-002
  -9.2462964639708507E-003   3.0136864428323071E-003   6.0964477588234020E-002
  -8.2422294930048767E-003   2.9257703795059122E-003   6.0254584053526315E-002
  -7.2381625220388768E-003   2.8857671883212310E-003   5.9580857623039579E-002
  -1.5440310638689808E-002   4.4708407920446280E-003   6.0006272319197640E-002
  -1.4498688829319231E-002   4.2520730664254991E-003   5.8983109009392520E-002
  -1.3557067019948674E-002   4.1357440453640981E-003   5.7798888272175497E-002
  -1.2615445210578089E-002   4.1218537288608414E-003   5.6453610107546348E-002
  -1.1673823401207539E-002   4.2104021169153683E-003   5.4947274515505296E-002
  -2.6633821425933030E-002   0.0000000000000000        2.9470733428411899E-002
  -2.7235018160224556E-002   5.8555061132769658E-004   3.4948238352454544E-002
  -2.7836214894516084E-002   1.3196812656305606E-003   4.0117697200461593E-002
  -2.8437411628807613E-002   2.2023919629085807E-003   4.4979109972433075E-002
  -2.9038608363099138E-002   3.2336827031617691E-003   4.9532476668368935E-002
  -3.3393257035159551E-002   0.0000000000000000        3.0180568664262837E-002
  -3.4237236082605704E-002   9.6022282418583346E-004   3.5269272854135128E-002
  -3.5081215130051864E-002   2.0240715330198146E-003   4.0180458493733764E-002
  -3.5925194177498017E-002   3.1915461265019478E-003   4.4914125583058712E-002
  -3.6769173224944170E-002   4.4626466046322252E-003   4.9470274122110032E-002
  -4.0732860105249034E-002   0.0000000000000000        3.1287553192135421E-002
  -4.1689093940087893E-002   1.3348950370439682E-003   3.5942502489510350E-002
  -4.2645327774926751E-002   2.7284618004090712E-003   4.0550460762373550E-002
  -4.3601561609765610E-002   4.1807002900953062E-003   4.5111428010724985E-002
  -4.4557795444604475E-002   5.6916105061026786E-003   4.9625404234564706E-002
  -4.8652630636201483E-002   0.0000000000000000        3.2791687012029641E-002
  -4.9590591732671122E-002   1.7095672499021026E-003   3.6967927258580197E-002
  -5.0528552829140767E-002   3.4328520677983261E-003   4.1227704006380934E-002
  -5.1466513925610413E-002   5.1698544536886654E-003   4.5571017255431841E-002
  -5.2404475022080059E-002   6.9205744075731294E-003   4.9997867005732943E-002
  -5.7152568628016889E-002   0.0000000000000000        3.4692970123945503E-002
  -5.7941729460355390E-002   2.0842394627602380E-003   3.8345547161344667E-002
  -5.8730890292693905E-002   4.1372423351875819E-003   4.2212188225755939E-002
  -5.9520051125032405E-002   6.1590086172820316E-003   4.6292893317179305E-002
  -6.0309211957370906E-002   8.1495383090435872E-003   5.0587662435614772E-002
  -2.9038608363099138E-002   3.2336827031617691E-003   4.9532476668368935E-002
  -2.9112606949426963E-002   4.2532372538719226E-003   5.1591047928849734E-002
  -2.9186605535754768E-002   5.1007393825208457E-003   5.3747480317568347E-002
  -2.9260604122082579E-002   5.7761890891085245E-003   5.6001773834524766E-002
  -2.9334602708410394E-002   6.2795863736349530E-003   5.8353928479719021E-002
  -3.6769173224944170E-002   4.4626466046322252E-003   4.9470274122110032E-002
  -3.6783949716404127E-002   5.6969015934171920E-003   5.1257464348705588E-002
  -3.6798726207864077E-002   6.7538397188634178E-003   5.3065237636799038E-002
  -3.6813502699324020E-002   7.6334609809708669E-003   5.4893593986390397E-002
  -3.6828279190783970E-002   8.3357653797395612E-003   5.6742533397479679E-002
  -4.4557795444604475E-002   5.6916105061026786E-003   4.9625404234564706E-002
  -4.4590627907936477E-002   7.1405659329624761E-003   5.1135948985997499E-002
  -4.4623460371268478E-002   8.4069400552059959E-003   5.2589798732188282E-002
  -4.4656292834600472E-002   9.4907328728332293E-003   5.3986953473137082E-002
  -4.4689125297932487E-002   1.0391944385844187E-002   5.5327413208843851E-002
  -5.2404475022080059E-002   6.9205744075731294E-003   4.9997867005732943E-002
  -5.2532641524024024E-002   8.5842302725077455E-003   5.1226501840725469E-002
  -5.2660808025968002E-002   1.0060040391548562E-002   5.2321163603736072E-002
  -5.2788974527911960E-002   1.1348004764695597E-002   5.3281852294764759E-002
  -5.2917141029855931E-002   1.2448123391948803E-002   5.4108567913811523E-002
  -6.0309211957370906E-002   8.1495383090435872E-003   5.0587662435614772E-002
  -6.0609990564666753E-002   1.0027894612053027E-002   5.1529122912889518E-002
  -6.0910769171962607E-002   1.1713140727891142E-002   5.2259332251442400E-002
  -6.1211547779258468E-002   1.3205276656557957E-002   5.2778290451273469E-002
  -6.1512326386554309E-002   1.4504302398053420E-002   5.3085997512382688E-002
  -2.9334602708410394E-002   6.2795863736349530E-003   5.8353928479719021E-002
  -2.8984980632008162E-002   6.6662135076320309E-003   5.9115769205952566E-002
  -2.8635358555605932E-002   6.9913527626315908E-003   5.9908517937505873E-002
  -2.8285736479203696E-002   7.2550041386337007E-003   6.0732174674378955E-002
  -2.7936114402801460E-002   7.4571676356382649E-003   6.1586739416571876E-002
  -3.6828279190783970E-002   8.3357653797395612E-003   5.6742533397479679E-002
  -3.6394573482530349E-002   8.8774115857908342E-003   5.7087636424923080E-002
  -3.5960867774276727E-002   9.2750582697459626E-003   5.7569998710749443E-002
  -3.5527162066023119E-002   9.5287054316049898E-003   5.8189620254958822E-002
  -3.5093456357769490E-002   9.6383530713679277E-003   5.8946501057551115E-002
  -4.4689125297932487E-002   1.0391944385844187E-002   5.5327413208843851E-002
  -4.4064984704764290E-002   1.1088609663949648E-002   5.5173266894398484E-002
  -4.3440844111596100E-002   1.1558763776860347E-002   5.5262731091399266E-002
  -4.2816703518427902E-002   1.1802406724576347E-002   5.5595805799846257E-002
  -4.2192562925259712E-002   1.1819538507097611E-002   5.6172491019739382E-002
  -5.2917141029855931E-002   1.2448123391948803E-002   5.4108567913811523E-002
  -5.1996214298709958E-002   1.3299807742108422E-002   5.3372660614378765E-002
  -5.1075287567564007E-002   1.3842469283974718E-002   5.2986715079455356E-002
  -5.0154360836418055E-002   1.4076108017547643E-002   5.2950731309041349E-002
  -4.9233434105272068E-002   1.4000723942827271E-002   5.3264709303136662E-002
  -6.1512326386554309E-002   1.4504302398053420E-002   5.3085997512382688E-002
  -6.0188262264367395E-002   1.5511005820267255E-002   5.1685817584863944E-002
  -5.8864198142180461E-002   1.6126174791089114E-002   5.0741950674917720E-002
  -5.7540134019993555E-002   1.6349809310519017E-002   5.0254396782544120E-002
  -5.6216069897806621E-002   1.6181909378556972E-002   5.0223155907742997E-002
  -2.7936114402801460E-002   7.4571676356382649E-003   6.1586739416571876E-002
  -2.7234503837013490E-002   7.5808973383811457E-003   6.1244394770422483E-002
  -2.6532893271225509E-002   7.6092473315982727E-003   6.1087725605546907E-002
  -2.5831282705437535E-002   7.5422176152894439E-003   6.1116731921945139E-002
  -2.5129672139649561E-002   7.3798081894548562E-003   6.1331413719617173E-002
  -3.5093456357769490E-002   9.6383530713679277E-003   5.8946501057551115E-002
  -3.4202334291335859E-002   9.6420542370436180E-003   5.8584591250449347E-002
  -3.3311212224902215E-002   9.5778619766409417E-003   5.8416028963365084E-002
  -3.2420090158468598E-002   9.4457762901599372E-003   5.8440814196298430E-002
  -3.1528968092034940E-002   9.2457971776005732E-003   5.8658946949249224E-002
  -4.2192562925259712E-002   1.1819538507097611E-002   5.6172491019739382E-002
  -4.1104257319436670E-002   1.1703211135706056E-002   5.5818502335132678E-002
  -4.0015951713613641E-002   1.1546476621683696E-002   5.5665533209287264E-002
  -3.8927646107790606E-002   1.1349334965030459E-002   5.5713583642203156E-002
  -3.7839340501967578E-002   1.1111786165746332E-002   5.5962653633880220E-002
  -4.9233434105272068E-002   1.4000723942827271E-002   5.3264709303136662E-002
  -4.7940272921315912E-002   1.3764368034368524E-002   5.2946128024472613E-002
  -4.6647111737359755E-002   1.3515091266726353E-002   5.2836238343313524E-002
  -4.5353950553403619E-002   1.3252893639900938E-002   5.2935040259659387E-002
  -4.4060789369447441E-002   1.2977775153892056E-002   5.3242533773510306E-002
  -5.6216069897806621E-002   1.6181909378556972E-002   5.0223155907742997E-002
  -5.4710381096973591E-002   1.5825524933030986E-002   4.9967468318469002E-002
  -5.3204692296140582E-002   1.5483705911769122E-002   4.9928144365443704E-002
  -5.1699003495307580E-002   1.5156452314771432E-002   5.0105184048667151E-002
  -5.0193314694474564E-002   1.4843764142037807E-002   5.0498587368139281E-002
  -2.5129672139649561E-002   7.3798081894548562E-003   6.1331413719617173E-002
  -2.4345821333468166E-002   7.1712768807372096E-003   6.0943139075926994E-002
  -2.3561970527286775E-002   6.9658815157791001E-003   6.0769964756149972E-002
  -2.2778119721105383E-002   6.7636220945809112E-003   6.0811890760286071E-002
  -2.1994268914923988E-002   6.5644986171420894E-003   6.1068917088335450E-002
  -3.1528968092034940E-002   9.2457971776005732E-003   5.8658946949249224E-002
  -3.0534305586945226E-002   9.0054126294577125E-003   5.8350416472342362E-002
  -2.9539643081855547E-002   8.7521106362260723E-003   5.8248409069338994E-002
  -2.8544980576765841E-002   8.4858911979058035E-003   5.8352924740239009E-002
  -2.7550318071676152E-002   8.2067543144967448E-003   5.8663963485042547E-002
  -3.7839340501967578E-002   1.1111786165746332E-002   5.5962653633880220E-002
  -3.6642443547979291E-002   1.0839548378178215E-002   5.5717813934908385E-002
  -3.5445546593990990E-002   1.0538339756673041E-002   5.5670920059830278E-002
  -3.4248649640002696E-002   1.0208160301230833E-002   5.5821972008645887E-002
  -3.3051752686014402E-002   9.8490100118513724E-003   5.6170969781355232E-002
  -4.4060789369447441E-002   1.2977775153892056E-002   5.3242533773510306E-002
  -4.2670235216570283E-002   1.2673684126898760E-002   5.3045331463624987E-002
  -4.1279681063693167E-002   1.2324568877120011E-002   5.3037497727623784E-002
  -3.9889126910816017E-002   1.1930429404555711E-002   5.3219032565506551E-002
  -3.8498572757938887E-002   1.1491265709206042E-002   5.3589935977273212E-002
  -5.0193314694474564E-002   1.4843764142037807E-002   5.0498587368139281E-002
  -4.8617680592718288E-002   1.4507819875619193E-002   5.0332969058492244E-002
  -4.7042046490962018E-002   1.4110797997567037E-002   5.0348142072719509E-002
  -4.5466412389205735E-002   1.3652698507880839E-002   5.0544106410820966E-002
  -4.3890778287449472E-002   1.3133521406560711E-002   5.0920862072796780E-002
  -2.1994268914923988E-002   6.5644986171420894E-003   6.1068917088335450E-002
  -2.1168736993866448E-002   6.3554321542098335E-003   6.0610341740324924E-002
  -2.0343205072808911E-002   6.1233437765308846E-003   6.0346242171265857E-002
  -1.9517673151751375E-002   5.8682334841052529E-003   6.0276618381158234E-002
  -1.8692141230693834E-002   5.5901012769328240E-003   6.0401470370002042E-002
  -2.7550318071676152E-002   8.2067543144967448E-003   5.8663963485042547E-002
  -2.6529258600631954E-002   7.9150247616255054E-003   5.8243409546189923E-002
  -2.5508199129587787E-002   7.6110273149188473E-003   5.8019434928359162E-002
  -2.4487139658543624E-002   7.2947619743766699E-003   5.7992039631550162E-002
  -2.3466080187499426E-002   6.9662287399990808E-003   5.8161223655763011E-002
  -3.3051752686014402E-002   9.8490100118513724E-003   5.6170969781355232E-002
  -3.1833062122913258E-002   9.4746173690413021E-003   5.5799191272571713E-002
  -3.0614371559812101E-002   9.0987108533069280E-003   5.5626095626880444E-002
  -2.9395680996710943E-002   8.7212904646482552E-003   5.5651682844281306E-002
  -2.8176990433609772E-002   8.3423562030652820E-003   5.5875952924774347E-002
  -3.8498572757938887E-002   1.1491265709206042E-002   5.3589935977273212E-002
  -3.7080147560710368E-002   1.1034209976457064E-002   5.3277686919470033E-002
  -3.5661722363481856E-002   1.0586394391694922E-002   5.3166224266829487E-002
  -3.4243297166253364E-002   1.0147818954919757E-002   5.3255548019351402E-002
  -3.2824871969024852E-002   9.7184836661315666E-003   5.3545658177035833E-002
  -4.3890778287449472E-002   1.3133521406560711E-002   5.0920862072796780E-002
  -4.2270514914023255E-002   1.2593802583872826E-002   5.0678896486885172E-002
  -4.0650251540597038E-002   1.2074077930082985E-002   5.0639820848206452E-002
  -3.9029988167170820E-002   1.1574347445191289E-002   5.0803635156760688E-002
  -3.7409724793744617E-002   1.1094611129197740E-002   5.1170339412547727E-002
  -1.8692141230693834E-002   5.5901012769328240E-003   6.0401470370002042E-002
  -1.7879183582692831E-002   5.3029151232179828E-003   6.0111112031761449E-002
  -1.7066225934691821E-002   5.0206429911651418E-003   5.9948459577213786E-002
  -1.6253268286690804E-002   4.7432848807740582E-003   5.9913513006359137E-002
  -1.5440310638689808E-002   4.4708407920446280E-003   6.0006272319197640E-002
  -2.3466080187499426E-002   6.9662287399990808E-003   5.8161223655763011E-002
  -2.2506835311577048E-002   6.6277316829415622E-003   5.7951102507514757E-002
  -2.1547590435654622E-002   6.2815748743597632E-003   5.7905849931416328E-002
  -2.0588345559732206E-002   5.9277583142534895E-003   5.8025465927467608E-002
  -1.9629100683809811E-002   5.5662820026230464E-003   5.8309950495668672E-002
  -2.8176990433609772E-002   8.3423562030652820E-003   5.5875952924774347E-002
  -2.7034295641309235E-002   7.9525482426649335E-003   5.5733495193332261E-002
  -2.5891600849008694E-002   7.5425067575542598E-003   5.5793068722496827E-002
  -2.4748906056708139E-002   7.1122317477330284E-003   5.6054673512267790E-002
  -2.3606211264407585E-002   6.6617232132013537E-003   5.6518309562645253E-002
  -3.2824871969024852E-002   9.7184836661315666E-003   5.3545658177035833E-002
  -3.1461564571889436E-002   9.2773648023884089E-003   5.3458290089214017E-002
  -3.0098257174754017E-002   8.8034386407488188E-003   5.3610115950455395E-002
  -2.8734949777618611E-002   8.2967051812125690E-003   5.4001135760760023E-002
  -2.7371642380483209E-002   7.7571644237797166E-003   5.4631349520127853E-002
  -3.7409724793744617E-002   1.1094611129197740E-002   5.1170339412547727E-002
  -3.5788642103317614E-002   1.0602181362111829E-002   5.1125487195159913E-002
  -3.4167559412890618E-002   1.0064370523943322E-002   5.1356991615291947E-002
  -3.2546476722463594E-002   9.4811786146920679E-003   5.1864852672943967E-002
  -3.0925394032036604E-002   8.8526056343579684E-003   5.2649070368116058E-002
  -1.5440310638689808E-002   4.4708407920446280E-003   6.0006272319197640E-002
  -1.4498688829319231E-002   4.2520730664254991E-003   5.8983109009392520E-002
  -1.3557067019948674E-002   4.1357440453640981E-003   5.7798888272175497E-002
  -1.2615445210578089E-002   4.1218537288608414E-003   5.6453610107546348E-002
  -1.1673823401207539E-002   4.2104021169153683E-003   5.4947274515505296E-002
  -1.9629100683809811E-002   5.5662820026230464E-003   5.8309950495668672E-002
  -1.8754063311386876E-002   5.2279985978903598E-003   5.7671181775788949E-002
  -1.7879025938963976E-002   4.9437607584776055E-003   5.7060301609425962E-002
  -1.7003988566541117E-002   4.7135684843845407E-003   5.6477309996579711E-002
  -1.6128951194118168E-002   4.5374217756113389E-003   5.5922206937249919E-002
  -2.3606211264407585E-002   6.6617232132013537E-003   5.6518309562645253E-002
  -2.2608812348003677E-002   6.2039241293552205E-003   5.6215542293452964E-002
  -2.1611413431599780E-002   5.7517774715910019E-003   5.6129609558705912E-002
  -2.0614014515195879E-002   5.3052832399082400E-003   5.6260511358404347E-002
  -1.9616615598791978E-002   4.8644414343073095E-003   5.6608247692547742E-002
  -2.7371642380483209E-002   7.7571644237797166E-003   5.4631349520127853E-002
  -2.6062935939169637E-002   7.1798496608203588E-003   5.4616190562384752E-002
  -2.4754229497856040E-002   6.5597941847045094E-003   5.5006812120015444E-002
  -2.3445523056542492E-002   5.8969979954321614E-003   5.5803214193019986E-002
  -2.2136816615228903E-002   5.1914610930032246E-003   5.7005396781398848E-002
  -3.0925394032036604E-002   8.8526056343579684E-003   5.2649070368116058E-002
  -2.9116434084884693E-002   8.1557751922850530E-003   5.2873126582583696E-002
  -2.7307474137732803E-002   7.3678108978179890E-003   5.3691909293354156E-002
  -2.5498514190580881E-002   6.4887127509557149E-003   5.5105418500427134E-002
  -2.3689554243429001E-002   5.5184807516992507E-003   5.7113654203802877E-002
  -5.7152568628016889E-002   0.0000000000000000        3.4692970123945503E-002
  -5.7941729460355390E-002   2.0842394627602380E-003   3.8345547161344667E-002
  -5.8730890292693905E-002   4.1372423351875819E-003   4.2212188225755939E-002
  -5.9520051125032405E-002   6.1590086172820316E-003   4.6292893317179305E-002
  -6.0309211957370906E-002   8.1495383090435872E-003   5.0587662435614772E-002
  -6.5820598226085367E-002   0.0000000000000000        3.7214483558973117E-002
  -6.6624901097153896E-002   2.9142281740507005E-003   4.0837279545742719E-002
  -6.7429203968222426E-002   5.7705744719457304E-003   4.4215727428040148E-002
  -6.8233506839290969E-002   8.5690388936850888E-003   4.7349827205865419E-002
  -6.9037809710359499E-002   1.1309621439268776E-002   5.0239578879218517E-002
  -7.4244643575796965E-002   0.0000000000000000        4.0579308348202579E-002
  -7.5522500617079810E-002   3.7442168853411648E-003   4.4145677998519844E-002
  -7.6800357658362656E-002   7.4039066087038790E-003   4.7009287412880664E-002
  -7.8078214699645487E-002   1.0979069170088151E-002   4.9170136591285066E-002
  -7.9356071740928333E-002   1.4469704569493976E-002   5.0628225533733029E-002
  -8.2424704677151753E-002   0.0000000000000000        4.4787444491633889E-002
  -8.4634528020133146E-002   4.5742055966316248E-003   4.8270742519676023E-002
  -8.6844351363114539E-002   9.0372387454620284E-003   5.0592868180277480E-002
  -8.9054174706095945E-002   1.3389099446491207E-002   5.1753821473438218E-002
  -9.1263998049077352E-002   1.7629787699719169E-002   5.1753602399158272E-002
  -9.0360781530149675E-002   0.0000000000000000        4.9838891989267053E-002
  -9.3960983306313903E-002   5.4041943079220899E-003   5.3212473109211289E-002
  -9.7561185082478130E-002   1.0670570882220180E-002   5.4966469730230581E-002
 -0.10116138685864236        1.5799129722894274E-002   5.5100881852324916E-002
 -0.10476158863480659        2.0789870829944369E-002   5.3615709475494266E-002
  -6.0309211957370906E-002   8.1495383090435872E-003   5.0587662435614772E-002
  -6.0609990564666753E-002   1.0027894612053027E-002   5.1529122912889518E-002
  -6.0910769171962607E-002   1.1713140727891142E-002   5.2259332251442400E-002
  -6.1211547779258468E-002   1.3205276656557957E-002   5.2778290451273469E-002
  -6.1512326386554309E-002   1.4504302398053420E-002   5.3085997512382688E-002
  -6.9037809710359499E-002   1.1309621439268776E-002   5.0239578879218517E-002
  -6.9312266612648013E-002   1.3753430146560016E-002   4.9464559928841960E-002
  -6.9586723514936513E-002   1.5661573053421966E-002   4.8953435527201938E-002
  -6.9861180417224999E-002   1.7034050159854687E-002   4.8706205674298439E-002
  -7.0135637319513486E-002   1.7870861465858132E-002   4.8722870370131510E-002
  -7.9356071740928333E-002   1.4469704569493976E-002   5.0628225533733029E-002
  -7.9129061250751101E-002   1.7478965681066980E-002   4.7794171542447209E-002
  -7.8902050760573841E-002   1.9610005378952775E-002   4.5699157787356344E-002
  -7.8675040270396610E-002   2.0862823663151422E-002   4.4343184268460352E-002
  -7.8448029780219378E-002   2.1237420533662857E-002   4.3726250985759316E-002
  -9.1263998049077352E-002   1.7629787699719169E-002   5.1753602399158272E-002
  -9.0060374478975996E-002   2.1204501215573959E-002   4.6517957753705270E-002
  -8.8856750908874627E-002   2.3558437704483622E-002   4.2496499031905617E-002
  -8.7653127338773243E-002   2.4691597166448163E-002   3.9689226233759214E-002
  -8.6449503768671887E-002   2.4603979601467565E-002   3.8096139359266194E-002
 -0.10476158863480659        2.0789870829944369E-002   5.3615709475494266E-002
 -0.10210620629732271        2.4930036750080931E-002   4.5635918562616153E-002
  -9.9450823959838855E-002   2.7506870030014410E-002   3.9345459260849765E-002
  -9.6795441622355011E-002   2.8520370669744902E-002   3.4744331570195054E-002
  -9.4140059284871125E-002   2.7970538669272300E-002   3.1832535490652063E-002
  -6.1512326386554309E-002   1.4504302398053420E-002   5.3085997512382688E-002
  -6.0188262264367395E-002   1.5511005820267255E-002   5.1685817584863944E-002
  -5.8864198142180461E-002   1.6126174791089114E-002   5.0741950674917720E-002
  -5.7540134019993555E-002   1.6349809310519017E-002   5.0254396782544120E-002
  -5.6216069897806621E-002   1.6181909378556972E-002   5.0223155907742997E-002
  -7.0135637319513486E-002   1.7870861465858132E-002   4.8722870370131510E-002
  -6.8402686047935271E-002   1.8327422821596911E-002   4.7277998770938787E-002
  -6.6669734776357029E-002   1.8559150077235492E-002   4.6194588452956126E-002
  -6.4936783504778828E-002   1.8566043232774023E-002   4.5472639416183520E-002
  -6.3203832233200558E-002   1.8348102288212362E-002   4.5112151660620985E-002
  -7.8448029780219378E-002   2.1237420533662857E-002   4.3726250985759316E-002
  -7.6401043095612339E-002   2.1143839822926551E-002   4.2403388066184468E-002
  -7.4354056411005273E-002   2.0992125363381915E-002   4.1347134691457170E-002
  -7.2307069726398221E-002   2.0782277155029016E-002   4.0557490861577443E-002
  -7.0260083041791196E-002   2.0514295197867773E-002   4.0034456576545280E-002
  -8.6449503768671887E-002   2.4603979601467565E-002   3.8096139359266194E-002
  -8.4183333407398517E-002   2.3960256824256166E-002   3.7061985470601036E-002
  -8.1917163046125174E-002   2.3425100649528383E-002   3.6199589390420950E-002
  -7.9650992684851818E-002   2.2998511077283963E-002   3.5508951118725846E-002
  -7.7384822323578434E-002   2.2680488107523187E-002   3.4990070655515876E-002
  -9.4140059284871125E-002   2.7970538669272300E-002   3.1832535490652063E-002
  -9.1749556983293928E-002   2.6776673825585847E-002   3.1253790984188387E-002
  -8.9359054681716746E-002   2.5858075935674719E-002   3.0751952549847309E-002
  -8.6968552380139535E-002   2.5214744999539004E-002   3.0327020187628756E-002
  -8.4578050078562353E-002   2.4846681017178587E-002   2.9978993897532849E-002
  -5.6216069897806621E-002   1.6181909378556972E-002   5.0223155907742997E-002
  -5.4710381096973591E-002   1.5825524933030986E-002   4.9967468318469002E-002
  -5.3204692296140582E-002   1.5483705911769122E-002   4.9928144365443704E-002
  -5.1699003495307580E-002   1.5156452314771432E-002   5.0105184048667151E-002
  -5.0193314694474564E-002   1.4843764142037807E-002   5.0498587368139281E-002
  -6.3203832233200558E-002   1.8348102288212362E-002   4.5112151660620985E-002
  -6.1482809462230080E-002   1.8003802630357224E-002   4.4780286980927703E-002
  -5.9761786691259616E-002   1.7631619646015329E-002   4.4662726605260633E-002
  -5.8040763920289104E-002   1.7231553335186608E-002   4.4759470533619838E-002
  -5.6319741149318675E-002   1.6803603697871039E-002   4.5070518766005180E-002
  -7.0260083041791196E-002   2.0514295197867773E-002   4.0034456576545280E-002
  -6.8325785632905756E-002   2.0182080327683521E-002   3.9583966055681791E-002
  -6.6391488224020273E-002   1.9779533380261505E-002   3.9345720506622092E-002
  -6.4457190815134832E-002   1.9306654355601728E-002   3.9319719929366032E-002
  -6.2522893406249391E-002   1.8763443253704215E-002   3.9505964323913789E-002
  -7.7384822323578434E-002   2.2680488107523187E-002   3.4990070655515876E-002
  -7.5239309609000535E-002   2.2360358025009776E-002   3.4378505542731322E-002
  -7.3093796894422636E-002   2.1927447114507725E-002   3.3977126069527921E-002
  -7.0948284179844723E-002   2.1381755376016932E-002   3.3785932235905716E-002
  -6.8802771465266865E-002   2.0723282809537433E-002   3.3804924041864748E-002
  -8.4578050078562353E-002   2.4846681017178587E-002   2.9978993897532849E-002
  -8.2223381390514494E-002   2.4538635722336027E-002   2.9163905442076130E-002
  -7.9868712702466649E-002   2.4075360848753908E-002   2.8556943293978253E-002
  -7.7514044014418776E-002   2.3456856396432069E-002   2.8158107453238958E-002
  -7.5159375326370931E-002   2.2683122365370623E-002   2.7967397919858417E-002
  -5.0193314694474564E-002   1.4843764142037807E-002   5.0498587368139281E-002
  -4.8617680592718288E-002   1.4507819875619193E-002   5.0332969058492244E-002
  -4.7042046490962018E-002   1.4110797997567037E-002   5.0348142072719509E-002
  -4.5466412389205735E-002   1.3652698507880839E-002   5.0544106410820966E-002
  -4.3890778287449472E-002   1.3133521406560711E-002   5.0920862072796780E-002
  -5.6319741149318675E-002   1.6803603697871039E-002   4.5070518766005180E-002
  -5.4559754931208758E-002   1.6345579432585550E-002   4.4785063676207520E-002
  -5.2799768713098841E-002   1.5855289237847264E-002   4.4687521495242730E-002
  -5.1039782494988938E-002   1.5332733113655982E-002   4.4777892223110953E-002
  -4.9279796276879027E-002   1.4777911060011917E-002   4.5056175859812170E-002
  -6.2522893406249391E-002   1.8763443253704215E-002   3.9505964323913789E-002
  -6.0571433486827170E-002   1.8183338989551837E-002   3.9129484136146253E-002
  -5.8619973567404920E-002   1.7599780478127519E-002   3.8948038442170430E-002
  -5.6668513647982664E-002   1.7012767719431263E-002   3.8961627241986395E-002
  -5.4717053728560464E-002   1.6422300713463039E-002   3.9170250535593906E-002
  -6.8802771465266865E-002   2.0723282809537433E-002   3.3804924041864748E-002
  -6.6652716259573544E-002   2.0021098546518158E-002   3.3366230438308497E-002
  -6.4502661053880236E-002   1.9344271718407746E-002   3.3129692913502685E-002
  -6.2352605848186922E-002   1.8692802325206558E-002   3.3095311467447222E-002
  -6.0202550642493642E-002   1.8066690366914148E-002   3.3263086100142253E-002
  -7.5159375326370931E-002   2.2683122365370623E-002   2.7967397919858417E-002
  -7.2803603249447874E-002   2.1858858103484369E-002   2.7495302582694420E-002
  -7.0447831172524775E-002   2.1088762958687973E-002   2.7232484909239324E-002
  -6.8092059095601731E-002   2.0372836930981790E-002   2.7178944899493573E-002
  -6.5736287018678646E-002   1.9711080020365368E-002   2.7334682553456835E-002
  -4.3890778287449472E-002   1.3133521406560711E-002   5.0920862072796780E-002
  -4.2270514914023255E-002   1.2593802583872826E-002   5.0678896486885172E-002
  -4.0650251540597038E-002   1.2074077930082985E-002   5.0639820848206452E-002
  -3.9029988167170820E-002   1.1574347445191289E-002   5.0803635156760688E-002
  -3.7409724793744617E-002   1.1094611129197740E-002   5.1170339412547727E-002
  -4.9279796276879027E-002   1.4777911060011917E-002   4.5056175859812170E-002
  -4.7460047001698806E-002   1.4210931044714034E-002   4.4776538853691719E-002
  -4.5640297726518508E-002   1.3651901035561451E-002   4.4692983703846473E-002
  -4.3820548451338225E-002   1.3100821032554191E-002   4.4805510410276431E-002
  -4.2000799176157982E-002   1.2557691035692431E-002   4.5114118972981732E-002
  -5.4717053728560464E-002   1.6422300713463039E-002   3.9170250535593906E-002
  -5.2704626642583748E-002   1.5828059505555131E-002   3.8840897946511868E-002
  -5.0692199556607073E-002   1.5229724141039909E-002   3.8700819122747317E-002
  -4.8679772470630378E-002   1.4627294619917202E-002   3.8750014064300412E-002
  -4.6667345384653683E-002   1.4020770942187066E-002   3.8988482771171118E-002
  -6.0202550642493642E-002   1.8066690366914148E-002   3.3263086100142253E-002
  -5.8004253836678225E-002   1.7445187966396394E-002   3.2871973765345647E-002
  -5.5805957030862732E-002   1.6807547246518260E-002   3.2663327104909039E-002
  -5.3607660225047267E-002   1.6153768207280074E-002   3.2637146118832491E-002
  -5.1409363419231836E-002   1.5483850848681813E-002   3.2793430807115755E-002
  -6.5736287018678646E-002   1.9711080020365368E-002   2.7334682553456835E-002
  -6.3358928583982094E-002   1.9062316427237408E-002   2.6869766310193055E-002
  -6.0981570149285499E-002   1.8385370351996819E-002   2.6580507650331708E-002
  -5.8604211714588926E-002   1.7680241794643111E-002   2.6466906573872670E-002
  -5.6226853279892353E-002   1.6946930755176393E-002   2.6528963080815815E-002
  -3.7409724793744617E-002   1.1094611129197740E-002   5.1170339412547727E-002
  -3.5788642103317614E-002   1.0602181362111829E-002   5.1125487195159913E-002
  -3.4167559412890618E-002   1.0064370523943322E-002   5.1356991615291947E-002
  -3.2546476722463594E-002   9.4811786146920679E-003   5.1864852672943967E-002
  -3.0925394032036604E-002   8.8526056343579684E-003   5.2649070368116058E-002
  -4.2000799176157982E-002   1.2557691035692431E-002   4.5114118972981732E-002
  -4.0132400408046227E-002   1.2004420721098474E-002   4.4927948513330124E-002
  -3.8264001639934465E-002   1.1422919764894832E-002   4.4960053571527964E-002
  -3.6395602871822683E-002   1.0813188167081735E-002   4.5210434147575362E-002
  -3.4527204103710935E-002   1.0175225927658738E-002   4.5679090241472320E-002
  -4.6667345384653683E-002   1.4020770942187066E-002   3.8988482771171118E-002
  -4.4609711658527632E-002   1.3406660080085037E-002   3.8678144498728709E-002
  -4.2552077932401490E-002   1.2781469005846341E-002   3.8528000624465514E-002
  -4.0494444206275439E-002   1.2145197719471236E-002   3.8538051148381436E-002
  -3.8436810480149297E-002   1.1497846220959451E-002   3.8708296070476406E-002
  -5.1409363419231836E-002   1.5483850848681813E-002   3.2793430807115755E-002
  -4.9220575854761847E-002   1.4808899439071585E-002   3.2376075151355765E-002
  -4.7031788290291796E-002   1.4140018246797906E-002   3.2060832774104465E-002
  -4.4843000725821779E-002   1.3477207271860709E-002   3.1847703675362021E-002
  -4.2654213161351706E-002   1.2820466514260137E-002   3.1736687855128141E-002
  -5.6226853279892353E-002   1.6946930755176393E-002   2.6528963080815815E-002
  -5.3964992996748812E-002   1.6211138798058244E-002   2.6021740471211308E-002
  -5.1703132713605313E-002   1.5498567487749373E-002   2.5558550020445076E-002
  -4.9441272430461765E-002   1.4809216824250491E-002   2.5139391728517160E-002
  -4.7179412147318273E-002   1.4143086807560878E-002   2.4764265595427604E-002
  -3.0925394032036604E-002   8.8526056343579684E-003   5.2649070368116058E-002
  -2.9116434084884693E-002   8.1557751922850530E-003   5.2873126582583696E-002
  -2.7307474137732803E-002   7.3678108978179890E-003   5.3691909293354156E-002
  -2.5498514190580881E-002   6.4887127509557149E-003   5.5105418500427134E-002
  -2.3689554243429001E-002   5.5184807516992507E-003   5.7113654203802877E-002
  -3.4527204103710935E-002   1.0175225927658738E-002   4.5679090241472320E-002
  -3.2244010234679286E-002   9.5049003789139386E-003   4.5411042662038853E-002
  -2.9960816365647618E-002   8.7980788531353271E-003   4.5496736430061857E-002
  -2.7677622496616022E-002   8.0547613503223203E-003   4.5936171545541915E-002
  -2.5394428627584398E-002   7.2749478704756676E-003   4.6729348008478944E-002
  -3.8436810480149297E-002   1.1497846220959451E-002   3.8708296070476406E-002
  -3.5920367838083792E-002   1.0854025565542658E-002   3.8002782572502114E-002
  -3.3403925196018286E-002   1.0228346808452457E-002   3.7410025273138789E-002
  -3.0887482553952704E-002   9.6208099496889847E-003   3.6930024172386187E-002
  -2.8371039911887219E-002   9.0314149892519735E-003   3.6562779270244761E-002
  -4.2654213161351706E-002   1.2820466514260137E-002   3.1736687855128141E-002
  -4.0145506895098229E-002   1.2203150752171293E-002   3.0648346313973729E-002
  -3.7636800628844620E-002   1.1658614763769580E-002   2.9431775822584366E-002
  -3.5128094362591129E-002   1.1186858549055398E-002   2.8086976380960339E-002
  -3.2619388096337534E-002   1.0787882108028224E-002   2.6613947989101244E-002
  -4.7179412147318273E-002   1.4143086807560878E-002   2.4764265595427604E-002
  -4.4919427405722495E-002   1.3552275938800040E-002   2.3347733886453670E-002
  -4.2659442664126704E-002   1.3088882719086967E-002   2.1561988078399180E-002
  -4.0399457922531030E-002   1.2752907148422098E-002   1.9407028171263649E-002
  -3.8139473180935302E-002   1.2544349226804696E-002   1.6882854165047867E-002
  -9.0360781530149675E-002   0.0000000000000000        4.9838891989267053E-002
  -9.3960983306313903E-002   5.4041943079220899E-003   5.3212473109211289E-002
  -9.7561185082478130E-002   1.0670570882220180E-002   5.4966469730230581E-002
 -0.10116138685864236        1.5799129722894274E-002   5.5100881852324916E-002
 -0.10476158863480659        2.0789870829944369E-002   5.3615709475494266E-002
 -0.10329169367645287        0.0000000000000000        5.8666183293451385E-002
 -0.10682969705694337        1.0883494658017348E-002   5.2120998830597690E-002
 -0.11036770043743384        1.9171019764800207E-002   4.7319795658016438E-002
 -0.11390570381792434        2.4862575320348586E-002   4.4262573775707637E-002
 -0.11744370719841482        2.7958161324662469E-002   4.2949333183671293E-002
 -0.12645626065772350        0.0000000000000000        7.4201850856536231E-002
 -0.12656849985334281        1.6362795008112607E-002   5.5279748993274092E-002
 -0.12668073904896215        2.7671468647380237E-002   4.1465194209481811E-002
 -0.12679297824458144        3.3926020917802897E-002   3.2758186505159423E-002
 -0.12690521744020081        3.5126451819380566E-002   2.9158725880306845E-002
 -0.15985448247396156        0.0000000000000000        9.6445894678521590E-002
 -0.15317739169551228        2.1842095358207865E-002   6.2688723597240481E-002
 -0.14650030091706304        3.6171917529960268E-002   3.7402665384626700E-002
 -0.13982321013861379        4.2989466515257209E-002   2.0587720040680196E-002
 -0.13314611936016452        4.2294742314098660E-002   1.2243887565400968E-002
 -0.20348635912516699        0.0000000000000000       0.12539831475940744     
 -0.18665637258345175        2.7321395708303123E-002   7.4347922642496941E-002
 -0.16982638604173650        4.4672366412540299E-002   3.5132209183451134E-002
 -0.15299639950002125        5.2052912112711520E-002   7.7511743822700069E-003
 -0.13616641295830600        4.9463032808816768E-002  -7.7951817610463769E-003
 -0.10476158863480659        2.0789870829944369E-002   5.3615709475494266E-002
 -0.10210620629732271        2.4930036750080931E-002   4.5635918562616153E-002
  -9.9450823959838855E-002   2.7506870030014410E-002   3.9345459260849765E-002
  -9.6795441622355011E-002   2.8520370669744902E-002   3.4744331570195054E-002
  -9.4140059284871125E-002   2.7970538669272300E-002   3.1832535490652063E-002
 -0.11744370719841482        2.7958161324662469E-002   4.2949333183671293E-002
 -0.11348695351348186        2.9430915407295935E-002   3.6695676862788157E-002
 -0.10953019982854892        3.0253975197803158E-002   3.1355431625691509E-002
 -0.10557344614361593        3.0427340696184042E-002   2.6928597472381299E-002
 -0.10161669245868302        2.9951011902438693E-002   2.3415174402857623E-002
 -0.12690521744020081        3.5126451819380566E-002   2.9158725880306845E-002
 -0.12242301293514395        3.3931794064510988E-002   2.5544842499495415E-002
 -0.11794080843008713        3.3001080365591892E-002   2.2068449675145291E-002
 -0.11345860392503031        3.2334310722623182E-002   1.8729547407256381E-002
 -0.10897639941997345        3.1931485135605037E-002   1.5528135695828791E-002
 -0.13314611936016452        4.2294742314098660E-002   1.2243887565400968E-002
 -0.12891438456230903        3.8432672721725999E-002   1.2183415472738032E-002
 -0.12468264976445355        3.5748185533380578E-002   1.1484513409211186E-002
 -0.12045091496659807        3.4241280749062394E-002   1.0147181374820258E-002
 -0.11621918016874257        3.3911958368771387E-002   8.1714193695654695E-003
 -0.13616641295830600        4.9463032808816768E-002  -7.7951817610463769E-003
 -0.13296106839497709        4.2933551378941018E-002  -3.3886042174840966E-003
 -0.12975572383164816        3.8495290701169305E-002  -3.9637717211097462E-004
 -0.12655037926831922        3.6148250775501496E-002   1.1814993750730775E-003
 -0.12334503470499031        3.5892431601937780E-002   1.3450254240678639E-003
  -9.4140059284871125E-002   2.7970538669272300E-002   3.1832535490652063E-002
  -9.1749556983293928E-002   2.6776673825585847E-002   3.1253790984188387E-002
  -8.9359054681716746E-002   2.5858075935674719E-002   3.0751952549847309E-002
  -8.6968552380139535E-002   2.5214744999539004E-002   3.0327020187628756E-002
  -8.4578050078562353E-002   2.4846681017178587E-002   2.9978993897532849E-002
 -0.10161669245868302        2.9951011902438693E-002   2.3415174402857623E-002
  -9.9134726495418879E-002   2.9178324390169305E-002   2.3134035602906493E-002
  -9.6652760532154755E-002   2.8462613732978388E-002   2.2958918054206696E-002
  -9.4170794568890631E-002   2.7803879930865947E-002   2.2889821756758164E-002
  -9.1688828605626480E-002   2.7202122983831761E-002   2.2926746710560886E-002
 -0.10897639941997345        3.1931485135605037E-002   1.5528135695828791E-002
 -0.10637385461589376        3.1579974954752815E-002   1.5326312503693384E-002
 -0.10377130981181405        3.1067151530282073E-002   1.5259625741937857E-002
 -0.10116876500773436        3.0393014862192778E-002   1.5328075410562353E-002
  -9.8566220203654673E-002   2.9557564950484956E-002   1.5531661509566762E-002
 -0.11621918016874257        3.3911958368771387E-002   8.1714193695654695E-003
 -0.11346694134471857        3.3981625519336298E-002   7.8306216865488727E-003
 -0.11071470252069461        3.3671689327585727E-002   7.6540756130407629E-003
 -0.10796246369667065        3.2982149793519711E-002   7.6417811490412883E-003
 -0.10521022487264663        3.1913006917138151E-002   7.7937382945504558E-003
 -0.12334503470499031        3.5892431601937780E-002   1.3450254240678639E-003
 -0.12041398668189338        3.6383276083919794E-002   6.4696315147297345E-004
 -0.11748293865879644        3.6276227124889385E-002   1.4226766751537084E-004
 -0.11455189063569948        3.5571284724846650E-002  -1.6906102780512612E-004
 -0.11162084261260258        3.4268448883791325E-002  -2.8702293448812366E-004
  -8.4578050078562353E-002   2.4846681017178587E-002   2.9978993897532849E-002
  -8.2223381390514494E-002   2.4538635722336027E-002   2.9163905442076130E-002
  -7.9868712702466649E-002   2.4075360848753908E-002   2.8556943293978253E-002
  -7.7514044014418776E-002   2.3456856396432069E-002   2.8158107453238958E-002
  -7.5159375326370931E-002   2.2683122365370623E-002   2.7967397919858417E-002
  -9.1688828605626480E-002   2.7202122983831761E-002   2.2926746710560886E-002
  -8.9123517276414543E-002   2.6597110738601763E-002   2.2238203002840760E-002
  -8.6558205947202538E-002   2.5928611041901334E-002   2.1762818270090314E-002
  -8.3992894617990532E-002   2.5196623893730584E-002   2.1500592512309506E-002
  -8.1427583288778485E-002   2.4401149294089514E-002   2.1451525729498183E-002
  -9.8566220203654673E-002   2.9557564950484956E-002   1.5531661509566762E-002
  -9.5785233565667580E-002   2.8655585754867360E-002   1.5061404676852540E-002
  -9.3004246927680514E-002   2.7781861235048784E-002   1.4809339486718852E-002
  -9.0223260289693463E-002   2.6936391391029182E-002   1.4775465939165698E-002
  -8.7442273651706370E-002   2.6119176222808488E-002   1.4959784034192999E-002
 -0.10521022487264663        3.1913006917138151E-002   7.7937382945504558E-003
 -0.10220853025827359        3.0714060771133082E-002   7.6335104641112872E-003
  -9.9206835643900593E-002   2.9635111428196279E-002   7.6965069438638244E-003
  -9.6205141029527527E-002   2.8676158888327762E-002   7.9827277338075653E-003
  -9.3203446415154545E-002   2.7837203151527448E-002   8.4921728339427370E-003
 -0.11162084261260258        3.4268448883791325E-002  -2.8702293448812366E-004
 -0.10839340735423270        3.2772535787398749E-002  -4.5479635382539296E-005
 -0.10516597209586273        3.1488361621343608E-002   4.2432064152522764E-004
 -0.10193853683749284        3.0415926385626235E-002   1.1223778962353784E-003
  -9.8711101579122884E-002   2.9555230080246297E-002   2.0486921287477533E-003
  -7.5159375326370931E-002   2.2683122365370623E-002   2.7967397919858417E-002
  -7.2803603249447874E-002   2.1858858103484369E-002   2.7495302582694420E-002
  -7.0447831172524775E-002   2.1088762958687973E-002   2.7232484909239324E-002
  -6.8092059095601731E-002   2.0372836930981790E-002   2.7178944899493573E-002
  -6.5736287018678646E-002   1.9711080020365368E-002   2.7334682553456835E-002
  -8.1427583288778485E-002   2.4401149294089514E-002   2.1451525729498183E-002
  -7.8882136233084960E-002   2.3588764858467198E-002   2.1255263755173948E-002
  -7.6336689177391392E-002   2.2806048202352415E-002   2.1229074074681581E-002
  -7.3791242121697853E-002   2.2052999325745178E-002   2.1372956688021021E-002
  -7.1245795066004300E-002   2.1329618228645653E-002   2.1686911595192510E-002
  -8.7442273651706370E-002   2.6119176222808488E-002   1.4959784034192999E-002
  -8.4746356987119575E-002   2.5318671613449889E-002   1.5014854085126310E-002
  -8.2050440322532808E-002   2.4523333446016635E-002   1.5200791060014110E-002
  -7.9354523657946013E-002   2.3733161720508596E-002   1.5517594958856712E-002
  -7.6658606993359246E-002   2.2948156436925771E-002   1.5965265781653609E-002
  -9.3203446415154545E-002   2.7837203151527448E-002   8.4921728339427370E-003
  -9.0396265511551777E-002   2.7048578368432816E-002   8.7740735725511682E-003
  -8.7589084607949036E-002   2.6240618689680910E-002   9.1476358652369232E-003
  -8.4781903704346309E-002   2.5413324115272085E-002   9.6128597120001373E-003
  -8.1974722800743527E-002   2.4566694645206055E-002   1.0169745112840488E-002
  -9.8711101579122884E-002   2.9555230080246297E-002   2.0486921287477533E-003
  -9.5831861806381480E-002   2.8778485123415520E-002   2.5329222174487465E-003
  -9.2952622033640075E-002   2.7957903933345268E-002   3.0696084903502063E-003
  -9.0073382260898643E-002   2.7093486510035451E-002   3.6587509474515223E-003
  -8.7194142488157267E-002   2.6185232853486173E-002   4.3003495887528609E-003
  -6.5736287018678646E-002   1.9711080020365368E-002   2.7334682553456835E-002
  -6.3358928583982094E-002   1.9062316427237408E-002   2.6869766310193055E-002
  -6.0981570149285499E-002   1.8385370351996819E-002   2.6580507650331708E-002
  -5.8604211714588926E-002   1.7680241794643111E-002   2.6466906573872670E-002
  -5.6226853279892353E-002   1.6946930755176393E-002   2.6528963080815815E-002
  -7.1245795066004300E-002   2.1329618228645653E-002   2.1686911595192510E-002
  -6.8687246565506455E-002   2.0608445601541986E-002   2.1297507293484064E-002
  -6.6128698065008623E-002   1.9862022134923038E-002   2.1094825539975923E-002
  -6.3570149564510722E-002   1.9090347828788264E-002   2.1078866334668100E-002
  -6.1011601064012946E-002   1.8293422683138216E-002   2.1249629677560222E-002
  -7.6658606993359246E-002   2.2948156436925771E-002   1.5965265781653609E-002
  -7.3907803462262250E-002   2.2154574775846467E-002   1.5654305064098054E-002
  -7.1156999931165282E-002   2.1338673917849098E-002   1.5541131859540584E-002
  -6.8406196400068314E-002   2.0500453862933588E-002   1.5625746167981198E-002
  -6.5655392868971318E-002   1.9639914611100096E-002   1.5908147989419946E-002
  -8.1974722800743527E-002   2.4566694645206055E-002   1.0169745112840488E-002
  -7.9020599274249551E-002   2.3700703950150996E-002   9.9401596220351184E-003
  -7.6066475747755477E-002   2.2815325700775348E-002   9.9194266090257121E-003
  -7.3112352221261459E-002   2.1910559897078963E-002   1.0107546073812299E-002
  -7.0158228694767441E-002   2.0986406539061864E-002   1.0504518016394866E-002
  -8.7194142488157267E-002   2.6185232853486173E-002   4.3003495887528609E-003
  -8.4025634001468230E-002   2.5246833124455414E-002   4.1550709672950048E-003
  -8.0857125514779304E-002   2.4291977483701488E-002   4.2297097884313600E-003
  -7.7688617028090295E-002   2.3320665931224033E-002   4.5242660521614027E-003
  -7.4520108541401342E-002   2.2332898467023798E-002   5.0387397584850113E-003
  -5.6226853279892353E-002   1.6946930755176393E-002   2.6528963080815815E-002
  -5.3964992996748812E-002   1.6211138798058244E-002   2.6021740471211308E-002
  -5.1703132713605313E-002   1.5498567487749373E-002   2.5558550020445076E-002
  -4.9441272430461765E-002   1.4809216824250491E-002   2.5139391728517160E-002
  -4.7179412147318273E-002   1.4143086807560878E-002   2.4764265595427604E-002
  -6.1011601064012946E-002   1.8293422683138216E-002   2.1249629677560222E-002
  -5.8662174007802825E-002   1.7498230272828069E-002   2.0952866139848730E-002
  -5.6312746951592767E-002   1.6731754172713040E-002   2.0787203989432013E-002
  -5.3963319895382653E-002   1.5993994382793430E-002   2.0752643226309958E-002
  -5.1613892839172587E-002   1.5284950903068917E-002   2.0849183850482844E-002
  -6.5655392868971318E-002   1.9639914611100096E-002   1.5908147989419946E-002
  -6.3131329811238118E-002   1.8785321747598005E-002   1.5827339186986880E-002
  -6.0607266753504946E-002   1.7964940857676810E-002   1.5964701000305344E-002
  -5.8083203695771746E-002   1.7178771941336476E-002   1.6320233429374924E-002
  -5.5559140638038580E-002   1.6426814998577094E-002   1.6893936474196083E-002
  -7.0158228694767441E-002   2.0986406539061864E-002   1.0504518016394866E-002
  -6.7372460407054635E-002   2.0072413222367719E-002   1.0645159612626177E-002
  -6.4586692119341815E-002   1.9198127542640140E-002   1.1091041053065563E-002
  -6.1800923831629002E-002   1.8363549499879693E-002   1.1842162337712438E-002
  -5.9015155543916203E-002   1.7568679094085368E-002   1.2898523466567387E-002
  -7.4520108541401342E-002   2.2332898467023798E-002   5.0387397584850113E-003
  -7.1385565795252459E-002   2.1359504697137655E-002   5.4063274167662212E-003
  -6.8251023049103410E-002   2.0431314227604191E-002   6.1662241477121182E-003
  -6.5116480302954444E-002   1.9548327058422452E-002   7.3184299513217449E-003
  -6.1981937556805478E-002   1.8710543189593420E-002   8.8629448275965306E-003
  -4.7179412147318273E-002   1.4143086807560878E-002   2.4764265595427604E-002
  -4.4919427405722495E-002   1.3552275938800040E-002   2.3347733886453670E-002
  -4.2659442664126704E-002   1.3088882719086967E-002   2.1561988078399180E-002
  -4.0399457922531030E-002   1.2752907148422098E-002   1.9407028171263649E-002
  -3.8139473180935302E-002   1.2544349226804696E-002   1.6882854165047867E-002
  -5.1613892839172587E-002   1.5284950903068917E-002   2.0849183850482844E-002
  -4.9483545205725454E-002   1.4573712075280743E-002   2.0208617346791996E-002
  -4.7353197572278224E-002   1.3829366241169178E-002   1.9677990725884609E-002
  -4.5222849938831022E-002   1.3051913400734839E-002   1.9257303987761223E-002
  -4.3092502305383806E-002   1.2241353553977152E-002   1.8946557132420772E-002
  -5.5559140638038580E-002   1.6426814998577094E-002   1.6893936474196083E-002
  -5.3079276130875562E-002   1.5595148211761334E-002   1.6868810520417193E-002
  -5.0599411623712509E-002   1.4569849763251284E-002   1.7432778431286315E-002
  -4.8119547116549408E-002   1.3350919653047721E-002   1.8585840206803445E-002
  -4.5639682609386403E-002   1.1938357881149719E-002   2.0327995846968649E-002
  -5.9015155543916203E-002   1.7568679094085368E-002   1.2898523466567387E-002
  -5.5706620181173026E-002   1.6616584348241981E-002   1.3328313407329491E-002
  -5.2398084818429724E-002   1.5310333285333499E-002   1.4826351194604263E-002
  -4.9089549455686408E-002   1.3649925905360644E-002   1.7392636828391116E-002
  -4.5781014092943259E-002   1.1635362208321898E-002   2.1027170308690474E-002
  -6.1981937556805478E-002   1.8710543189593420E-002   8.8629448275965306E-003
  -5.7365577356617736E-002   1.7638020484722516E-002   9.5871260075287013E-003
  -5.2749217156429828E-002   1.6050816807415741E-002   1.1858709015837798E-002
  -4.8132856956241948E-002   1.3948932157673490E-002   1.5677693852523530E-002
  -4.3516496756054179E-002   1.1332366535494742E-002   2.1044080517586439E-002
 </DataArray>
 </PointData>
 </Piece>
 <Piece  NumberOfPoints="          1600 "  NumberOfCells="         1024 ">
 <Points>
 <DataArray  type="Float64" NumberOfComponents="3"  format="ascii" >
  0.50000000000000000        0.0000000000000000        0.0000000000000000     
  0.53125000000000000        0.0000000000000000        0.0000000000000000     
  0.56250000000000000        0.0000000000000000        0.0000000000000000     
  0.59375000000000000        0.0000000000000000        0.0000000000000000     
  0.62500000000000000        0.0000000000000000        0.0000000000000000     
  0.50000000000000000        3.1250000000000000E-002   0.0000000000000000     
  0.53125000000000000        3.1250000000000000E-002   0.0000000000000000     
  0.56250000000000000        3.1250000000000000E-002   0.0000000000000000     
  0.59375000000000000        3.1250000000000000E-002   0.0000000000000000     
  0.62500000000000000        3.1250000000000000E-002   0.0000000000000000     
  0.50000000000000000        6.2500000000000000E-002   0.0000000000000000     
  0.53125000000000000        6.2500000000000000E-002   0.0000000000000000     
  0.56250000000000000        6.2500000000000000E-002   0.0000000000000000     
  0.59375000000000000        6.2500000000000000E-002   0.0000000000000000     
  0.62500000000000000        6.2500000000000000E-002   0.0000000000000000     
  0.50000000000000000        9.3750000000000000E-002   0.0000000000000000     
  0.53125000000000000        9.3750000000000000E-002   0.0000000000000000     
  0.56250000000000000        9.3750000000000000E-002   0.0000000000000000     
  0.59375000000000000        9.3750000000000000E-002   0.0000000000000000     
  0.62500000000000000        9.3750000000000000E-002   0.0000000000000000     
  0.50000000000000000       0.12500000000000000        0.0000000000000000     
  0.53125000000000000       0.12500000000000000        0.0000000000000000     
  0.56250000000000000       0.12500000000000000        0.0000000000000000     
  0.59375000000000000       0.12500000000000000        0.0000000000000000     
  0.62500000000000000       0.12500000000000000        0.0000000000000000     
  0.62500000000000000        0.0000000000000000        0.0000000000000000     
  0.65625000000000000        0.0000000000000000        0.0000000000000000     
  0.68750000000000000        0.0000000000000000        0.0000000000000000     
  0.71875000000000000        0.0000000000000000        0.0000000000000000     
  0.75000000000000000        0.0000000000000000        0.0000000000000000     
  0.62500000000000000        3.1250000000000000E-002   0.0000000000000000     
  0.65625000000000000        3.1250000000000000E-002   0.0000000000000000     
  0.68750000000000000        3.1250000000000000E-002   0.0000000000000000     
  0.71875000000000000        3.1250000000000000E-002   0.0000000000000000     
  0.75000000000000000        3.1250000000000000E-002   0.0000000000000000     
  0.62500000000000000        6.2500000000000000E-002   0.0000000000000000     
  0.65625000000000000        6.2500000000000000E-002   0.0000000000000000     
  0.68750000000000000        6.2500000000000000E-002   0.0000000000000000     
  0.71875000000000000        6.2500000000000000E-002   0.0000000000000000     
  0.75000000000000000        6.2500000000000000E-002   0.0000000000000000     
  0.62500000000000000        9.3750000000000000E-002   0.0000000000000000     
  0.65625000000000000        9.3750000000000000E-002   0.0000000000000000     
  0.68750000000000000        9.3750000000000000E-002   0.0000000000000000     
  0.71875000000000000        9.3750000000000000E-002   0.0000000000000000     
  0.75000000000000000        9.3750000000000000E-002   0.0000000000000000     
  0.62500000000000000       0.12500000000000000        0.0000000000000000     
  0.65625000000000000       0.12500000000000000        0.0000000000000000     
  0.68750000000000000       0.12500000000000000        0.0000000000000000     
  0.71875000000000000       0.12500000000000000        0.0000000000000000     
  0.75000000000000000       0.12500000000000000        0.0000000000000000     
  0.75000000000000000        0.0000000000000000        0.0000000000000000     
  0.78125000000000000        0.0000000000000000        0.0000000000000000     
  0.81250000000000000        0.0000000000000000        0.0000000000000000     
  0.84375000000000000        0.0000000000000000        0.0000000000000000     
  0.87500000000000000        0.0000000000000000        0.0000000000000000     
  0.75000000000000000        3.1250000000000000E-002   0.0000000000000000     
  0.78125000000000000        3.1250000000000000E-002   0.0000000000000000     
  0.81250000000000000        3.1250000000000000E-002   0.0000000000000000     
  0.84375000000000000        3.1250000000000000E-002   0.0000000000000000     
  0.87500000000000000        3.1250000000000000E-002   0.0000000000000000     
  0.75000000000000000        6.2500000000000000E-002   0.0000000000000000     
  0.78125000000000000        6.2500000000000000E-002   0.0000000000000000     
  0.81250000000000000        6.2500000000000000E-002   0.0000000000000000     
  0.84375000000000000        6.2500000000000000E-002   0.0000000000000000     
  0.87500000000000000        6.2500000000000000E-002   0.0000000000000000     
  0.75000000000000000        9.3750000000000000E-002   0.0000000000000000     
  0.78125000000000000        9.3750000000000000E-002   0.0000000000000000     
  0.81250000000000000        9.3750000000000000E-002   0.0000000000000000     
  0.84375000000000000        9.3750000000000000E-002   0.0000000000000000     
  0.87500000000000000        9.3750000000000000E-002   0.0000000000000000     
  0.75000000000000000       0.12500000000000000        0.0000000000000000     
  0.78125000000000000       0.12500000000000000        0.0000000000000000     
  0.81250000000000000       0.12500000000000000        0.0000000000000000     
  0.84375000000000000       0.12500000000000000        0.0000000000000000     
  0.87500000000000000       0.12500000000000000        0.0000000000000000     
  0.87500000000000000        0.0000000000000000        0.0000000000000000     
  0.90625000000000000        0.0000000000000000        0.0000000000000000     
  0.93750000000000000        0.0000000000000000        0.0000000000000000     
  0.96875000000000000        0.0000000000000000        0.0000000000000000     
   1.0000000000000000        0.0000000000000000        0.0000000000000000     
  0.87500000000000000        3.1250000000000000E-002   0.0000000000000000     
  0.90625000000000000        3.1250000000000000E-002   0.0000000000000000     
  0.93750000000000000        3.1250000000000000E-002   0.0000000000000000     
  0.96875000000000000        3.1250000000000000E-002   0.0000000000000000     
   1.0000000000000000        3.1250000000000000E-002   0.0000000000000000     
  0.87500000000000000        6.2500000000000000E-002   0.0000000000000000     
  0.90625000000000000        6.2500000000000000E-002   0.0000000000000000     
  0.93750000000000000        6.2500000000000000E-002   0.0000000000000000     
  0.96875000000000000        6.2500000000000000E-002   0.0000000000000000     
   1.0000000000000000        6.2500000000000000E-002   0.0000000000000000     
  0.87500000000000000        9.3750000000000000E-002   0.0000000000000000     
  0.90625000000000000        9.3750000000000000E-002   0.0000000000000000     
  0.93750000000000000        9.3750000000000000E-002   0.0000000000000000     
  0.96875000000000000        9.3750000000000000E-002   0.0000000000000000     
   1.0000000000000000        9.3750000000000000E-002   0.0000000000000000     
  0.87500000000000000       0.12500000000000000        0.0000000000000000     
  0.90625000000000000       0.12500000000000000        0.0000000000000000     
  0.93750000000000000       0.12500000000000000        0.0000000000000000     
  0.96875000000000000       0.12500000000000000        0.0000000000000000     
   1.0000000000000000       0.12500000000000000        0.0000000000000000     
   1.0000000000000000        0.0000000000000000        0.0000000000000000     
   1.0312500000000000        0.0000000000000000        0.0000000000000000     
   1.0625000000000000        0.0000000000000000        0.0000000000000000     
   1.0937500000000000        0.0000000000000000        0.0000000000000000     
   1.1250000000000000        0.0000000000000000        0.0000000000000000     
   1.0000000000000000        3.1250000000000000E-002   0.0000000000000000     
   1.0312500000000000        3.1250000000000000E-002   0.0000000000000000     
   1.0625000000000000        3.1250000000000000E-002   0.0000000000000000     
   1.0937500000000000        3.1250000000000000E-002   0.0000000000000000     
   1.1250000000000000        3.1250000000000000E-002   0.0000000000000000     
   1.0000000000000000        6.2500000000000000E-002   0.0000000000000000     
   1.0312500000000000        6.2500000000000000E-002   0.0000000000000000     
   1.0625000000000000        6.2500000000000000E-002   0.0000000000000000     
   1.0937500000000000        6.2500000000000000E-002   0.0000000000000000     
   1.1250000000000000        6.2500000000000000E-002   0.0000000000000000     
   1.0000000000000000        9.3750000000000000E-002   0.0000000000000000     
   1.0312500000000000        9.3750000000000000E-002   0.0000000000000000     
   1.0625000000000000        9.3750000000000000E-002   0.0000000000000000     
   1.0937500000000000        9.3750000000000000E-002   0.0000000000000000     
   1.1250000000000000        9.3750000000000000E-002   0.0000000000000000     
   1.0000000000000000       0.12500000000000000        0.0000000000000000     
   1.0312500000000000       0.12500000000000000        0.0000000000000000     
   1.0625000000000000       0.12500000000000000        0.0000000000000000     
   1.0937500000000000       0.12500000000000000        0.0000000000000000     
   1.1250000000000000       0.12500000000000000        0.0000000000000000     
   1.1250000000000000        0.0000000000000000        0.0000000000000000     
   1.1562500000000000        0.0000000000000000        0.0000000000000000     
   1.1875000000000000        0.0000000000000000        0.0000000000000000     
   1.2187500000000000        0.0000000000000000        0.0000000000000000     
   1.2500000000000000        0.0000000000000000        0.0000000000000000     
   1.1250000000000000        3.1250000000000000E-002   0.0000000000000000     
   1.1562500000000000        3.1250000000000000E-002   0.0000000000000000     
   1.1875000000000000        3.1250000000000000E-002   0.0000000000000000     
   1.2187500000000000        3.1250000000000000E-002   0.0000000000000000     
   1.2500000000000000        3.1250000000000000E-002   0.0000000000000000     
   1.1250000000000000        6.2500000000000000E-002   0.0000000000000000     
   1.1562500000000000        6.2500000000000000E-002   0.0000000000000000     
   1.1875000000000000        6.2500000000000000E-002   0.0000000000000000     
   1.2187500000000000        6.2500000000000000E-002   0.0000000000000000     
   1.2500000000000000        6.2500000000000000E-002   0.0000000000000000     
   1.1250000000000000        9.3750000000000000E-002   0.0000000000000000     
   1.1562500000000000        9.3750000000000000E-002   0.0000000000000000     
   1.1875000000000000        9.3750000000000000E-002   0.0000000000000000     
   1.2187500000000000        9.3750000000000000E-002   0.0000000000000000     
   1.2500000000000000        9.3750000000000000E-002   0.0000000000000000     
   1.1250000000000000       0.12500000000000000        0.0000000000000000     
   1.1562500000000000       0.12500000000000000        0.0000000000000000     
   1.1875000000000000       0.12500000000000000        0.0000000000000000     
   1.2187500000000000       0.12500000000000000        0.0000000000000000     
   1.2500000000000000       0.12500000000000000        0.0000000000000000     
   1.2500000000000000        0.0000000000000000        0.0000000000000000     
   1.2812500000000000        0.0000000000000000        0.0000000000000000     
   1.3125000000000000        0.0000000000000000        0.0000000000000000     
   1.3437500000000000        0.0000000000000000        0.0000000000000000     
   1.3750000000000000        0.0000000000000000        0.0000000000000000     
   1.2500000000000000        3.1250000000000000E-002   0.0000000000000000     
   1.2812500000000000        3.1250000000000000E-002   0.0000000000000000     
   1.3125000000000000        3.1250000000000000E-002   0.0000000000000000     
   1.3437500000000000        3.1250000000000000E-002   0.0000000000000000     
   1.3750000000000000        3.1250000000000000E-002   0.0000000000000000     
   1.2500000000000000        6.2500000000000000E-002   0.0000000000000000     
   1.2812500000000000        6.2500000000000000E-002   0.0000000000000000     
   1.3125000000000000        6.2500000000000000E-002   0.0000000000000000     
   1.3437500000000000        6.2500000000000000E-002   0.0000000000000000     
   1.3750000000000000        6.2500000000000000E-002   0.0000000000000000     
   1.2500000000000000        9.3750000000000000E-002   0.0000000000000000     
   1.2812500000000000        9.3750000000000000E-002   0.0000000000000000     
   1.3125000000000000        9.3750000000000000E-002   0.0000000000000000     
   1.3437500000000000        9.3750000000000000E-002   0.0000000000000000     
   1.3750000000000000        9.3750000000000000E-002   0.0000000000000000     
   1.2500000000000000       0.12500000000000000        0.0000000000000000     
   1.2812500000000000       0.12500000000000000        0.0000000000000000     
   1.3125000000000000       0.12500000000000000        0.0000000000000000     
   1.3437500000000000       0.12500000000000000        0.0000000000000000     
   1.3750000000000000       0.12500000000000000        0.0000000000000000     
   1.3750000000000000        0.0000000000000000        0.0000000000000000     
   1.4062500000000000        0.0000000000000000        0.0000000000000000     
   1.4375000000000000        0.0000000000000000        0.0000000000000000     
   1.4687500000000000        0.0000000000000000        0.0000000000000000     
   1.5000000000000000        0.0000000000000000        0.0000000000000000     
   1.3750000000000000        3.1250000000000000E-002   0.0000000000000000     
   1.4062500000000000        3.1250000000000000E-002   0.0000000000000000     
   1.4375000000000000        3.1250000000000000E-002   0.0000000000000000     
   1.4687500000000000        3.1250000000000000E-002   0.0000000000000000     
   1.5000000000000000        3.1250000000000000E-002   0.0000000000000000     
   1.3750000000000000        6.2500000000000000E-002   0.0000000000000000     
   1.4062500000000000        6.2500000000000000E-002   0.0000000000000000     
   1.4375000000000000        6.2500000000000000E-002   0.0000000000000000     
   1.4687500000000000        6.2500000000000000E-002   0.0000000000000000     
   1.5000000000000000        6.2500000000000000E-002   0.0000000000000000     
   1.3750000000000000        9.3750000000000000E-002   0.0000000000000000     
   1.4062500000000000        9.3750000000000000E-002   0.0000000000000000     
   1.4375000000000000        9.3750000000000000E-002   0.0000000000000000     
   1.4687500000000000        9.3750000000000000E-002   0.0000000000000000     
   1.5000000000000000        9.3750000000000000E-002   0.0000000000000000     
   1.3750000000000000       0.12500000000000000        0.0000000000000000     
   1.4062500000000000       0.12500000000000000        0.0000000000000000     
   1.4375000000000000       0.12500000000000000        0.0000000000000000     
   1.4687500000000000       0.12500000000000000        0.0000000000000000     
   1.5000000000000000       0.12500000000000000        0.0000000000000000     
  0.50000000000000000       0.12500000000000000        0.0000000000000000     
  0.53125000000000000       0.12500000000000000        0.0000000000000000     
  0.56250000000000000       0.12500000000000000        0.0000000000000000     
  0.59375000000000000       0.12500000000000000        0.0000000000000000     
  0.62500000000000000       0.12500000000000000        0.0000000000000000     
  0.50000000000000000       0.15625000000000000        0.0000000000000000     
  0.53125000000000000       0.15625000000000000        0.0000000000000000     
  0.56250000000000000       0.15625000000000000        0.0000000000000000     
  0.59375000000000000       0.15625000000000000        0.0000000000000000     
  0.62500000000000000       0.15625000000000000        0.0000000000000000     
  0.50000000000000000       0.18750000000000000        0.0000000000000000     
  0.53125000000000000       0.18750000000000000        0.0000000000000000     
  0.56250000000000000       0.18750000000000000        0.0000000000000000     
  0.59375000000000000       0.18750000000000000        0.0000000000000000     
  0.62500000000000000       0.18750000000000000        0.0000000000000000     
  0.50000000000000000       0.21875000000000000        0.0000000000000000     
  0.53125000000000000       0.21875000000000000        0.0000000000000000     
  0.56250000000000000       0.21875000000000000        0.0000000000000000     
  0.59375000000000000       0.21875000000000000        0.0000000000000000     
  0.62500000000000000       0.21875000000000000        0.0000000000000000     
  0.50000000000000000       0.25000000000000000        0.0000000000000000     
  0.53125000000000000       0.25000000000000000        0.0000000000000000     
  0.56250000000000000       0.25000000000000000        0.0000000000000000     
  0.59375000000000000       0.25000000000000000        0.0000000000000000     
  0.62500000000000000       0.25000000000000000        0.0000000000000000     
  0.62500000000000000       0.12500000000000000        0.0000000000000000     
  0.65625000000000000       0.12500000000000000        0.0000000000000000     
  0.68750000000000000       0.12500000000000000        0.0000000000000000     
  0.71875000000000000       0.12500000000000000        0.0000000000000000     
  0.75000000000000000       0.12500000000000000        0.0000000000000000     
  0.62500000000000000       0.15625000000000000        0.0000000000000000     
  0.65625000000000000       0.15625000000000000        0.0000000000000000     
  0.68750000000000000       0.15625000000000000        0.0000000000000000     
  0.71875000000000000       0.15625000000000000        0.0000000000000000     
  0.75000000000000000       0.15625000000000000        0.0000000000000000     
  0.62500000000000000       0.18750000000000000        0.0000000000000000     
  0.65625000000000000       0.18750000000000000        0.0000000000000000     
  0.68750000000000000       0.18750000000000000        0.0000000000000000     
  0.71875000000000000       0.18750000000000000        0.0000000000000000     
  0.75000000000000000       0.18750000000000000        0.0000000000000000     
  0.62500000000000000       0.21875000000000000        0.0000000000000000     
  0.65625000000000000       0.21875000000000000        0.0000000000000000     
  0.68750000000000000       0.21875000000000000        0.0000000000000000     
  0.71875000000000000       0.21875000000000000        0.0000000000000000     
  0.75000000000000000       0.21875000000000000        0.0000000000000000     
  0.62500000000000000       0.25000000000000000        0.0000000000000000     
  0.65625000000000000       0.25000000000000000        0.0000000000000000     
  0.68750000000000000       0.25000000000000000        0.0000000000000000     
  0.71875000000000000       0.25000000000000000        0.0000000000000000     
  0.75000000000000000       0.25000000000000000        0.0000000000000000     
  0.75000000000000000       0.12500000000000000        0.0000000000000000     
  0.78125000000000000       0.12500000000000000        0.0000000000000000     
  0.81250000000000000       0.12500000000000000        0.0000000000000000     
  0.84375000000000000       0.12500000000000000        0.0000000000000000     
  0.87500000000000000       0.12500000000000000        0.0000000000000000     
  0.75000000000000000       0.15625000000000000        0.0000000000000000     
  0.78125000000000000       0.15625000000000000        0.0000000000000000     
  0.81250000000000000       0.15625000000000000        0.0000000000000000     
  0.84375000000000000       0.15625000000000000        0.0000000000000000     
  0.87500000000000000       0.15625000000000000        0.0000000000000000     
  0.75000000000000000       0.18750000000000000        0.0000000000000000     
  0.78125000000000000       0.18750000000000000        0.0000000000000000     
  0.81250000000000000       0.18750000000000000        0.0000000000000000     
  0.84375000000000000       0.18750000000000000        0.0000000000000000     
  0.87500000000000000       0.18750000000000000        0.0000000000000000     
  0.75000000000000000       0.21875000000000000        0.0000000000000000     
  0.78125000000000000       0.21875000000000000        0.0000000000000000     
  0.81250000000000000       0.21875000000000000        0.0000000000000000     
  0.84375000000000000       0.21875000000000000        0.0000000000000000     
  0.87500000000000000       0.21875000000000000        0.0000000000000000     
  0.75000000000000000       0.25000000000000000        0.0000000000000000     
  0.78125000000000000       0.25000000000000000        0.0000000000000000     
  0.81250000000000000       0.25000000000000000        0.0000000000000000     
  0.84375000000000000       0.25000000000000000        0.0000000000000000     
  0.87500000000000000       0.25000000000000000        0.0000000000000000     
  0.87500000000000000       0.12500000000000000        0.0000000000000000     
  0.90625000000000000       0.12500000000000000        0.0000000000000000     
  0.93750000000000000       0.12500000000000000        0.0000000000000000     
  0.96875000000000000       0.12500000000000000        0.0000000000000000     
   1.0000000000000000       0.12500000000000000        0.0000000000000000     
  0.87500000000000000       0.15625000000000000        0.0000000000000000     
  0.90625000000000000       0.15625000000000000        0.0000000000000000     
  0.93750000000000000       0.15625000000000000        0.0000000000000000     
  0.96875000000000000       0.15625000000000000        0.0000000000000000     
   1.0000000000000000       0.15625000000000000        0.0000000000000000     
  0.87500000000000000       0.18750000000000000        0.0000000000000000     
  0.90625000000000000       0.18750000000000000        0.0000000000000000     
  0.93750000000000000       0.18750000000000000        0.0000000000000000     
  0.96875000000000000       0.18750000000000000        0.0000000000000000     
   1.0000000000000000       0.18750000000000000        0.0000000000000000     
  0.87500000000000000       0.21875000000000000        0.0000000000000000     
  0.90625000000000000       0.21875000000000000        0.0000000000000000     
  0.93750000000000000       0.21875000000000000        0.0000000000000000     
  0.96875000000000000       0.21875000000000000        0.0000000000000000     
   1.0000000000000000       0.21875000000000000        0.0000000000000000     
  0.87500000000000000       0.25000000000000000        0.0000000000000000     
  0.90625000000000000       0.25000000000000000        0.0000000000000000     
  0.93750000000000000       0.25000000000000000        0.0000000000000000     
  0.96875000000000000       0.25000000000000000        0.0000000000000000     
   1.0000000000000000       0.25000000000000000        0.0000000000000000     
   1.0000000000000000       0.12500000000000000        0.0000000000000000     
   1.0312500000000000       0.12500000000000000        0.0000000000000000     
   1.0625000000000000       0.12500000000000000        0.0000000000000000     
   1.0937500000000000       0.12500000000000000        0.0000000000000000     
   1.1250000000000000       0.12500000000000000        0.0000000000000000     
   1.0000000000000000       0.15625000000000000        0.0000000000000000     
   1.0312500000000000       0.15625000000000000        0.0000000000000000     
   1.0625000000000000       0.15625000000000000        0.0000000000000000     
   1.0937500000000000       0.15625000000000000        0.0000000000000000     
   1.1250000000000000       0.15625000000000000        0.0000000000000000     
   1.0000000000000000       0.18750000000000000        0.0000000000000000     
   1.0312500000000000       0.18750000000000000        0.0000000000000000     
   1.0625000000000000       0.18750000000000000        0.0000000000000000     
   1.0937500000000000       0.18750000000000000        0.0000000000000000     
   1.1250000000000000       0.18750000000000000        0.0000000000000000     
   1.0000000000000000       0.21875000000000000        0.0000000000000000     
   1.0312500000000000       0.21875000000000000        0.0000000000000000     
   1.0625000000000000       0.21875000000000000        0.0000000000000000     
   1.0937500000000000       0.21875000000000000        0.0000000000000000     
   1.1250000000000000       0.21875000000000000        0.0000000000000000     
   1.0000000000000000       0.25000000000000000        0.0000000000000000     
   1.0312500000000000       0.25000000000000000        0.0000000000000000     
   1.0625000000000000       0.25000000000000000        0.0000000000000000     
   1.0937500000000000       0.25000000000000000        0.0000000000000000     
   1.1250000000000000       0.25000000000000000        0.0000000000000000     
   1.1250000000000000       0.12500000000000000        0.0000000000000000     
   1.1562500000000000       0.12500000000000000        0.0000000000000000     
   1.1875000000000000       0.12500000000000000        0.0000000000000000     
   1.2187500000000000       0.12500000000000000        0.0000000000000000     
   1.2500000000000000       0.12500000000000000        0.0000000000000000     
   1.1250000000000000       0.15625000000000000        0.0000000000000000     
   1.1562500000000000       0.15625000000000000        0.0000000000000000     
   1.1875000000000000       0.15625000000000000        0.0000000000000000     
   1.2187500000000000       0.15625000000000000        0.0000000000000000     
   1.2500000000000000       0.15625000000000000        0.0000000000000000     
   1.1250000000000000       0.18750000000000000        0.0000000000000000     
   1.1562500000000000       0.18750000000000000        0.0000000000000000     
   1.1875000000000000       0.18750000000000000        0.0000000000000000     
   1.2187500000000000       0.18750000000000000        0.0000000000000000     
   1.2500000000000000       0.18750000000000000        0.0000000000000000     
   1.1250000000000000       0.21875000000000000        0.0000000000000000     
   1.1562500000000000       0.21875000000000000        0.0000000000000000     
   1.1875000000000000       0.21875000000000000        0.0000000000000000     
   1.2187500000000000       0.21875000000000000        0.0000000000000000     
   1.2500000000000000       0.21875000000000000        0.0000000000000000     
   1.1250000000000000       0.25000000000000000        0.0000000000000000     
   1.1562500000000000       0.25000000000000000        0.0000000000000000     
   1.1875000000000000       0.25000000000000000        0.0000000000000000     
   1.2187500000000000       0.25000000000000000        0.0000000000000000     
   1.2500000000000000       0.25000000000000000        0.0000000000000000     
   1.2500000000000000       0.12500000000000000        0.0000000000000000     
   1.2812500000000000       0.12500000000000000        0.0000000000000000     
   1.3125000000000000       0.12500000000000000        0.0000000000000000     
   1.3437500000000000       0.12500000000000000        0.0000000000000000     
   1.3750000000000000       0.12500000000000000        0.0000000000000000     
   1.2500000000000000       0.15625000000000000        0.0000000000000000     
   1.2812500000000000       0.15625000000000000        0.0000000000000000     
   1.3125000000000000       0.15625000000000000        0.0000000000000000     
   1.3437500000000000       0.15625000000000000        0.0000000000000000     
   1.3750000000000000       0.15625000000000000        0.0000000000000000     
   1.2500000000000000       0.18750000000000000        0.0000000000000000     
   1.2812500000000000       0.18750000000000000        0.0000000000000000     
   1.3125000000000000       0.18750000000000000        0.0000000000000000     
   1.3437500000000000       0.18750000000000000        0.0000000000000000     
   1.3750000000000000       0.18750000000000000        0.0000000000000000     
   1.2500000000000000       0.21875000000000000        0.0000000000000000     
   1.2812500000000000       0.21875000000000000        0.0000000000000000     
   1.3125000000000000       0.21875000000000000        0.0000000000000000     
   1.3437500000000000       0.21875000000000000        0.0000000000000000     
   1.3750000000000000       0.21875000000000000        0.0000000000000000     
   1.2500000000000000       0.25000000000000000        0.0000000000000000     
   1.2812500000000000       0.25000000000000000        0.0000000000000000     
   1.3125000000000000       0.25000000000000000        0.0000000000000000     
   1.3437500000000000       0.25000000000000000        0.0000000000000000     
   1.3750000000000000       0.25000000000000000        0.0000000000000000     
   1.3750000000000000       0.12500000000000000        0.0000000000000000     
   1.4062500000000000       0.12500000000000000        0.0000000000000000     
   1.4375000000000000       0.12500000000000000        0.0000000000000000     
   1.4687500000000000       0.12500000000000000        0.0000000000000000     
   1.5000000000000000       0.12500000000000000        0.0000000000000000     
   1.3750000000000000       0.15625000000000000        0.0000000000000000     
   1.4062500000000000       0.15625000000000000        0.0000000000000000     
   1.4375000000000000       0.15625000000000000        0.0000000000000000     
   1.4687500000000000       0.15625000000000000        0.0000000000000000     
   1.5000000000000000       0.15625000000000000        0.0000000000000000     
   1.3750000000000000       0.18750000000000000        0.0000000000000000     
   1.4062500000000000       0.18750000000000000        0.0000000000000000     
   1.4375000000000000       0.18750000000000000        0.0000000000000000     
   1.4687500000000000       0.18750000000000000        0.0000000000000000     
   1.5000000000000000       0.18750000000000000        0.0000000000000000     
   1.3750000000000000       0.21875000000000000        0.0000000000000000     
   1.4062500000000000       0.21875000000000000        0.0000000000000000     
   1.4375000000000000       0.21875000000000000        0.0000000000000000     
   1.4687500000000000       0.21875000000000000        0.0000000000000000     
   1.5000000000000000       0.21875000000000000        0.0000000000000000     
   1.3750000000000000       0.25000000000000000        0.0000000000000000     
   1.4062500000000000       0.25000000000000000        0.0000000000000000     
   1.4375000000000000       0.25000000000000000        0.0000000000000000     
   1.4687500000000000       0.25000000000000000        0.0000000000000000     
   1.5000000000000000       0.25000000000000000        0.0000000000000000     
  0.50000000000000000       0.25000000000000000        0.0000000000000000     
  0.53125000000000000       0.25000000000000000        0.0000000000000000     
  0.56250000000000000       0.25000000000000000        0.0000000000000000     
  0.59375000000000000       0.25000000000000000        0.0000000000000000     
  0.62500000000000000       0.25000000000000000        0.0000000000000000     
  0.50000000000000000       0.28125000000000000        0.0000000000000000     
  0.53125000000000000       0.28125000000000000        0.0000000000000000     
  0.56250000000000000       0.28125000000000000        0.0000000000000000     
  0.59375000000000000       0.28125000000000000        0.0000000000000000     
  0.62500000000000000       0.28125000000000000        0.0000000000000000     
  0.50000000000000000       0.31250000000000000        0.0000000000000000     
  0.53125000000000000       0.31250000000000000        0.0000000000000000     
  0.56250000000000000       0.31250000000000000        0.0000000000000000     
  0.59375000000000000       0.31250000000000000        0.0000000000000000     
  0.62500000000000000       0.31250000000000000        0.0000000000000000     
  0.50000000000000000       0.34375000000000000        0.0000000000000000     
  0.53125000000000000       0.34375000000000000        0.0000000000000000     
  0.56250000000000000       0.34375000000000000        0.0000000000000000     
  0.59375000000000000       0.34375000000000000        0.0000000000000000     
  0.62500000000000000       0.34375000000000000        0.0000000000000000     
  0.50000000000000000       0.37500000000000000        0.0000000000000000     
  0.53125000000000000       0.37500000000000000        0.0000000000000000     
  0.56250000000000000       0.37500000000000000        0.0000000000000000     
  0.59375000000000000       0.37500000000000000        0.0000000000000000     
  0.62500000000000000       0.37500000000000000        0.0000000000000000     
  0.62500000000000000       0.25000000000000000        0.0000000000000000     
  0.65625000000000000       0.25000000000000000        0.0000000000000000     
  0.68750000000000000       0.25000000000000000        0.0000000000000000     
  0.71875000000000000       0.25000000000000000        0.0000000000000000     
  0.75000000000000000       0.25000000000000000        0.0000000000000000     
  0.62500000000000000       0.28125000000000000        0.0000000000000000     
  0.65625000000000000       0.28125000000000000        0.0000000000000000     
  0.68750000000000000       0.28125000000000000        0.0000000000000000     
  0.71875000000000000       0.28125000000000000        0.0000000000000000     
  0.75000000000000000       0.28125000000000000        0.0000000000000000     
  0.62500000000000000       0.31250000000000000        0.0000000000000000     
  0.65625000000000000       0.31250000000000000        0.0000000000000000     
  0.68750000000000000       0.31250000000000000        0.0000000000000000     
  0.71875000000000000       0.31250000000000000        0.0000000000000000     
  0.75000000000000000       0.31250000000000000        0.0000000000000000     
  0.62500000000000000       0.34375000000000000        0.0000000000000000     
  0.65625000000000000       0.34375000000000000        0.0000000000000000     
  0.68750000000000000       0.34375000000000000        0.0000000000000000     
  0.71875000000000000       0.34375000000000000        0.0000000000000000     
  0.75000000000000000       0.34375000000000000        0.0000000000000000     
  0.62500000000000000       0.37500000000000000        0.0000000000000000     
  0.65625000000000000       0.37500000000000000        0.0000000000000000     
  0.68750000000000000       0.37500000000000000        0.0000000000000000     
  0.71875000000000000       0.37500000000000000        0.0000000000000000     
  0.75000000000000000       0.37500000000000000        0.0000000000000000     
  0.75000000000000000       0.25000000000000000        0.0000000000000000     
  0.78125000000000000       0.25000000000000000        0.0000000000000000     
  0.81250000000000000       0.25000000000000000        0.0000000000000000     
  0.84375000000000000       0.25000000000000000        0.0000000000000000     
  0.87500000000000000       0.25000000000000000        0.0000000000000000     
  0.75000000000000000       0.28125000000000000        0.0000000000000000     
  0.78125000000000000       0.28125000000000000        0.0000000000000000     
  0.81250000000000000       0.28125000000000000        0.0000000000000000     
  0.84375000000000000       0.28125000000000000        0.0000000000000000     
  0.87500000000000000       0.28125000000000000        0.0000000000000000     
  0.75000000000000000       0.31250000000000000        0.0000000000000000     
  0.78125000000000000       0.31250000000000000        0.0000000000000000     
  0.81250000000000000       0.31250000000000000        0.0000000000000000     
  0.84375000000000000       0.31250000000000000        0.0000000000000000     
  0.87500000000000000       0.31250000000000000        0.0000000000000000     
  0.75000000000000000       0.34375000000000000        0.0000000000000000     
  0.78125000000000000       0.34375000000000000        0.0000000000000000     
  0.81250000000000000       0.34375000000000000        0.0000000000000000     
  0.84375000000000000       0.34375000000000000        0.0000000000000000     
  0.87500000000000000       0.34375000000000000        0.0000000000000000     
  0.75000000000000000       0.37500000000000000        0.0000000000000000     
  0.78125000000000000       0.37500000000000000        0.0000000000000000     
  0.81250000000000000       0.37500000000000000        0.0000000000000000     
  0.84375000000000000       0.37500000000000000        0.0000000000000000     
  0.87500000000000000       0.37500000000000000        0.0000000000000000     
  0.87500000000000000       0.25000000000000000        0.0000000000000000     
  0.90625000000000000       0.25000000000000000        0.0000000000000000     
  0.93750000000000000       0.25000000000000000        0.0000000000000000     
  0.96875000000000000       0.25000000000000000        0.0000000000000000     
   1.0000000000000000       0.25000000000000000        0.0000000000000000     
  0.87500000000000000       0.28125000000000000        0.0000000000000000     
  0.90625000000000000       0.28125000000000000        0.0000000000000000     
  0.93750000000000000       0.28125000000000000        0.0000000000000000     
  0.96875000000000000       0.28125000000000000        0.0000000000000000     
   1.0000000000000000       0.28125000000000000        0.0000000000000000     
  0.87500000000000000       0.31250000000000000        0.0000000000000000     
  0.90625000000000000       0.31250000000000000        0.0000000000000000     
  0.93750000000000000       0.31250000000000000        0.0000000000000000     
  0.96875000000000000       0.31250000000000000        0.0000000000000000     
   1.0000000000000000       0.31250000000000000        0.0000000000000000     
  0.87500000000000000       0.34375000000000000        0.0000000000000000     
  0.90625000000000000       0.34375000000000000        0.0000000000000000     
  0.93750000000000000       0.34375000000000000        0.0000000000000000     
  0.96875000000000000       0.34375000000000000        0.0000000000000000     
   1.0000000000000000       0.34375000000000000        0.0000000000000000     
  0.87500000000000000       0.37500000000000000        0.0000000000000000     
  0.90625000000000000       0.37500000000000000        0.0000000000000000     
  0.93750000000000000       0.37500000000000000        0.0000000000000000     
  0.96875000000000000       0.37500000000000000        0.0000000000000000     
   1.0000000000000000       0.37500000000000000        0.0000000000000000     
   1.0000000000000000       0.25000000000000000        0.0000000000000000     
   1.0312500000000000       0.25000000000000000        0.0000000000000000     
   1.0625000000000000       0.25000000000000000        0.0000000000000000     
   1.0937500000000000       0.25000000000000000        0.0000000000000000     
   1.1250000000000000       0.25000000000000000        0.0000000000000000     
   1.0000000000000000       0.28125000000000000        0.0000000000000000     
   1.0312500000000000       0.28125000000000000        0.0000000000000000     
   1.0625000000000000       0.28125000000000000        0.0000000000000000     
   1.0937500000000000       0.28125000000000000        0.0000000000000000     
   1.1250000000000000       0.28125000000000000        0.0000000000000000     
   1.0000000000000000       0.31250000000000000        0.0000000000000000     
   1.0312500000000000       0.31250000000000000        0.0000000000000000     
   1.0625000000000000       0.31250000000000000        0.0000000000000000     
   1.0937500000000000       0.31250000000000000        0.0000000000000000     
   1.1250000000000000       0.31250000000000000        0.0000000000000000     
   1.0000000000000000       0.34375000000000000        0.0000000000000000     
   1.0312500000000000       0.34375000000000000        0.0000000000000000     
   1.0625000000000000       0.34375000000000000        0.0000000000000000     
   1.0937500000000000       0.34375000000000000        0.0000000000000000     
   1.1250000000000000       0.34375000000000000        0.0000000000000000     
   1.0000000000000000       0.37500000000000000        0.0000000000000000     
   1.0312500000000000       0.37500000000000000        0.0000000000000000     
   1.0625000000000000       0.37500000000000000        0.0000000000000000     
   1.0937500000000000       0.37500000000000000        0.0000000000000000     
   1.1250000000000000       0.37500000000000000        0.0000000000000000     
   1.1250000000000000       0.25000000000000000        0.0000000000000000     
   1.1562500000000000       0.25000000000000000        0.0000000000000000     
   1.1875000000000000       0.25000000000000000        0.0000000000000000     
   1.2187500000000000       0.25000000000000000        0.0000000000000000     
   1.2500000000000000       0.25000000000000000        0.0000000000000000     
   1.1250000000000000       0.28125000000000000        0.0000000000000000     
   1.1562500000000000       0.28125000000000000        0.0000000000000000     
   1.1875000000000000       0.28125000000000000        0.0000000000000000     
   1.2187500000000000       0.28125000000000000        0.0000000000000000     
   1.2500000000000000       0.28125000000000000        0.0000000000000000     
   1.1250000000000000       0.31250000000000000        0.0000000000000000     
   1.1562500000000000       0.31250000000000000        0.0000000000000000     
   1.1875000000000000       0.31250000000000000        0.0000000000000000     
   1.2187500000000000       0.31250000000000000        0.0000000000000000     
   1.2500000000000000       0.31250000000000000        0.0000000000000000     
   1.1250000000000000       0.34375000000000000        0.0000000000000000     
   1.1562500000000000       0.34375000000000000        0.0000000000000000     
   1.1875000000000000       0.34375000000000000        0.0000000000000000     
   1.2187500000000000       0.34375000000000000        0.0000000000000000     
   1.2500000000000000       0.34375000000000000        0.0000000000000000     
   1.1250000000000000       0.37500000000000000        0.0000000000000000     
   1.1562500000000000       0.37500000000000000        0.0000000000000000     
   1.1875000000000000       0.37500000000000000        0.0000000000000000     
   1.2187500000000000       0.37500000000000000        0.0000000000000000     
   1.2500000000000000       0.37500000000000000        0.0000000000000000     
   1.2500000000000000       0.25000000000000000        0.0000000000000000     
   1.2812500000000000       0.25000000000000000        0.0000000000000000     
   1.3125000000000000       0.25000000000000000        0.0000000000000000     
   1.3437500000000000       0.25000000000000000        0.0000000000000000     
   1.3750000000000000       0.25000000000000000        0.0000000000000000     
   1.2500000000000000       0.28125000000000000        0.0000000000000000     
   1.2812500000000000       0.28125000000000000        0.0000000000000000     
   1.3125000000000000       0.28125000000000000        0.0000000000000000     
   1.3437500000000000       0.28125000000000000        0.0000000000000000     
   1.3750000000000000       0.28125000000000000        0.0000000000000000     
   1.2500000000000000       0.31250000000000000        0.0000000000000000     
   1.2812500000000000       0.31250000000000000        0.0000000000000000     
   1.3125000000000000       0.31250000000000000        0.0000000000000000     
   1.3437500000000000       0.31250000000000000        0.0000000000000000     
   1.3750000000000000       0.31250000000000000        0.0000000000000000     
   1.2500000000000000       0.34375000000000000        0.0000000000000000     
   1.2812500000000000       0.34375000000000000        0.0000000000000000     
   1.3125000000000000       0.34375000000000000        0.0000000000000000     
   1.3437500000000000       0.34375000000000000        0.0000000000000000     
   1.3750000000000000       0.34375000000000000        0.0000000000000000     
   1.2500000000000000       0.37500000000000000        0.0000000000000000     
   1.2812500000000000       0.37500000000000000        0.0000000000000000     
   1.3125000000000000       0.37500000000000000        0.0000000000000000     
   1.3437500000000000       0.37500000000000000        0.0000000000000000     
   1.3750000000000000       0.37500000000000000        0.0000000000000000     
   1.3750000000000000       0.25000000000000000        0.0000000000000000     
   1.4062500000000000       0.25000000000000000        0.0000000000000000     
   1.4375000000000000       0.25000000000000000        0.0000000000000000     
   1.4687500000000000       0.25000000000000000        0.0000000000000000     
   1.5000000000000000       0.25000000000000000        0.0000000000000000     
   1.3750000000000000       0.28125000000000000        0.0000000000000000     
   1.4062500000000000       0.28125000000000000        0.0000000000000000     
   1.4375000000000000       0.28125000000000000        0.0000000000000000     
   1.4687500000000000       0.28125000000000000        0.0000000000000000     
   1.5000000000000000       0.28125000000000000        0.0000000000000000     
   1.3750000000000000       0.31250000000000000        0.0000000000000000     
   1.4062500000000000       0.31250000000000000        0.0000000000000000     
   1.4375000000000000       0.31250000000000000        0.0000000000000000     
   1.4687500000000000       0.31250000000000000        0.0000000000000000     
   1.5000000000000000       0.31250000000000000        0.0000000000000000     
   1.3750000000000000       0.34375000000000000        0.0000000000000000     
   1.4062500000000000       0.34375000000000000        0.0000000000000000     
   1.4375000000000000       0.34375000000000000        0.0000000000000000     
   1.4687500000000000       0.34375000000000000        0.0000000000000000     
   1.5000000000000000       0.34375000000000000        0.0000000000000000     
   1.3750000000000000       0.37500000000000000        0.0000000000000000     
   1.4062500000000000       0.37500000000000000        0.0000000000000000     
   1.4375000000000000       0.37500000000000000        0.0000000000000000     
   1.4687500000000000       0.37500000000000000        0.0000000000000000     
   1.5000000000000000       0.37500000000000000        0.0000000000000000     
  0.50000000000000000       0.37500000000000000        0.0000000000000000     
  0.53125000000000000       0.37500000000000000        0.0000000000000000     
  0.56250000000000000       0.37500000000000000        0.0000000000000000     
  0.59375000000000000       0.37500000000000000        0.0000000000000000     
  0.62500000000000000       0.37500000000000000        0.0000000000000000     
  0.50000000000000000       0.40625000000000000        0.0000000000000000     
  0.53125000000000000       0.40625000000000000        0.0000000000000000     
  0.56250000000000000       0.40625000000000000        0.0000000000000000     
  0.59375000000000000       0.40625000000000000        0.0000000000000000     
  0.62500000000000000       0.40625000000000000        0.0000000000000000     
  0.50000000000000000       0.43750000000000000        0.0000000000000000     
  0.53125000000000000       0.43750000000000000        0.0000000000000000     
  0.56250000000000000       0.43750000000000000        0.0000000000000000     
  0.59375000000000000       0.43750000000000000        0.0000000000000000     
  0.62500000000000000       0.43750000000000000        0.0000000000000000     
  0.50000000000000000       0.46875000000000000        0.0000000000000000     
  0.53125000000000000       0.46875000000000000        0.0000000000000000     
  0.56250000000000000       0.46875000000000000        0.0000000000000000     
  0.59375000000000000       0.46875000000000000        0.0000000000000000     
  0.62500000000000000       0.46875000000000000        0.0000000000000000     
  0.50000000000000000       0.50000000000000000        0.0000000000000000     
  0.53125000000000000       0.50000000000000000        0.0000000000000000     
  0.56250000000000000       0.50000000000000000        0.0000000000000000     
  0.59375000000000000       0.50000000000000000        0.0000000000000000     
  0.62500000000000000       0.50000000000000000        0.0000000000000000     
  0.62500000000000000       0.37500000000000000        0.0000000000000000     
  0.65625000000000000       0.37500000000000000        0.0000000000000000     
  0.68750000000000000       0.37500000000000000        0.0000000000000000     
  0.71875000000000000       0.37500000000000000        0.0000000000000000     
  0.75000000000000000       0.37500000000000000        0.0000000000000000     
  0.62500000000000000       0.40625000000000000        0.0000000000000000     
  0.65625000000000000       0.40625000000000000        0.0000000000000000     
  0.68750000000000000       0.40625000000000000        0.0000000000000000     
  0.71875000000000000       0.40625000000000000        0.0000000000000000     
  0.75000000000000000       0.40625000000000000        0.0000000000000000     
  0.62500000000000000       0.43750000000000000        0.0000000000000000     
  0.65625000000000000       0.43750000000000000        0.0000000000000000     
  0.68750000000000000       0.43750000000000000        0.0000000000000000     
  0.71875000000000000       0.43750000000000000        0.0000000000000000     
  0.75000000000000000       0.43750000000000000        0.0000000000000000     
  0.62500000000000000       0.46875000000000000        0.0000000000000000     
  0.65625000000000000       0.46875000000000000        0.0000000000000000     
  0.68750000000000000       0.46875000000000000        0.0000000000000000     
  0.71875000000000000       0.46875000000000000        0.0000000000000000     
  0.75000000000000000       0.46875000000000000        0.0000000000000000     
  0.62500000000000000       0.50000000000000000        0.0000000000000000     
  0.65625000000000000       0.50000000000000000        0.0000000000000000     
  0.68750000000000000       0.50000000000000000        0.0000000000000000     
  0.71875000000000000       0.50000000000000000        0.0000000000000000     
  0.75000000000000000       0.50000000000000000        0.0000000000000000     
  0.75000000000000000       0.37500000000000000        0.0000000000000000     
  0.78125000000000000       0.37500000000000000        0.0000000000000000     
  0.81250000000000000       0.37500000000000000        0.0000000000000000     
  0.84375000000000000       0.37500000000000000        0.0000000000000000     
  0.87500000000000000       0.37500000000000000        0.0000000000000000     
  0.75000000000000000       0.40625000000000000        0.0000000000000000     
  0.78125000000000000       0.40625000000000000        0.0000000000000000     
  0.81250000000000000       0.40625000000000000        0.0000000000000000     
  0.84375000000000000       0.40625000000000000        0.0000000000000000     
  0.87500000000000000       0.40625000000000000        0.0000000000000000     
  0.75000000000000000       0.43750000000000000        0.0000000000000000     
  0.78125000000000000       0.43750000000000000        0.0000000000000000     
  0.81250000000000000       0.43750000000000000        0.0000000000000000     
  0.84375000000000000       0.43750000000000000        0.0000000000000000     
  0.87500000000000000       0.43750000000000000        0.0000000000000000     
  0.75000000000000000       0.46875000000000000        0.0000000000000000     
  0.78125000000000000       0.46875000000000000        0.0000000000000000     
  0.81250000000000000       0.46875000000000000        0.0000000000000000     
  0.84375000000000000       0.46875000000000000        0.0000000000000000     
  0.87500000000000000       0.46875000000000000        0.0000000000000000     
  0.75000000000000000       0.50000000000000000        0.0000000000000000     
  0.78125000000000000       0.50000000000000000        0.0000000000000000     
  0.81250000000000000       0.50000000000000000        0.0000000000000000     
  0.84375000000000000       0.50000000000000000        0.0000000000000000     
  0.87500000000000000       0.50000000000000000        0.0000000000000000     
  0.87500000000000000       0.37500000000000000        0.0000000000000000     
  0.90625000000000000       0.37500000000000000        0.0000000000000000     
  0.93750000000000000       0.37500000000000000        0.0000000000000000     
  0.96875000000000000       0.37500000000000000        0.0000000000000000     
   1.0000000000000000       0.37500000000000000        0.0000000000000000     
  0.87500000000000000       0.40625000000000000        0.0000000000000000     
  0.90625000000000000       0.40625000000000000        0.0000000000000000     
  0.93750000000000000       0.40625000000000000        0.0000000000000000     
  0.96875000000000000       0.40625000000000000        0.0000000000000000     
   1.0000000000000000       0.40625000000000000        0.0000000000000000     
  0.87500000000000000       0.43750000000000000        0.0000000000000000     
  0.90625000000000000       0.43750000000000000        0.0000000000000000     
  0.93750000000000000       0.43750000000000000        0.0000000000000000     
  0.96875000000000000       0.43750000000000000        0.0000000000000000     
   1.0000000000000000       0.43750000000000000        0.0000000000000000     
  0.87500000000000000       0.46875000000000000        0.0000000000000000     
  0.90625000000000000       0.46875000000000000        0.0000000000000000     
  0.93750000000000000       0.46875000000000000        0.0000000000000000     
  0.96875000000000000       0.46875000000000000        0.0000000000000000     
   1.0000000000000000       0.46875000000000000        0.0000000000000000     
  0.87500000000000000       0.50000000000000000        0.0000000000000000     
  0.90625000000000000       0.50000000000000000        0.0000000000000000     
  0.93750000000000000       0.50000000000000000        0.0000000000000000     
  0.96875000000000000       0.50000000000000000        0.0000000000000000     
   1.0000000000000000       0.50000000000000000        0.0000000000000000     
   1.0000000000000000       0.37500000000000000        0.0000000000000000     
   1.0312500000000000       0.37500000000000000        0.0000000000000000     
   1.0625000000000000       0.37500000000000000        0.0000000000000000     
   1.0937500000000000       0.37500000000000000        0.0000000000000000     
   1.1250000000000000       0.37500000000000000        0.0000000000000000     
   1.0000000000000000       0.40625000000000000        0.0000000000000000     
   1.0312500000000000       0.40625000000000000        0.0000000000000000     
   1.0625000000000000       0.40625000000000000        0.0000000000000000     
   1.0937500000000000       0.40625000000000000        0.0000000000000000     
   1.1250000000000000       0.40625000000000000        0.0000000000000000     
   1.0000000000000000       0.43750000000000000        0.0000000000000000     
   1.0312500000000000       0.43750000000000000        0.0000000000000000     
   1.0625000000000000       0.43750000000000000        0.0000000000000000     
   1.0937500000000000       0.43750000000000000        0.0000000000000000     
   1.1250000000000000       0.43750000000000000        0.0000000000000000     
   1.0000000000000000       0.46875000000000000        0.0000000000000000     
   1.0312500000000000       0.46875000000000000        0.0000000000000000     
   1.0625000000000000       0.46875000000000000        0.0000000000000000     
   1.0937500000000000       0.46875000000000000        0.0000000000000000     
   1.1250000000000000       0.46875000000000000        0.0000000000000000     
   1.0000000000000000       0.50000000000000000        0.0000000000000000     
   1.0312500000000000       0.50000000000000000        0.0000000000000000     
   1.0625000000000000       0.50000000000000000        0.0000000000000000     
   1.0937500000000000       0.50000000000000000        0.0000000000000000     
   1.1250000000000000       0.50000000000000000        0.0000000000000000     
   1.1250000000000000       0.37500000000000000        0.0000000000000000     
   1.1562500000000000       0.37500000000000000        0.0000000000000000     
   1.1875000000000000       0.37500000000000000        0.0000000000000000     
   1.2187500000000000       0.37500000000000000        0.0000000000000000     
   1.2500000000000000       0.37500000000000000        0.0000000000000000     
   1.1250000000000000       0.40625000000000000        0.0000000000000000     
   1.1562500000000000       0.40625000000000000        0.0000000000000000     
   1.1875000000000000       0.40625000000000000        0.0000000000000000     
   1.2187500000000000       0.40625000000000000        0.0000000000000000     
   1.2500000000000000       0.40625000000000000        0.0000000000000000     
   1.1250000000000000       0.43750000000000000        0.0000000000000000     
   1.1562500000000000       0.43750000000000000        0.0000000000000000     
   1.1875000000000000       0.43750000000000000        0.0000000000000000     
   1.2187500000000000       0.43750000000000000        0.0000000000000000     
   1.2500000000000000       0.43750000000000000        0.0000000000000000     
   1.1250000000000000       0.46875000000000000        0.0000000000000000     
   1.1562500000000000       0.46875000000000000        0.0000000000000000     
   1.1875000000000000       0.46875000000000000        0.0000000000000000     
   1.2187500000000000       0.46875000000000000        0.0000000000000000     
   1.2500000000000000       0.46875000000000000        0.0000000000000000     
   1.1250000000000000       0.50000000000000000        0.0000000000000000     
   1.1562500000000000       0.50000000000000000        0.0000000000000000     
   1.1875000000000000       0.50000000000000000        0.0000000000000000     
   1.2187500000000000       0.50000000000000000        0.0000000000000000     
   1.2500000000000000       0.50000000000000000        0.0000000000000000     
   1.2500000000000000       0.37500000000000000        0.0000000000000000     
   1.2812500000000000       0.37500000000000000        0.0000000000000000     
   1.3125000000000000       0.37500000000000000        0.0000000000000000     
   1.3437500000000000       0.37500000000000000        0.0000000000000000     
   1.3750000000000000       0.37500000000000000        0.0000000000000000     
   1.2500000000000000       0.40625000000000000        0.0000000000000000     
   1.2812500000000000       0.40625000000000000        0.0000000000000000     
   1.3125000000000000       0.40625000000000000        0.0000000000000000     
   1.3437500000000000       0.40625000000000000        0.0000000000000000     
   1.3750000000000000       0.40625000000000000        0.0000000000000000     
   1.2500000000000000       0.43750000000000000        0.0000000000000000     
   1.2812500000000000       0.43750000000000000        0.0000000000000000     
   1.3125000000000000       0.43750000000000000        0.0000000000000000     
   1.3437500000000000       0.43750000000000000        0.0000000000000000     
   1.3750000000000000       0.43750000000000000        0.0000000000000000     
   1.2500000000000000       0.46875000000000000        0.0000000000000000     
   1.2812500000000000       0.46875000000000000        0.0000000000000000     
   1.3125000000000000       0.46875000000000000        0.0000000000000000     
   1.3437500000000000       0.46875000000000000        0.0000000000000000     
   1.3750000000000000       0.46875000000000000        0.0000000000000000     
   1.2500000000000000       0.50000000000000000        0.0000000000000000     
   1.2812500000000000       0.50000000000000000        0.0000000000000000     
   1.3125000000000000       0.50000000000000000        0.0000000000000000     
   1.3437500000000000       0.50000000000000000        0.0000000000000000     
   1.3750000000000000       0.50000000000000000        0.0000000000000000     
   1.3750000000000000       0.37500000000000000        0.0000000000000000     
   1.4062500000000000       0.37500000000000000        0.0000000000000000     
   1.4375000000000000       0.37500000000000000        0.0000000000000000     
   1.4687500000000000       0.37500000000000000        0.0000000000000000     
   1.5000000000000000       0.37500000000000000        0.0000000000000000     
   1.3750000000000000       0.40625000000000000        0.0000000000000000     
   1.4062500000000000       0.40625000000000000        0.0000000000000000     
   1.4375000000000000       0.40625000000000000        0.0000000000000000     
   1.4687500000000000       0.40625000000000000        0.0000000000000000     
   1.5000000000000000       0.40625000000000000        0.0000000000000000     
   1.3750000000000000       0.43750000000000000        0.0000000000000000     
   1.4062500000000000       0.43750000000000000        0.0000000000000000     
   1.4375000000000000       0.43750000000000000        0.0000000000000000     
   1.4687500000000000       0.43750000000000000        0.0000000000000000     
   1.5000000000000000       0.43750000000000000        0.0000000000000000     
   1.3750000000000000       0.46875000000000000        0.0000000000000000     
   1.4062500000000000       0.46875000000000000        0.0000000000000000     
   1.4375000000000000       0.46875000000000000        0.0000000000000000     
   1.4687500000000000       0.46875000000000000        0.0000000000000000     
   1.5000000000000000       0.46875000000000000        0.0000000000000000     
   1.3750000000000000       0.50000000000000000        0.0000000000000000     
   1.4062500000000000       0.50000000000000000        0.0000000000000000     
   1.4375000000000000       0.50000000000000000        0.0000000000000000     
   1.4687500000000000       0.50000000000000000        0.0000000000000000     
   1.5000000000000000       0.50000000000000000        0.0000000000000000     
  0.50000000000000000       0.50000000000000000        0.0000000000000000     
  0.53125000000000000       0.50000000000000000        0.0000000000000000     
  0.56250000000000000       0.50000000000000000        0.0000000000000000     
  0.59375000000000000       0.50000000000000000        0.0000000000000000     
  0.62500000000000000       0.50000000000000000        0.0000000000000000     
  0.50000000000000000       0.53125000000000000        0.0000000000000000     
  0.53125000000000000       0.53125000000000000        0.0000000000000000     
  0.56250000000000000       0.53125000000000000        0.0000000000000000     
  0.59375000000000000       0.53125000000000000        0.0000000000000000     
  0.62500000000000000       0.53125000000000000        0.0000000000000000     
  0.50000000000000000       0.56250000000000000        0.0000000000000000     
  0.53125000000000000       0.56250000000000000        0.0000000000000000     
  0.56250000000000000       0.56250000000000000        0.0000000000000000     
  0.59375000000000000       0.56250000000000000        0.0000000000000000     
  0.62500000000000000       0.56250000000000000        0.0000000000000000     
  0.50000000000000000       0.59375000000000000        0.0000000000000000     
  0.53125000000000000       0.59375000000000000        0.0000000000000000     
  0.56250000000000000       0.59375000000000000        0.0000000000000000     
  0.59375000000000000       0.59375000000000000        0.0000000000000000     
  0.62500000000000000       0.59375000000000000        0.0000000000000000     
  0.50000000000000000       0.62500000000000000        0.0000000000000000     
  0.53125000000000000       0.62500000000000000        0.0000000000000000     
  0.56250000000000000       0.62500000000000000        0.0000000000000000     
  0.59375000000000000       0.62500000000000000        0.0000000000000000     
  0.62500000000000000       0.62500000000000000        0.0000000000000000     
  0.62500000000000000       0.50000000000000000        0.0000000000000000     
  0.65625000000000000       0.50000000000000000        0.0000000000000000     
  0.68750000000000000       0.50000000000000000        0.0000000000000000     
  0.71875000000000000       0.50000000000000000        0.0000000000000000     
  0.75000000000000000       0.50000000000000000        0.0000000000000000     
  0.62500000000000000       0.53125000000000000        0.0000000000000000     
  0.65625000000000000       0.53125000000000000        0.0000000000000000     
  0.68750000000000000       0.53125000000000000        0.0000000000000000     
  0.71875000000000000       0.53125000000000000        0.0000000000000000     
  0.75000000000000000       0.53125000000000000        0.0000000000000000     
  0.62500000000000000       0.56250000000000000        0.0000000000000000     
  0.65625000000000000       0.56250000000000000        0.0000000000000000     
  0.68750000000000000       0.56250000000000000        0.0000000000000000     
  0.71875000000000000       0.56250000000000000        0.0000000000000000     
  0.75000000000000000       0.56250000000000000        0.0000000000000000     
  0.62500000000000000       0.59375000000000000        0.0000000000000000     
  0.65625000000000000       0.59375000000000000        0.0000000000000000     
  0.68750000000000000       0.59375000000000000        0.0000000000000000     
  0.71875000000000000       0.59375000000000000        0.0000000000000000     
  0.75000000000000000       0.59375000000000000        0.0000000000000000     
  0.62500000000000000       0.62500000000000000        0.0000000000000000     
  0.65625000000000000       0.62500000000000000        0.0000000000000000     
  0.68750000000000000       0.62500000000000000        0.0000000000000000     
  0.71875000000000000       0.62500000000000000        0.0000000000000000     
  0.75000000000000000       0.62500000000000000        0.0000000000000000     
  0.75000000000000000       0.50000000000000000        0.0000000000000000     
  0.78125000000000000       0.50000000000000000        0.0000000000000000     
  0.81250000000000000       0.50000000000000000        0.0000000000000000     
  0.84375000000000000       0.50000000000000000        0.0000000000000000     
  0.87500000000000000       0.50000000000000000        0.0000000000000000     
  0.75000000000000000       0.53125000000000000        0.0000000000000000     
  0.78125000000000000       0.53125000000000000        0.0000000000000000     
  0.81250000000000000       0.53125000000000000        0.0000000000000000     
  0.84375000000000000       0.53125000000000000        0.0000000000000000     
  0.87500000000000000       0.53125000000000000        0.0000000000000000     
  0.75000000000000000       0.56250000000000000        0.0000000000000000     
  0.78125000000000000       0.56250000000000000        0.0000000000000000     
  0.81250000000000000       0.56250000000000000        0.0000000000000000     
  0.84375000000000000       0.56250000000000000        0.0000000000000000     
  0.87500000000000000       0.56250000000000000        0.0000000000000000     
  0.75000000000000000       0.59375000000000000        0.0000000000000000     
  0.78125000000000000       0.59375000000000000        0.0000000000000000     
  0.81250000000000000       0.59375000000000000        0.0000000000000000     
  0.84375000000000000       0.59375000000000000        0.0000000000000000     
  0.87500000000000000       0.59375000000000000        0.0000000000000000     
  0.75000000000000000       0.62500000000000000        0.0000000000000000     
  0.78125000000000000       0.62500000000000000        0.0000000000000000     
  0.81250000000000000       0.62500000000000000        0.0000000000000000     
  0.84375000000000000       0.62500000000000000        0.0000000000000000     
  0.87500000000000000       0.62500000000000000        0.0000000000000000     
  0.87500000000000000       0.50000000000000000        0.0000000000000000     
  0.90625000000000000       0.50000000000000000        0.0000000000000000     
  0.93750000000000000       0.50000000000000000        0.0000000000000000     
  0.96875000000000000       0.50000000000000000        0.0000000000000000     
   1.0000000000000000       0.50000000000000000        0.0000000000000000     
  0.87500000000000000       0.53125000000000000        0.0000000000000000     
  0.90625000000000000       0.53125000000000000        0.0000000000000000     
  0.93750000000000000       0.53125000000000000        0.0000000000000000     
  0.96875000000000000       0.53125000000000000        0.0000000000000000     
   1.0000000000000000       0.53125000000000000        0.0000000000000000     
  0.87500000000000000       0.56250000000000000        0.0000000000000000     
  0.90625000000000000       0.56250000000000000        0.0000000000000000     
  0.93750000000000000       0.56250000000000000        0.0000000000000000     
  0.96875000000000000       0.56250000000000000        0.0000000000000000     
   1.0000000000000000       0.56250000000000000        0.0000000000000000     
  0.87500000000000000       0.59375000000000000        0.0000000000000000     
  0.90625000000000000       0.59375000000000000        0.0000000000000000     
  0.93750000000000000       0.59375000000000000        0.0000000000000000     
  0.96875000000000000       0.59375000000000000        0.0000000000000000     
   1.0000000000000000       0.59375000000000000        0.0000000000000000     
  0.87500000000000000       0.62500000000000000        0.0000000000000000     
  0.90625000000000000       0.62500000000000000        0.0000000000000000     
  0.93750000000000000       0.62500000000000000        0.0000000000000000     
  0.96875000000000000       0.62500000000000000        0.0000000000000000     
   1.0000000000000000       0.62500000000000000        0.0000000000000000     
   1.0000000000000000       0.50000000000000000        0.0000000000000000     
   1.0312500000000000       0.50000000000000000        0.0000000000000000     
   1.0625000000000000       0.50000000000000000        0.0000000000000000     
   1.0937500000000000       0.50000000000000000        0.0000000000000000     
   1.1250000000000000       0.50000000000000000        0.0000000000000000     
   1.0000000000000000       0.53125000000000000        0.0000000000000000     
   1.0312500000000000       0.53125000000000000        0.0000000000000000     
   1.0625000000000000       0.53125000000000000        0.0000000000000000     
   1.0937500000000000       0.53125000000000000        0.0000000000000000     
   1.1250000000000000       0.53125000000000000        0.0000000000000000     
   1.0000000000000000       0.56250000000000000        0.0000000000000000     
   1.0312500000000000       0.56250000000000000        0.0000000000000000     
   1.0625000000000000       0.56250000000000000        0.0000000000000000     
   1.0937500000000000       0.56250000000000000        0.0000000000000000     
   1.1250000000000000       0.56250000000000000        0.0000000000000000     
   1.0000000000000000       0.59375000000000000        0.0000000000000000     
   1.0312500000000000       0.59375000000000000        0.0000000000000000     
   1.0625000000000000       0.59375000000000000        0.0000000000000000     
   1.0937500000000000       0.59375000000000000        0.0000000000000000     
   1.1250000000000000       0.59375000000000000        0.0000000000000000     
   1.0000000000000000       0.62500000000000000        0.0000000000000000     
   1.0312500000000000       0.62500000000000000        0.0000000000000000     
   1.0625000000000000       0.62500000000000000        0.0000000000000000     
   1.0937500000000000       0.62500000000000000        0.0000000000000000     
   1.1250000000000000       0.62500000000000000        0.0000000000000000     
   1.1250000000000000       0.50000000000000000        0.0000000000000000     
   1.1562500000000000       0.50000000000000000        0.0000000000000000     
   1.1875000000000000       0.50000000000000000        0.0000000000000000     
   1.2187500000000000       0.50000000000000000        0.0000000000000000     
   1.2500000000000000       0.50000000000000000        0.0000000000000000     
   1.1250000000000000       0.53125000000000000        0.0000000000000000     
   1.1562500000000000       0.53125000000000000        0.0000000000000000     
   1.1875000000000000       0.53125000000000000        0.0000000000000000     
   1.2187500000000000       0.53125000000000000        0.0000000000000000     
   1.2500000000000000       0.53125000000000000        0.0000000000000000     
   1.1250000000000000       0.56250000000000000        0.0000000000000000     
   1.1562500000000000       0.56250000000000000        0.0000000000000000     
   1.1875000000000000       0.56250000000000000        0.0000000000000000     
   1.2187500000000000       0.56250000000000000        0.0000000000000000     
   1.2500000000000000       0.56250000000000000        0.0000000000000000     
   1.1250000000000000       0.59375000000000000        0.0000000000000000     
   1.1562500000000000       0.59375000000000000        0.0000000000000000     
   1.1875000000000000       0.59375000000000000        0.0000000000000000     
   1.2187500000000000       0.59375000000000000        0.0000000000000000     
   1.2500000000000000       0.59375000000000000        0.0000000000000000     
   1.1250000000000000       0.62500000000000000        0.0000000000000000     
   1.1562500000000000       0.62500000000000000        0.0000000000000000     
   1.1875000000000000       0.62500000000000000        0.0000000000000000     
   1.2187500000000000       0.62500000000000000        0.0000000000000000     
   1.2500000000000000       0.62500000000000000        0.0000000000000000     
   1.2500000000000000       0.50000000000000000        0.0000000000000000     
   1.2812500000000000       0.50000000000000000        0.0000000000000000     
   1.3125000000000000       0.50000000000000000        0.0000000000000000     
   1.3437500000000000       0.50000000000000000        0.0000000000000000     
   1.3750000000000000       0.50000000000000000        0.0000000000000000     
   1.2500000000000000       0.53125000000000000        0.0000000000000000     
   1.2812500000000000       0.53125000000000000        0.0000000000000000     
   1.3125000000000000       0.53125000000000000        0.0000000000000000     
   1.3437500000000000       0.53125000000000000        0.0000000000000000     
   1.3750000000000000       0.53125000000000000        0.0000000000000000     
   1.2500000000000000       0.56250000000000000        0.0000000000000000     
   1.2812500000000000       0.56250000000000000        0.0000000000000000     
   1.3125000000000000       0.56250000000000000        0.0000000000000000     
   1.3437500000000000       0.56250000000000000        0.0000000000000000     
   1.3750000000000000       0.56250000000000000        0.0000000000000000     
   1.2500000000000000       0.59375000000000000        0.0000000000000000     
   1.2812500000000000       0.59375000000000000        0.0000000000000000     
   1.3125000000000000       0.59375000000000000        0.0000000000000000     
   1.3437500000000000       0.59375000000000000        0.0000000000000000     
   1.3750000000000000       0.59375000000000000        0.0000000000000000     
   1.2500000000000000       0.62500000000000000        0.0000000000000000     
   1.2812500000000000       0.62500000000000000        0.0000000000000000     
   1.3125000000000000       0.62500000000000000        0.0000000000000000     
   1.3437500000000000       0.62500000000000000        0.0000000000000000     
   1.3750000000000000       0.62500000000000000        0.0000000000000000     
   1.3750000000000000       0.50000000000000000        0.0000000000000000     
   1.4062500000000000       0.50000000000000000        0.0000000000000000     
   1.4375000000000000       0.50000000000000000        0.0000000000000000     
   1.4687500000000000       0.50000000000000000        0.0000000000000000     
   1.5000000000000000       0.50000000000000000        0.0000000000000000     
   1.3750000000000000       0.53125000000000000        0.0000000000000000     
   1.4062500000000000       0.53125000000000000        0.0000000000000000     
   1.4375000000000000       0.53125000000000000        0.0000000000000000     
   1.4687500000000000       0.53125000000000000        0.0000000000000000     
   1.5000000000000000       0.53125000000000000        0.0000000000000000     
   1.3750000000000000       0.56250000000000000        0.0000000000000000     
   1.4062500000000000       0.56250000000000000        0.0000000000000000     
   1.4375000000000000       0.56250000000000000        0.0000000000000000     
   1.4687500000000000       0.56250000000000000        0.0000000000000000     
   1.5000000000000000       0.56250000000000000        0.0000000000000000     
   1.3750000000000000       0.59375000000000000        0.0000000000000000     
   1.4062500000000000       0.59375000000000000        0.0000000000000000     
   1.4375000000000000       0.59375000000000000        0.0000000000000000     
   1.4687500000000000       0.59375000000000000        0.0000000000000000     
   1.5000000000000000       0.59375000000000000        0.0000000000000000     
   1.3750000000000000       0.62500000000000000        0.0000000000000000     
   1.4062500000000000       0.62500000000000000        0.0000000000000000     
   1.4375000000000000       0.62500000000000000        0.0000000000000000     
   1.4687500000000000       0.62500000000000000        0.0000000000000000     
   1.5000000000000000       0.62500000000000000        0.0000000000000000     
  0.50000000000000000       0.62500000000000000        0.0000000000000000     
  0.53125000000000000       0.62500000000000000        0.0000000000000000     
  0.56250000000000000       0.62500000000000000        0.0000000000000000     
  0.59375000000000000       0.62500000000000000        0.0000000000000000     
  0.62500000000000000       0.62500000000000000        0.0000000000000000     
  0.50000000000000000       0.65625000000000000        0.0000000000000000     
  0.53125000000000000       0.65625000000000000        0.0000000000000000     
  0.56250000000000000       0.65625000000000000        0.0000000000000000     
  0.59375000000000000       0.65625000000000000        0.0000000000000000     
  0.62500000000000000       0.65625000000000000        0.0000000000000000     
  0.50000000000000000       0.68750000000000000        0.0000000000000000     
  0.53125000000000000       0.68750000000000000        0.0000000000000000     
  0.56250000000000000       0.68750000000000000        0.0000000000000000     
  0.59375000000000000       0.68750000000000000        0.0000000000000000     
  0.62500000000000000       0.68750000000000000        0.0000000000000000     
  0.50000000000000000       0.71875000000000000        0.0000000000000000     
  0.53125000000000000       0.71875000000000000        0.0000000000000000     
  0.56250000000000000       0.71875000000000000        0.0000000000000000     
  0.59375000000000000       0.71875000000000000        0.0000000000000000     
  0.62500000000000000       0.71875000000000000        0.0000000000000000     
  0.50000000000000000       0.75000000000000000        0.0000000000000000     
  0.53125000000000000       0.75000000000000000        0.0000000000000000     
  0.56250000000000000       0.75000000000000000        0.0000000000000000     
  0.59375000000000000       0.75000000000000000        0.0000000000000000     
  0.62500000000000000       0.75000000000000000        0.0000000000000000     
  0.62500000000000000       0.62500000000000000        0.0000000000000000     
  0.65625000000000000       0.62500000000000000        0.0000000000000000     
  0.68750000000000000       0.62500000000000000        0.0000000000000000     
  0.71875000000000000       0.62500000000000000        0.0000000000000000     
  0.75000000000000000       0.62500000000000000        0.0000000000000000     
  0.62500000000000000       0.65625000000000000        0.0000000000000000     
  0.65625000000000000       0.65625000000000000        0.0000000000000000     
  0.68750000000000000       0.65625000000000000        0.0000000000000000     
  0.71875000000000000       0.65625000000000000        0.0000000000000000     
  0.75000000000000000       0.65625000000000000        0.0000000000000000     
  0.62500000000000000       0.68750000000000000        0.0000000000000000     
  0.65625000000000000       0.68750000000000000        0.0000000000000000     
  0.68750000000000000       0.68750000000000000        0.0000000000000000     
  0.71875000000000000       0.68750000000000000        0.0000000000000000     
  0.75000000000000000       0.68750000000000000        0.0000000000000000     
  0.62500000000000000       0.71875000000000000        0.0000000000000000     
  0.65625000000000000       0.71875000000000000        0.0000000000000000     
  0.68750000000000000       0.71875000000000000        0.0000000000000000     
  0.71875000000000000       0.71875000000000000        0.0000000000000000     
  0.75000000000000000       0.71875000000000000        0.0000000000000000     
  0.62500000000000000       0.75000000000000000        0.0000000000000000     
  0.65625000000000000       0.75000000000000000        0.0000000000000000     
  0.68750000000000000       0.75000000000000000        0.0000000000000000     
  0.71875000000000000       0.75000000000000000        0.0000000000000000     
  0.75000000000000000       0.75000000000000000        0.0000000000000000     
  0.75000000000000000       0.62500000000000000        0.0000000000000000     
  0.78125000000000000       0.62500000000000000        0.0000000000000000     
  0.81250000000000000       0.62500000000000000        0.0000000000000000     
  0.84375000000000000       0.62500000000000000        0.0000000000000000     
  0.87500000000000000       0.62500000000000000        0.0000000000000000     
  0.75000000000000000       0.65625000000000000        0.0000000000000000     
  0.78125000000000000       0.65625000000000000        0.0000000000000000     
  0.81250000000000000       0.65625000000000000        0.0000000000000000     
  0.84375000000000000       0.65625000000000000        0.0000000000000000     
  0.87500000000000000       0.65625000000000000        0.0000000000000000     
  0.75000000000000000       0.68750000000000000        0.0000000000000000     
  0.78125000000000000       0.68750000000000000        0.0000000000000000     
  0.81250000000000000       0.68750000000000000        0.0000000000000000     
  0.84375000000000000       0.68750000000000000        0.0000000000000000     
  0.87500000000000000       0.68750000000000000        0.0000000000000000     
  0.75000000000000000       0.71875000000000000        0.0000000000000000     
  0.78125000000000000       0.71875000000000000        0.0000000000000000     
  0.81250000000000000       0.71875000000000000        0.0000000000000000     
  0.84375000000000000       0.71875000000000000        0.0000000000000000     
  0.87500000000000000       0.71875000000000000        0.0000000000000000     
  0.75000000000000000       0.75000000000000000        0.0000000000000000     
  0.78125000000000000       0.75000000000000000        0.0000000000000000     
  0.81250000000000000       0.75000000000000000        0.0000000000000000     
  0.84375000000000000       0.75000000000000000        0.0000000000000000     
  0.87500000000000000       0.75000000000000000        0.0000000000000000     
  0.87500000000000000       0.62500000000000000        0.0000000000000000     
  0.90625000000000000       0.62500000000000000        0.0000000000000000     
  0.93750000000000000       0.62500000000000000        0.0000000000000000     
  0.96875000000000000       0.62500000000000000        0.0000000000000000     
   1.0000000000000000       0.62500000000000000        0.0000000000000000     
  0.87500000000000000       0.65625000000000000        0.0000000000000000     
  0.90625000000000000       0.65625000000000000        0.0000000000000000     
  0.93750000000000000       0.65625000000000000        0.0000000000000000     
  0.96875000000000000       0.65625000000000000        0.0000000000000000     
   1.0000000000000000       0.65625000000000000        0.0000000000000000     
  0.87500000000000000       0.68750000000000000        0.0000000000000000     
  0.90625000000000000       0.68750000000000000        0.0000000000000000     
  0.93750000000000000       0.68750000000000000        0.0000000000000000     
  0.96875000000000000       0.68750000000000000        0.0000000000000000     
   1.0000000000000000       0.68750000000000000        0.0000000000000000     
  0.87500000000000000       0.71875000000000000        0.0000000000000000     
  0.90625000000000000       0.71875000000000000        0.0000000000000000     
  0.93750000000000000       0.71875000000000000        0.0000000000000000     
  0.96875000000000000       0.71875000000000000        0.0000000000000000     
   1.0000000000000000       0.71875000000000000        0.0000000000000000     
  0.87500000000000000       0.75000000000000000        0.0000000000000000     
  0.90625000000000000       0.75000000000000000        0.0000000000000000     
  0.93750000000000000       0.75000000000000000        0.0000000000000000     
  0.96875000000000000       0.75000000000000000        0.0000000000000000     
   1.0000000000000000       0.75000000000000000        0.0000000000000000     
   1.0000000000000000       0.62500000000000000        0.0000000000000000     
   1.0312500000000000       0.62500000000000000        0.0000000000000000     
   1.0625000000000000       0.62500000000000000        0.0000000000000000     
   1.0937500000000000       0.62500000000000000        0.0000000000000000     
   1.1250000000000000       0.62500000000000000        0.0000000000000000     
   1.0000000000000000       0.65625000000000000        0.0000000000000000     
   1.0312500000000000       0.65625000000000000        0.0000000000000000     
   1.0625000000000000       0.65625000000000000        0.0000000000000000     
   1.0937500000000000       0.65625000000000000        0.0000000000000000     
   1.1250000000000000       0.65625000000000000        0.0000000000000000     
   1.0000000000000000       0.68750000000000000        0.0000000000000000     
   1.0312500000000000       0.68750000000000000        0.0000000000000000     
   1.0625000000000000       0.68750000000000000        0.0000000000000000     
   1.0937500000000000       0.68750000000000000        0.0000000000000000     
   1.1250000000000000       0.68750000000000000        0.0000000000000000     
   1.0000000000000000       0.71875000000000000        0.0000000000000000     
   1.0312500000000000       0.71875000000000000        0.0000000000000000     
   1.0625000000000000       0.71875000000000000        0.0000000000000000     
   1.0937500000000000       0.71875000000000000        0.0000000000000000     
   1.1250000000000000       0.71875000000000000        0.0000000000000000     
   1.0000000000000000       0.75000000000000000        0.0000000000000000     
   1.0312500000000000       0.75000000000000000        0.0000000000000000     
   1.0625000000000000       0.75000000000000000        0.0000000000000000     
   1.0937500000000000       0.75000000000000000        0.0000000000000000     
   1.1250000000000000       0.75000000000000000        0.0000000000000000     
   1.1250000000000000       0.62500000000000000        0.0000000000000000     
   1.1562500000000000       0.62500000000000000        0.0000000000000000     
   1.1875000000000000       0.62500000000000000        0.0000000000000000     
   1.2187500000000000       0.62500000000000000        0.0000000000000000     
   1.2500000000000000       0.62500000000000000        0.0000000000000000     
   1.1250000000000000       0.65625000000000000        0.0000000000000000     
   1.1562500000000000       0.65625000000000000        0.0000000000000000     
   1.1875000000000000       0.65625000000000000        0.0000000000000000     
   1.2187500000000000       0.65625000000000000        0.0000000000000000     
   1.2500000000000000       0.65625000000000000        0.0000000000000000     
   1.1250000000000000       0.68750000000000000        0.0000000000000000     
   1.1562500000000000       0.68750000000000000        0.0000000000000000     
   1.1875000000000000       0.68750000000000000        0.0000000000000000     
   1.2187500000000000       0.68750000000000000        0.0000000000000000     
   1.2500000000000000       0.68750000000000000        0.0000000000000000     
   1.1250000000000000       0.71875000000000000        0.0000000000000000     
   1.1562500000000000       0.71875000000000000        0.0000000000000000     
   1.1875000000000000       0.71875000000000000        0.0000000000000000     
   1.2187500000000000       0.71875000000000000        0.0000000000000000     
   1.2500000000000000       0.71875000000000000        0.0000000000000000     
   1.1250000000000000       0.75000000000000000        0.0000000000000000     
   1.1562500000000000       0.75000000000000000        0.0000000000000000     
   1.1875000000000000       0.75000000000000000        0.0000000000000000     
   1.2187500000000000       0.75000000000000000        0.0000000000000000     
   1.2500000000000000       0.75000000000000000        0.0000000000000000     
   1.2500000000000000       0.62500000000000000        0.0000000000000000     
   1.2812500000000000       0.62500000000000000        0.0000000000000000     
   1.3125000000000000       0.62500000000000000        0.0000000000000000     
   1.3437500000000000       0.62500000000000000        0.0000000000000000     
   1.3750000000000000       0.62500000000000000        0.0000000000000000     
   1.2500000000000000       0.65625000000000000        0.0000000000000000     
   1.2812500000000000       0.65625000000000000        0.0000000000000000     
   1.3125000000000000       0.65625000000000000        0.0000000000000000     
   1.3437500000000000       0.65625000000000000        0.0000000000000000     
   1.3750000000000000       0.65625000000000000        0.0000000000000000     
   1.2500000000000000       0.68750000000000000        0.0000000000000000     
   1.2812500000000000       0.68750000000000000        0.0000000000000000     
   1.3125000000000000       0.68750000000000000        0.0000000000000000     
   1.3437500000000000       0.68750000000000000        0.0000000000000000     
   1.3750000000000000       0.68750000000000000        0.0000000000000000     
   1.2500000000000000       0.71875000000000000        0.0000000000000000     
   1.2812500000000000       0.71875000000000000        0.0000000000000000     
   1.3125000000000000       0.71875000000000000        0.0000000000000000     
   1.3437500000000000       0.71875000000000000        0.0000000000000000     
   1.3750000000000000       0.71875000000000000        0.0000000000000000     
   1.2500000000000000       0.75000000000000000        0.0000000000000000     
   1.2812500000000000       0.75000000000000000        0.0000000000000000     
   1.3125000000000000       0.75000000000000000        0.0000000000000000     
   1.3437500000000000       0.75000000000000000        0.0000000000000000     
   1.3750000000000000       0.75000000000000000        0.0000000000000000     
   1.3750000000000000       0.62500000000000000        0.0000000000000000     
   1.4062500000000000       0.62500000000000000        0.0000000000000000     
   1.4375000000000000       0.62500000000000000        0.0000000000000000     
   1.4687500000000000       0.62500000000000000        0.0000000000000000     
   1.5000000000000000       0.62500000000000000        0.0000000000000000     
   1.3750000000000000       0.65625000000000000        0.0000000000000000     
   1.4062500000000000       0.65625000000000000        0.0000000000000000     
   1.4375000000000000       0.65625000000000000        0.0000000000000000     
   1.4687500000000000       0.65625000000000000        0.0000000000000000     
   1.5000000000000000       0.65625000000000000        0.0000000000000000     
   1.3750000000000000       0.68750000000000000        0.0000000000000000     
   1.4062500000000000       0.68750000000000000        0.0000000000000000     
   1.4375000000000000       0.68750000000000000        0.0000000000000000     
   1.4687500000000000       0.68750000000000000        0.0000000000000000     
   1.5000000000000000       0.68750000000000000        0.0000000000000000     
   1.3750000000000000       0.71875000000000000        0.0000000000000000     
   1.4062500000000000       0.71875000000000000        0.0000000000000000     
   1.4375000000000000       0.71875000000000000        0.0000000000000000     
   1.4687500000000000       0.71875000000000000        0.0000000000000000     
   1.5000000000000000       0.71875000000000000        0.0000000000000000     
   1.3750000000000000       0.75000000000000000        0.0000000000000000     
   1.4062500000000000       0.75000000000000000        0.0000000000000000     
   1.4375000000000000       0.75000000000000000        0.0000000000000000     
   1.4687500000000000       0.75000000000000000        0.0000000000000000     
   1.5000000000000000       0.75000000000000000        0.0000000000000000     
  0.50000000000000000       0.75000000000000000        0.0000000000000000     
  0.53125000000000000       0.75000000000000000        0.0000000000000000     
  0.56250000000000000       0.75000000000000000        0.0000000000000000     
  0.59375000000000000       0.75000000000000000        0.0000000000000000     
  0.62500000000000000       0.75000000000000000        0.0000000000000000     
  0.50000000000000000       0.78125000000000000        0.0000000000000000     
  0.53125000000000000       0.78125000000000000        0.0000000000000000     
  0.56250000000000000       0.78125000000000000        0.0000000000000000     
  0.59375000000000000       0.78125000000000000        0.0000000000000000     
  0.62500000000000000       0.78125000000000000        0.0000000000000000     
  0.50000000000000000       0.81250000000000000        0.0000000000000000     
  0.53125000000000000       0.81250000000000000        0.0000000000000000     
  0.56250000000000000       0.81250000000000000        0.0000000000000000     
  0.59375000000000000       0.81250000000000000        0.0000000000000000     
  0.62500000000000000       0.81250000000000000        0.0000000000000000     
  0.50000000000000000       0.84375000000000000        0.0000000000000000     
  0.53125000000000000       0.84375000000000000        0.0000000000000000     
  0.56250000000000000       0.84375000000000000        0.0000000000000000     
  0.59375000000000000       0.84375000000000000        0.0000000000000000     
  0.62500000000000000       0.84375000000000000        0.0000000000000000     
  0.50000000000000000       0.87500000000000000        0.0000000000000000     
  0.53125000000000000       0.87500000000000000        0.0000000000000000     
  0.56250000000000000       0.87500000000000000        0.0000000000000000     
  0.59375000000000000       0.87500000000000000        0.0000000000000000     
  0.62500000000000000       0.87500000000000000        0.0000000000000000     
  0.62500000000000000       0.75000000000000000        0.0000000000000000     
  0.65625000000000000       0.75000000000000000        0.0000000000000000     
  0.68750000000000000       0.75000000000000000        0.0000000000000000     
  0.71875000000000000       0.75000000000000000        0.0000000000000000     
  0.75000000000000000       0.75000000000000000        0.0000000000000000     
  0.62500000000000000       0.78125000000000000        0.0000000000000000     
  0.65625000000000000       0.78125000000000000        0.0000000000000000     
  0.68750000000000000       0.78125000000000000        0.0000000000000000     
  0.71875000000000000       0.78125000000000000        0.0000000000000000     
  0.75000000000000000       0.78125000000000000        0.0000000000000000     
  0.62500000000000000       0.81250000000000000        0.0000000000000000     
  0.65625000000000000       0.81250000000000000        0.0000000000000000     
  0.68750000000000000       0.81250000000000000        0.0000000000000000     
  0.71875000000000000       0.81250000000000000        0.0000000000000000     
  0.75000000000000000       0.81250000000000000        0.0000000000000000     
  0.62500000000000000       0.84375000000000000        0.0000000000000000     
  0.65625000000000000       0.84375000000000000        0.0000000000000000     
  0.68750000000000000       0.84375000000000000        0.0000000000000000     
  0.71875000000000000       0.84375000000000000        0.0000000000000000     
  0.75000000000000000       0.84375000000000000        0.0000000000000000     
  0.62500000000000000       0.87500000000000000        0.0000000000000000     
  0.65625000000000000       0.87500000000000000        0.0000000000000000     
  0.68750000000000000       0.87500000000000000        0.0000000000000000     
  0.71875000000000000       0.87500000000000000        0.0000000000000000     
  0.75000000000000000       0.87500000000000000        0.0000000000000000     
  0.75000000000000000       0.75000000000000000        0.0000000000000000     
  0.78125000000000000       0.75000000000000000        0.0000000000000000     
  0.81250000000000000       0.75000000000000000        0.0000000000000000     
  0.84375000000000000       0.75000000000000000        0.0000000000000000     
  0.87500000000000000       0.75000000000000000        0.0000000000000000     
  0.75000000000000000       0.78125000000000000        0.0000000000000000     
  0.78125000000000000       0.78125000000000000        0.0000000000000000     
  0.81250000000000000       0.78125000000000000        0.0000000000000000     
  0.84375000000000000       0.78125000000000000        0.0000000000000000     
  0.87500000000000000       0.78125000000000000        0.0000000000000000     
  0.75000000000000000       0.81250000000000000        0.0000000000000000     
  0.78125000000000000       0.81250000000000000        0.0000000000000000     
  0.81250000000000000       0.81250000000000000        0.0000000000000000     
  0.84375000000000000       0.81250000000000000        0.0000000000000000     
  0.87500000000000000       0.81250000000000000        0.0000000000000000     
  0.75000000000000000       0.84375000000000000        0.0000000000000000     
  0.78125000000000000       0.84375000000000000        0.0000000000000000     
  0.81250000000000000       0.84375000000000000        0.0000000000000000     
  0.84375000000000000       0.84375000000000000        0.0000000000000000     
  0.87500000000000000       0.84375000000000000        0.0000000000000000     
  0.75000000000000000       0.87500000000000000        0.0000000000000000     
  0.78125000000000000       0.87500000000000000        0.0000000000000000     
  0.81250000000000000       0.87500000000000000        0.0000000000000000     
  0.84375000000000000       0.87500000000000000        0.0000000000000000     
  0.87500000000000000       0.87500000000000000        0.0000000000000000     
  0.87500000000000000       0.75000000000000000        0.0000000000000000     
  0.90625000000000000       0.75000000000000000        0.0000000000000000     
  0.93750000000000000       0.75000000000000000        0.0000000000000000     
  0.96875000000000000       0.75000000000000000        0.0000000000000000     
   1.0000000000000000       0.75000000000000000        0.0000000000000000     
  0.87500000000000000       0.78125000000000000        0.0000000000000000     
  0.90625000000000000       0.78125000000000000        0.0000000000000000     
  0.93750000000000000       0.78125000000000000        0.0000000000000000     
  0.96875000000000000       0.78125000000000000        0.0000000000000000     
   1.0000000000000000       0.78125000000000000        0.0000000000000000     
  0.87500000000000000       0.81250000000000000        0.0000000000000000     
  0.90625000000000000       0.81250000000000000        0.0000000000000000     
  0.93750000000000000       0.81250000000000000        0.0000000000000000     
  0.96875000000000000       0.81250000000000000        0.0000000000000000     
   1.0000000000000000       0.81250000000000000        0.0000000000000000     
  0.87500000000000000       0.84375000000000000        0.0000000000000000     
  0.90625000000000000       0.84375000000000000        0.0000000000000000     
  0.93750000000000000       0.84375000000000000        0.0000000000000000     
  0.96875000000000000       0.84375000000000000        0.0000000000000000     
   1.0000000000000000       0.84375000000000000        0.0000000000000000     
  0.87500000000000000       0.87500000000000000        0.0000000000000000     
  0.90625000000000000       0.87500000000000000        0.0000000000000000     
  0.93750000000000000       0.87500000000000000        0.0000000000000000     
  0.96875000000000000       0.87500000000000000        0.0000000000000000     
   1.0000000000000000       0.87500000000000000        0.0000000000000000     
   1.0000000000000000       0.75000000000000000        0.0000000000000000     
   1.0312500000000000       0.75000000000000000        0.0000000000000000     
   1.0625000000000000       0.75000000000000000        0.0000000000000000     
   1.0937500000000000       0.75000000000000000        0.0000000000000000     
   1.1250000000000000       0.75000000000000000        0.0000000000000000     
   1.0000000000000000       0.78125000000000000        0.0000000000000000     
   1.0312500000000000       0.78125000000000000        0.0000000000000000     
   1.0625000000000000       0.78125000000000000        0.0000000000000000     
   1.0937500000000000       0.78125000000000000        0.0000000000000000     
   1.1250000000000000       0.78125000000000000        0.0000000000000000     
   1.0000000000000000       0.81250000000000000        0.0000000000000000     
   1.0312500000000000       0.81250000000000000        0.0000000000000000     
   1.0625000000000000       0.81250000000000000        0.0000000000000000     
   1.0937500000000000       0.81250000000000000        0.0000000000000000     
   1.1250000000000000       0.81250000000000000        0.0000000000000000     
   1.0000000000000000       0.84375000000000000        0.0000000000000000     
   1.0312500000000000       0.84375000000000000        0.0000000000000000     
   1.0625000000000000       0.84375000000000000        0.0000000000000000     
   1.0937500000000000       0.84375000000000000        0.0000000000000000     
   1.1250000000000000       0.84375000000000000        0.0000000000000000     
   1.0000000000000000       0.87500000000000000        0.0000000000000000     
   1.0312500000000000       0.87500000000000000        0.0000000000000000     
   1.0625000000000000       0.87500000000000000        0.0000000000000000     
   1.0937500000000000       0.87500000000000000        0.0000000000000000     
   1.1250000000000000       0.87500000000000000        0.0000000000000000     
   1.1250000000000000       0.75000000000000000        0.0000000000000000     
   1.1562500000000000       0.75000000000000000        0.0000000000000000     
   1.1875000000000000       0.75000000000000000        0.0000000000000000     
   1.2187500000000000       0.75000000000000000        0.0000000000000000     
   1.2500000000000000       0.75000000000000000        0.0000000000000000     
   1.1250000000000000       0.78125000000000000        0.0000000000000000     
   1.1562500000000000       0.78125000000000000        0.0000000000000000     
   1.1875000000000000       0.78125000000000000        0.0000000000000000     
   1.2187500000000000       0.78125000000000000        0.0000000000000000     
   1.2500000000000000       0.78125000000000000        0.0000000000000000     
   1.1250000000000000       0.81250000000000000        0.0000000000000000     
   1.1562500000000000       0.81250000000000000        0.0000000000000000     
   1.1875000000000000       0.81250000000000000        0.0000000000000000     
   1.2187500000000000       0.81250000000000000        0.0000000000000000     
   1.2500000000000000       0.81250000000000000        0.0000000000000000     
   1.1250000000000000       0.84375000000000000        0.0000000000000000     
   1.1562500000000000       0.84375000000000000        0.0000000000000000     
   1.1875000000000000       0.84375000000000000        0.0000000000000000     
   1.2187500000000000       0.84375000000000000        0.0000000000000000     
   1.2500000000000000       0.84375000000000000        0.0000000000000000     
   1.1250000000000000       0.87500000000000000        0.0000000000000000     
   1.1562500000000000       0.87500000000000000        0.0000000000000000     
   1.1875000000000000       0.87500000000000000        0.0000000000000000     
   1.2187500000000000       0.87500000000000000        0.0000000000000000     
   1.2500000000000000       0.87500000000000000        0.0000000000000000     
   1.2500000000000000       0.75000000000000000        0.0000000000000000     
   1.2812500000000000       0.75000000000000000        0.0000000000000000     
   1.3125000000000000       0.75000000000000000        0.0000000000000000     
   1.3437500000000000       0.75000000000000000        0.0000000000000000     
   1.3750000000000000       0.75000000000000000        0.0000000000000000     
   1.2500000000000000       0.78125000000000000        0.0000000000000000     
   1.2812500000000000       0.78125000000000000        0.0000000000000000     
   1.3125000000000000       0.78125000000000000        0.0000000000000000     
   1.3437500000000000       0.78125000000000000        0.0000000000000000     
   1.3750000000000000       0.78125000000000000        0.0000000000000000     
   1.2500000000000000       0.81250000000000000        0.0000000000000000     
   1.2812500000000000       0.81250000000000000        0.0000000000000000     
   1.3125000000000000       0.81250000000000000        0.0000000000000000     
   1.3437500000000000       0.81250000000000000        0.0000000000000000     
   1.3750000000000000       0.81250000000000000        0.0000000000000000     
   1.2500000000000000       0.84375000000000000        0.0000000000000000     
   1.2812500000000000       0.84375000000000000        0.0000000000000000     
   1.3125000000000000       0.84375000000000000        0.0000000000000000     
   1.3437500000000000       0.84375000000000000        0.0000000000000000     
   1.3750000000000000       0.84375000000000000        0.0000000000000000     
   1.2500000000000000       0.87500000000000000        0.0000000000000000     
   1.2812500000000000       0.87500000000000000        0.0000000000000000     
   1.3125000000000000       0.87500000000000000        0.0000000000000000     
   1.3437500000000000       0.87500000000000000        0.0000000000000000     
   1.3750000000000000       0.87500000000000000        0.0000000000000000     
   1.3750000000000000       0.75000000000000000        0.0000000000000000     
   1.4062500000000000       0.75000000000000000        0.0000000000000000     
   1.4375000000000000       0.75000000000000000        0.0000000000000000     
   1.4687500000000000       0.75000000000000000        0.0000000000000000     
   1.5000000000000000       0.75000000000000000        0.0000000000000000     
   1.3750000000000000       0.78125000000000000        0.0000000000000000     
   1.4062500000000000       0.78125000000000000        0.0000000000000000     
   1.4375000000000000       0.78125000000000000        0.0000000000000000     
   1.4687500000000000       0.78125000000000000        0.0000000000000000     
   1.5000000000000000       0.78125000000000000        0.0000000000000000     
   1.3750000000000000       0.81250000000000000        0.0000000000000000     
   1.4062500000000000       0.81250000000000000        0.0000000000000000     
   1.4375000000000000       0.81250000000000000        0.0000000000000000     
   1.4687500000000000       0.81250000000000000        0.0000000000000000     
   1.5000000000000000       0.81250000000000000        0.0000000000000000     
   1.3750000000000000       0.84375000000000000        0.0000000000000000     
   1.4062500000000000       0.84375000000000000        0.0000000000000000     
   1.4375000000000000       0.84375000000000000        0.0000000000000000     
   1.4687500000000000       0.84375000000000000        0.0000000000000000     
   1.5000000000000000       0.84375000000000000        0.0000000000000000     
   1.3750000000000000       0.87500000000000000        0.0000000000000000     
   1.4062500000000000       0.87500000000000000        0.0000000000000000     
   1.4375000000000000       0.87500000000000000        0.0000000000000000     
   1.4687500000000000       0.87500000000000000        0.0000000000000000     
   1.5000000000000000       0.87500000000000000        0.0000000000000000     
  0.50000000000000000       0.87500000000000000        0.0000000000000000     
  0.53125000000000000       0.87500000000000000        0.0000000000000000     
  0.56250000000000000       0.87500000000000000        0.0000000000000000     
  0.59375000000000000       0.87500000000000000        0.0000000000000000     
  0.62500000000000000       0.87500000000000000        0.0000000000000000     
  0.50000000000000000       0.90625000000000000        0.0000000000000000     
  0.53125000000000000       0.90625000000000000        0.0000000000000000     
  0.56250000000000000       0.90625000000000000        0.0000000000000000     
  0.59375000000000000       0.90625000000000000        0.0000000000000000     
  0.62500000000000000       0.90625000000000000        0.0000000000000000     
  0.50000000000000000       0.93750000000000000        0.0000000000000000     
  0.53125000000000000       0.93750000000000000        0.0000000000000000     
  0.56250000000000000       0.93750000000000000        0.0000000000000000     
  0.59375000000000000       0.93750000000000000        0.0000000000000000     
  0.62500000000000000       0.93750000000000000        0.0000000000000000     
  0.50000000000000000       0.96875000000000000        0.0000000000000000     
  0.53125000000000000       0.96875000000000000        0.0000000000000000     
  0.56250000000000000       0.96875000000000000        0.0000000000000000     
  0.59375000000000000       0.96875000000000000        0.0000000000000000     
  0.62500000000000000       0.96875000000000000        0.0000000000000000     
  0.50000000000000000        1.0000000000000000        0.0000000000000000     
  0.53125000000000000        1.0000000000000000        0.0000000000000000     
  0.56250000000000000        1.0000000000000000        0.0000000000000000     
  0.59375000000000000        1.0000000000000000        0.0000000000000000     
  0.62500000000000000        1.0000000000000000        0.0000000000000000     
  0.62500000000000000       0.87500000000000000        0.0000000000000000     
  0.65625000000000000       0.87500000000000000        0.0000000000000000     
  0.68750000000000000       0.87500000000000000        0.0000000000000000     
  0.71875000000000000       0.87500000000000000        0.0000000000000000     
  0.75000000000000000       0.87500000000000000        0.0000000000000000     
  0.62500000000000000       0.90625000000000000        0.0000000000000000     
  0.65625000000000000       0.90625000000000000        0.0000000000000000     
  0.68750000000000000       0.90625000000000000        0.0000000000000000     
  0.71875000000000000       0.90625000000000000        0.0000000000000000     
  0.75000000000000000       0.90625000000000000        0.0000000000000000     
  0.62500000000000000       0.93750000000000000        0.0000000000000000     
  0.65625000000000000       0.93750000000000000        0.0000000000000000     
  0.68750000000000000       0.93750000000000000        0.0000000000000000     
  0.71875000000000000       0.93750000000000000        0.0000000000000000     
  0.75000000000000000       0.93750000000000000        0.0000000000000000     
  0.62500000000000000       0.96875000000000000        0.0000000000000000     
  0.65625000000000000       0.96875000000000000        0.0000000000000000     
  0.68750000000000000       0.96875000000000000        0.0000000000000000     
  0.71875000000000000       0.96875000000000000        0.0000000000000000     
  0.75000000000000000       0.96875000000000000        0.0000000000000000     
  0.62500000000000000        1.0000000000000000        0.0000000000000000     
  0.65625000000000000        1.0000000000000000        0.0000000000000000     
  0.68750000000000000        1.0000000000000000        0.0000000000000000     
  0.71875000000000000        1.0000000000000000        0.0000000000000000     
  0.75000000000000000        1.0000000000000000        0.0000000000000000     
  0.75000000000000000       0.87500000000000000        0.0000000000000000     
  0.78125000000000000       0.87500000000000000        0.0000000000000000     
  0.81250000000000000       0.87500000000000000        0.0000000000000000     
  0.84375000000000000       0.87500000000000000        0.0000000000000000     
  0.87500000000000000       0.87500000000000000        0.0000000000000000     
  0.75000000000000000       0.90625000000000000        0.0000000000000000     
  0.78125000000000000       0.90625000000000000        0.0000000000000000     
  0.81250000000000000       0.90625000000000000        0.0000000000000000     
  0.84375000000000000       0.90625000000000000        0.0000000000000000     
  0.87500000000000000       0.90625000000000000        0.0000000000000000     
  0.75000000000000000       0.93750000000000000        0.0000000000000000     
  0.78125000000000000       0.93750000000000000        0.0000000000000000     
  0.81250000000000000       0.93750000000000000        0.0000000000000000     
  0.84375000000000000       0.93750000000000000        0.0000000000000000     
  0.87500000000000000       0.93750000000000000        0.0000000000000000     
  0.75000000000000000       0.96875000000000000        0.0000000000000000     
  0.78125000000000000       0.96875000000000000        0.0000000000000000     
  0.81250000000000000       0.96875000000000000        0.0000000000000000     
  0.84375000000000000       0.96875000000000000        0.0000000000000000     
  0.87500000000000000       0.96875000000000000        0.0000000000000000     
  0.75000000000000000        1.0000000000000000        0.0000000000000000     
  0.78125000000000000        1.0000000000000000        0.0000000000000000     
  0.81250000000000000        1.0000000000000000        0.0000000000000000     
  0.84375000000000000        1.0000000000000000        0.0000000000000000     
  0.87500000000000000        1.0000000000000000        0.0000000000000000     
  0.87500000000000000       0.87500000000000000        0.0000000000000000     
  0.90625000000000000       0.87500000000000000        0.0000000000000000     
  0.93750000000000000       0.87500000000000000        0.0000000000000000     
  0.96875000000000000       0.87500000000000000        0.0000000000000000     
   1.0000000000000000       0.87500000000000000        0.0000000000000000     
  0.87500000000000000       0.90625000000000000        0.0000000000000000     
  0.90625000000000000       0.90625000000000000        0.0000000000000000     
  0.93750000000000000       0.90625000000000000        0.0000000000000000     
  0.96875000000000000       0.90625000000000000        0.0000000000000000     
   1.0000000000000000       0.90625000000000000        0.0000000000000000     
  0.87500000000000000       0.93750000000000000        0.0000000000000000     
  0.90625000000000000       0.93750000000000000        0.0000000000000000     
  0.93750000000000000       0.93750000000000000        0.0000000000000000     
  0.96875000000000000       0.93750000000000000        0.0000000000000000     
   1.0000000000000000       0.93750000000000000        0.0000000000000000     
  0.87500000000000000       0.96875000000000000        0.0000000000000000     
  0.90625000000000000       0.96875000000000000        0.0000000000000000     
  0.93750000000000000       0.96875000000000000        0.0000000000000000     
  0.96875000000000000       0.96875000000000000        0.0000000000000000     
   1.0000000000000000       0.96875000000000000        0.0000000000000000     
  0.87500000000000000        1.0000000000000000        0.0000000000000000     
  0.90625000000000000        1.0000000000000000        0.0000000000000000     
  0.93750000000000000        1.0000000000000000        0.0000000000000000     
  0.96875000000000000        1.0000000000000000        0.0000000000000000     
   1.0000000000000000        1.0000000000000000        0.0000000000000000     
   1.0000000000000000       0.87500000000000000        0.0000000000000000     
   1.0312500000000000       0.87500000000000000        0.0000000000000000     
   1.0625000000000000       0.87500000000000000        0.0000000000000000     
   1.0937500000000000       0.87500000000000000        0.0000000000000000     
   1.1250000000000000       0.87500000000000000        0.0000000000000000     
   1.0000000000000000       0.90625000000000000        0.0000000000000000     
   1.0312500000000000       0.90625000000000000        0.0000000000000000     
   1.0625000000000000       0.90625000000000000        0.0000000000000000     
   1.0937500000000000       0.90625000000000000        0.0000000000000000     
   1.1250000000000000       0.90625000000000000        0.0000000000000000     
   1.0000000000000000       0.93750000000000000        0.0000000000000000     
   1.0312500000000000       0.93750000000000000        0.0000000000000000     
   1.0625000000000000       0.93750000000000000        0.0000000000000000     
   1.0937500000000000       0.93750000000000000        0.0000000000000000     
   1.1250000000000000       0.93750000000000000        0.0000000000000000     
   1.0000000000000000       0.96875000000000000        0.0000000000000000     
   1.0312500000000000       0.96875000000000000        0.0000000000000000     
   1.0625000000000000       0.96875000000000000        0.0000000000000000     
   1.0937500000000000       0.96875000000000000        0.0000000000000000     
   1.1250000000000000       0.96875000000000000        0.0000000000000000     
   1.0000000000000000        1.0000000000000000        0.0000000000000000     
   1.0312500000000000        1.0000000000000000        0.0000000000000000     
   1.0625000000000000        1.0000000000000000        0.0000000000000000     
   1.0937500000000000        1.0000000000000000        0.0000000000000000     
   1.1250000000000000        1.0000000000000000        0.0000000000000000     
   1.1250000000000000       0.87500000000000000        0.0000000000000000     
   1.1562500000000000       0.87500000000000000        0.0000000000000000     
   1.1875000000000000       0.87500000000000000        0.0000000000000000     
   1.2187500000000000       0.87500000000000000        0.0000000000000000     
   1.2500000000000000       0.87500000000000000        0.0000000000000000     
   1.1250000000000000       0.90625000000000000        0.0000000000000000     
   1.1562500000000000       0.90625000000000000        0.0000000000000000     
   1.1875000000000000       0.90625000000000000        0.0000000000000000     
   1.2187500000000000       0.90625000000000000        0.0000000000000000     
   1.2500000000000000       0.90625000000000000        0.0000000000000000     
   1.1250000000000000       0.93750000000000000        0.0000000000000000     
   1.1562500000000000       0.93750000000000000        0.0000000000000000     
   1.1875000000000000       0.93750000000000000        0.0000000000000000     
   1.2187500000000000       0.93750000000000000        0.0000000000000000     
   1.2500000000000000       0.93750000000000000        0.0000000000000000     
   1.1250000000000000       0.96875000000000000        0.0000000000000000     
   1.1562500000000000       0.96875000000000000        0.0000000000000000     
   1.1875000000000000       0.96875000000000000        0.0000000000000000     
   1.2187500000000000       0.96875000000000000        0.0000000000000000     
   1.2500000000000000       0.96875000000000000        0.0000000000000000     
   1.1250000000000000        1.0000000000000000        0.0000000000000000     
   1.1562500000000000        1.0000000000000000        0.0000000000000000     
   1.1875000000000000        1.0000000000000000        0.0000000000000000     
   1.2187500000000000        1.0000000000000000        0.0000000000000000     
   1.2500000000000000        1.0000000000000000        0.0000000000000000     
   1.2500000000000000       0.87500000000000000        0.0000000000000000     
   1.2812500000000000       0.87500000000000000        0.0000000000000000     
   1.3125000000000000       0.87500000000000000        0.0000000000000000     
   1.3437500000000000       0.87500000000000000        0.0000000000000000     
   1.3750000000000000       0.87500000000000000        0.0000000000000000     
   1.2500000000000000       0.90625000000000000        0.0000000000000000     
   1.2812500000000000       0.90625000000000000        0.0000000000000000     
   1.3125000000000000       0.90625000000000000        0.0000000000000000     
   1.3437500000000000       0.90625000000000000        0.0000000000000000     
   1.3750000000000000       0.90625000000000000        0.0000000000000000     
   1.2500000000000000       0.93750000000000000        0.0000000000000000     
   1.2812500000000000       0.93750000000000000        0.0000000000000000     
   1.3125000000000000       0.93750000000000000        0.0000000000000000     
   1.3437500000000000       0.93750000000000000        0.0000000000000000     
   1.3750000000000000       0.93750000000000000        0.0000000000000000     
   1.2500000000000000       0.96875000000000000        0.0000000000000000     
   1.2812500000000000       0.96875000000000000        0.0000000000000000     
   1.3125000000000000       0.96875000000000000        0.0000000000000000     
   1.3437500000000000       0.96875000000000000        0.0000000000000000     
   1.3750000000000000       0.96875000000000000        0.0000000000000000     
   1.2500000000000000        1.0000000000000000        0.0000000000000000     
   1.2812500000000000        1.0000000000000000        0.0000000000000000     
   1.3125000000000000        1.0000000000000000        0.0000000000000000     
   1.3437500000000000        1.0000000000000000        0.0000000000000000     
   1.3750000000000000        1.0000000000000000        0.0000000000000000     
   1.3750000000000000       0.87500000000000000        0.0000000000000000     
   1.4062500000000000       0.87500000000000000        0.0000000000000000     
   1.4375000000000000       0.87500000000000000        0.0000000000000000     
   1.4687500000000000       0.87500000000000000        0.0000000000000000     
   1.5000000000000000       0.87500000000000000        0.0000000000000000     
   1.3750000000000000       0.90625000000000000        0.0000000000000000     
   1.4062500000000000       0.90625000000000000        0.0000000000000000     
   1.4375000000000000       0.90625000000000000        0.0000000000000000     
   1.4687500000000000       0.90625000000000000        0.0000000000000000     
   1.5000000000000000       0.90625000000000000        0.0000000000000000     
   1.3750000000000000       0.93750000000000000        0.0000000000000000     
   1.4062500000000000       0.93750000000000000        0.0000000000000000     
   1.4375000000000000       0.93750000000000000        0.0000000000000000     
   1.4687500000000000       0.93750000000000000        0.0000000000000000     
   1.5000000000000000       0.93750000000000000        0.0000000000000000     
   1.3750000000000000       0.96875000000000000        0.0000000000000000     
   1.4062500000000000       0.96875000000000000        0.0000000000000000     
   1.4375000000000000       0.96875000000000000        0.0000000000000000     
   1.4687500000000000       0.96875000000000000        0.0000000000000000     
   1.5000000000000000       0.96875000000000000        0.0000000000000000     
   1.3750000000000000        1.0000000000000000        0.0000000000000000     
   1.4062500000000000        1.0000000000000000        0.0000000000000000     
   1.4375000000000000        1.0000000000000000        0.0000000000000000     
   1.4687500000000000        1.0000000000000000        0.0000000000000000     
   1.5000000000000000        1.0000000000000000        0.0000000000000000     
 </DataArray>
 </Points>
 <Cells>
 <DataArray  type="Int32"  Name="connectivity"  format="ascii">
           0           1           6           5
           1           2           7           6
           2           3           8           7
           3           4           9           8
           5           6          11          10
           6           7          12          11
           7           8          13          12
           8           9          14          13
          10          11          16          15
          11          12          17          16
          12          13          18          17
          13          14          19          18
          15          16          21          20
          16          17          22          21
          17          18          23          22
          18          19          24          23
          25          26          31          30
          26          27          32          31
          27          28          33          32
          28          29          34          33
          30          31          36          35
          31          32          37          36
          32          33          38          37
          33          34          39          38
          35          36          41          40
          36          37          42          41
          37          38          43          42
          38          39          44          43
          40          41          46          45
          41          42          47          46
          42          43          48          47
          43          44          49          48
          50          51          56          55
          51          52          57          56
          52          53          58          57
          53          54          59          58
          55          56          61          60
          56          57          62          61
          57          58          63          62
          58          59          64          63
          60          61          66          65
          61          62          67          66
          62          63          68          67
          63          64          69          68
          65          66          71          70
          66          67          72          71
          67          68          73          72
          68          69          74          73
          75          76          81          80
          76          77          82          81
          77          78          83          82
          78          79          84          83
          80          81          86          85
          81          82          87          86
          82          83          88          87
          83          84          89          88
          85          86          91          90
          86          87          92          91
          87          88          93          92
          88          89          94          93
          90          91          96          95
          91          92          97          96
          92          93          98          97
          93          94          99          98
         100         101         106         105
         101         102         107         106
         102         103         108         107
         103         104         109         108
         105         106         111         110
         106         107         112         111
         107         108         113         112
         108         109         114         113
         110         111         116         115
         111         112         117         116
         112         113         118         117
         113         114         119         118
         115         116         121         120
         116         117         122         121
         117         118         123         122
         118         119         124         123
         125         126         131         130
         126         127         132         131
         127         128         133         132
         128         129         134         133
         130         131         136         135
         131         132         137         136
         132         133         138         137
         133         134         139         138
         135         136         141         140
         136         137         142         141
         137         138         143         142
         138         139         144         143
         140         141         146         145
         141         142         147         146
         142         143         148         147
         143         144         149         148
         150         151         156         155
         151         152         157         156
         152         153         158         157
         153         154         159         158
         155         156         161         160
         156         157         162         161
         157         158         163         162
         158         159         164         163
         160         161         166         165
         161         162         167         166
         162         163         168         167
         163         164         169         168
         165         166         171         170
         166         167         172         171
         167         168         173         172
         168         169         174         173
         175         176         181         180
         176         177         182         181
         177         178         183         182
         178         179         184         183
         180         181         186         185
         181         182         187         186
         182         183         188         187
         183         184         189         188
         185         186         191         190
         186         187         192         191
         187         188         193         192
         188         189         194         193
         190         191         196         195
         191         192         197         196
         192         193         198         197
         193         194         199         198
         200         201         206         205
         201         202         207         206
         202         203         208         207
         203         204         209         208
         205         206         211         210
         206         207         212         211
         207         208         213         212
         208         209         214         213
         210         211         216         215
         211         212         217         216
         212         213         218         217
         213         214         219         218
         215         216         221         220
         216         217         222         221
         217         218         223         222
         218         219         224         223
         225         226         231         230
         226         227         232         231
         227         228         233         232
         228         229         234         233
         230         231         236         235
         231         232         237         236
         232         233         238         237
         233         234         239         238
         235         236         241         240
         236         237         242         241
         237         238         243         242
         238         239         244         243
         240         241         246         245
         241         242         247         246
         242         243         248         247
         243         244         249         248
         250         251         256         255
         251         252         257         256
         252         253         258         257
         253         254         259         258
         255         256         261         260
         256         257         262         261
         257         258         263         262
         258         259         264         263
         260         261         266         265
         261         262         267         266
         262         263         268         267
         263         264         269         268
         265         266         271         270
         266         267         272         271
         267         268         273         272
         268         269         274         273
         275         276         281         280
         276         277         282         281
         277         278         283         282
         278         279         284         283
         280         281         286         285
         281         282         287         286
         282         283         288         287
         283         284         289         288
         285         286         291         290
         286         287         292         291
         287         288         293         292
         288         289         294         293
         290         291         296         295
         291         292         297         296
         292         293         298         297
         293         294         299         298
         300         301         306         305
         301         302         307         306
         302         303         308         307
         303         304         309         308
         305         306         311         310
         306         307         312         311
         307         308         313         312
         308         309         314         313
         310         311         316         315
         311         312         317         316
         312         313         318         317
         313         314         319         318
         315         316         321         320
         316         317         322         321
         317         318         323         322
         318         319         324         323
         325         326         331         330
         326         327         332         331
         327         328         333         332
         328         329         334         333
         330         331         336         335
         331         332         337         336
         332         333         338         337
         333         334         339         338
         335         336         341         340
         336         337         342         341
         337         338         343         342
         338         339         344         343
         340         341         346         345
         341         342         347         346
         342         343         348         347
         343         344         349         348
         350         351         356         355
         351         352         357         356
         352         353         358         357
         353         354         359         358
         355         356         361         360
         356         357         362         361
         357         358         363         362
         358         359         364         363
         360         361         366         365
         361         362         367         366
         362         363         368         367
         363         364         369         368
         365         366         371         370
         366         367         372         371
         367         368         373         372
         368         369         374         373
         375         376         381         380
         376         377         382         381
         377         378         383         382
         378         379         384         383
         380         381         386         385
         381         382         387         386
         382         383         388         387
         383         384         389         388
         385         386         391         390
         386         387         392         391
         387         388         393         392
         388         389         394         393
         390         391         396         395
         391         392         397         396
         392         393         398         397
         393         394         399         398
         400         401         406         405
         401         402         407         406
         402         403         408         407
         403         404         409         408
         405         406         411         410
         406         407         412         411
         407         408         413         412
         408         409         414         413
         410         411         416         415
         411         412         417         416
         412         413         418         417
         413         414         419         418
         415         416         421         420
         416         417         422         421
         417         418         423         422
         418         419         424         423
         425         426         431         430
         426         427         432         431
         427         428         433         432
         428         429         434         433
         430         431         436         435
         431         432         437         436
         432         433         438         437
         433         434         439         438
         435         436         441         440
         436         437         442         441
         437         438         443         442
         438         439         444         443
         440         441         446         445
         441         442         447         446
         442         443         448         447
         443         444         449         448
         450         451         456         455
         451         452         457         456
         452         453         458         457
         453         454         459         458
         455         456         461         460
         456         457         462         461
         457         458         463         462
         458         459         464         463
         460         461         466         465
         461         462         467         466
         462         463         468         467
         463         464         469         468
         465         466         471         470
         466         467         472         471
         467         468         473         472
         468         469         474         473
         475         476         481         480
         476         477         482         481
         477         478         483         482
         478         479         484         483
         480         481         486         485
         481         482         487         486
         482         483         488         487
         483         484         489         488
         485         486         491         490
         486         487         492         491
         487         488         493         492
         488         489         494         493
         490         491         496         495
         491         492         497         496
         492         493         498         497
         493         494         499         498
         500         501         506         505
         501         502         507         506
         502         503         508         507
         503         504         509         508
         505         506         511         510
         506         507         512         511
         507         508         513         512
         508         509         514         513
         510         511         516         515
         511         512         517         516
         512         513         518         517
         513         514         519         518
         515         516         521         520
         516         517         522         521
         517         518         523         522
         518         519         524         523
         525         526         531         530
         526         527         532         531
         527         528         533         532
         528         529         534         533
         530         531         536         535
         531         532         537         536
         532         533         538         537
         533         534         539         538
         535         536         541         540
         536         537         542         541
         537         538         543         542
         538         539         544         543
         540         541         546         545
         541         542         547         546
         542         543         548         547
         543         544         549         548
         550         551         556         555
         551         552         557         556
         552         553         558         557
         553         554         559         558
         555         556         561         560
         556         557         562         561
         557         558         563         562
         558         559         564         563
         560         561         566         565
         561         562         567         566
         562         563         568         567
         563         564         569         568
         565         566         571         570
         566         567         572         571
         567         568         573         572
         568         569         574         573
         575         576         581         580
         576         577         582         581
         577         578         583         582
         578         579         584         583
         580         581         586         585
         581         582         587         586
         582         583         588         587
         583         584         589         588
         585         586         591         590
         586         587         592         591
         587         588         593         592
         588         589         594         593
         590         591         596         595
         591         592         597         596
         592         593         598         597
         593         594         599         598
         600         601         606         605
         601         602         607         606
         602         603         608         607
         603         604         609         608
         605         606         611         610
         606         607         612         611
         607         608         613         612
         608         609         614         613
         610         611         616         615
         611         612         617         616
         612         613         618         617
         613         614         619         618
         615         616         621         620
         616         617         622         621
         617         618         623         622
         618         619         624         623
         625         626         631         630
         626         627         632         631
         627         628         633         632
         628         629         634         633
         630         631         636         635
         631         632         637         636
         632         633         638         637
         633         634         639         638
         635         636         641         640
         636         637         642         641
         637         638         643         642
         638         639         644         643
         640         641         646         645
         641         642         647         646
         642         643         648         647
         643         644         649         648
         650         651         656         655
         651         652         657         656
         652         653         658         657
         653         654         659         658
         655         656         661         660
         656         657         662         661
         657         658         663         662
         658         659         664         663
         660         661         666         665
         661         662         667         666
         662         663         668         667
         663         664         669         668
         665         666         671         670
         666         667         672         671
         667         668         673         672
         668         669         674         673
         675         676         681         680
         676         677         682         681
         677         678         683         682
         678         679         684         683
         680         681         686         685
         681         682         687         686
         682         683         688         687
         683         684         689         688
         685         686         691         690
         686         687         692         691
         687         688         693         692
         688         689         694         693
         690         691         696         695
         691         692         697         696
         692         693         698         697
         693         694         699         698
         700         701         706         705
         701         702         707         706
         702         703         708         707
         703         704         709         708
         705         706         711         710
         706         707         712         711
         707         708         713         712
         708         709         714         713
         710         711         716         715
         711         712         717         716
         712         713         718         717
         713         714         719         718
         715         716         721         720
         716         717         722         721
         717         718         723         722
         718         719         724         723
         725         726         731         730
         726         727         732         731
         727         728         733         732
         728         729         734         733
         730         731         736         735
         731         732         737         736
         732         733         738         737
         733         734         739         738
         735         736         741         740
         736         737         742         741
         737         738         743         742
         738         739         744         743
         740         741         746         745
         741         742         747         746
         742         743         748         747
         743         744         749         748
         750         751         756         755
         751         752         757         756
         752         753         758         757
         753         754         759         758
         755         756         761         760
         756         757         762         761
         757         758         763         762
         758         759         764         763
         760         761         766         765
         761         762         767         766
         762         763         768         767
         763         764         769         768
         765         766         771         770
         766         767         772         771
         767         768         773         772
         768         769         774         773
         775         776         781         780
         776         777         782         781
         777         778         783         782
         778         779         784         783
         780         781         786         785
         781         782         787         786
         782         783         788         787
         783         784         789         788
         785         786         791         790
         786         787         792         791
         787         788         793         792
         788         789         794         793
         790         791         796         795
         791         792         797         796
         792         793         798         797
         793         794         799         798
         800         801         806         805
         801         802         807         806
         802         803         808         807
         803         804         809         808
         805         806         811         810
         806         807         812         811
         807         808         813         812
         808         809         814         813
         810         811         816         815
         811         812         817         816
         812         813         818         817
         813         814         819         818
         815         816         821         820
         816         817         822         821
         817         818         823         822
         818         819         824         823
         825         826         831         830
         826         827         832         831
         827         828         833         832
         828         829         834         833
         830         831         836         835
         831         832         837         836
         832         833         838         837
         833         834         839         838
         835         836         841         840
         836         837         842         841
         837         838         843         842
         838         839         844         843
         840         841         846         845
         841         842         847         846
         842         843         848         847
         843         844         849         848
         850         851         856         855
         851         852         857         856
         852         853         858         857
         853         854         859         858
         855         856         861         860
         856         857         862         861
         857         858         863         862
         858         859         864         863
         860         861         866         865
         861         862         867         866
         862         863         868         867
         863         864         869         868
         865         866         871         870
         866         867         872         871
         867         868         873         872
         868         869         874         873
         875         876         881         880
         876         877         882         881
         877         878         883         882
         878         879         884         883
         880         881         886         885
         881         882         887         886
         882         883         888         887
         883         884         889         888
         885         886         891         890
         886         887         892         891
         887         888         893         892
         888         889         894         893
         890         891         896         895
         891         892         897         896
         892         893         898         897
         893         894         899         898
         900         901         906         905
         901         902         907         906
         902         903         908         907
         903         904         909         908
         905         906         911         910
         906         907         912         911
         907         908         913         912
         908         909         914         913
         910         911         916         915
         911         912         917         916
         912         913         918         917
         913         914         919         918
         915         916         921         920
         916         917         922         921
         917         918         923         922
         918         919         924         923
         925         926         931         930
         926         927         932         931
         927         928         933         932
         928         929         934         933
         930         931         936         935
         931         932         937         936
         932         933         938         937
         933         934         939         938
         935         936         941         940
         936         937         942         941
         937         938         943         942
         938         939         944         943
         940         941         946         945
         941         942         947         946
         942         943         948         947
         943         944         949         948
         950         951         956         955
         951         952         957         956
         952         953         958         957
         953         954         959         958
         955         956         961         960
         956         957         962         961
         957         958         963         962
         958         959         964         963
         960         961         966         965
         961         962         967         966
         962         963         968         967
         963         964         969         968
         965         966         971         970
         966         967         972         971
         967         968         973         972
         968         969         974         973
         975         976         981         980
         976         977         982         981
         977         978         983         982
         978         979         984         983
         980         981         986         985
         981         982         987         986
         982         983         988         987
         983         984         989         988
         985         986         991         990
         986         987         992         991
         987         988         993         992
         988         989         994         993
         990         991         996         995
         991         992         997         996
         992         993         998         997
         993         994         999         998
        1000        1001        1006        1005
        1001        1002        1007        1006
        1002        1003        1008        1007
        1003        1004        1009        1008
        1005        1006        1011        1010
        1006        1007        1012        1011
        1007        1008        1013        1012
        1008        1009        1014        1013
        1010        1011        1016        1015
        1011        1012        1017        1016
        1012        1013        1018        1017
        1013        1014        1019        1018
        1015        1016        1021        1020
        1016        1017        1022        1021
        1017        1018        1023        1022
        1018        1019        1024        1023
        1025        1026        1031        1030
        1026        1027        1032        1031
        1027        1028        1033        1032
        1028        1029        1034        1033
        1030        1031        1036        1035
        1031        1032        1037        1036
        1032        1033        1038        1037
        1033        1034        1039        1038
        1035        1036        1041        1040
        1036        1037        1042        1041
        1037        1038        1043        1042
        1038        1039        1044        1043
        1040        1041        1046        1045
        1041        1042        1047        1046
        1042        1043        1048        1047
        1043        1044        1049        1048
        1050        1051        1056        1055
        1051        1052        1057        1056
        1052        1053        1058        1057
        1053        1054        1059        1058
        1055        1056        1061        1060
        1056        1057        1062        1061
        1057        1058        1063        1062
        1058        1059        1064        1063
        1060        1061        1066        1065
        1061        1062        1067        1066
        1062        1063        1068        1067
        1063        1064        1069        1068
        1065        1066        1071        1070
        1066        1067        1072        1071
        1067        1068        1073        1072
        1068        1069        1074        1073
        1075        1076        1081        1080
        1076        1077        1082        1081
        1077        1078        1083        1082
        1078        1079        1084        1083
        1080        1081        1086        1085
        1081        1082        1087        1086
        1082        1083        1088        1087
        1083        1084        1089        1088
        1085        1086        1091        1090
        1086        1087        1092        1091
        1087        1088        1093        1092
        1088        1089        1094        1093
        1090        1091        1096        1095
        1091        1092        1097        1096
        1092        1093        1098        1097
        1093        1094        1099        1098
        1100        1101        1106        1105
        1101        1102        1107        1106
        1102        1103        1108        1107
        1103        1104        1109        1108
        1105        1106        1111        1110
        1106        1107        1112        1111
        1107        1108        1113        1112
        1108        1109        1114        1113
        1110        1111        1116        1115
        1111        1112        1117        1116
        1112        1113        1118        1117
        1113        1114        1119        1118
        1115        1116        1121        1120
        1116        1117        1122        1121
        1117        1118        1123        1122
        1118        1119        1124        1123
        1125        1126        1131        1130
        1126        1127        1132        1131
        1127        1128        1133        1132
        1128        1129        1134        1133
        1130        1131        1136        1135
        1131        1132        1137        1136
        1132        1133        1138        1137
        1133        1134        1139        1138
        1135        1136        1141        1140
        1136        1137        1142        1141
        1137        1138        1143        1142
        1138        1139        1144        1143
        1140        1141        1146        1145
        1141        1142        1147        1146
        1142        1143        1148        1147
        1143        1144        1149        1148
        1150        1151        1156        1155
        1151        1152        1157        1156
        1152        1153        1158        1157
        1153        1154        1159        1158
        1155        1156        1161        1160
        1156        1157        1162        1161
        1157        1158        1163        1162
        1158        1159        1164        1163
        1160        1161        1166        1165
        1161        1162        1167        1166
        1162        1163        1168        1167
        1163        1164        1169        1168
        1165        1166        1171        1170
        1166        1167        1172        1171
        1167        1168        1173        1172
        1168        1169        1174        1173
        1175        1176        1181        1180
        1176        1177        1182        1181
        1177        1178        1183        1182
        1178        1179        1184        1183
        1180        1181        1186        1185
        1181        1182        1187        1186
        1182        1183        1188        1187
        1183        1184        1189        1188
        1185        1186        1191        1190
        1186        1187        1192        1191
        1187        1188        1193        1192
        1188        1189        1194        1193
        1190        1191        1196        1195
        1191        1192        1197        1196
        1192        1193        1198        1197
        1193        1194        1199        1198
        1200        1201        1206        1205
        1201        1202        1207        1206
        1202        1203        1208        1207
        1203        1204        1209        1208
        1205        1206        1211        1210
        1206        1207        1212        1211
        1207        1208        1213        1212
        1208        1209        1214        1213
        1210        1211        1216        1215
        1211        1212        1217        1216
        1212        1213        1218        1217
        1213        1214        1219        1218
        1215        1216        1221        1220
        1216        1217        1222        1221
        1217        1218        1223        1222
        1218        1219        1224        1223
        1225        1226        1231        1230
        1226        1227        1232        1231
        1227        1228        1233        1232
        1228        1229        1234        1233
        1230        1231        1236        1235
        1231        1232        1237        1236
        1232        1233        1238        1237
        1233        1234        1239        1238
        1235        1236        1241        1240
        1236        1237        1242        1241
        1237        1238        1243        1242
        1238        1239        1244        1243
        1240        1241        1246        1245
        1241        1242        1247        1246
        1242        1243        1248        1247
        1243        1244        1249        1248
        1250        1251        1256        1255
        1251        1252        1257        1256
        1252        1253        1258        1257
        1253        1254        1259        1258
        1255        1256        1261        1260
        1256        1257        1262        1261
        1257        1258        1263        1262
        1258        1259        1264        1263
        1260        1261        1266        1265
        1261        1262        1267        1266
        1262        1263        1268        1267
        1263        1264        1269        1268
        1265        1266        1271        1270
        1266        1267        1272        1271
        1267        1268        1273        1272
        1268        1269        1274        1273
        1275        1276        1281        1280
        1276        1277        1282        1281
        1277        1278        1283        1282
        1278        1279        1284        1283
        1280        1281        1286        1285
        1281        1282        1287        1286
        1282        1283        1288        1287
        1283        1284        1289        1288
        1285        1286        1291        1290
        1286        1287        1292        1291
        1287        1288        1293        1292
        1288        1289        1294        1293
        1290        1291        1296        1295
        1291        1292        1297        1296
        1292        1293        1298        1297
        1293        1294        1299        1298
        1300        1301        1306        1305
        1301        1302        1307        1306
        1302        1303        1308        1307
        1303        1304        1309        1308
        1305        1306        1311        1310
        1306        1307        1312        1311
        1307        1308        1313        1312
        1308        1309        1314        1313
        1310        1311        1316        1315
        1311        1312        1317        1316
        1312        1313        1318        1317
        1313        1314        1319        1318
        1315        1316        1321        1320
        1316        1317        1322        1321
        1317        1318        1323        1322
        1318        1319        1324        1323
        1325        1326        1331        1330
        1326        1327        1332        1331
        1327        1328        1333        1332
        1328        1329        1334        1333
        1330        1331        1336        1335
        1331        1332        1337        1336
        1332        1333        1338        1337
        1333        1334        1339        1338
        1335        1336        1341        1340
        1336        1337        1342        1341
        1337        1338        1343        1342
        1338        1339        1344        1343
        1340        1341        1346        1345
        1341        1342        1347        1346
        1342        1343        1348        1347
        1343        1344        1349        1348
        1350        1351        1356        1355
        1351        1352        1357        1356
        1352        1353        1358        1357
        1353        1354        1359        1358
        1355        1356        1361        1360
        1356        1357        1362        1361
        1357        1358        1363        1362
        1358        1359        1364        1363
        1360        1361        1366        1365
        1361        1362        1367        1366
        1362        1363        1368        1367
        1363        1364        1369        1368
        1365        1366        1371        1370
        1366        1367        1372        1371
        1367        1368        1373        1372
        1368        1369        1374        1373
        1375        1376        1381        1380
        1376        1377        1382        1381
        1377        1378        1383        1382
        1378        1379        1384        1383
        1380        1381        1386        1385
        1381        1382        1387        1386
        1382        1383        1388        1387
        1383        1384        1389        1388
        1385        1386        1391        1390
        1386        1387        1392        1391
        1387        1388        1393        1392
        1388        1389        1394        1393
        1390        1391        1396        1395
        1391        1392        1397        1396
        1392        1393        1398        1397
        1393        1394        1399        1398
        1400        1401        1406        1405
        1401        1402        1407        1406
        1402        1403        1408        1407
        1403        1404        1409        1408
        1405        1406        1411        1410
        1406        1407        1412        1411
        1407        1408        1413        1412
        1408        1409        1414        1413
        1410        1411        1416        1415
        1411        1412        1417        1416
        1412        1413        1418        1417
        1413        1414        1419        1418
        1415        1416        1421        1420
        1416        1417        1422        1421
        1417        1418        1423        1422
        1418        1419        1424        1423
        1425        1426        1431        1430
        1426        1427        1432        1431
        1427        1428        1433        1432
        1428        1429        1434        1433
        1430        1431        1436        1435
        1431        1432        1437        1436
        1432        1433        1438        1437
        1433        1434        1439        1438
        1435        1436        1441        1440
        1436        1437        1442        1441
        1437        1438        1443        1442
        1438        1439        1444        1443
        1440        1441        1446        1445
        1441        1442        1447        1446
        1442        1443        1448        1447
        1443        1444        1449        1448
        1450        1451        1456        1455
        1451        1452        1457        1456
        1452        1453        1458        1457
        1453        1454        1459        1458
        1455        1456        1461        1460
        1456        1457        1462        1461
        1457        1458        1463        1462
        1458        1459        1464        1463
        1460        1461        1466        1465
        1461        1462        1467        1466
        1462        1463        1468        1467
        1463        1464        1469        1468
        1465        1466        1471        1470
        1466        1467        1472        1471
        1467        1468        1473        1472
        1468        1469        1474        1473
        1475        1476        1481        1480
        1476        1477        1482        1481
        1477        1478        1483        1482
        1478        1479        1484        1483
        1480        1481        1486        1485
        1481        1482        1487        1486
        1482        1483        1488        1487
        1483        1484        1489        1488
        1485        1486        1491        1490
        1486        1487        1492        1491
        1487        1488        1493        1492
        1488        1489        1494        1493
        1490        1491        1496        1495
        1491        1492        1497        1496
        1492        1493        1498        1497
        1493        1494        1499        1498
        1500        1501        1506        1505
        1501        1502        1507        1506
        1502        1503        1508        1507
        1503        1504        1509        1508
        1505        1506        1511        1510
        1506        1507        1512        1511
        1507        1508        1513        1512
        1508        1509        1514        1513
        1510        1511        1516        1515
        1511        1512        1517        1516
        1512        1513        1518        1517
        1513        1514        1519        1518
        1515        1516        1521        1520
        1516        1517        1522        1521
        1517        1518        1523        1522
        1518        1519        1524        1523
        1525        1526        1531        1530
        1526        1527        1532        1531
        1527        1528        1533        1532
        1528        1529        1534        1533
        1530        1531        1536        1535
        1531        1532        1537        1536
        1532        1533        1538        1537
        1533        1534        1539        1538
        1535        1536        1541        1540
        1536        1537        1542        1541
        1537        1538        1543        1542
        1538        1539        1544        1543
        1540        1541        1546        1545
        1541        1542        1547        1546
        1542        1543        1548        1547
        1543        1544        1549        1548
        1550        1551        1556        1555
        1551        1552        1557        1556
        1552        1553        1558        1557
        1553        1554        1559        1558
        1555        1556        1561        1560
        1556        1557        1562        1561
        1557        1558        1563        1562
        1558        1559        1564        1563
        1560        1561        1566        1565
        1561        1562        1567        1566
        1562        1563        1568        1567
        1563        1564        1569        1568
        1565        1566        1571        1570
        1566        1567        1572        1571
        1567        1568        1573        1572
        1568        1569        1574        1573
        1575        1576        1581        1580
        1576        1577        1582        1581
        1577        1578        1583        1582
        1578        1579        1584        1583
        1580        1581        1586        1585
        1581        1582        1587        1586
        1582        1583        1588        1587
        1583        1584        1589        1588
        1585        1586        1591        1590
        1586        1587        1592        1591
        1587        1588        1593        1592
        1588        1589        1594        1593
        1590        1591        1596        1595
        1591        1592        1597        1596
        1592        1593        1598        1597
        1593        1594        1599        1598
 </DataArray>
 <DataArray  type="Int32"  Name="offsets"  format="ascii"> 
           4
           8
          12
          16
          20
          24
          28
          32
          36
          40
          44
          48
          52
          56
          60
          64
          68
          72
          76
          80
          84
          88
          92
          96
         100
         104
         108
         112
         116
         120
         124
         128
         132
         136
         140
         144
         148
         152
         156
         160
         164
         168
         172
         176
         180
         184
         188
         192
         196
         200
         204
         208
         212
         216
         220
         224
         228
         232
         236
         240
         244
         248
         252
         256
         260
         264
         268
         272
         276
         280
         284
         288
         292
         296
         300
         304
         308
         312
         316
         320
         324
         328
         332
         336
         340
         344
         348
         352
         356
         360
         364
         368
         372
         376
         380
         384
         388
         392
         396
         400
         404
         408
         412
         416
         420
         424
         428
         432
         436
         440
         444
         448
         452
         456
         460
         464
         468
         472
         476
         480
         484
         488
         492
         496
         500
         504
         508
         512
         516
         520
         524
         528
         532
         536
         540
         544
         548
         552
         556
         560
         564
         568
         572
         576
         580
         584
         588
         592
         596
         600
         604
         608
         612
         616
         620
         624
         628
         632
         636
         640
         644
         648
         652
         656
         660
         664
         668
         672
         676
         680
         684
         688
         692
         696
         700
         704
         708
         712
         716
         720
         724
         728
         732
         736
         740
         744
         748
         752
         756
         760
         764
         768
         772
         776
         780
         784
         788
         792
         796
         800
         804
         808
         812
         816
         820
         824
         828
         832
         836
         840
         844
         848
         852
         856
         860
         864
         868
         872
         876
         880
         884
         888
         892
         896
         900
         904
         908
         912
         916
         920
         924
         928
         932
         936
         940
         944
         948
         952
         956
         960
         964
         968
         972
         976
         980
         984
         988
         992
         996
        1000
        1004
        1008
        1012
        1016
        1020
        1024
        1028
        1032
        1036
        1040
        1044
        1048
        1052
        1056
        1060
        1064
        1068
        1072
        1076
        1080
        1084
        1088
        1092
        1096
        1100
        1104
        1108
        1112
        1116
        1120
        1124
        1128
        1132
        1136
        1140
        1144
        1148
        1152
        1156
        1160
        1164
        1168
        1172
        1176
        1180
        1184
        1188
        1192
        1196
        1200
        1204
        1208
        1212
        1216
        1220
        1224
        1228
        1232
        1236
        1240
        1244
        1248
        1252
        1256
        1260
        1264
        1268
        1272
        1276
        1280
        1284
        1288
        1292
        1296
        1300
        1304
        1308
        1312
        1316
        1320
        1324
        1328
        1332
        1336
        1340
        1344
        1348
        1352
        1356
        1360
        1364
        1368
        1372
        1376
        1380
        1384
        1388
        1392
        1396
        1400
        1404
        1408
        1412
        1416
        1420
        1424
        1428
        1432
        1436
        1440
        1444
        1448
        1452
        1456
        1460
        1464
        1468
        1472
        1476
        1480
        1484
        1488
        1492
        1496
        1500
        1504
        1508
        1512
        1516
        1520
        1524
        1528
        1532
        1536
        1540
        1544
        1548
        1552
        1556
        1560
        1564
        1568
        1572
        1576
        1580
        1584
        1588
        1592
        1596
        1600
        1604
        1608
        1612
        1616
        1620
        1624
        1628
        1632
        1636
        1640
        1644
        1648
        1652
        1656
        1660
        1664
        1668
        1672
        1676
        1680
        1684
        1688
        1692
        1696
        1700
        1704
        1708
        1712
        1716
        1720
        1724
        1728
        1732
        1736
        1740
        1744
        1748
        1752
        1756
        1760
        1764
        1768
        1772
        1776
        1780
        1784
        1788
        1792
        1796
        1800
        1804
        1808
        1812
        1816
        1820
        1824
        1828
        1832
        1836
        1840
        1844
        1848
        1852
        1856
        1860
        1864
        1868
        1872
        1876
        1880
        1884
        1888
        1892
        1896
        1900
        1904
        1908
        1912
        1916
        1920
        1924
        1928
        1932
        1936
        1940
        1944
        1948
        1952
        1956
        1960
        1964
        1968
        1972
        1976
        1980
        1984
        1988
        1992
        1996
        2000
        2004
        2008
        2012
        2016
        2020
        2024
        2028
        2032
        2036
        2040
        2044
        2048
        2052
        2056
        2060
        2064
        2068
        2072
        2076
        2080
        2084
        2088
        2092
        2096
        2100
        2104
        2108
        2112
        2116
        2120
        2124
        2128
        2132
        2136
        2140
        2144
        2148
        2152
        2156
        2160
        2164
        2168
        2172
        2176
        2180
        2184
        2188
        2192
        2196
        2200
        2204
        2208
        2212
        2216
        2220
        2224
        2228
        2232
        2236
        2240
        2244
        2248
        2252
        2256
        2260
        2264
        2268
        2272
        2276
        2280
        2284
        2288
        2292
        2296
        2300
        2304
        2308
        2312
        2316
        2320
        2324
        2328
        2332
        2336
        2340
        2344
        2348
        2352
        2356
        2360
        2364
        2368
        2372
        2376
        2380
        2384
        2388
        2392
        2396
        2400
        2404
        2408
        2412
        2416
        2420
        2424
        2428
        2432
        2436
        2440
        2444
        2448
        2452
        2456
        2460
        2464
        2468
        2472
        2476
        2480
        2484
        2488
        2492
        2496
        2500
        2504
        2508
        2512
        2516
        2520
        2524
        2528
        2532
        2536
        2540
        2544
        2548
        2552
        2556
        2560
        2564
        2568
        2572
        2576
        2580
        2584
        2588
        2592
        2596
        2600
        2604
        2608
        2612
        2616
        2620
        2624
        2628
        2632
        2636
        2640
        2644
        2648
        2652
        2656
        2660
        2664
        2668
        2672
        2676
        2680
        2684
        2688
        2692
        2696
        2700
        2704
        2708
        2712
        2716
        2720
        2724
        2728
        2732
        2736
        2740
        2744
        2748
        2752
        2756
        2760
        2764
        2768
        2772
        2776
        2780
        2784
        2788
        2792
        2796
        2800
        2804
        2808
        2812
        2816
        2820
        2824
        2828
        2832
        2836
        2840
        2844
        2848
        2852
        2856
        2860
        2864
        2868
        2872
        2876
        2880
        2884
        2888
        2892
        2896
        2900
        2904
        2908
        2912
        2916
        2920
        2924
        2928
        2932
        2936
        2940
        2944
        2948
        2952
        2956
        2960
        2964
        2968
        2972
        2976
        2980
        2984
        2988
        2992
        2996
        3000
        3004
        3008
        3012
        3016
        3020
        3024
        3028
        3032
        3036
        3040
        3044
        3048
        3052
        3056
        3060
        3064
        3068
        3072
        3076
        3080
        3084
        3088
        3092
        3096
        3100
        3104
        3108
        3112
        3116
        3120
        3124
        3128
        3132
        3136
        3140
        3144
        3148
        3152
        3156
        3160
        3164
        3168
        3172
        3176
        3180
        3184
        3188
        3192
        3196
        3200
        3204
        3208
        3212
        3216
        3220
        3224
        3228
        3232
        3236
        3240
        3244
        3248
        3252
        3256
        3260
        3264
        3268
        3272
        3276
        3280
        3284
        3288
        3292
        3296
        3300
        3304
        3308
        3312
        3316
        3320
        3324
        3328
        3332
        3336
        3340
        3344
        3348
        3352
        3356
        3360
        3364
        3368
        3372
        3376
        3380
        3384
        3388
        3392
        3396
        3400
        3404
        3408
        3412
        3416
        3420
        3424
        3428
        3432
        3436
        3440
        3444
        3448
        3452
        3456
        3460
        3464
        3468
        3472
        3476
        3480
        3484
        3488
        3492
        3496
        3500
        3504
        3508
        3512
        3516
        3520
        3524
        3528
        3532
        3536
        3540
        3544
        3548
        3552
        3556
        3560
        3564
        3568
        3572
        3576
        3580
        3584
        3588
        3592
        3596
        3600
        3604
        3608
        3612
        3616
        3620
        3624
        3628
        3632
        3636
        3640
        3644
        3648
        3652
        3656
        3660
        3664
        3668
        3672
        3676
        3680
        3684
        3688
        3692
        3696
        3700
        3704
        3708
        3712
        3716
        3720
        3724
        3728
        3732
        3736
        3740
        3744
        3748
        3752
        3756
        3760
        3764
        3768
        3772
        3776
        3780
        3784
        3788
        3792
        3796
        3800
        3804
        3808
        3812
        3816
        3820
        3824
        3828
        3832
        3836
        3840
        3844
        3848
        3852
        3856
        3860
        3864
        3868
        3872
        3876
        3880
        3884
        3888
        3892
        3896
        3900
        3904
        3908
        3912
        3916
        3920
        3924
        3928
        3932
        3936
        3940
        3944
        3948
        3952
        3956
        3960
        3964
        3968
        3972
        3976
        3980
        3984
        3988
        3992
        3996
        4000
        4004
        4008
        4012
        4016
        4020
        4024
        4028
        4032
        4036
        4040
        4044
        4048
        4052
        4056
        4060
        4064
        4068
        4072
        4076
        4080
        4084
        4088
        4092
        4096
 </DataArray>
 <DataArray  type="UInt8"  Name="types"  format="ascii">
 9
 9
 9
 9
 9
 9
 9
 9
 9
 9
 9
 9
 9
 9
 9
 9
 9
 9
 9
 9
 9
 9
 9
 9
 9
 9
 9
 9
 9
 9
 9
 9
 9
 9
 9
 9
 9
 9
 9
 9
 9
 9
 9
 9
 9
 9
 9
 9
 9
 9
 9
 9
 9
 9
 9
 9
 9
 9
 9
 9
 9
 9
 9
 9
 9
 9
 9
 9
 9
 9
 9
 9
 9
 9
 9
 9
 9
 9
 9
 9
 9
 9
 9
 9
 9
 9
 9
 9
 9
 9
 9
 9
 9
 9
 9
 9
 9
 9
 9
 9
 9
 9
 9
 9
 9
 9
 9
 9
 9
 9
 9
 9
 9
 9
 9
 9
 9
 9
 9
 9
 9
 9
 9
 9
 9
 9
 9
 9
 9
 9
 9
 9
 9
 9
 9
 9
 9
 9
 9
 9
 9
 9
 9
 9
 9
 9
 9
 9
 9
 9
 9
 9
 9
 9
 9
 9
 9
 9
 9
 9
 9
 9
 9
 9
 9
 9
 9
 9
 9
 9
 9
 9
 9
 9
 9
 9
 9
 9
 9
 9
 9
 9
 9
 9
 9
 9
 9
 9
 9
 9
 9
 9
 9
 9
 9
 9
 9
 9
 9
 9
 9
 9
 9
 9
 9
 9
 9
 9
 9
 9
 9
 9
 9
 9
 9
 9
 9
 9
 9
 9
 9
 9
 9
 9
 9
 9
 9
 9
 9
 9
 9
 9
 9
 9
 9
 9
 9
 9
 9
 9
 9
 9
 9
 9
 9
 9
 9
 9
 9
 9
 9
 9
 9
 9
 9
 9
 9
 9
 9
 9
 9
 9
 9
 9
 9
 9
 9
 9
 9
 9
 9
 9
 9
 9
 9
 9
 9
 9
 9
 9
 9
 9
 9
 9
 9
 9
 9
 9
 9
 9
 9
 9
 9
 9
 9
 9
 9
 9
 9
 9
 9
 9
 9
 9
 9
 9
 9
 9
 9
 9
 9
 9
 9
 9
 9
 9
 9
 9
 9
 9
 9
 9
 9
 9
 9
 9
 9
 9
 9
 9
 9
 9
 9
 9
 9
 9
 9
 9
 9
 9
 9
 9
 9
 9
 9
 9
 9
 9
 9
 9
 9
 9
 9
 9
 9
 9
 9
 9
 9
 9
 9
 9
 9
 9
 9
 9
 9
 9
 9
 9
 9
 9
 9
 9
 9
 9
 9
 9
 9
 9
 9
 9
 9
 9
 9
 9
 9
 9
 9
 9
 9
 9
 9
 9
 9
 9
 9
 9
 9
 9
 9
 9
 9
 9
 9
 9
 9
 9
 9
 9
 9
 9
 9
 9
 9
 9
 9
 9
 9
 9
 9
 9
 9
 9
 9
 9
 9
 9
 9
 9
 9
 9
 9
 9
 9
 9
 9
 9
 9
 9
 9
 9
 9
 9
 9
 9
 9
 9
 9
 9
 9
 9
 9
 9
 9
 9
 9
 9
 9
 9
 9
 9
 9
 9
 9
 9
 9
 9
 9
 9
 9
 9
 9
 9
 9
 9
 9
 9
 9
 9
 9
 9
 9
 9
 9
 9
 9
 9
 9
 9
 9
 9
 9
 9
 9
 9
 9
 9
 9
 9
 9
 9
 9
 9
 9
 9
 9
 9
 9
 9
 9
 9
 9
 9
 9
 9
 9
 9
 9
 9
 9
 9
 9
 9
 9
 9
 9
 9
 9
 9
 9
 9
 9
 9
 9
 9
 9
 9
 9
 9
 9
 9
 9
 9
 9
 9
 9
 9
 9
 9
 9
 9
 9
 9
 9
 9
 9
 9
 9
 9
 9
 9
 9
 9
 9
 9
 9
 9
 9
 9
 9
 9
 9
 9
 9
 9
 9
 9
 9
 9
 9
 9
 9
 9
 9
 9
 9
 9
 9
 9
 9
 9
 9
 9
 9
 9
 9
 9
 9
 9
 9
 9
 9
 9
 9
 9
 9
 9
 9
 9
 9
 9
 9
 9
 9
 9
 9
 9
 9
 9
 9
 9
 9
 9
 9
 9
 9
 9
 9
 9
 9
 9
 9
 9
 9
 9
 9
 9
 9
 9
 9
 9
 9
 9
 9
 9
 9
 9
 9
 9
 9
 9
 9
 9
 9
 9
 9
 9
 9
 9
 9
 9
 9
 9
 9
 9
 9
 9
 9
 9
 9
 9
 9
 9
 9
 9
 9
 9
 9
 9
 9
 9
 9
 9
 9
 9
 9
 9
 9
 9
 9
 9
 9
 9
 9
 9
 9
 9
 9
 9
 9
 9
 9
 9
 9
 9
 9
 9
 9
 9
 9
 9
 9
 9
 9
 9
 9
 9
 9
 9
 9
 9
 9
 9
 9
 9
 9
 9
 9
 9
 9
 9
 9
 9
 9
 9
 9
 9
 9
 9
 9
 9
 9
 9
 9
 9
 9
 9
 9
 9
 9
 9
 9
 9
 9
 9
 9
 9
 9
 9
 9
 9
 9
 9
 9
 9
 9
 9
 9
 9
 9
 9
 9
 9
 9
 9
 9
 9
 9
 9
 9
 9
 9
 9
 9
 9
 9
 9
 9
 9
 9
 9
 9
 9
 9
 9
 9
 9
 9
 9
 9
 9
 9
 9
 9
 9
 9
 9
 9
 9
 9
 9
 9
 9
 9
 9
 9
 9
 9
 9
 9
 9
 9
 9
 9
 9
 9
 9
 9
 9
 9
 9
 9
 9
 9
 9
 9
 9
 9
 9
 9
 9
 9
 9
 9
 9
 9
 9
 9
 9
 9
 9
 9
 9
 9
 9
 9
 9
 9
 9
 9
 9
 9
 9
 9
 9
 9
 9
 9
 9
 9
 9
 9
 9
 9
 9
 9
 9
 9
 9
 9
 9
 9
 9
 9
 9
 9
 9
 9
 9
 9
 9
 9
 9
 9
 9
 9
 9
 9
 9
 9
 9
 9
 9
 9
 9
 9
 9
 9
 9
 9
 9
 9
 9
 9
 9
 9
 9
 9
 9
 9
 9
 9
 9
 9
 9
 9
 9
 9
 9
 9
 9
 9
 9
 9
 9
 9
 9
 9
 9
 9
 9
 9
 9
 9
 9
 9
 9
 9
 9
 9
 9
 9
 9
 9
 9
 9
 9
 9
 9
 9
 9
 9
 9
 9
 9
 9
 9
 9
 9
 9
 9
 9
 9
 9
 9
 9
 9
 9
 9
 9
 9
 9
 9
 9
 9
 9
 9
 9
 9
 9
 9
 9
 9
 9
 9
 9
 9
 9
 9
 9
 9
 9
 9
 9
 9
 9
 9
 9
 9
 9
 9
 9
 9
 9
 9
 9
 9
 9
 9
 9
 9
 9
 9
 </DataArray>
 </Cells> 
 <PointData>
 <DataArray  type="Float64" Name="disp" NumberOfComponents="3" format="ascii">
   6.5908871155740262E-002   6.2807997463267110E-002   0.0000000000000000     
   6.8762122331568101E-002   6.8190969793337455E-002   0.0000000000000000     
   7.1575224525573453E-002   7.3752585817619135E-002   0.0000000000000000     
   7.4348177737756316E-002   7.9492845536112175E-002   0.0000000000000000     
   7.7080981968116691E-002   8.5411748948816535E-002   0.0000000000000000     
   6.0226841692326678E-002   6.1882438584106150E-002   0.0000000000000000     
   6.3064289196661932E-002   6.7301241438624454E-002   0.0000000000000000     
   6.5821661607758916E-002   7.2897205154980368E-002   0.0000000000000000     
   6.8498958925617623E-002   7.8670329733173922E-002   0.0000000000000000     
   7.1096181150238053E-002   8.4620615173205099E-002   0.0000000000000000     
   5.4973452107225033E-002   6.1024169310237145E-002   0.0000000000000000     
   5.7718502536957747E-002   6.6473229541607490E-002   0.0000000000000000     
   6.0363229194321660E-002   7.2098804346316950E-002   0.0000000000000000     
   6.2907632079316739E-002   7.7900893724365497E-002   0.0000000000000000     
   6.5351711191943024E-002   8.3879497675753145E-002   0.0000000000000000     
   5.0148702400435320E-002   6.0233189641660093E-002   0.0000000000000000     
   5.2724762352455538E-002   6.5706934102286590E-002   0.0000000000000000     
   5.5199927285261664E-002   7.1357383391628879E-002   0.0000000000000000     
   5.7574197198853691E-002   7.7184537509686901E-002   0.0000000000000000     
   5.9847572093231619E-002   8.3188396456460728E-002   0.0000000000000000     
   4.5752592571957545E-002   5.9509499578374994E-002   0.0000000000000000     
   4.8083068643155320E-002   6.5002355120661756E-002   0.0000000000000000     
   5.0331755880578949E-002   7.0672942290916141E-002   0.0000000000000000     
   5.2498654284228459E-002   7.6521261089138148E-002   0.0000000000000000     
   5.4583763854103823E-002   8.2547311515327806E-002   0.0000000000000000     
   7.7080981968116691E-002   8.5411748948816535E-002   0.0000000000000000     
   7.9746628563011929E-002   9.1500932398392534E-002   0.0000000000000000     
   8.2318108868799367E-002   9.7752032227500465E-002   0.0000000000000000     
   8.4795422885479019E-002  0.10416504843614033        0.0000000000000000     
   8.7178570613050871E-002  0.11073998102431211        0.0000000000000000     
   7.1096181150238053E-002   8.4620615173205099E-002   0.0000000000000000     
   7.3608643721605985E-002   9.0739735737359245E-002   0.0000000000000000     
   7.6031662079707213E-002   9.7019365687921758E-002   0.0000000000000000     
   7.8365236224541696E-002  0.10345950502489264        0.0000000000000000     
   8.0609366156109474E-002  0.11006015374827187        0.0000000000000000     
   6.5351711191943024E-002   8.3879497675753145E-002   0.0000000000000000     
   6.7703646411183829E-002   9.0026170793719940E-002   0.0000000000000000     
   6.9971617616022455E-002   9.6332467671505939E-002   0.0000000000000000     
   7.2155624806458915E-002  0.10279838830911109        0.0000000000000000     
   7.4255667982493195E-002  0.10942393270653548        0.0000000000000000     
   5.9847572093231619E-002   8.3188396456460728E-002   0.0000000000000000     
   6.2031636631745435E-002   8.9360237567474632E-002   0.0000000000000000     
   6.4137975477745107E-002   9.5691338178252955E-002   0.0000000000000000     
   6.6166588631230663E-002  0.10218169828879575        0.0000000000000000     
   6.8117476092202089E-002  0.10883131789910297        0.0000000000000000     
   5.4583763854103823E-002   8.2547311515327806E-002   0.0000000000000000     
   5.6592614383290801E-002   8.8741936058623294E-002   0.0000000000000000     
   5.8530735664875190E-002   9.5095977208162888E-002   0.0000000000000000     
   6.0398127698856961E-002  0.10160943496394655        0.0000000000000000     
   6.2194790485236115E-002  0.10828230932597430        0.0000000000000000     
   8.7178570613050871E-002  0.11073998102431211        0.0000000000000000     
   8.9467098361786193E-002  0.11746087830160197        0.0000000000000000     
   9.1660552441956200E-002  0.12431178857759605        0.0000000000000000     
   9.3758932853560920E-002  0.13129271185229432        0.0000000000000000     
   9.5762239596600324E-002  0.13840364812569683        0.0000000000000000     
   8.0609366156109474E-002  0.11006015374827187        0.0000000000000000     
   8.2763362247867039E-002  0.11680667795342818        0.0000000000000000     
   8.4826534873270923E-002  0.12368444373573032        0.0000000000000000     
   8.6798884032321125E-002  0.13069345109517830        0.0000000000000000     
   8.8680409725017659E-002  0.13783370003177209        0.0000000000000000     
   7.4255667982493195E-002  0.10942393270653548        0.0000000000000000     
   7.6270770175307631E-002  0.11619530553033101        0.0000000000000000     
   7.8199954416084530E-002  0.12309871144704969        0.0000000000000000     
   8.0043220704823850E-002  0.13013415045669147        0.0000000000000000     
   8.1800569041525634E-002  0.13730162255925643        0.0000000000000000     
   6.8117476092202089E-002  0.10883131789910297        0.0000000000000000     
   6.9989322144107982E-002  0.11562676103231047        0.0000000000000000     
   7.1780811070397008E-002  0.12255459171155411        0.0000000000000000     
   7.3491942871069096E-002  0.12961480993683394        0.0000000000000000     
   7.5122717546124290E-002  0.13680741570814992        0.0000000000000000     
   6.2194790485236115E-002  0.10828230932597430        0.0000000000000000     
   6.3919018154268106E-002  0.11510104445936653        0.0000000000000000     
   6.5569104836208342E-002  0.12205208452924364        0.0000000000000000     
   6.7145050531056835E-002  0.12913542953560564        0.0000000000000000     
   6.8646855238813601E-002  0.13635107947845249        0.0000000000000000     
   9.5762239596600324E-002  0.13840364812569683        0.0000000000000000     
   9.7671646297854103E-002  0.14563560577092288        0.0000000000000000     
   9.9488326584101908E-002  0.15297959316109175        0.0000000000000000     
  0.10121228045534374       0.16043561029620346        0.0000000000000000     
  0.10284350791157960       0.16800365717625798        0.0000000000000000     
   8.8680409725017659E-002  0.13783370003177209        0.0000000000000000     
   9.0473106047701118E-002  0.14509481746128086        0.0000000000000000     
   9.2178967096712194E-002  0.15246643029947388        0.0000000000000000     
   9.3797992872050859E-002  0.15994853854635108        0.0000000000000000     
   9.5330183373717070E-002  0.16754114220191246        0.0000000000000000     
   8.1800569041525634E-002  0.13730162255925643        0.0000000000000000     
   8.3474206015334229E-002  0.14458993099139869        0.0000000000000000     
   8.5066338215393986E-002  0.15198787898977253        0.0000000000000000     
   8.6576965641704917E-002  0.15949546655437782        0.0000000000000000     
   8.8006088294266996E-002  0.16711269368521472        0.0000000000000000     
   7.5122717546124290E-002  0.13680741570814992        0.0000000000000000     
   7.6674946200753422E-002  0.14412094636127634        0.0000000000000000     
   7.8150439940147295E-002  0.15154393923198767        0.0000000000000000     
   7.9549198764305926E-002  0.15907639432028375        0.0000000000000000     
   8.0871222673229298E-002  0.16671831162616471        0.0000000000000000     
   6.8646855238813601E-002  0.13635107947845249        0.0000000000000000     
   7.0075326603958668E-002  0.14368786357091384        0.0000000000000000     
   7.1431272270972096E-002  0.15113461102611928        0.0000000000000000     
   7.2714692239853898E-002  0.15869132184406881        0.0000000000000000     
   7.3925586510604060E-002  0.16635799602476248        0.0000000000000000     
  0.10284350791157960       0.16800365717625798        0.0000000000000000     
  0.10438603905472030       0.17567212225398782        0.0000000000000000     
  0.10584390398667656       0.18342939398212552        0.0000000000000000     
  0.10721710270744846       0.19127547236067100        0.0000000000000000     
  0.10850563521703595       0.19921035738962434        0.0000000000000000     
   9.5330183373717070E-002  0.16754114220191246        0.0000000000000000     
   9.6777126611177156E-002  0.17523392003292362        0.0000000000000000     
   9.8140410593897276E-002  0.18301655080615001        0.0000000000000000     
   9.9420035321877431E-002  0.19088903452159173        0.0000000000000000     
  0.10061600079511765       0.19885137117924870        0.0000000000000000     
   8.8006088294266996E-002  0.16711269368521472        0.0000000000000000     
   8.9353647192828914E-002  0.17482989589152362        0.0000000000000000     
   9.0619583357139349E-002  0.18263740868254502        0.0000000000000000     
   9.1803896787198302E-002  0.19053523205827891        0.0000000000000000     
   9.2906587483005745E-002  0.19852336601872533        0.0000000000000000     
   8.0871222673229298E-002  0.16671831162616471        0.0000000000000000     
   8.2115600799675545E-002  0.17446004982978786        0.0000000000000000     
   8.3281422276402825E-002  0.18229196761131050        0.0000000000000000     
   8.4368687103411014E-002  0.19021406497073259        0.0000000000000000     
   8.5377395280700208E-002  0.19822634190805424        0.0000000000000000     
   7.3925586510604060E-002  0.16635799602476248        0.0000000000000000     
   7.5062987431717118E-002  0.17412438184771625        0.0000000000000000     
   7.6125927351687647E-002  0.18198022759244639        0.0000000000000000     
   7.7114406270515634E-002  0.18992553325895276        0.0000000000000000     
   7.8028424188201079E-002  0.19796029884723543        0.0000000000000000     
  0.10850563521703595       0.19921035738962434        0.0000000000000000     
  0.10971407136057967       0.20723053617952494        0.0000000000000000     
  0.11084698098322027       0.21533249584091230        0.0000000000000000     
  0.11190436408495771       0.22351623637378643        0.0000000000000000     
  0.11288622066579204       0.23178175777814730        0.0000000000000000     
  0.10061600079511765       0.19885137117924870        0.0000000000000000     
  0.10173348095950337       0.20689738285714868        0.0000000000000000     
  0.10277764976092002       0.21502089163331947        0.0000000000000000     
  0.10374850719936762       0.22322189750776106        0.0000000000000000     
  0.10464605327484613       0.23150040048047343        0.0000000000000000     
   9.2906587483005745E-002  0.19852336601872533        0.0000000000000000     
   9.3932365987949323E-002  0.20659415069394718        0.0000000000000000     
   9.4885942845416654E-002  0.21473992621400742        0.0000000000000000     
   9.5767318055407710E-002  0.22296069257890611        0.0000000000000000     
   9.6576491617922533E-002  0.23125644978864310        0.0000000000000000     
   8.5377395280700208E-002  0.19822634190805424        0.0000000000000000     
   8.6310726445917543E-002  0.20632083968992038        0.0000000000000000     
   8.7171860236710155E-002  0.21448959958297611        0.0000000000000000     
   8.7960796653078072E-002  0.22273262158722143        0.0000000000000000     
   8.8677535695021265E-002  0.23104990570265627        0.0000000000000000     
   7.8028424188201079E-002  0.19796029884723543        0.0000000000000000     
   7.8868562333408027E-002  0.20607744984506832        0.0000000000000000     
   7.9635401934800537E-002  0.21426991174022558        0.0000000000000000     
   8.0328942992378610E-002  0.22253768453270711        0.0000000000000000     
   8.0949185506142288E-002  0.23088076822251294        0.0000000000000000     
  0.11288622066579204       0.23178175777814730        0.0000000000000000     
  0.11382082773971661       0.24014561245259844        0.0000000000000000     
  0.11473646232072479       0.24862435279574335        0.0000000000000000     
  0.11563312440881660       0.25721797880758213        0.0000000000000000     
  0.11651081400399203       0.26592649048811468        0.0000000000000000     
  0.10464605327484613       0.23150040048047343        0.0000000000000000     
  0.10547539080698139       0.23987991874547121        0.0000000000000000     
  0.10624162261539914       0.24838397049676900        0.0000000000000000     
  0.10694474870009940       0.25701255573436677        0.0000000000000000     
  0.10758476906108216       0.26576567445826460        0.0000000000000000     
   9.6576491617922533E-002  0.23125644978864310        0.0000000000000000     
   9.7304365760332856E-002  0.23965371503498129        0.0000000000000000     
   9.7941842710010441E-002  0.24817900550968325        0.0000000000000000     
   9.8488922466955259E-002  0.25683232121274907        0.0000000000000000     
   9.8945605031167311E-002  0.26561366214417875        0.0000000000000000     
   8.8677535695021265E-002  0.23104990570265627        0.0000000000000000     
   8.9307752599771029E-002  0.23946700132112853        0.0000000000000000     
   8.9837122604558672E-002  0.24800945783448611        0.0000000000000000     
   9.0265645709384140E-002  0.25667727524272899        0.0000000000000000     
   9.0593321914247515E-002  0.26547045354585719        0.0000000000000000     
   8.0949185506142288E-002  0.23088076822251294        0.0000000000000000     
   8.1485551325295891E-002  0.23931977760391310        0.0000000000000000     
   8.1927462299043838E-002  0.24787532747117760        0.0000000000000000     
   8.2274918427386101E-002  0.25654741782430651        0.0000000000000000     
   8.2527919710322695E-002  0.26533604866329974        0.0000000000000000     
  0.11651081400399203       0.26592649048811468        0.0000000000000000     
  0.11730983816685397       0.27491446685685761        0.0000000000000000     
  0.11797050395800528       0.28434648693332742        0.0000000000000000     
  0.11849281137744599       0.29422255071752418        0.0000000000000000     
  0.11887676042517610       0.30454265820944787        0.0000000000000000     
  0.10758476906108216       0.26576567445826460        0.0000000000000000     
  0.10814268587174969       0.27477544158556294        0.0000000000000000     
  0.10859950130550415       0.28417397203336242        0.0000000000000000     
  0.10895521536234562       0.29396126580166304        0.0000000000000000     
  0.10920982804227404       0.30413732289046480        0.0000000000000000     
   9.8945605031167311E-002  0.26561366214417875        0.0000000000000000     
   9.9322902167643737E-002  0.27462129144757325        0.0000000000000000     
   9.9631825641381538E-002  0.28395347226653384        0.0000000000000000     
   9.9872375452380743E-002  0.29361020460106024        0.0000000000000000     
  0.10004455160064135       0.30359148845115269        0.0000000000000000     
   9.0593321914247515E-002  0.26547045354585719        0.0000000000000000     
   9.0850487054536147E-002  0.27445201644288858        0.0000000000000000     
   9.1067476965637426E-002  0.28368498763284150        0.0000000000000000     
   9.1244291647551393E-002  0.29316936711571578        0.0000000000000000     
   9.1380931100278021E-002  0.30290515489151143        0.0000000000000000     
   8.2527919710322695E-002  0.26533604866329974        0.0000000000000000     
   8.2725440532426878E-002  0.27426761657150889        0.0000000000000000     
   8.2906455278271812E-002  0.28336851813228553        0.0000000000000000     
   8.3070963947857554E-002  0.29263875334562961        0.0000000000000000     
   8.3218966541184061E-002  0.30207832221154107        0.0000000000000000     
   4.5752592571957545E-002   5.9509499578374994E-002   0.0000000000000000     
   4.8083068643155320E-002   6.5002355120661756E-002   0.0000000000000000     
   5.0331755880578949E-002   7.0672942290916141E-002   0.0000000000000000     
   5.2498654284228459E-002   7.6521261089138148E-002   0.0000000000000000     
   5.4583763854103823E-002   8.2547311515327806E-002   0.0000000000000000     
   4.1563251716311755E-002   5.8845235193542449E-002   0.0000000000000000     
   4.3632771078147774E-002   6.4354895745078466E-002   0.0000000000000000     
   4.5643975158742821E-002   7.0043387277555311E-002   0.0000000000000000     
   4.7596863958096897E-002   7.5910709790972961E-002   0.0000000000000000     
   4.9491437476209987E-002   8.1956863285331416E-002   0.0000000000000000     
   3.7358808928017961E-002   5.8232532560323055E-002   0.0000000000000000     
   3.9213219326523593E-002   6.3759959123882270E-002   0.0000000000000000     
   4.1021845298222559E-002   6.9466624584922948E-002   0.0000000000000000     
   4.2784686843114865E-002   7.5352528943445060E-002   0.0000000000000000     
   4.4501743961200511E-002   8.1417672199448635E-002   0.0000000000000000     
   3.3139264207076184E-002   5.7671391678716814E-002   0.0000000000000000     
   3.4824413388282772E-002   6.3217545257073154E-002   0.0000000000000000     
   3.6465366299018170E-002   6.8942654213019039E-002   0.0000000000000000     
   3.8062122939282364E-002   7.4846718546554475E-002   0.0000000000000000     
   3.9614683309075374E-002   8.0929738257679421E-002   0.0000000000000000     
   2.8904617553486407E-002   5.7161812548723726E-002   0.0000000000000000     
   3.0466353263425325E-002   6.2727654144651104E-002   0.0000000000000000     
   3.1974538161129662E-002   6.8471476161843597E-002   0.0000000000000000     
   3.3429172246599408E-002   7.4393278600301149E-002   0.0000000000000000     
   3.4830255519834576E-002   8.0493061460023815E-002   0.0000000000000000     
   5.4583763854103823E-002   8.2547311515327806E-002   0.0000000000000000     
   5.6592614383290801E-002   8.8741936058623294E-002   0.0000000000000000     
   5.8530735664875190E-002   9.5095977208162888E-002   0.0000000000000000     
   6.0398127698856961E-002  0.10160943496394655        0.0000000000000000     
   6.2194790485236115E-002  0.10828230932597430        0.0000000000000000     
   4.9491437476209987E-002   8.1956863285331416E-002   0.0000000000000000     
   5.1324900971039950E-002   8.8172325048714459E-002   0.0000000000000000     
   5.3094459700544619E-002   9.4547572369205843E-002   0.0000000000000000     
   5.4800113664724009E-002  0.10108260524680553        0.0000000000000000     
   5.6441862863578086E-002  0.10777742368151352        0.0000000000000000     
   4.4501743961200511E-002   8.1417672199448635E-002   0.0000000000000000     
   4.6166817700212887E-002   8.7652463319296631E-002   0.0000000000000000     
   4.7773709107885406E-002   9.4047311269351966E-002   0.0000000000000000     
   4.9322418184218023E-002  0.10060221604961465        0.0000000000000000     
   5.0812944929210804E-002  0.10731717766008469        0.0000000000000000     
   3.9614683309075374E-002   8.0929738257679421E-002   0.0000000000000000     
   4.1118364570809599E-002   8.7182350870369754E-002   0.0000000000000000     
   4.2568483886897483E-002   9.3595193908601257E-002   0.0000000000000000     
   4.3965041257339049E-002  0.10016826737237394        0.0000000000000000     
   4.5308036682134255E-002  0.10690157126168778        0.0000000000000000     
   3.4830255519834576E-002   8.0493061460023815E-002   0.0000000000000000     
   3.6179541582830099E-002   8.6761987701933885E-002   0.0000000000000000     
   3.7478784037580919E-002   9.3191220286953744E-002   0.0000000000000000     
   3.8727982884087041E-002   9.9780759215083392E-002   0.0000000000000000     
   3.9927138122348452E-002  0.10653060448632279        0.0000000000000000     
   6.2194790485236115E-002  0.10828230932597430        0.0000000000000000     
   6.3919018154268106E-002  0.11510104445936653        0.0000000000000000     
   6.5569104836208342E-002  0.12205208452924364        0.0000000000000000     
   6.7145050531056835E-002  0.12913542953560564        0.0000000000000000     
   6.8646855238813601E-002  0.13635107947845249        0.0000000000000000     
   5.6441862863578086E-002  0.10777742368151352        0.0000000000000000     
   5.8017746280011120E-002  0.11461819316611753        0.0000000000000000     
   5.9525802896927327E-002  0.12159107919340517        0.0000000000000000     
   6.0966032714326705E-002  0.12869608176337646        0.0000000000000000     
   6.2338435732209270E-002  0.13593320087603136        0.0000000000000000     
   5.0812944929210804E-002  0.10731717766008469        0.0000000000000000     
   5.2243394595560197E-002  0.11417824450718181        0.0000000000000000     
   5.3611872435962687E-002  0.12117146499732569        0.0000000000000000     
   5.4918378450418318E-002  0.12829683913051632        0.0000000000000000     
   5.6162912638927032E-002  0.13555436690675374        0.0000000000000000     
   4.5308036682134255E-002  0.10690157126168778        0.0000000000000000     
   4.6595963100915329E-002  0.11378119848255934        0.0000000000000000     
   4.7827313453314459E-002  0.12079324194100516        0.0000000000000000     
   4.9002087739331644E-002  0.12793770163702523        0.0000000000000000     
   5.0120285958966872E-002  0.13521457757061955        0.0000000000000000     
   3.9927138122348452E-002  0.10653060448632279        0.0000000000000000     
   4.1075451796076523E-002  0.11342705509225014        0.0000000000000000     
   4.2172125948982606E-002  0.12045641002444360        0.0000000000000000     
   4.3217160581066706E-002  0.12761866928290316        0.0000000000000000     
   4.4210555692328811E-002  0.13491383286762887        0.0000000000000000     
   6.8646855238813601E-002  0.13635107947845249        0.0000000000000000     
   7.0075326603958668E-002  0.14368786357091384        0.0000000000000000     
   7.1431272270972096E-002  0.15113461102611928        0.0000000000000000     
   7.2714692239853898E-002  0.15869132184406881        0.0000000000000000     
   7.3925586510604060E-002  0.16635799602476248        0.0000000000000000     
   6.2338435732209270E-002  0.13593320087603136        0.0000000000000000     
   6.3642758044180348E-002  0.14329172700449050        0.0000000000000000     
   6.4878745743845251E-002  0.15076095062187439        0.0000000000000000     
   6.6046398831203987E-002  0.15834087172818306        0.0000000000000000     
   6.7145717306256569E-002  0.16603149032341655        0.0000000000000000     
   5.6162912638927032E-002  0.13555436690675374        0.0000000000000000     
   5.7344651340648818E-002  0.14293358104618567        0.0000000000000000     
   5.8462770894743610E-002  0.15042401426895999        0.0000000000000000     
   5.9517271301211420E-002  0.15802566657507658        0.0000000000000000     
   6.0508152560052236E-002  0.16573853796453553        0.0000000000000000     
   5.0120285958966872E-002  0.13521457757061955        0.0000000000000000     
   5.1181006493364094E-002  0.14261342569599939        0.0000000000000000     
   5.2183347723667187E-002  0.15012380196737599        0.0000000000000000     
   5.3127309649876164E-002  0.15774570638474936        0.0000000000000000     
   5.4012892271991034E-002  0.16547913894811944        0.0000000000000000     
   4.4210555692328811E-002  0.13491383286762887        0.0000000000000000     
   4.5151823502326154E-002  0.14233126095393162        0.0000000000000000     
   4.6040476230615968E-002  0.14986031371712244        0.0000000000000000     
   4.6876513877198232E-002  0.15750099115720134        0.0000000000000000     
   4.7659936442072968E-002  0.16525329327416827        0.0000000000000000     
   7.3925586510604060E-002  0.16635799602476248        0.0000000000000000     
   7.5062987431717118E-002  0.17412438184771625        0.0000000000000000     
   7.6125927351687647E-002  0.18198022759244639        0.0000000000000000     
   7.7114406270515634E-002  0.18992553325895276        0.0000000000000000     
   7.8028424188201079E-002  0.19796029884723543        0.0000000000000000     
   6.7145717306256569E-002  0.16603149032341655        0.0000000000000000     
   6.8175946235807777E-002  0.17382176984725334        0.0000000000000000     
   6.9136330686662403E-002  0.18170067373937199        0.0000000000000000     
   7.0026870658820434E-002  0.18966820199977250        0.0000000000000000     
   7.0847566152281896E-002  0.19772435462845489        0.0000000000000000     
   6.0508152560052236E-002  0.16573853796453553        0.0000000000000000     
   6.1434616358801729E-002  0.17355109173034328        0.0000000000000000     
   6.2295864384995542E-002  0.18145179116550639        0.0000000000000000     
   6.3091896638633752E-002  0.18944063627002489        0.0000000000000000     
   6.3822713119716268E-002  0.19751762704389864        0.0000000000000000     
   5.4012892271991034E-002  0.16547913894811944        0.0000000000000000     
   5.4838997800698959E-002  0.17331234749698624        0.0000000000000000     
   5.5604528446687125E-002  0.18123357987084973        0.0000000000000000     
   5.6309484209955532E-002  0.18924283606970987        0.0000000000000000     
   5.6953865090504180E-002  0.19734011609356672        0.0000000000000000     
   4.7659936442072968E-002  0.16525329327416827        0.0000000000000000     
   4.8389090561499482E-002  0.17310553714718213        0.0000000000000000     
   4.9062322871737105E-002  0.18104603985540191        0.0000000000000000     
   4.9679633372785824E-002  0.18907480139882757        0.0000000000000000     
   5.0241022064645639E-002  0.19719182177745911        0.0000000000000000     
   7.8028424188201079E-002  0.19796029884723543        0.0000000000000000     
   7.8868562333408027E-002  0.20607744984506832        0.0000000000000000     
   7.9635401934800537E-002  0.21426991174022558        0.0000000000000000     
   8.0328942992378610E-002  0.22253768453270711        0.0000000000000000     
   8.0949185506142288E-002  0.23088076822251294        0.0000000000000000     
   7.0847566152281896E-002  0.19772435462845489        0.0000000000000000     
   7.1596461682905843E-002  0.20586309031734956        0.0000000000000000     
   7.2271601766551355E-002  0.21407836775838704        0.0000000000000000     
   7.2872986403218473E-002  0.22237018695156732        0.0000000000000000     
   7.3400615592907129E-002  0.23073854789689030        0.0000000000000000     
   6.3822713119716268E-002  0.19751762704389864        0.0000000000000000     
   6.4485012526896091E-002  0.20567687026472267        0.0000000000000000     
   6.5075493558826220E-002  0.21391247271009189        0.0000000000000000     
   6.5594156215506627E-002  0.22222443438000619        0.0000000000000000     
   6.6041000496937299E-002  0.23061275527446570        0.0000000000000000     
   5.6953865090504180E-002  0.19734011609356672        0.0000000000000000     
   5.7534214865378797E-002  0.20551878968718759        0.0000000000000000     
   5.8047077311625103E-002  0.21377222659533993        0.0000000000000000     
   5.8492452429243121E-002  0.22210042681802375        0.0000000000000000     
   5.8870340218232821E-002  0.23050339035523904        0.0000000000000000     
   5.0241022064645639E-002  0.19719182177745911        0.0000000000000000     
   5.0744068698353920E-002  0.20538884858474438        0.0000000000000000     
   5.1186353024948020E-002  0.21365762941413138        0.0000000000000000     
   5.1567875044427933E-002  0.22199816426562002        0.0000000000000000     
   5.1888634756793658E-002  0.23041045313921035        0.0000000000000000     
   8.0949185506142288E-002  0.23088076822251294        0.0000000000000000     
   8.1485551325295891E-002  0.23931977760391310        0.0000000000000000     
   8.1927462299043838E-002  0.24787532747117760        0.0000000000000000     
   8.2274918427386101E-002  0.25654741782430651        0.0000000000000000     
   8.2527919710322695E-002  0.26533604866329974        0.0000000000000000     
   7.3400615592907129E-002  0.23073854789689030        0.0000000000000000     
   7.3851257644278884E-002  0.23919706030769083        0.0000000000000000     
   7.4221680865995218E-002  0.24775933389730359        0.0000000000000000     
   7.4511885258056118E-002  0.25642536866572857        0.0000000000000000     
   7.4721870820461611E-002  0.26519516461296577        0.0000000000000000     
   6.6041000496937299E-002  0.23061275527446570        0.0000000000000000     
   6.6418367264091407E-002  0.23908386585681782        0.0000000000000000     
   6.6728597377942039E-002  0.24764419659040993        0.0000000000000000     
   6.6971690838489223E-002  0.25629374747524220        0.0000000000000000     
   6.7147647645732930E-002  0.26503251851131443        0.0000000000000000     
   5.8870340218232821E-002  0.23050339035523904        0.0000000000000000     
   5.9186880184733476E-002  0.23898019425129394        0.0000000000000000     
   5.9448211834884329E-002  0.24752991555049667        0.0000000000000000     
   5.9654335168685388E-002  0.25615255425284728        0.0000000000000000     
   5.9805250186136645E-002  0.26484811035834571        0.0000000000000000     
   5.1888634756793658E-002  0.23041045313921035        0.0000000000000000     
   5.2156796406205075E-002  0.23888604549111928        0.0000000000000000     
   5.2380524236822074E-002  0.24741649077756381        0.0000000000000000     
   5.2559818248644641E-002  0.25600178899854387        0.0000000000000000     
   5.2694678441672776E-002  0.26464194015405951        0.0000000000000000     
   8.2527919710322695E-002  0.26533604866329974        0.0000000000000000     
   8.2725440532426878E-002  0.27426761657150889        0.0000000000000000     
   8.2906455278271812E-002  0.28336851813228553        0.0000000000000000     
   8.3070963947857554E-002  0.29263875334562961        0.0000000000000000     
   8.3218966541184061E-002  0.30207832221154107        0.0000000000000000     
   7.4721870820461611E-002  0.26519516461296577        0.0000000000000000     
   7.4892574554652203E-002  0.27406240302339469        0.0000000000000000     
   7.5064933462068426E-002  0.28302076518139463        0.0000000000000000     
   7.5238947542710252E-002  0.29207025108696583        0.0000000000000000     
   7.5414616796577683E-002  0.30121086074010811        0.0000000000000000     
   6.7147647645732930E-002  0.26503251851131443        0.0000000000000000     
   6.7296701074548437E-002  0.27383068698850643        0.0000000000000000     
   6.7459084399810965E-002  0.28265843019669790        0.0000000000000000     
   6.7634797621520526E-002  0.29151574813588865        0.0000000000000000     
   6.7823840739677121E-002  0.30040264080607887        0.0000000000000000     
   5.9805250186136645E-002  0.26484811035834571        0.0000000000000000     
   5.9937820092115533E-002  0.27357246846684408        0.0000000000000000     
   6.0088908091499450E-002  0.28228151317819494        0.0000000000000000     
   6.0258514184288403E-002  0.29097524449239798        0.0000000000000000     
   6.0446638370482371E-002  0.29965366240945335        0.0000000000000000     
   5.2694678441672776E-002  0.26464194015405951        0.0000000000000000     
   5.2815931607353518E-002  0.27328774745840784        0.0000000000000000     
   5.2954404537133869E-002  0.28189001412588593        0.0000000000000000     
   5.3110097231013842E-002  0.29044874015649391        0.0000000000000000     
   5.3283009688993438E-002  0.29896392555023166        0.0000000000000000     
   2.8904617553486407E-002   5.7161812548723726E-002   0.0000000000000000     
   3.0466353263425325E-002   6.2727654144651104E-002   0.0000000000000000     
   3.1974538161129662E-002   6.8471476161843597E-002   0.0000000000000000     
   3.3429172246599408E-002   7.4393278600301149E-002   0.0000000000000000     
   3.4830255519834576E-002   8.0493061460023815E-002   0.0000000000000000     
   2.4795647497519578E-002   5.6712351795686372E-002   0.0000000000000000     
   2.6231911511746749E-002   6.2295406902328973E-002   0.0000000000000000     
   2.7605466973830418E-002   6.8055653092359017E-002   0.0000000000000000     
   2.8916313883770570E-002   7.3993090365776532E-002   0.0000000000000000     
   3.0164452241567222E-002   8.0107718722581475E-002   0.0000000000000000     
   2.0953132569446632E-002   5.6331566044947365E-002   0.0000000000000000     
   2.2213960693042562E-002   6.1925924645819558E-002   0.0000000000000000     
   2.3414258826393832E-002   6.7697747665527774E-002   0.0000000000000000     
   2.4554026969500448E-002   7.3647035104071973E-002   0.0000000000000000     
   2.5633265122362411E-002   7.9773786961452195E-002   0.0000000000000000     
   1.7377072769267574E-002   5.6019455296506669E-002   0.0000000000000000     
   1.8412500807312757E-002   6.1619207375122872E-002   0.0000000000000000     
   1.9400913718819916E-002   6.7397759881349828E-002   0.0000000000000000     
   2.0342311503789040E-002   7.3355112815187487E-002   0.0000000000000000     
   2.1236694162220134E-002   7.9491266176635919E-002   0.0000000000000000     
   1.4067468096982396E-002   5.5776019550364313E-002   0.0000000000000000     
   1.4827531854557345E-002   6.1375255090238903E-002   0.0000000000000000     
   1.5565431651108661E-002   6.7155689739825178E-002   0.0000000000000000     
   1.6281167486636348E-002   7.3117323499123088E-002   0.0000000000000000     
   1.6974739361140401E-002   7.9260156368132689E-002   0.0000000000000000     
   3.4830255519834576E-002   8.0493061460023815E-002   0.0000000000000000     
   3.6179541582830099E-002   8.6761987701933885E-002   0.0000000000000000     
   3.7478784037580919E-002   9.3191220286953744E-002   0.0000000000000000     
   3.8727982884087041E-002   9.9780759215083392E-002   0.0000000000000000     
   3.9927138122348452E-002  0.10653060448632279        0.0000000000000000     
   3.0164452241567222E-002   8.0107718722581475E-002   0.0000000000000000     
   3.1358125235202830E-002   8.6391145729646804E-002   0.0000000000000000     
   3.2505576052659864E-002   9.2834978953845376E-002   0.0000000000000000     
   3.3606804693938327E-002   9.9439218395177220E-002   0.0000000000000000     
   3.4661811159038221E-002  0.10620386405364232        0.0000000000000000     
   2.5633265122362411E-002   7.9773786961452195E-002   0.0000000000000000     
   2.6661892026856249E-002   8.6069596869166279E-002   0.0000000000000000     
   2.7649826424858536E-002   9.2526058458712104E-002   0.0000000000000000     
   2.8597068316369243E-002   9.9143171730089685E-002   0.0000000000000000     
   2.9503617701388395E-002  0.10592093668329899        0.0000000000000000     
   2.1236694162220134E-002   7.9491266176635919E-002   0.0000000000000000     
   2.2090841957790371E-002   8.5797341120492324E-002   0.0000000000000000     
   2.2911535154176918E-002   9.2264458801553942E-002   0.0000000000000000     
   2.3698773751379784E-002   9.8892619219820774E-002   0.0000000000000000     
   2.4452557749398966E-002  0.10568182237529282        0.0000000000000000     
   1.6974739361140401E-002   7.9260156368132689E-002   0.0000000000000000     
   1.7644975028005175E-002   8.5574378483624938E-002   0.0000000000000000     
   1.8290702240615023E-002   9.2050179982370875E-002   0.0000000000000000     
   1.8911920998969947E-002   9.8687560864370485E-002   0.0000000000000000     
   1.9508631303069943E-002  0.10548652112962376        0.0000000000000000     
   3.9927138122348452E-002  0.10653060448632279        0.0000000000000000     
   4.1075451796076523E-002  0.11342705509225014        0.0000000000000000     
   4.2172125948982606E-002  0.12045641002444360        0.0000000000000000     
   4.3217160581066706E-002  0.12761866928290316        0.0000000000000000     
   4.4210555692328811E-002  0.13491383286762887        0.0000000000000000     
   3.4661811159038221E-002  0.10620386405364232        0.0000000000000000     
   3.5670433179348690E-002  0.11311542358167656        0.0000000000000000     
   3.6632508486258875E-002  0.12016040463171582        0.0000000000000000     
   3.7548037079768788E-002  0.12733880720376012        0.0000000000000000     
   3.8417018959878417E-002  0.13465063129780941        0.0000000000000000     
   2.9503617701388395E-002  0.10592093668329899        0.0000000000000000     
   3.0369479749036723E-002  0.11284591319626100        0.0000000000000000     
   3.1194659628434984E-002  0.11990466114689663        0.0000000000000000     
   3.1979157339583175E-002  0.12709718053520594        0.0000000000000000     
   3.2722972882481299E-002  0.13442347136118887        0.0000000000000000     
   2.4452557749398966E-002  0.10568182237529282        0.0000000000000000     
   2.5172591505140625E-002  0.11261852393600345        0.0000000000000000     
   2.5858579375510928E-002  0.11968917956998608        0.0000000000000000     
   2.6510521360509871E-002  0.12689378927724068        0.0000000000000000     
   2.7128417460137447E-002  0.13423235305776732        0.0000000000000000     
   1.9508631303069943E-002  0.10548652112962376        0.0000000000000000     
   2.0079768447660400E-002  0.11243325580090392        0.0000000000000000     
   2.0624267727486708E-002  0.11951395990098412        0.0000000000000000     
   2.1142129142548864E-002  0.12672863342986440        0.0000000000000000     
   2.1633352692846865E-002  0.13407727638754471        0.0000000000000000     
   4.4210555692328811E-002  0.13491383286762887        0.0000000000000000     
   4.5151823502326154E-002  0.14233126095393162        0.0000000000000000     
   4.6040476230615968E-002  0.14986031371712244        0.0000000000000000     
   4.6876513877198232E-002  0.15750099115720134        0.0000000000000000     
   4.7659936442072968E-002  0.16525329327416827        0.0000000000000000     
   3.8417018959878417E-002  0.13465063129780941        0.0000000000000000     
   3.9239459333244492E-002  0.14208500585883665        0.0000000000000000     
   4.0015363406523695E-002  0.14963105983181491        0.0000000000000000     
   4.0744731179716047E-002  0.15728879321674416        0.0000000000000000     
   4.1427562652821541E-002  0.16505820601362436        0.0000000000000000     
   3.2722972882481299E-002  0.13442347136118887        0.0000000000000000     
   3.3426270951828548E-002  0.14187257944956877        0.0000000000000000     
   3.4089216242324125E-002  0.14943355062506891        0.0000000000000000     
   3.4711808753968031E-002  0.15710638488768941        0.0000000000000000     
   3.5294048486760259E-002  0.16489108223743015        0.0000000000000000     
   2.7128417460137447E-002  0.13423235305776732        0.0000000000000000     
   2.7712258358078352E-002  0.14169398172612788        0.0000000000000000     
   2.8262034738017264E-002  0.14926778609688449        0.0000000000000000     
   2.8777746599954180E-002  0.15695376617003706        0.0000000000000000     
   2.9259393943889104E-002  0.16475192194558561        0.0000000000000000     
   2.1633352692846865E-002  0.13407727638754471        0.0000000000000000     
   2.2097421551993887E-002  0.14154921268851409        0.0000000000000000     
   2.2533818893603102E-002  0.14913376624726157        0.0000000000000000     
   2.2942544717674502E-002  0.15683093706378712        0.0000000000000000     
   2.3323599024208094E-002  0.16464072513809075        0.0000000000000000     
   4.7659936442072968E-002  0.16525329327416827        0.0000000000000000     
   4.8389090561499482E-002  0.17310553714718213        0.0000000000000000     
   4.9062322871737105E-002  0.18104603985540191        0.0000000000000000     
   4.9679633372785824E-002  0.18907480139882757        0.0000000000000000     
   5.0241022064645639E-002  0.19719182177745911        0.0000000000000000     
   4.1427562652821541E-002  0.16505820601362436        0.0000000000000000     
   4.2061716396269731E-002  0.17292772511086013        0.0000000000000000     
   4.2645050980490123E-002  0.18088577739685605        0.0000000000000000     
   4.3177566405482766E-002  0.18893236287161205        0.0000000000000000     
   4.3659262671247617E-002  0.19706748153512821        0.0000000000000000     
   3.5294048486760259E-002  0.16489108223743015        0.0000000000000000     
   3.5833697060076095E-002  0.17277597581794932        0.0000000000000000     
   3.6328516093290852E-002  0.18074939877290516        0.0000000000000000     
   3.6778505586404504E-002  0.18881135110229755        0.0000000000000000     
   3.7183665539417078E-002  0.19696183280612656        0.0000000000000000     
   2.9259393943889104E-002  0.16475192194558561        0.0000000000000000     
   2.9705032552918606E-002  0.17265028926844980        0.0000000000000000     
   3.0112718210139257E-002  0.18063690398354929        0.0000000000000000     
   3.0482450915551056E-002  0.18871176609088408        0.0000000000000000     
   3.0814230669154011E-002  0.19687487559045411        0.0000000000000000     
   2.3323599024208094E-002  0.16464072513809075        0.0000000000000000     
   2.3675722874797252E-002  0.17255066546236150        0.0000000000000000     
   2.3997657331035357E-002  0.18054829302878841        0.0000000000000000     
   2.4289402392922418E-002  0.18863360783737154        0.0000000000000000     
   2.4550958060458421E-002  0.19680660988811088        0.0000000000000000     
   5.0241022064645639E-002  0.19719182177745911        0.0000000000000000     
   5.0744068698353920E-002  0.20538884858474438        0.0000000000000000     
   5.1186353024948020E-002  0.21365762941413138        0.0000000000000000     
   5.1567875044427933E-002  0.22199816426562002        0.0000000000000000     
   5.1888634756793658E-002  0.23041045313921035        0.0000000000000000     
   4.3659262671247617E-002  0.19706748153512821        0.0000000000000000     
   4.4089127202066695E-002  0.20528090531147711        0.0000000000000000     
   4.4466147422221970E-002  0.21356240612473137        0.0000000000000000     
   4.4790323331713434E-002  0.22191198397489098        0.0000000000000000     
   4.5061654930541109E-002  0.23032963886195593        0.0000000000000000     
   3.7183665539417078E-002  0.19696183280612656        0.0000000000000000     
   3.7543943552762304E-002  0.20518881822146987        0.0000000000000000     
   3.7859287226873935E-002  0.21348028168540523        0.0000000000000000     
   3.8129696561751969E-002  0.22183622319793259        0.0000000000000000     
   3.8355171557396414E-002  0.23025664275905203        0.0000000000000000     
   3.0814230669154011E-002  0.19687487559045411        0.0000000000000000     
   3.1108517750440753E-002  0.20511258731472265        0.0000000000000000     
   3.1365772438903934E-002  0.21341125609615294        0.0000000000000000     
   3.1585994734543550E-002  0.22177088193474492        0.0000000000000000     
   3.1769184637359608E-002  0.23019146483049868        0.0000000000000000     
   2.4550958060458421E-002  0.19680660988811088        0.0000000000000000     
   2.4782849795102042E-002  0.20505221259123546        0.0000000000000000     
   2.4985603058311958E-002  0.21335532935697452        0.0000000000000000     
   2.5159217850088161E-002  0.22171596018532794        0.0000000000000000     
   2.5303694170430661E-002  0.23013410507629584        0.0000000000000000     
   5.1888634756793658E-002  0.23041045313921035        0.0000000000000000     
   5.2156796406205075E-002  0.23888604549111928        0.0000000000000000     
   5.2380524236822074E-002  0.24741649077756381        0.0000000000000000     
   5.2559818248644641E-002  0.25600178899854387        0.0000000000000000     
   5.2694678441672776E-002  0.26464194015405951        0.0000000000000000     
   4.5061654930541109E-002  0.23032963886195593        0.0000000000000000     
   4.5289042408705800E-002  0.23880001448941962        0.0000000000000000     
   4.5481385956208334E-002  0.24730775456077553        0.0000000000000000     
   4.5638685573048739E-002  0.25585285907602356        0.0000000000000000     
   4.5760941259226973E-002  0.26443532803516379        0.0000000000000000     
   3.8355171557396414E-002  0.23025664275905203        0.0000000000000000     
   3.8544544672435184E-002  0.23872069615932073        0.0000000000000000     
   3.8706648365496185E-002  0.24720753918929608        0.0000000000000000     
   3.8841482636579418E-002  0.25571717184897785        0.0000000000000000     
   3.8949047485684882E-002  0.26424959413836635        0.0000000000000000     
   3.1769184637359608E-002  0.23019146483049868        0.0000000000000000     
   3.1923303197393241E-002  0.23864809050082261        0.0000000000000000     
   3.2056311464685600E-002  0.24711584466312531        0.0000000000000000     
   3.2168209439236692E-002  0.25559472731740684        0.0000000000000000     
   3.2258997121046504E-002  0.26408473846366720        0.0000000000000000     
   2.5303694170430661E-002  0.23013410507629584        0.0000000000000000     
   2.5425317983579970E-002  0.23858219751392531        0.0000000000000000     
   2.5530375253776601E-002  0.24703267098226350        0.0000000000000000     
   2.5618865981020561E-002  0.25548552548131048        0.0000000000000000     
   2.5690790165311839E-002  0.26394076101106623        0.0000000000000000     
   5.2694678441672776E-002  0.26464194015405951        0.0000000000000000     
   5.2815931607353518E-002  0.27328774745840784        0.0000000000000000     
   5.2954404537133869E-002  0.28189001412588593        0.0000000000000000     
   5.3110097231013842E-002  0.29044874015649391        0.0000000000000000     
   5.3283009688993438E-002  0.29896392555023166        0.0000000000000000     
   4.5760941259226973E-002  0.26443532803516379        0.0000000000000000     
   4.5872287588643451E-002  0.27300523803117616        0.0000000000000000     
   4.5996859135198555E-002  0.28151266565704064        0.0000000000000000     
   4.6134655898892298E-002  0.28995761091275718        0.0000000000000000     
   4.6285677879724652E-002  0.29834007379832583        0.0000000000000000     
   3.8949047485684882E-002  0.26424959413836635        0.0000000000000000     
   3.9048140004366405E-002  0.27275365425312775        0.0000000000000000     
   3.9157557284177844E-002  0.28117820038892849        0.0000000000000000     
   3.9277299325119169E-002  0.28952323254576856        0.0000000000000000     
   3.9407366127190389E-002  0.29778875072364808        0.0000000000000000     
   3.2258997121046504E-002  0.26408473846366720        0.0000000000000000     
   3.2343488854522394E-002  0.27253299612426263        0.0000000000000000     
   3.2436498984071714E-002  0.28088661832154960        0.0000000000000000     
   3.2538027509694457E-002  0.28914560505552817        0.0000000000000000     
   3.2648074431390624E-002  0.29730995632619833        0.0000000000000000     
   2.5690790165311839E-002  0.26394076101106623        0.0000000000000000     
   2.5758334139111400E-002  0.27234326364458072        0.0000000000000000     
   2.5833684234880177E-002  0.28063791945490391        0.0000000000000000     
   2.5916840452618165E-002  0.28882472844203594        0.0000000000000000     
   2.6007802792325372E-002  0.29690369060597660        0.0000000000000000     
   1.4067468096982396E-002   5.5776019550364313E-002   0.0000000000000000     
   1.4827531854557345E-002   6.1375255090238903E-002   0.0000000000000000     
   1.5565431651108661E-002   6.7155689739825178E-002   0.0000000000000000     
   1.6281167486636348E-002   7.3117323499123088E-002   0.0000000000000000     
   1.6974739361140401E-002   7.9260156368132689E-002   0.0000000000000000     
   1.0805676617756782E-002   5.5590178080170159E-002   0.0000000000000000     
   1.1293025426888289E-002   6.1187714555727843E-002   0.0000000000000000     
   1.1782480662016764E-002   6.6968630036685212E-002   0.0000000000000000     
   1.2274042323142206E-002   7.2932924523042300E-002   0.0000000000000000     
   1.2767710410264614E-002   7.9080598014799081E-002   0.0000000000000000     
   7.3730563967564092E-003   5.5450850159574086E-002   0.0000000000000000     
   7.6429531164175710E-003   6.1050232536149850E-002   0.0000000000000000     
   7.9267287903009194E-003   6.6833673567661359E-002   0.0000000000000000     
   8.2243834184064554E-003   7.2801173254108648E-002   0.0000000000000000     
   8.5359170007341771E-003   7.8952731595491696E-002   0.0000000000000000     
   3.7696074339812766E-003   5.5358035788576100E-002   0.0000000000000000     
   3.8773149231451864E-003   6.0962809031504937E-002   0.0000000000000000     
   3.9981760359611256E-003   6.6750820332753633E-002   0.0000000000000000     
   4.1321907724290946E-003   7.2722069692322186E-002   0.0000000000000000     
   4.2793591325490932E-003   7.8876557110210591E-002   0.0000000000000000     
  -4.6702705686144097E-006   5.5311734967176188E-002   0.0000000000000000     
  -3.8891529288618241E-006   6.0925444041793085E-002   0.0000000000000000     
  -3.1776010026156624E-006   6.6720070331961978E-002   0.0000000000000000     
  -2.5356147898743795E-006   7.2695613837682846E-002   0.0000000000000000     
  -1.9631942906402251E-006   7.8852074558955695E-002   0.0000000000000000     
   1.6974739361140401E-002   7.9260156368132689E-002   0.0000000000000000     
   1.7644975028005175E-002   8.5574378483624938E-002   0.0000000000000000     
   1.8290702240615023E-002   9.2050179982370875E-002   0.0000000000000000     
   1.8911920998969947E-002   9.8687560864370485E-002   0.0000000000000000     
   1.9508631303069943E-002  0.10548652112962376        0.0000000000000000     
   1.2767710410264614E-002   7.9080598014799081E-002   0.0000000000000000     
   1.3254612558373248E-002   8.5401013869172177E-002   0.0000000000000000     
   1.3725876402457367E-002   9.1883535443378225E-002   0.0000000000000000     
   1.4181501942516970E-002   9.8528162737417241E-002   0.0000000000000000     
   1.4621489178552053E-002  0.10533489575128917        0.0000000000000000     
   8.5359170007341771E-003   7.8952731595491696E-002   0.0000000000000000     
   8.8500758697671565E-003   8.5277552187742064E-002   0.0000000000000000     
   9.1556063579884585E-003   9.1764838626791287E-002   0.0000000000000000     
   9.4525084653980795E-003   9.8414590912639391E-002   0.0000000000000000     
   9.7407821919960266E-003  0.10522680904528635        0.0000000000000000     
   4.2793591325490932E-003   7.8876557110210591E-002   0.0000000000000000     
   4.4313649621869023E-003   8.5203993439334630E-002   0.0000000000000000     
   4.5798921072082999E-003   9.1694089532610101E-002   0.0000000000000000     
   4.7249405676132866E-003   9.8346845390037005E-002   0.0000000000000000     
   4.8665103434018652E-003  0.10516226101161533        0.0000000000000000     
  -1.9631942906402251E-006   7.8852074558955695E-002   0.0000000000000000     
  -1.5201643675162059E-006   8.5180337623949845E-002   0.0000000000000000     
  -1.2663498831081473E-006   9.1671288160834627E-002   0.0000000000000000     
  -1.2017508374136099E-006   9.8324926169610041E-002   0.0000000000000000     
  -1.3263672304334069E-006  0.10514125165027607        0.0000000000000000     
   1.9508631303069943E-002  0.10548652112962376        0.0000000000000000     
   2.0079768447660400E-002  0.11243325580090392        0.0000000000000000     
   2.0624267727486708E-002  0.11951395990098412        0.0000000000000000     
   2.1142129142548864E-002  0.12672863342986440        0.0000000000000000     
   2.1633352692846865E-002  0.13407727638754471        0.0000000000000000     
   1.4621489178552053E-002  0.10533489575128917        0.0000000000000000     
   1.5044096226800027E-002  0.11228964445475974        0.0000000000000000     
   1.5447581203498291E-002  0.11937831881759463        0.0000000000000000     
   1.5831944108646842E-002  0.12660091883979382        0.0000000000000000     
   1.6197184942245688E-002  0.13395744452135733        0.0000000000000000     
   9.7407821919960266E-003  0.10522680904528635        0.0000000000000000     
   1.0018660492763487E-002  0.11218722556136833        0.0000000000000000     
   1.0284376322681640E-002  0.11928157299752151        0.0000000000000000     
   1.0537929681750498E-002  0.12650985135374587        0.0000000000000000     
   1.0779320569970054E-002  0.13387206063004142        0.0000000000000000     
   4.8665103434018652E-003  0.10516226101161533        0.0000000000000000     
   5.0034612455507757E-003  0.11212599912072972        0.0000000000000000     
   5.1346530850367627E-003  0.11922372244076478        0.0000000000000000     
   5.2600858618598234E-003  0.12645543097172052        0.0000000000000000     
   5.3797595760199613E-003  0.13382112471359697        0.0000000000000000     
  -1.3263672304334069E-006  0.10514125165027607        0.0000000000000000     
  -1.5015148381012939E-006  0.11210596513284382        0.0000000000000000     
  -1.5885094363498340E-006  0.11920476714732439        0.0000000000000000     
  -1.5873510251788374E-006  0.12643765769371779        0.0000000000000000     
  -1.4980396045886565E-006  0.13380463677202400        0.0000000000000000     
   2.1633352692846865E-002  0.13407727638754471        0.0000000000000000     
   2.2097421551993887E-002  0.14154921268851409        0.0000000000000000     
   2.2533818893603102E-002  0.14913376624726157        0.0000000000000000     
   2.2942544717674502E-002  0.15683093706378712        0.0000000000000000     
   2.3323599024208094E-002  0.16464072513809075        0.0000000000000000     
   1.6197184942245688E-002  0.13395744452135733        0.0000000000000000     
   1.6542309911638471E-002  0.14143745341802705        0.0000000000000000     
   1.6866325224168845E-002  0.14903050308554502        0.0000000000000000     
   1.7169230879836798E-002  0.15673659352391109        0.0000000000000000     
   1.7451026878642334E-002  0.16455572473312544        0.0000000000000000     
   1.0779320569970054E-002  0.13387206063004142        0.0000000000000000     
   1.1007472815075416E-002  0.14135788499596655        0.0000000000000000     
   1.1221310244801686E-002  0.14895700862107955        0.0000000000000000     
   1.1420832859148869E-002  0.15666943150538060        0.0000000000000000     
   1.1606040658116960E-002  0.16449515364886952        0.0000000000000000     
   5.3797595760199613E-003  0.13382112471359697        0.0000000000000000     
   5.4929102623047198E-003  0.14131050742233245        0.0000000000000000     
   5.5987739555016383E-003  0.14891328285386529        0.0000000000000000     
   5.6973506556107206E-003  0.15662945100819545        0.0000000000000000     
   5.7886403626319621E-003  0.16445901188532300        0.0000000000000000     
  -1.4980396045886565E-006  0.13380463677202400        0.0000000000000000     
  -1.3777466736173555E-006  0.14129532069712483        0.0000000000000000     
  -1.2836437313051667E-006  0.14889932578390208        0.0000000000000000     
  -1.2157307776506808E-006  0.15661665203235581        0.0000000000000000     
  -1.1740078126546566E-006  0.16444729944248593        0.0000000000000000     
   2.3323599024208094E-002  0.16464072513809075        0.0000000000000000     
   2.3675722874797252E-002  0.17255066546236150        0.0000000000000000     
   2.3997657331035357E-002  0.18054829302878841        0.0000000000000000     
   2.4289402392922418E-002  0.18863360783737154        0.0000000000000000     
   2.4550958060458421E-002  0.19680660988811088        0.0000000000000000     
   1.7451026878642334E-002  0.16455572473312544        0.0000000000000000     
   1.7711192385342876E-002  0.17247492157936137        0.0000000000000000     
   1.7949206564695834E-002  0.18048120892879246        0.0000000000000000     
   1.8165069416701204E-002  0.18857458678141867        0.0000000000000000     
   1.8358780941358992E-002  0.19675505513724001        0.0000000000000000     
   1.1606040658116960E-002  0.16449515364886952        0.0000000000000000     
   1.1776865444186336E-002  0.17242087479912638        0.0000000000000000     
   1.1933239019837368E-002  0.18043329470373121        0.0000000000000000     
   1.2075161385070064E-002  0.18853241336268398        0.0000000000000000     
   1.2202632539884416E-002  0.19671823077598474        0.0000000000000000     
   5.7886403626319621E-003  0.16445901188532300        0.0000000000000000     
   5.8727420513276264E-003  0.17238852512165656        0.0000000000000000     
   5.9497546964599702E-003  0.18040455035360475        0.0000000000000000     
   6.0196782980289900E-003  0.18850708758116760        0.0000000000000000     
   6.0825128560346910E-003  0.19669613680434506        0.0000000000000000     
  -1.1740078126546566E-006  0.16444729944248593        0.0000000000000000     
  -1.1777932332501274E-006  0.17237787254695186        0.0000000000000000     
  -1.2464054363703434E-006  0.18039497587841299        0.0000000000000000     
  -1.3798444220142745E-006  0.18849860943686936        0.0000000000000000     
  -1.5781101901828423E-006  0.19668877322232092        0.0000000000000000     
   2.4550958060458421E-002  0.19680660988811088        0.0000000000000000     
   2.4782849795102042E-002  0.20505221259123546        0.0000000000000000     
   2.4985603058311958E-002  0.21335532935697452        0.0000000000000000     
   2.5159217850088161E-002  0.22171596018532794        0.0000000000000000     
   2.5303694170430661E-002  0.23013410507629584        0.0000000000000000     
   1.8358780941358992E-002  0.19675505513724001        0.0000000000000000     
   1.8530718160713801E-002  0.20500633376767022        0.0000000000000000     
   1.8681258096810250E-002  0.21331214244412314        0.0000000000000000     
   1.8810400749648334E-002  0.22167248116659866        0.0000000000000000     
   1.8918146119228055E-002  0.23008734993509686        0.0000000000000000     
   1.2202632539884416E-002  0.19671823077598474        0.0000000000000000     
   1.2315901321243666E-002  0.20497359056068890        0.0000000000000000     
   1.2415216566111052E-002  0.21328133633385202        0.0000000000000000     
   1.2500578274486578E-002  0.22164146809547405        0.0000000000000000     
   1.2571986446370240E-002  0.23005398584555503        0.0000000000000000     
   6.0825128560346910E-003  0.19669613680434506        0.0000000000000000     
   6.1383992766916298E-003  0.20495398297029147        0.0000000000000000     
   6.1874784662143629E-003  0.21326291102616113        0.0000000000000000     
   6.2297504246028954E-003  0.22162292097195410        0.0000000000000000     
   6.2652151518572223E-003  0.23003401280767033        0.0000000000000000     
  -1.5781101901828423E-006  0.19668877322232092        0.0000000000000000     
  -1.7879729423083725E-006  0.20494751099647790        0.0000000000000000     
  -1.9562028798175528E-006  0.21325686652105058        0.0000000000000000     
  -2.0828000027167800E-006  0.22161683979603886        0.0000000000000000     
  -2.1677643109998743E-006  0.23002743082144284        0.0000000000000000     
   2.5303694170430661E-002  0.23013410507629584        0.0000000000000000     
   2.5425317983579970E-002  0.23858219751392531        0.0000000000000000     
   2.5530375253776601E-002  0.24703267098226350        0.0000000000000000     
   2.5618865981020561E-002  0.25548552548131048        0.0000000000000000     
   2.5690790165311839E-002  0.26394076101106623        0.0000000000000000     
   1.8918146119228055E-002  0.23008734993509686        0.0000000000000000     
   1.9008828524888218E-002  0.23852748590341885        0.0000000000000000     
   1.9086782285967649E-002  0.24696362622536572        0.0000000000000000     
   1.9152007402466333E-002  0.25539577090093757        0.0000000000000000     
   1.9204503874384281E-002  0.26382391993013432        0.0000000000000000     
   1.2571986446370240E-002  0.23005398584555503        0.0000000000000000     
   1.2632074315210849E-002  0.23848842437409329        0.0000000000000000     
   1.2683475114457212E-002  0.24691431847108722        0.0000000000000000     
   1.2726188844109327E-002  0.25533166813653685        0.0000000000000000     
   1.2760215504167199E-002  0.26374047337044221        0.0000000000000000     
   6.2652151518572223E-003  0.23003401280767033        0.0000000000000000     
   6.2950553545478537E-003  0.23846501292594874        0.0000000000000000     
   6.3204537392452919E-003  0.24688474771942809        0.0000000000000000     
   6.3414103059495413E-003  0.25529321718810843        0.0000000000000000     
   6.3579250546605985E-003  0.26369042133198978        0.0000000000000000     
  -2.1677643109998743E-006  0.23002743082144284        0.0000000000000000     
  -2.2283571007660104E-006  0.23845725155898503        0.0000000000000000     
  -2.2818396681080749E-006  0.24687491397038819        0.0000000000000000     
  -2.3282120130279651E-006  0.25528041805565221        0.0000000000000000     
  -2.3674741355243258E-006  0.26367376381477714        0.0000000000000000     
   2.5690790165311839E-002  0.26394076101106623        0.0000000000000000     
   2.5758334139111400E-002  0.27234326364458072        0.0000000000000000     
   2.5833684234880177E-002  0.28063791945490391        0.0000000000000000     
   2.5916840452618165E-002  0.28882472844203594        0.0000000000000000     
   2.6007802792325372E-002  0.29690369060597660        0.0000000000000000     
   1.9204503874384281E-002  0.26382391993013432        0.0000000000000000     
   1.9254233344033228E-002  0.27219078506376831        0.0000000000000000     
   1.9311157453724911E-002  0.28043907805265178        0.0000000000000000     
   1.9375276203459333E-002  0.28856879889678461        0.0000000000000000     
   1.9446589593236495E-002  0.29657994759616696        0.0000000000000000     
   1.2760215504167199E-002  0.26374047337044221        0.0000000000000000     
   1.2792743955187674E-002  0.27208188863151150        0.0000000000000000     
   1.2830963057727613E-002  0.28029706837845314        0.0000000000000000     
   1.2874872811787006E-002  0.28838601261126712        0.0000000000000000     
   1.2924473217365857E-002  0.29634872132995344        0.0000000000000000     
   6.3579250546605985E-003  0.26369042133198978        0.0000000000000000     
   6.3738659725747476E-003  0.27201657434781035        0.0000000000000000     
   6.3931010468882754E-003  0.28021189043230821        0.0000000000000000     
   6.4156302776011819E-003  0.28827636958548342        0.0000000000000000     
   6.4414536647134637E-003  0.29621001180733597        0.0000000000000000     
  -2.3674741355243258E-006  0.26367376381477714        0.0000000000000000     
  -2.4006038055615977E-006  0.27199484221266479        0.0000000000000000     
  -2.4285787930994514E-006  0.28018354421421687        0.0000000000000000     
  -2.4513990981436329E-006  0.28823986981943356        0.0000000000000000     
  -2.4690647206886129E-006  0.29616381902831468        0.0000000000000000     
  -4.6702705686144097E-006   5.5311734967176188E-002   0.0000000000000000     
  -3.8891529288618241E-006   6.0925444041793085E-002   0.0000000000000000     
  -3.1776010026156624E-006   6.6720070331961978E-002   0.0000000000000000     
  -2.5356147898743795E-006   7.2695613837682846E-002   0.0000000000000000     
  -1.9631942906402251E-006   7.8852074558955695E-002   0.0000000000000000     
  -3.7735470372904762E-003   5.5323331721165318E-002   0.0000000000000000     
  -3.8808463903333068E-003   6.0944269031292929E-002   0.0000000000000000     
  -4.0012543573330513E-003   6.6743801592900470E-002   0.0000000000000000     
  -4.1347709382897084E-003   7.2721929405987915E-002   0.0000000000000000     
  -4.2813961332032816E-003   7.8878652470555283E-002   0.0000000000000000     
  -7.3607931865815211E-003   5.5404210076334434E-002   0.0000000000000000     
  -7.6337440675968808E-003   6.1025415464283063E-002   0.0000000000000000     
  -7.9199764697729293E-003   6.6824392143183128E-002   0.0000000000000000     
  -8.2194903931096658E-003   7.2801140113034610E-002   0.0000000000000000     
  -8.5322858376070902E-003   7.8955659373837528E-002   0.0000000000000000     
  -1.0766408718441749E-002   5.5554370032683528E-002   0.0000000000000000     
  -1.1262582184719585E-002   6.1168883340763459E-002   0.0000000000000000     
  -1.1759343938322248E-002   6.6961841982809925E-002   0.0000000000000000     
  -1.2256693979249743E-002   7.2933245958822945E-002   0.0000000000000000     
  -1.2754632307502064E-002   7.9083095268802472E-002   0.0000000000000000     
  -1.3990393632871159E-002   5.5773811590212607E-002   0.0000000000000000     
  -1.4767360741701418E-002   6.1374672660734160E-002   0.0000000000000000     
  -1.5519356762981011E-002   6.7156151111780915E-002   0.0000000000000000     
  -1.6246381696709944E-002   7.3118246943352880E-002   0.0000000000000000     
  -1.6948435542888208E-002   7.9260960155450103E-002   0.0000000000000000     
  -1.9631942906402251E-006   7.8852074558955695E-002   0.0000000000000000     
  -1.5201643675162059E-006   8.5180337623949845E-002   0.0000000000000000     
  -1.2663498831081473E-006   9.1671288160834627E-002   0.0000000000000000     
  -1.2017508374136099E-006   9.8324926169610041E-002   0.0000000000000000     
  -1.3263672304334069E-006  0.10514125165027607        0.0000000000000000     
  -4.2813961332032816E-003   7.8878652470555283E-002   0.0000000000000000     
  -4.4329717947501571E-003   8.5205968227897666E-002   0.0000000000000000     
  -4.5813397756067293E-003   9.1695874119310197E-002   0.0000000000000000     
  -4.7265000757729944E-003   9.8348370144792904E-002   0.0000000000000000     
  -4.8684526952489536E-003  0.10516345630434573        0.0000000000000000     
  -8.5322858376070902E-003   7.8955659373837528E-002   0.0000000000000000     
  -8.8473822138150846E-003   8.5280268737487994E-002   0.0000000000000000     
  -9.1537989322835293E-003   9.1767287015882146E-002   0.0000000000000000     
  -9.4515359930124315E-003   9.8416714209019970E-002   0.0000000000000000     
  -9.7405933960017822E-003  0.10522855031690145        0.0000000000000000     
  -1.2754632307502064E-002   7.9083095268802472E-002   0.0000000000000000     
  -1.3244751421562298E-002   8.5403239152720856E-002   0.0000000000000000     
  -1.3718643819913513E-002   9.1885526850550472E-002   0.0000000000000000     
  -1.4176309502555724E-002   9.8529958362291239E-002   0.0000000000000000     
  -1.4617748469488916E-002  0.10533653368794323        0.0000000000000000     
  -1.6948435542888208E-002   7.9260960155450103E-002   0.0000000000000000     
  -1.7625079417991792E-002   8.5574879473596266E-002   0.0000000000000000     
  -1.8275874438496677E-002   9.2050593623315136E-002   0.0000000000000000     
  -1.8900820604402867E-002   9.8688102604606753E-002   0.0000000000000000     
  -1.9499917915710360E-002  0.10548740641747106        0.0000000000000000     
  -1.3263672304334069E-006  0.10514125165027607        0.0000000000000000     
  -1.5015148381012939E-006  0.11210596513284382        0.0000000000000000     
  -1.5885094363498340E-006  0.11920476714732439        0.0000000000000000     
  -1.5873510251788374E-006  0.12643765769371779        0.0000000000000000     
  -1.4980396045886565E-006  0.13380463677202400        0.0000000000000000     
  -4.8684526952489536E-003  0.10516345630434573        0.0000000000000000     
  -5.0058352029254700E-003  0.11212691842578214        0.0000000000000000     
  -5.1372851676934062E-003  0.11922454233691554        0.0000000000000000     
  -5.2628025895527638E-003  0.12645632803774590        0.0000000000000000     
  -5.3823874685035369E-003  0.13382227552827325        0.0000000000000000     
  -9.7405933960017822E-003  0.10522855031690145        0.0000000000000000     
  -1.0019147233233655E-002  0.11218865382761606        0.0000000000000000     
  -1.0285373596690118E-002  0.11928288322925330        0.0000000000000000     
  -1.0539272486371177E-002  0.12651123852181309        0.0000000000000000     
  -1.0780843902276824E-002  0.13387371970529552        0.0000000000000000     
  -1.4617748469488916E-002  0.10533653368794323        0.0000000000000000     
  -1.5041437605762655E-002  0.11229117133834564        0.0000000000000000     
  -1.5445853796426488E-002  0.11937978982433770        0.0000000000000000     
  -1.5830997041480419E-002  0.12660238914591940        0.0000000000000000     
  -1.6196867340924452E-002  0.13395896930309079        0.0000000000000000     
  -1.9499917915710360E-002  0.10548740641747106        0.0000000000000000     
  -2.0072706320512473E-002  0.11243447095797082        0.0000000000000000     
  -2.0618725766902515E-002  0.11951526212216874        0.0000000000000000     
  -2.1137976254880498E-002  0.12672977991006482        0.0000000000000000     
  -2.1630457784446416E-002  0.13407802432165902        0.0000000000000000     
  -1.4980396045886565E-006  0.13380463677202400        0.0000000000000000     
  -1.3777466736173555E-006  0.14129532069712483        0.0000000000000000     
  -1.2836437313051667E-006  0.14889932578390208        0.0000000000000000     
  -1.2157307776506808E-006  0.15661665203235581        0.0000000000000000     
  -1.1740078126546566E-006  0.16444729944248593        0.0000000000000000     
  -5.3823874685035369E-003  0.13382227552827325        0.0000000000000000     
  -5.4953864612455649E-003  0.14131189188662552        0.0000000000000000     
  -5.6011462244786783E-003  0.14891468419093062        0.0000000000000000     
  -5.6996667582028711E-003  0.15663065244118851        0.0000000000000000     
  -5.7909480624181511E-003  0.16445979663739924        0.0000000000000000     
  -1.0780843902276824E-002  0.13387371970529552        0.0000000000000000     
  -1.1009111130797094E-002  0.14135978805711633        0.0000000000000000     
  -1.1223097458322012E-002  0.14895890485469132        0.0000000000000000     
  -1.1422802884851575E-002  0.15667107009802048        0.0000000000000000     
  -1.1608227410385788E-002  0.16449628378710382        0.0000000000000000     
  -1.6196867340924452E-002  0.13395896930309079        0.0000000000000000     
  -1.6542551755328209E-002  0.14143900920859723        0.0000000000000000     
  -1.6867137345261310E-002  0.14903198777518420        0.0000000000000000     
  -1.7170624110723762E-002  0.15673790500285176        0.0000000000000000     
  -1.7453012051715563E-002  0.16455676089159979        0.0000000000000000     
  -2.1630457784446416E-002  0.13407802432165902        0.0000000000000000     
  -2.2095708334838895E-002  0.14154955534106825        0.0000000000000000     
  -2.2533265885296569E-002  0.14913393295240929        0.0000000000000000     
  -2.2943130435819428E-002  0.15683115715568224        0.0000000000000000     
  -2.3325301986407480E-002  0.16464122795088701        0.0000000000000000     
  -1.1740078126546566E-006  0.16444729944248593        0.0000000000000000     
  -1.1777932332501274E-006  0.17237787254695186        0.0000000000000000     
  -1.2464054363703434E-006  0.18039497587841299        0.0000000000000000     
  -1.3798444220142745E-006  0.18849860943686936        0.0000000000000000     
  -1.5781101901828423E-006  0.19668877322232092        0.0000000000000000     
  -5.7909480624181511E-003  0.16445979663739924        0.0000000000000000     
  -5.8751186512724452E-003  0.17238887087854432        0.0000000000000000     
  -5.9523070389136757E-003  0.18040462926360545        0.0000000000000000     
  -6.0225132253418530E-003  0.18850707179258253        0.0000000000000000     
  -6.0857372105569685E-003  0.19669619846547562        0.0000000000000000     
  -1.1608227410385788E-002  0.16449628378710382        0.0000000000000000     
  -1.1779305084566108E-002  0.17242147391996593        0.0000000000000000     
  -1.1935969957033984E-002  0.18043356849463144        0.0000000000000000     
  -1.2078222027789427E-002  0.18853256751110023        0.0000000000000000     
  -1.2206061296832431E-002  0.19671847096937234        0.0000000000000000     
  -1.7453012051715563E-002  0.16455676089159979        0.0000000000000000     
  -1.7713737093114232E-002  0.17247568167121671        0.0000000000000000     
  -1.7952235159797297E-002  0.18048179357149091        0.0000000000000000     
  -1.8168506251764735E-002  0.18857509659242241        0.0000000000000000     
  -1.8362550369016566E-002  0.19675559073401119        0.0000000000000000     
  -2.3325301986407480E-002  0.16464122795088701        0.0000000000000000     
  -2.3678414676916833E-002  0.17255149413229662        0.0000000000000000     
  -2.4001102647203596E-002  0.18054930449418397        0.0000000000000000     
  -2.4293365897267778E-002  0.18863465903654913        0.0000000000000000     
  -2.4555204427109376E-002  0.19680755775939204        0.0000000000000000     
  -1.5781101901828423E-006  0.19668877322232092        0.0000000000000000     
  -1.7879729423083725E-006  0.20494751099647790        0.0000000000000000     
  -1.9562028798175528E-006  0.21325686652105058        0.0000000000000000     
  -2.0828000027167800E-006  0.22161683979603886        0.0000000000000000     
  -2.1677643109998743E-006  0.23002743082144284        0.0000000000000000     
  -6.0857372105569685E-003  0.19669619846547562        0.0000000000000000     
  -6.1420269955266829E-003  0.20495417601301152        0.0000000000000000     
  -6.1914305812186569E-003  0.21326317116591709        0.0000000000000000     
  -6.2339479676328880E-003  0.22162318392419239        0.0000000000000000     
  -6.2695791547693735E-003  0.23003421428783730        0.0000000000000000     
  -1.2206061296832431E-002  0.19671847096937234        0.0000000000000000     
  -1.2319684358930045E-002  0.20497397939365564        0.0000000000000000     
  -1.2419287808849320E-002  0.21328179330815777        0.0000000000000000     
  -1.2504871646590254E-002  0.22164191271287881        0.0000000000000000     
  -1.2576435872152847E-002  0.23005433760781874        0.0000000000000000     
  -1.8362550369016566E-002  0.19675559073401119        0.0000000000000000     
  -1.8534760063152387E-002  0.20500692113841024        0.0000000000000000     
  -1.8685527885771804E-002  0.21331273294777256        0.0000000000000000     
  -1.8814853836874815E-002  0.22167302616209814        0.0000000000000000     
  -1.8922737916461419E-002  0.23008780078138705        0.0000000000000000     
  -2.4555204427109376E-002  0.19680755775939204        0.0000000000000000     
  -2.4787254108193709E-002  0.20505300124727527        0.0000000000000000     
  -2.4990150811986109E-002  0.21335599008476142        0.0000000000000000     
  -2.5163894538486574E-002  0.22171652427185035        0.0000000000000000     
  -2.5308485287695096E-002  0.23013460380854223        0.0000000000000000     
  -2.1677643109998743E-006  0.23002743082144284        0.0000000000000000     
  -2.2283571007660104E-006  0.23845725155898503        0.0000000000000000     
  -2.2818396681080749E-006  0.24687491397038819        0.0000000000000000     
  -2.3282120130279651E-006  0.25528041805565221        0.0000000000000000     
  -2.3674741355243258E-006  0.26367376381477714        0.0000000000000000     
  -6.2695791547693735E-003  0.23003421428783730        0.0000000000000000     
  -6.2995390506442777E-003  0.23846513674697084        0.0000000000000000     
  -6.3250425632737596E-003  0.24688482579171181        0.0000000000000000     
  -6.3460896926578114E-003  0.25529328142206015        0.0000000000000000     
  -6.3626804387964444E-003  0.26369050363801605        0.0000000000000000     
  -1.2576435872152847E-002  0.23005433760781874        0.0000000000000000     
  -1.2636638956991957E-002  0.23848866496367449        0.0000000000000000     
  -1.2688139372562419E-002  0.24691449175114294        0.0000000000000000     
  -1.2730937118864253E-002  0.25533181797022420        0.0000000000000000     
  -1.2765032195897438E-002  0.26374064362091820        0.0000000000000000     
  -1.8922737916461419E-002  0.23008780078138705        0.0000000000000000     
  -1.9013528076143794E-002  0.23852783620909596        0.0000000000000000     
  -1.9091572267534104E-002  0.24696391184868172        0.0000000000000000     
  -1.9156870490632340E-002  0.25539602770014425        0.0000000000000000     
  -1.9209422745438513E-002  0.26382418376348366        0.0000000000000000     
  -2.5308485287695096E-002  0.23013460380854223        0.0000000000000000     
  -2.5430206408099801E-002  0.23858265048323532        0.0000000000000000     
  -2.5535341248188792E-002  0.24703308608432800        0.0000000000000000     
  -2.5623889807962087E-002  0.25548591061182035        0.0000000000000000     
  -2.5695852087419660E-002  0.26394112406571230        0.0000000000000000     
  -2.3674741355243258E-006  0.26367376381477714        0.0000000000000000     
  -2.4006038055615977E-006  0.27199484221266479        0.0000000000000000     
  -2.4285787930994514E-006  0.28018354421421687        0.0000000000000000     
  -2.4513990981436329E-006  0.28823986981943356        0.0000000000000000     
  -2.4690647206886129E-006  0.29616381902831468        0.0000000000000000     
  -6.3626804387964444E-003  0.26369050363801605        0.0000000000000000     
  -6.3786852101941679E-003  0.27201668516868421        0.0000000000000000     
  -6.3979744153554972E-003  0.28021201874316937        0.0000000000000000     
  -6.4205480542804290E-003  0.28827650436147179        0.0000000000000000     
  -6.4464061269689701E-003  0.29621014202359125        0.0000000000000000     
  -1.2765032195897438E-002  0.26374064362091820        0.0000000000000000     
  -1.2797617282831988E-002  0.27208209615847778        0.0000000000000000     
  -1.2835885058837893E-002  0.28029730303815592        0.0000000000000000     
  -1.2879835523915143E-002  0.28838626425995245        0.0000000000000000     
  -1.2929468678063752E-002  0.29634897982386749        0.0000000000000000     
  -1.9209422745438513E-002  0.26382418376348366        0.0000000000000000     
  -1.9259196821719025E-002  0.27219107518204566        0.0000000000000000     
  -1.9316160509240281E-002  0.28043939709917631        0.0000000000000000     
  -1.9380313808002283E-002  0.28856914951487561        0.0000000000000000     
  -1.9451656718005035E-002  0.29658033242914339        0.0000000000000000     
  -2.5695852087419660E-002  0.26394112406571230        0.0000000000000000     
  -2.5763423826855276E-002  0.27234362223938774        0.0000000000000000     
  -2.5838800766562676E-002  0.28063830092623065        0.0000000000000000     
  -2.5921982906541852E-002  0.28882516012624110        0.0000000000000000     
  -2.6012970246792815E-002  0.29690419983941901        0.0000000000000000     
  -1.3990393632871159E-002   5.5773811590212607E-002   0.0000000000000000     
  -1.4767360741701418E-002   6.1374672660734160E-002   0.0000000000000000     
  -1.5519356762981011E-002   6.7156151111780915E-002   0.0000000000000000     
  -1.6246381696709944E-002   7.3118246943352880E-002   0.0000000000000000     
  -1.6948435542888208E-002   7.9260960155450103E-002   0.0000000000000000     
  -1.7282421149521464E-002   5.6050957696982068E-002   0.0000000000000000     
  -1.8338443543564228E-002   6.1636821048819214E-002   0.0000000000000000     
  -1.9344110609269570E-002   6.7405321441617899E-002   0.0000000000000000     
  -2.0299422346637497E-002   7.3356458875378158E-002   0.0000000000000000     
  -2.1204378755668007E-002   7.9490233350099970E-002   0.0000000000000000     
  -2.0892164488044374E-002   5.6374231301052312E-002   0.0000000000000000     
  -2.2166194395329856E-002   6.1949366129642747E-002   0.0000000000000000     
  -2.3377701142708276E-002   6.7707354883842774E-002   0.0000000000000000     
  -2.4526684730179635E-002   7.3648197563652415E-002   0.0000000000000000     
  -2.5613145157743943E-002   7.9771894169071655E-002   0.0000000000000000     
  -2.4819623648439884E-002   5.6743632402423312E-002   0.0000000000000000     
  -2.6250613296998297E-002   6.2312307903204738E-002   0.0000000000000000     
  -2.7620128363297126E-002   6.8062251438455526E-002   0.0000000000000000     
  -2.8928168847336372E-002   7.3993463008175664E-002   0.0000000000000000     
  -3.0174734749116024E-002   8.0105942612365172E-002   0.0000000000000000     
  -2.9064798630708003E-002   5.7159161001095096E-002   0.0000000000000000     
  -3.0591700248569567E-002   6.2725646369505200E-002   0.0000000000000000     
  -3.2071392271036128E-002   6.8470011105456141E-002   0.0000000000000000     
  -3.3503874698107686E-002   7.4392255208947891E-002   0.0000000000000000     
  -3.4889147529784247E-002   8.0492378679980506E-002   0.0000000000000000     
  -1.6948435542888208E-002   7.9260960155450103E-002   0.0000000000000000     
  -1.7625079417991792E-002   8.5574879473596266E-002   0.0000000000000000     
  -1.8275874438496677E-002   9.2050593623315136E-002   0.0000000000000000     
  -1.8900820604402867E-002   9.8688102604606753E-002   0.0000000000000000     
  -1.9499917915710360E-002  0.10548740641747106        0.0000000000000000     
  -2.1204378755668007E-002   7.9490233350099970E-002   0.0000000000000000     
  -2.2066552837447011E-002   8.5796029153673500E-002   0.0000000000000000     
  -2.2893517593060429E-002   9.2263230573988997E-002   0.0000000000000000     
  -2.3685273022508269E-002   9.8891837611046376E-002   0.0000000000000000     
  -2.4441819125790520E-002  0.10568185026484571        0.0000000000000000     
  -2.5613145157743943E-002   7.9771894169071655E-002   0.0000000000000000     
  -2.6647358314271390E-002   8.6067527646511974E-002   0.0000000000000000     
  -2.7639600088632185E-002   9.2524180942384751E-002   0.0000000000000000     
  -2.8589870480826320E-002   9.9141854056690085E-002   0.0000000000000000     
  -2.9498169490853807E-002  0.10592054698942789        0.0000000000000000     
  -3.0174734749116024E-002   8.0105942612365172E-002   0.0000000000000000     
  -3.1367495848464932E-002   8.6389374952111575E-002   0.0000000000000000     
  -3.2514121925211935E-002   9.2833444728502482E-002   0.0000000000000000     
  -3.3614612979357035E-002   9.9438151941537808E-002   0.0000000000000000     
  -3.4668969010900219E-002  0.10620349659121760        0.0000000000000000     
  -3.4889147529784247E-002   8.0492378679980506E-002   0.0000000000000000     
  -3.6226965440027639E-002   8.6761571070472429E-002   0.0000000000000000     
  -3.7517083102799685E-002   9.3191021932342133E-002   0.0000000000000000     
  -3.8759500518100391E-002   9.9780731265589617E-002   0.0000000000000000     
  -3.9954217685929765E-002  0.10653069907021485        0.0000000000000000     
  -1.9499917915710360E-002  0.10548740641747106        0.0000000000000000     
  -2.0072706320512473E-002  0.11243447095797082        0.0000000000000000     
  -2.0618725766902515E-002  0.11951526212216874        0.0000000000000000     
  -2.1137976254880498E-002  0.12672977991006482        0.0000000000000000     
  -2.1630457784446416E-002  0.13407802432165902        0.0000000000000000     
  -2.4441819125790520E-002  0.10568185026484571        0.0000000000000000     
  -2.5163698469408673E-002  0.11261928553798088        0.0000000000000000     
  -2.5851453619864222E-002  0.11969016043304585        0.0000000000000000     
  -2.6505084577157171E-002  0.12689447495004058        0.0000000000000000     
  -2.7124591341287505E-002  0.13423222908896507        0.0000000000000000     
  -2.9498169490853807E-002  0.10592054698942789        0.0000000000000000     
  -3.0365159144376843E-002  0.11284634792986505        0.0000000000000000     
  -3.1191501467057639E-002  0.11990534506726841        0.0000000000000000     
  -3.1977196458896191E-002  0.12709753840163804        0.0000000000000000     
  -3.2722244119892510E-002  0.13442292793297378        0.0000000000000000     
  -3.4668969010900219E-002  0.10620349659121760        0.0000000000000000     
  -3.5677088345416968E-002  0.11311565813362334        0.0000000000000000     
  -3.6638869308482751E-002  0.12016081602483650        0.0000000000000000     
  -3.7554311900097587E-002  0.12733897026485713        0.0000000000000000     
  -3.8423416120261421E-002  0.13465012085368516        0.0000000000000000     
  -3.9954217685929765E-002  0.10653069907021485        0.0000000000000000     
  -4.1099486072529071E-002  0.11342721614925573        0.0000000000000000     
  -4.2193557144139582E-002  0.12045657330575008        0.0000000000000000     
  -4.3236430900761312E-002  0.12761877053969786        0.0000000000000000     
  -4.4228107342394254E-002  0.13491380785109916        0.0000000000000000     
  -2.1630457784446416E-002  0.13407802432165902        0.0000000000000000     
  -2.2095708334838895E-002  0.14154955534106825        0.0000000000000000     
  -2.2533265885296569E-002  0.14913393295240929        0.0000000000000000     
  -2.2943130435819428E-002  0.15683115715568224        0.0000000000000000     
  -2.3325301986407480E-002  0.16464122795088701        0.0000000000000000     
  -2.7124591341287505E-002  0.13423222908896507        0.0000000000000000     
  -2.7709977301932604E-002  0.14169305997863049        0.0000000000000000     
  -2.8261245848769836E-002  0.14926660474784786        0.0000000000000000     
  -2.8778396981799199E-002  0.15695286339661729        0.0000000000000000     
  -2.9261430701020694E-002  0.16475183592493869        0.0000000000000000     
  -3.2722244119892510E-002  0.13442292793297378        0.0000000000000000     
  -3.3426755089212765E-002  0.14187115664538508        0.0000000000000000     
  -3.4090840006023165E-002  0.14943186752298124        0.0000000000000000     
  -3.4714498870323705E-002  0.15710506056576212        0.0000000000000000     
  -3.5297731682114371E-002  0.16489073577372793        0.0000000000000000     
  -3.8423416120261421E-002  0.13465012085368516        0.0000000000000000     
  -3.9246041696679397E-002  0.14208384534133209        0.0000000000000000     
  -4.0022048357056562E-002  0.14962972127780927        0.0000000000000000     
  -4.0751436101392931E-002  0.15728774866311684        0.0000000000000000     
  -4.1434204929688495E-002  0.16505792749725470        0.0000000000000000     
  -4.4228107342394254E-002  0.13491380785109916        0.0000000000000000     
  -4.5167837124332470E-002  0.14233112606647139        0.0000000000000000     
  -4.6054870901870021E-002  0.14986016601233207        0.0000000000000000     
  -4.6889208675006892E-002  0.15750092768868129        0.0000000000000000     
  -4.7670850443743099E-002  0.16525341109551897        0.0000000000000000     
  -2.3325301986407480E-002  0.16464122795088701        0.0000000000000000     
  -2.3678414676916833E-002  0.17255149413229662        0.0000000000000000     
  -2.4001102647203596E-002  0.18054930449418397        0.0000000000000000     
  -2.4293365897267778E-002  0.18863465903654913        0.0000000000000000     
  -2.4555204427109376E-002  0.19680755775939204        0.0000000000000000     
  -2.9261430701020694E-002  0.16475183592493869        0.0000000000000000     
  -2.9708262512335243E-002  0.17265110315448123        0.0000000000000000     
  -3.0116807921643760E-002  0.18063824590691396        0.0000000000000000     
  -3.0487066928946264E-002  0.18871326418223694        0.0000000000000000     
  -3.0819039534242747E-002  0.19687615798045008        0.0000000000000000     
  -3.5297731682114371E-002  0.16489073577372793        0.0000000000000000     
  -3.5838205275730811E-002  0.17277670058904609        0.0000000000000000     
  -3.6333586485508648E-002  0.18075076245388422        0.0000000000000000     
  -3.6783875311447903E-002  0.18881292136824238        0.0000000000000000     
  -3.7189071753548547E-002  0.19696317733212046        0.0000000000000000     
  -4.1434204929688495E-002  0.16505792749725470        0.0000000000000000     
  -4.2068242967103535E-002  0.17292828643599126        0.0000000000000000     
  -4.2651438338798246E-002  0.18088685413509481        0.0000000000000000     
  -4.3183791044772671E-002  0.18893363059456547        0.0000000000000000     
  -4.3665301085026788E-002  0.19706861581440313        0.0000000000000000     
  -4.7670850443743099E-002  0.16525341109551897        0.0000000000000000     
  -4.8398375586453407E-002  0.17310586069531661        0.0000000000000000     
  -4.9070363481512565E-002  0.18104652095054569        0.0000000000000000     
  -4.9686814128920585E-002  0.18907539186120620        0.0000000000000000     
  -5.0247727528677476E-002  0.19719247342729815        0.0000000000000000     
  -2.4555204427109376E-002  0.19680755775939204        0.0000000000000000     
  -2.4787254108193709E-002  0.20505300124727527        0.0000000000000000     
  -2.4990150811986109E-002  0.21335599008476142        0.0000000000000000     
  -2.5163894538486574E-002  0.22171652427185035        0.0000000000000000     
  -2.5308485287695096E-002  0.23013460380854223        0.0000000000000000     
  -3.0819039534242747E-002  0.19687615798045008        0.0000000000000000     
  -3.1113360270954630E-002  0.20511352093689386        0.0000000000000000     
  -3.1370663672503366E-002  0.21341194668690847        0.0000000000000000     
  -3.1590949738888936E-002  0.22177143523049400        0.0000000000000000     
  -3.1774218470111346E-002  0.23019198656765044        0.0000000000000000     
  -3.7189071753548547E-002  0.19696317733212046        0.0000000000000000     
  -3.7549272328335756E-002  0.20518978142390887        0.0000000000000000     
  -3.7864573552334670E-002  0.21348098472199786        0.0000000000000000     
  -3.8134975425545302E-002  0.22183678722638753        0.0000000000000000     
  -3.8360477947967632E-002  0.23025718893707775        0.0000000000000000     
  -4.3665301085026788E-002  0.19706861581440313        0.0000000000000000     
  -4.4094990280337094E-002  0.20528178270832040        0.0000000000000000     
  -4.4471880451480060E-002  0.21356310419002963        0.0000000000000000     
  -4.4795971598455678E-002  0.22191258025953092        0.0000000000000000     
  -4.5067263721263955E-002  0.23033021091682429        0.0000000000000000     
  -5.0247727528677476E-002  0.19719247342729815        0.0000000000000000     
  -5.0750514126958628E-002  0.20538952479012834        0.0000000000000000     
  -5.1192584369939488E-002  0.21365830509100375        0.0000000000000000     
  -5.1573938257620064E-002  0.22199881432992422        0.0000000000000000     
  -5.1894575790000334E-002  0.23041105250688984        0.0000000000000000     
  -2.5308485287695096E-002  0.23013460380854223        0.0000000000000000     
  -2.5430206408099801E-002  0.23858265048323532        0.0000000000000000     
  -2.5535341248188792E-002  0.24703308608432800        0.0000000000000000     
  -2.5623889807962087E-002  0.25548591061182035        0.0000000000000000     
  -2.5695852087419660E-002  0.26394112406571230        0.0000000000000000     
  -3.1774218470111346E-002  0.23019198656765044        0.0000000000000000     
  -3.1928413666791632E-002  0.23864862355926186        0.0000000000000000     
  -3.2061479129550818E-002  0.24711636906621229        0.0000000000000000     
  -3.2173414858388906E-002  0.25559522308850174        0.0000000000000000     
  -3.2264220853305894E-002  0.26408518562613026        0.0000000000000000     
  -3.8360477947967632E-002  0.23025718893707775        0.0000000000000000     
  -3.8549889566150936E-002  0.23872127121034487        0.0000000000000000     
  -3.8712018726644461E-002  0.24720811540246487        0.0000000000000000     
  -3.8846865429448221E-002  0.25571772151343780        0.0000000000000000     
  -3.8954429674562224E-002  0.26425008954326373        0.0000000000000000     
  -4.5067263721263955E-002  0.23033021091682429        0.0000000000000000     
  -4.5294634106177713E-002  0.23880059343648430        0.0000000000000000     
  -4.5486960039469747E-002  0.24730832509308570        0.0000000000000000     
  -4.5644241521140064E-002  0.25585340588662847        0.0000000000000000     
  -4.5766478551188643E-002  0.26443583581711266        0.0000000000000000     
  -5.1894575790000334E-002  0.23041105250688984        0.0000000000000000     
  -5.2162647286871970E-002  0.23888659023768019        0.0000000000000000     
  -5.2386303068026656E-002  0.24741699813807486        0.0000000000000000     
  -5.2565543133464385E-002  0.25600227620807381        0.0000000000000000     
  -5.2700367483185157E-002  0.26464242444767705        0.0000000000000000     
  -2.5695852087419660E-002  0.26394112406571230        0.0000000000000000     
  -2.5763423826855276E-002  0.27234362223938774        0.0000000000000000     
  -2.5838800766562676E-002  0.28063830092623065        0.0000000000000000     
  -2.5921982906541852E-002  0.28882516012624110        0.0000000000000000     
  -2.6012970246792815E-002  0.29690419983941901        0.0000000000000000     
  -3.2264220853305894E-002  0.26408518562613026        0.0000000000000000     
  -3.2348722852685259E-002  0.27253340985255647        0.0000000000000000     
  -3.2441746594910441E-002  0.28088704894123900        0.0000000000000000     
  -3.2543292079981467E-002  0.28914610289217796        0.0000000000000000     
  -3.2653359307898325E-002  0.29731057170537306        0.0000000000000000     
  -3.8954429674562224E-002  0.26425008954326373        0.0000000000000000     
  -3.9053518453653464E-002  0.27275411054360432        0.0000000000000000     
  -3.9162938758388978E-002  0.28117867556612131        0.0000000000000000     
  -3.9282690588768737E-002  0.28952378461081468        0.0000000000000000     
  -3.9412773944792777E-002  0.29778943767768434        0.0000000000000000     
  -4.5766478551188643E-002  0.26443583581711266        0.0000000000000000     
  -4.5877810629759909E-002  0.27300572431253134        0.0000000000000000     
  -4.6002377256998253E-002  0.28151318080087756        0.0000000000000000     
  -4.6140178432903675E-002  0.28995820528215149        0.0000000000000000     
  -4.6291214157476189E-002  0.29834079775635297        0.0000000000000000     
  -5.2700367483185157E-002  0.26464242444767705        0.0000000000000000     
  -5.2821599381004600E-002  0.27328825115933741        0.0000000000000000     
  -5.2960062090738301E-002  0.28189056464550782        0.0000000000000000     
  -5.3115755612386288E-002  0.29044936490618833        0.0000000000000000     
  -5.3288679945948540E-002  0.29896465194137889        0.0000000000000000     
  -2.9064798630708003E-002   5.7159161001095096E-002   0.0000000000000000     
  -3.0591700248569567E-002   6.2725646369505200E-002   0.0000000000000000     
  -3.2071392271036128E-002   6.8470011105456141E-002   0.0000000000000000     
  -3.3503874698107686E-002   7.4392255208947891E-002   0.0000000000000000     
  -3.4889147529784247E-002   8.0492378679980506E-002   0.0000000000000000     
  -3.3402541637368166E-002   5.7635801063113445E-002   0.0000000000000000     
  -3.5030928783470923E-002   6.3197086705695932E-002   0.0000000000000000     
  -3.6625130229414285E-002   6.8933222278064962E-002   0.0000000000000000     
  -3.8185145975198259E-002   7.4844207780220565E-002   0.0000000000000000     
  -3.9710976020822845E-002   8.0930043212162697E-002   0.0000000000000000     
  -3.7607704870939819E-002   5.8188536554524148E-002   0.0000000000000000     
  -3.9409772435129636E-002   6.3734334088928757E-002   0.0000000000000000     
  -4.1174979601920604E-002   6.9454473349502388E-002   0.0000000000000000     
  -4.2903326371312743E-002   7.5348954336245055E-002   0.0000000000000000     
  -4.4594812743306046E-002   8.1417777049156745E-002   0.0000000000000000     
  -4.1680288331422947E-002   5.8817367475327217E-002   0.0000000000000000     
  -4.3728231203545707E-002   6.4337388519203675E-002   0.0000000000000000     
  -4.5720940388555106E-002   7.0033764319768405E-002   0.0000000000000000     
  -4.7658415886451165E-002   7.5906494877021419E-002   0.0000000000000000     
  -4.9540657697233849E-002   8.1955580190962718E-002   0.0000000000000000     
  -4.5620292018817565E-002   5.9522293825522647E-002   0.0000000000000000     
  -4.7986305088719143E-002   6.5006249996520674E-002   0.0000000000000000     
  -5.0263012589317778E-002   7.0671095188862984E-002   0.0000000000000000     
  -5.2450414520613498E-002   7.6516829402549613E-002   0.0000000000000000     
  -5.4548510882606274E-002   8.2543452637580533E-002   0.0000000000000000     
  -3.4889147529784247E-002   8.0492378679980506E-002   0.0000000000000000     
  -3.6226965440027639E-002   8.6761571070472429E-002   0.0000000000000000     
  -3.7517083102799685E-002   9.3191021932342133E-002   0.0000000000000000     
  -3.8759500518100391E-002   9.9780731265589617E-002   0.0000000000000000     
  -3.9954217685929765E-002  0.10653069907021485        0.0000000000000000     
  -3.9710976020822845E-002   8.0930043212162697E-002   0.0000000000000000     
  -4.1194992867187454E-002   8.7183245082433525E-002   0.0000000000000000     
  -4.2629569015191493E-002   9.3596329899575156E-002   0.0000000000000000     
  -4.4014704464834978E-002  0.10016929766358766        0.0000000000000000     
  -4.5350399216117908E-002  0.10690214837447097        0.0000000000000000     
  -4.4594812743306046E-002   8.1417777049156745E-002   0.0000000000000000     
  -4.6240803908172333E-002   8.7653526068833948E-002   0.0000000000000000     
  -4.7832665056183436E-002   9.4048785975873128E-002   0.0000000000000000     
  -4.9370396187339370E-002  0.10060355677027419        0.0000000000000000     
  -5.0853997301640121E-002  0.10731783845203725        0.0000000000000000     
  -4.9540657697233849E-002   8.1955580190962718E-002   0.0000000000000000     
  -5.1364398562982277E-002   8.8172414029673712E-002   0.0000000000000000     
  -5.3126371225775508E-002   9.4548390161235882E-002   0.0000000000000000     
  -5.4826575685613547E-002  0.10108350858564923        0.0000000000000000     
  -5.6465011942496403E-002  0.10777776930291372        0.0000000000000000     
  -5.4548510882606274E-002   8.2543452637580533E-002   0.0000000000000000     
  -5.6565776831617280E-002   8.8739908964952818E-002   0.0000000000000000     
  -5.8510687523967708E-002   9.5095142455663528E-002   0.0000000000000000     
  -6.0383242959657524E-002  0.10160915310971273        0.0000000000000000     
  -6.2183443138686761E-002  0.10828194092710035        0.0000000000000000     
  -3.9954217685929765E-002  0.10653069907021485        0.0000000000000000     
  -4.1099486072529071E-002  0.11342721614925573        0.0000000000000000     
  -4.2193557144139582E-002  0.12045657330575008        0.0000000000000000     
  -4.3236430900761312E-002  0.12761877053969786        0.0000000000000000     
  -4.4228107342394254E-002  0.13491380785109916        0.0000000000000000     
  -4.5350399216117908E-002  0.10690214837447097        0.0000000000000000     
  -4.6633383293888497E-002  0.11378129608420617        0.0000000000000000     
  -4.7860386722994995E-002  0.12079315484477438        0.0000000000000000     
  -4.9031409503437401E-002  0.12793772465617556        0.0000000000000000     
  -5.0146451635215722E-002  0.13521500551840968        0.0000000000000000     
  -5.0853997301640121E-002  0.10731783845203725        0.0000000000000000     
  -5.2279810977670635E-002  0.11417817204591861        0.0000000000000000     
  -5.3644179794015881E-002  0.12117109857667464        0.0000000000000000     
  -5.4947103750675852E-002  0.12829661804430534        0.0000000000000000     
  -5.6188582847650548E-002  0.13555473044881072        0.0000000000000000     
  -5.6465011942496403E-002  0.10777776930291372        0.0000000000000000     
  -5.8038769123875483E-002  0.11461784403439305        0.0000000000000000     
  -5.9544936357202247E-002  0.12159040450145092        0.0000000000000000     
  -6.0983513642476651E-002  0.12869545070408728        0.0000000000000000     
  -6.2354500979698725E-002  0.13593298264230219        0.0000000000000000     
  -6.2183443138686761E-002  0.10828194092710035        0.0000000000000000     
  -6.3910257732503056E-002  0.11510031204962948        0.0000000000000000     
  -6.5562656412554071E-002  0.12205107261910317        0.0000000000000000     
  -6.7140639178839806E-002  0.12913422263552141        0.0000000000000000     
  -6.8644206031360275E-002  0.13634976209888419        0.0000000000000000     
  -4.4228107342394254E-002  0.13491380785109916        0.0000000000000000     
  -4.5167837124332470E-002  0.14233112606647139        0.0000000000000000     
  -4.6054870901870021E-002  0.14986016601233207        0.0000000000000000     
  -4.6889208675006892E-002  0.15750092768868129        0.0000000000000000     
  -4.7670850443743099E-002  0.16525341109551897        0.0000000000000000     
  -5.0146451635215722E-002  0.13521500551840968        0.0000000000000000     
  -5.1204278495208602E-002  0.14261427189850806        0.0000000000000000     
  -5.2203655460294721E-002  0.15012479826350195        0.0000000000000000     
  -5.3144582530474063E-002  0.15774658461339128        0.0000000000000000     
  -5.4027059705746623E-002  0.16547963094817608        0.0000000000000000     
  -5.6188582847650548E-002  0.13555473044881072        0.0000000000000000     
  -5.7367502932344404E-002  0.14293455591514714        0.0000000000000000     
  -5.8482749852161862E-002  0.15042521456827104        0.0000000000000000     
  -5.9534323607102924E-002  0.15802670640818245        0.0000000000000000     
  -6.0522224197167587E-002  0.16573903143488131        0.0000000000000000     
  -6.2354500979698725E-002  0.13593298264230219        0.0000000000000000     
  -6.3657510435739861E-002  0.14329197811638861        0.0000000000000000     
  -6.4892154077471426E-002  0.15076141492663950        0.0000000000000000     
  -6.6058431904893467E-002  0.15834129307305481        0.0000000000000000     
  -6.7156343918005956E-002  0.16603161255563462        0.0000000000000000     
  -6.8644206031360275E-002  0.13634976209888419        0.0000000000000000     
  -7.0074301005394982E-002  0.14368653850223248        0.0000000000000000     
  -7.1431868136223473E-002  0.15113339933860723        0.0000000000000000     
  -7.2716907423845720E-002  0.15869034460800840        0.0000000000000000     
  -7.3929418868261751E-002  0.16635737431043607        0.0000000000000000     
  -4.7670850443743099E-002  0.16525341109551897        0.0000000000000000     
  -4.8398375586453407E-002  0.17310586069531661        0.0000000000000000     
  -4.9070363481512565E-002  0.18104652095054569        0.0000000000000000     
  -4.9686814128920585E-002  0.18907539186120620        0.0000000000000000     
  -5.0247727528677476E-002  0.19719247342729815        0.0000000000000000     
  -5.4027059705746623E-002  0.16547963094817608        0.0000000000000000     
  -5.4850375767348643E-002  0.17331242871216776        0.0000000000000000     
  -5.5613819496516281E-002  0.18123346934967760        0.0000000000000000     
  -5.6317390893249553E-002  0.18924275286070569        0.0000000000000000     
  -5.6961089957548450E-002  0.19734027924525188        0.0000000000000000     
  -6.0522224197167587E-002  0.16573903143488131        0.0000000000000000     
  -6.1446016143357443E-002  0.17355099583169009        0.0000000000000000     
  -6.2305263966674053E-002  0.18145140578193131        0.0000000000000000     
  -6.3099967667117438E-002  0.18944026128560487        0.0000000000000000     
  -6.3830127244687590E-002  0.19751756234271092        0.0000000000000000     
  -6.7156343918005956E-002  0.16603161255563462        0.0000000000000000     
  -6.8185296714479787E-002  0.17382156205388369        0.0000000000000000     
  -6.9144696891985907E-002  0.18170033024730681        0.0000000000000000     
  -7.0034544450524289E-002  0.18966791713590395        0.0000000000000000     
  -7.0854839390094904E-002  0.19772432271967511        0.0000000000000000     
  -7.3929418868261751E-002  0.16635737431043607        0.0000000000000000     
  -7.5068217480715724E-002  0.17412412737874849        0.0000000000000000     
  -7.6132118272451824E-002  0.18198024274580407        0.0000000000000000     
  -7.7121121243470037E-002  0.18992572041160274        0.0000000000000000     
  -7.8035226393770377E-002  0.19796056037614457        0.0000000000000000     
  -5.0247727528677476E-002  0.19719247342729815        0.0000000000000000     
  -5.0750514126958628E-002  0.20538952479012834        0.0000000000000000     
  -5.1192584369939488E-002  0.21365830509100375        0.0000000000000000     
  -5.1573938257620064E-002  0.22199881432992422        0.0000000000000000     
  -5.1894575790000334E-002  0.23041105250688984        0.0000000000000000     
  -5.6961089957548450E-002  0.19734027924525188        0.0000000000000000     
  -5.7541129196780241E-002  0.20551924715943526        0.0000000000000000     
  -5.8053721118312175E-002  0.21377285525937473        0.0000000000000000     
  -5.8498865722144244E-002  0.22210110354507018        0.0000000000000000     
  -5.8876563008276477E-002  0.23050399201652166        0.0000000000000000     
  -6.3830127244687590E-002  0.19751756234271092        0.0000000000000000     
  -6.4492120818381793E-002  0.20567718930634354        0.0000000000000000     
  -6.5082326507197266E-002  0.21391302252959707        0.0000000000000000     
  -6.5600744311134024E-002  0.22222506201247150        0.0000000000000000     
  -6.6047374230192121E-002  0.23061330775496677        0.0000000000000000     
  -7.0854839390094904E-002  0.19772432271967511        0.0000000000000000     
  -7.1603488991763248E-002  0.20586335123085317        0.0000000000000000     
  -7.2278400536594761E-002  0.21407880690167080        0.0000000000000000     
  -7.2879574024589416E-002  0.22237068973212817        0.0000000000000000     
  -7.3407009455747241E-002  0.23073899972222511        0.0000000000000000     
  -7.8035226393770377E-002  0.19796056037614457        0.0000000000000000     
  -7.8875233716924648E-002  0.20607773293296411        0.0000000000000000     
  -7.9641943206504640E-002  0.21427020837559602        0.0000000000000000     
  -8.0335354862510394E-002  0.22253798670404026        0.0000000000000000     
  -8.0955468684941884E-002  0.23088106791829682        0.0000000000000000     
  -5.1894575790000334E-002  0.23041105250688984        0.0000000000000000     
  -5.2162647286871970E-002  0.23888659023768019        0.0000000000000000     
  -5.2386303068026656E-002  0.24741699813807486        0.0000000000000000     
  -5.2565543133464385E-002  0.25600227620807381        0.0000000000000000     
  -5.2700367483185157E-002  0.26464242444767705        0.0000000000000000     
  -5.8876563008276477E-002  0.23050399201652166        0.0000000000000000     
  -5.9192950155894000E-002  0.23898068394558447        0.0000000000000000     
  -5.9454164344181985E-002  0.24753034260411380        0.0000000000000000     
  -5.9660205573140446E-002  0.25615296799210974        0.0000000000000000     
  -5.9811073842769374E-002  0.26484856010957220        0.0000000000000000     
  -6.6047374230192121E-002  0.23061330775496677        0.0000000000000000     
  -6.6424563760904082E-002  0.23908429689184899        0.0000000000000000     
  -6.6734660399802526E-002  0.24764456655788414        0.0000000000000000     
  -6.6977664146887467E-002  0.25629411675307234        0.0000000000000000     
  -6.7153575002158877E-002  0.26503294747741352        0.0000000000000000     
  -7.3407009455747241E-002  0.23073899972222511        0.0000000000000000     
  -7.3857488101902222E-002  0.23919742907647373        0.0000000000000000     
  -7.4227791234888291E-002  0.24775966999938592        0.0000000000000000     
  -7.4517918854705434E-002  0.25642572249096168        0.0000000000000000     
  -7.4727870961353693E-002  0.26519558655120112        0.0000000000000000     
  -8.0955468684941884E-002  0.23088106791829682        0.0000000000000000     
  -8.1491723178888406E-002  0.23932008049945877        0.0000000000000000     
  -8.1933556849439232E-002  0.24787565292861904        0.0000000000000000     
  -8.2280969696594375E-002  0.25654778520577770        0.0000000000000000     
  -8.2533961720353821E-002  0.26533647733093479        0.0000000000000000     
  -5.2700367483185157E-002  0.26464242444767705        0.0000000000000000     
  -5.2821599381004600E-002  0.27328825115933741        0.0000000000000000     
  -5.2960062090738301E-002  0.28189056464550782        0.0000000000000000     
  -5.3115755612386288E-002  0.29044936490618833        0.0000000000000000     
  -5.3288679945948540E-002  0.29896465194137889        0.0000000000000000     
  -5.9811073842769374E-002  0.26484856010957220        0.0000000000000000     
  -5.9943620089505066E-002  0.27357298006290726        0.0000000000000000     
  -6.0094695249783871E-002  0.28228208895852108        0.0000000000000000     
  -6.0264299323605733E-002  0.29097588679641362        0.0000000000000000     
  -6.0452432310970708E-002  0.29965437357658475        0.0000000000000000     
  -6.7153575002158877E-002  0.26503294747741352        0.0000000000000000     
  -6.7302608137378914E-002  0.27383120000212552        0.0000000000000000     
  -6.7464978724309704E-002  0.28265901559842627        0.0000000000000000     
  -6.7640686762951249E-002  0.29151639426631554        0.0000000000000000     
  -6.7829732253303535E-002  0.30040333600579355        0.0000000000000000     
  -7.4727870961353693E-002  0.26519558655120112        0.0000000000000000     
  -7.4898563524626136E-002  0.27406291097699220        0.0000000000000000     
  -7.5070912514315843E-002  0.28302134456522327        0.0000000000000000     
  -7.5244917930422830E-002  0.29207088731589426        0.0000000000000000     
  -7.5420579772947027E-002  0.30121153922900523        0.0000000000000000     
  -8.2533961720353821E-002  0.26533647733093479        0.0000000000000000     
  -8.2731486251246739E-002  0.27426811298750725        0.0000000000000000     
  -8.2912496619802281E-002  0.28336907585891224        0.0000000000000000     
  -8.3076992826020421E-002  0.29263936594514972        0.0000000000000000     
  -8.3224974869901214E-002  0.30207898324621968        0.0000000000000000     
  -4.5620292018817565E-002   5.9522293825522647E-002   0.0000000000000000     
  -4.7986305088719143E-002   6.5006249996520674E-002   0.0000000000000000     
  -5.0263012589317778E-002   7.0671095188862984E-002   0.0000000000000000     
  -5.2450414520613498E-002   7.6516829402549613E-002   0.0000000000000000     
  -5.4548510882606274E-002   8.2543452637580533E-002   0.0000000000000000     
  -4.9836478570285163E-002   6.0276918619833239E-002   0.0000000000000000     
  -5.2487515344655053E-002   6.5727637065735312E-002   0.0000000000000000     
  -5.5023193444915165E-002   7.1362235854599707E-002   0.0000000000000000     
  -5.7443512871065500E-002   7.7180714986426424E-002   0.0000000000000000     
  -5.9748473623106035E-002   8.3183074461215506E-002   0.0000000000000000     
  -5.4737610622987230E-002   6.1054844872981809E-002   0.0000000000000000     
  -5.7535383225358561E-002   6.6488268271703135E-002   0.0000000000000000     
  -6.0223480196053787E-002   7.2102956214792083E-002   0.0000000000000000     
  -6.2801901535072910E-002   7.7898908702248679E-002   0.0000000000000000     
  -6.5270647242415908E-002   8.3876125734072896E-002   0.0000000000000000     
  -6.0323688176923761E-002   6.1856072584968343E-002   0.0000000000000000     
  -6.3129908730829659E-002   6.7288143614424131E-002   0.0000000000000000     
  -6.5863872842733637E-002   7.2893256269440126E-002   0.0000000000000000     
  -6.8525580512635728E-002   7.8671410550016349E-002   0.0000000000000000     
  -7.1115031740535892E-002   8.4622606456152757E-002   0.0000000000000000     
  -6.6594711232094761E-002   6.2680601755792861E-002   0.0000000000000000     
  -6.9271091861068362E-002   6.8127263093898327E-002   0.0000000000000000     
  -7.1944371384954756E-002   7.3733136018543852E-002   0.0000000000000000     
  -7.4614549803753968E-002   7.9498220529729408E-002   0.0000000000000000     
  -7.7281627117465959E-002   8.5422516627455022E-002   0.0000000000000000     
  -5.4548510882606274E-002   8.2543452637580533E-002   0.0000000000000000     
  -5.6565776831617280E-002   8.8739908964952818E-002   0.0000000000000000     
  -5.8510687523967708E-002   9.5095142455663528E-002   0.0000000000000000     
  -6.0383242959657524E-002  0.10160915310971273        0.0000000000000000     
  -6.2183443138686761E-002  0.10828194092710035        0.0000000000000000     
  -5.9748473623106035E-002   8.3183074461215506E-002   0.0000000000000000     
  -6.1954651257141113E-002   8.9356769876832234E-002   0.0000000000000000     
  -6.4078621329275026E-002   9.5689256831141975E-002   0.0000000000000000     
  -6.6120383839507760E-002  0.10218053532414473        0.0000000000000000     
  -6.8079938787839328E-002  0.10883060535584049        0.0000000000000000     
  -6.5270647242415908E-002   8.3876125734072896E-002   0.0000000000000000     
  -6.7640734382617529E-002   9.0023755767472999E-002   0.0000000000000000     
  -6.9923180020212444E-002   9.6330947259657088E-002   0.0000000000000000     
  -7.2117984155200696E-002  0.10279770021062527        0.0000000000000000     
  -7.4225146787582283E-002  0.10942401462037749        0.0000000000000000     
  -7.1115031740535892E-002   8.4622606456152757E-002   0.0000000000000000     
  -7.3624026208046506E-002   9.0740866636875028E-002   0.0000000000000000     
  -7.6044363596780018E-002   9.7020213741208908E-002   0.0000000000000000     
  -7.8376043906736387E-002  0.10346064776915431        0.0000000000000000     
  -8.0619067137915612E-002  0.11006216872071133        0.0000000000000000     
  -7.7281627117465959E-002   8.5422516627455022E-002   0.0000000000000000     
  -7.9904526733428100E-002   9.1508102485038434E-002   0.0000000000000000     
  -8.2442172058977692E-002   9.7757056275797394E-002   0.0000000000000000     
  -8.4894563094114764E-002  0.10416937799973192        0.0000000000000000     
  -8.7261699838839302E-002  0.11074506765684200        0.0000000000000000     
  -6.2183443138686761E-002  0.10828194092710035        0.0000000000000000     
  -6.3910257732503056E-002  0.11510031204962948        0.0000000000000000     
  -6.5562656412554071E-002  0.12205107261910317        0.0000000000000000     
  -6.7140639178839806E-002  0.12913422263552141        0.0000000000000000     
  -6.8644206031360275E-002  0.13634976209888419        0.0000000000000000     
  -6.8079938787839328E-002  0.10883060535584049        0.0000000000000000     
  -6.9957886649443149E-002  0.11562612357407701        0.0000000000000000     
  -7.1754827899492626E-002  0.12255374662670204        0.0000000000000000     
  -7.3470762537987788E-002  0.12961347451371560        0.0000000000000000     
  -7.5105690564928593E-002  0.13680530723511769        0.0000000000000000     
  -7.4225146787582283E-002  0.10942401462037749        0.0000000000000000     
  -7.6245265720585639E-002  0.11619582609018481        0.0000000000000000     
  -7.8178938757439212E-002  0.12309907022131832        0.0000000000000000     
  -8.0026165898143015E-002  0.13013374701377795        0.0000000000000000     
  -8.1786947142697047E-002  0.13729985646756379        0.0000000000000000     
  -8.0619067137915612E-002  0.11006216872071133        0.0000000000000000     
  -8.2772394945930472E-002  0.11680941959795284        0.0000000000000000     
  -8.4834988986393800E-002  0.12368704340295188        0.0000000000000000     
  -8.6806849259305527E-002  0.13069504013570843        0.0000000000000000     
  -8.8687975764665694E-002  0.13783340979622249        0.0000000000000000     
  -8.7261699838839302E-002  0.11074506765684200        0.0000000000000000     
  -8.9539274325477716E-002  0.11746690409738111        0.0000000000000000     
  -9.1722978586356377E-002  0.12431766617160279        0.0000000000000000     
  -9.3812812621475325E-002  0.13129735387950700        0.0000000000000000     
  -9.5808776430834519E-002  0.13840596722109377        0.0000000000000000     
  -6.8644206031360275E-002  0.13634976209888419        0.0000000000000000     
  -7.0074301005394982E-002  0.14368653850223248        0.0000000000000000     
  -7.1431868136223473E-002  0.15113339933860723        0.0000000000000000     
  -7.2716907423845720E-002  0.15869034460800840        0.0000000000000000     
  -7.3929418868261751E-002  0.16635737431043607        0.0000000000000000     
  -7.5105690564928593E-002  0.13680530723511769        0.0000000000000000     
  -7.6661754351952049E-002  0.14411820573821560        0.0000000000000000     
  -7.8141096270695140E-002  0.15154113097031668        0.0000000000000000     
  -7.9543716321157920E-002  0.15907408293142095        0.0000000000000000     
  -8.0869614503340334E-002  0.16671706162152836        0.0000000000000000     
  -8.1786947142697047E-002  0.13729985646756379        0.0000000000000000     
  -8.3463750186053287E-002  0.14458694848987486        0.0000000000000000     
  -8.5059042723163711E-002  0.15198457298791038        0.0000000000000000     
  -8.6572824754028305E-002  0.15949272996167008        0.0000000000000000     
  -8.8005096278647069E-002  0.16711141941115429        0.0000000000000000     
  -8.8687975764665694E-002  0.13783340979622249        0.0000000000000000     
  -9.0480288507698778E-002  0.14509276675721033        0.0000000000000000     
  -9.2185707493629157E-002  0.15246372539138811        0.0000000000000000     
  -9.3804232722456901E-002  0.15994628569875602        0.0000000000000000     
  -9.5335864194181968E-002  0.16754044767931384        0.0000000000000000     
  -9.5808776430834519E-002  0.13840596722109377        0.0000000000000000     
  -9.7711369316888425E-002  0.14563566054022190        0.0000000000000000     
  -9.9521090582091479E-002  0.15297858818075014        0.0000000000000000     
 -0.10123794022644368       0.16043475014267849        0.0000000000000000     
 -0.10286191824994502       0.16800414642600700        0.0000000000000000     
  -7.3929418868261751E-002  0.16635737431043607        0.0000000000000000     
  -7.5068217480715724E-002  0.17412412737874849        0.0000000000000000     
  -7.6132118272451824E-002  0.18198024274580407        0.0000000000000000     
  -7.7121121243470037E-002  0.18992572041160274        0.0000000000000000     
  -7.8035226393770377E-002  0.19796056037614457        0.0000000000000000     
  -8.0869614503340334E-002  0.16671706162152836        0.0000000000000000     
  -8.2117391680384996E-002  0.17445992817199008        0.0000000000000000     
  -8.3285648715434452E-002  0.18229254371415726        0.0000000000000000     
  -8.4374385608488742E-002  0.19021490824802978        0.0000000000000000     
  -8.5383602359547853E-002  0.19822702177360779        0.0000000000000000     
  -8.8005096278647069E-002  0.16711141941115429        0.0000000000000000     
  -8.9355432551807348E-002  0.17483020079931397        0.0000000000000000     
  -9.0623408828296448E-002  0.18263863358910037        0.0000000000000000     
  -9.1809025108114409E-002  0.19053671778051351        0.0000000000000000     
  -9.2912281391261148E-002  0.19852445337355323        0.0000000000000000     
  -9.5335864194181968E-002  0.16754044767931384        0.0000000000000000     
  -9.6782340094982794E-002  0.17523494526072020        0.0000000000000000     
  -9.8145398611037812E-002  0.18301851237063349        0.0000000000000000     
  -9.9425039742346968E-002  0.19089114900905377        0.0000000000000000     
 -0.10062126348891029       0.19885285517598103        0.0000000000000000     
 -0.10286191824994502       0.16800414642600700        0.0000000000000000     
 -0.10439811430991136       0.17567416155620866        0.0000000000000000     
 -0.10585161806365850       0.18343218005875656        0.0000000000000000     
 -0.10722242951118649       0.19127820193365067        0.0000000000000000     
 -0.10851054865249528       0.19921222718089102        0.0000000000000000     
  -7.8035226393770377E-002  0.19796056037614457        0.0000000000000000     
  -7.8875233716924648E-002  0.20607773293296411        0.0000000000000000     
  -7.9641943206504640E-002  0.21427020837559602        0.0000000000000000     
  -8.0335354862510394E-002  0.22253798670404026        0.0000000000000000     
  -8.0955468684941884E-002  0.23088106791829682        0.0000000000000000     
  -8.5383602359547853E-002  0.19822702177360779        0.0000000000000000     
  -8.6316949451912053E-002  0.20632120217435621        0.0000000000000000     
  -8.7178077368881571E-002  0.21448976733374001        0.0000000000000000     
  -8.7966986110456460E-002  0.22273271725175928        0.0000000000000000     
  -8.8683675676636695E-002  0.23105005192841391        0.0000000000000000     
  -9.2912281391261148E-002  0.19852445337355323        0.0000000000000000     
  -9.3938230654771512E-002  0.20659462671670906        0.0000000000000000     
  -9.4891925875680141E-002  0.21474002415847021        0.0000000000000000     
  -9.5773367053987091E-002  0.22296064569883667        0.0000000000000000     
  -9.6582554189692332E-002  0.23125649133780848        0.0000000000000000     
 -0.10062126348891029       0.19885285517598103        0.0000000000000000     
 -0.10173907732550302       0.20689800656002280        0.0000000000000000     
 -0.10278348872690037       0.21502097884978663        0.0000000000000000     
 -0.10375449769310228       0.22322177204527255        0.0000000000000000     
 -0.10465210422410882       0.23150038614648064        0.0000000000000000     
 -0.10851054865249528       0.19921222718089102        0.0000000000000000     
 -0.10971948946410662       0.20723134170429730        0.0000000000000000     
 -0.11085276592254222       0.21533263140768927        0.0000000000000000     
 -0.11191037802780206       0.22351609629106692        0.0000000000000000     
 -0.11289232577988614       0.23178173635443025        0.0000000000000000     
  -8.0955468684941884E-002  0.23088106791829682        0.0000000000000000     
  -8.1491723178888406E-002  0.23932008049945877        0.0000000000000000     
  -8.1933556849439232E-002  0.24787565292861904        0.0000000000000000     
  -8.2280969696594375E-002  0.25654778520577770        0.0000000000000000     
  -8.2533961720353821E-002  0.26533647733093479        0.0000000000000000     
  -8.8683675676636695E-002  0.23105005192841391        0.0000000000000000     
  -8.9313842884097605E-002  0.23946725005135000        0.0000000000000000     
  -8.9843184549514524E-002  0.24800979030821360        0.0000000000000000     
  -9.0271700672887464E-002  0.25667767269900466        0.0000000000000000     
  -9.0599391254216385E-002  0.26547089722372313        0.0000000000000000     
  -9.6582554189692332E-002  0.23125649133780848        0.0000000000000000     
  -9.7310421109764775E-002  0.23965393662269352        0.0000000000000000     
  -9.7947901641173299E-002  0.24817935710079955        0.0000000000000000     
  -9.8494995783917905E-002  0.25683275277212669        0.0000000000000000     
  -9.8951703537998564E-002  0.26561412363667480        0.0000000000000000     
 -0.10465210422410882       0.23150038614648064        0.0000000000000000     
 -0.10548145785588994       0.23988014021348927        0.0000000000000000     
 -0.10624770812441556       0.24838435330637695        0.0000000000000000     
 -0.10695085502968570       0.25701302542514376        0.0000000000000000     
 -0.10759089857170034       0.26576615656978969        0.0000000000000000     
 -0.11289232577988614       0.23178173635443025        0.0000000000000000     
 -0.11382695312247304       0.24014586082373721        0.0000000000000000     
 -0.11474260399924127       0.24862477892494578        0.0000000000000000     
 -0.11563927841019084       0.25721849065805596        0.0000000000000000     
 -0.11651697635532174       0.26592699602306769        0.0000000000000000     
  -8.2533961720353821E-002  0.26533647733093479        0.0000000000000000     
  -8.2731486251246739E-002  0.27426811298750725        0.0000000000000000     
  -8.2912496619802281E-002  0.28336907585891224        0.0000000000000000     
  -8.3076992826020421E-002  0.29263936594514972        0.0000000000000000     
  -8.3224974869901214E-002  0.30207898324621968        0.0000000000000000     
  -9.0599391254216385E-002  0.26547089722372313        0.0000000000000000     
  -9.0856573814986519E-002  0.27445250048153230        0.0000000000000000     
  -9.1073565876682999E-002  0.28368551907159534        0.0000000000000000     
  -9.1250367439305827E-002  0.29316995299391224        0.0000000000000000     
  -9.1386978502855015E-002  0.30290580224848290        0.0000000000000000     
  -9.8951703537998564E-002  0.26561412363667480        0.0000000000000000     
  -9.9329023713591300E-002  0.27462176790692916        0.0000000000000000     
  -9.9637955120871993E-002  0.28395398379537501        0.0000000000000000     
  -9.9878497759840715E-002  0.29361077130201219        0.0000000000000000     
 -0.10005065163049742       0.30359213042684086        0.0000000000000000     
 -0.10759089857170034       0.26576615656978969        0.0000000000000000     
 -0.10814883594706104       0.27477591526369766        0.0000000000000000     
 -0.10860566435236932       0.28417447003025098        0.0000000000000000     
 -0.10896138378762510       0.29396182086944955        0.0000000000000000     
 -0.10921599425282844       0.30413796778129337        0.0000000000000000     
 -0.11651697635532174       0.26592699602306769        0.0000000000000000     
 -0.11731601051539581       0.27491494255183790        0.0000000000000000     
 -0.11797669357117489       0.28434697777622342        0.0000000000000000     
 -0.11849902552265897       0.29422310169622434        0.0000000000000000     
 -0.11888300636984805       0.30454331431184056        0.0000000000000000     
 </DataArray>
 <DataArray  type="Float64" Name="stress" NumberOfComponents="3" format="ascii">
   5455257098.2618065       -205093939.59078217       -445069971.40052974     
   5394990508.6908894       -149029087.82991123       -296538236.55223256     
   5333520582.7646809       -96975357.253350258       -184755912.82399300     
   5270847320.4831743       -48932747.861114025       -109723000.21580924     
   5206970721.8463707       -4901259.6532006264       -71439498.727684423     
   5506625043.6920900       -60487513.801146030       -101528935.87061635     
   5358591127.8205700       -41453303.314582586       -10653497.994879734     
   5209883380.2883873       -24665198.363588095        58003555.679140367     
   5060501801.0955400       -10123198.948130369        104442225.15143755     
   4910446390.2420139        2172694.9317500591        128662510.42201951     
   5375630715.5345097        29410229.912137508        237587666.77301991     
   5181346693.1290760        23868965.054383516        271424563.15325826     
   4986918343.7575903        17846610.309838533        297574102.25012571     
   4792345667.4200726        11343165.678490162        316036284.06360626     
   4597628664.1165190        4358631.1603660583        326811108.59370446     
   5062274113.7890844        64599291.549064398        572279836.53037870     
   4863257204.6163893        46937717.277001619        549695946.89219606     
   4664625473.1722965        30560068.766911268        533955726.88896918     
   4466378919.4567909        15466346.018783331        525059176.52069890     
   4268517543.4698758        1656549.0326242447        523006295.78738457     
   4566555238.4557819        45079671.109624386        902547573.40146232     
   4404322662.2825260        27752953.353261471        824160653.22191918     
   4243004768.5324984        13475177.007629156        767148429.59566689     
   4082601557.2056832        2246342.0727248192        731510902.52271235     
   3923113028.3020911       -5933551.4514498711        717248072.00304949     
   5206970721.8463707       -4901259.6532006264       -71439498.727684423     
   5027994080.5392570        1174186.2796273232       -62279606.810472935     
   4847961855.0551319        3731018.2890727520       -49912565.850071743     
   4666874045.3939838        2769236.3751065731       -34338375.846473813     
   4484730651.5558186       -1711159.4622302055       -15557036.799679773     
   4910446390.2420139        2172694.9317500591        128662510.42201951     
   4739923461.6974459        6205898.0235395432        131360626.29732428     
   4568674956.8042336        7820513.2865147591        137825735.91008562     
   4396700875.5623674        7016540.7206556797        148057839.26030958     
   4224001217.9718699        3793980.3260011673        162056936.34798947     
   4597628664.1165190        4358631.1603660583        326811108.59370446     
   4437159004.6038208        6829458.2919127941        323432457.56020808     
   4276293776.5708504        7981723.6892178059        324380644.95842713     
   4115032980.0176086        7815427.3522753716        329655670.78837502     
   3953376614.9440832        6330569.2810747623        339257535.05005306     
   4268517543.4698758        1656549.0326242447        523006295.78738457     
   4119700709.2583809        3044867.0847454071        513935886.97817689     
   3970818314.3549771        4214649.4971740246        509752161.29496062     
   3821870358.7596765        5165896.2699365616        510455118.73773098     
   3672856842.4724693        5898607.4030103683        516044759.30649877     
   3923113028.3020911       -5933551.4514498711        717248072.00304949     
   3787548575.6611214       -5147875.5979759693        702870914.55123937     
   3652248570.1566176       -3480709.2896215916        693940284.91968048     
   3517213011.7885909       -932052.52635169029        690456183.10837853     
   3382441900.5570259        2498094.6917998791        692418609.11733365     
   4484730651.5558186       -1711159.4622302055       -15557036.799679773     
   4300602981.0757761       -6998582.2444691658       -17283218.183673255     
   4117391283.3755803       -9232762.4271786213       -16112750.096141361     
   3935095558.4552717       -8413700.0102941990       -12045632.537087295     
   3753715806.3148246       -4541394.9938497543       -5081865.5064937677     
   4224001217.9718699        3793980.3260011673        162056936.34798947     
   4048348363.0208397       -445351.51385951042        158016664.97719824     
   3873334834.5918484       -2553594.9469394684        157356965.86280015     
   3698960632.6848779       -2530749.9732813835        160077839.00481766     
   3525225757.2999468       -376816.59281444550        166179284.40321428     
   3953376614.9440832        6330569.2810747623        339257535.05005306     
   3787581212.0502934        3554119.3420853615        332580419.72498173     
   3622148489.4206867        1986603.6170506477        329767799.44118965     
   3457078447.0552835        1628022.1060175896        330819674.19866401     
   3292371084.9540596        2478374.8089251518        335736043.99741054     
   3672856842.4724693        5898607.4030103683        516044759.30649877     
   3518301528.1641073        4999830.3233289719        506408046.05967796     
   3363832247.8621068        4387833.2648324966        501119750.63899887     
   3209449001.5664554        4062616.2275032997        500179873.04446423     
   3055151789.2771587        4024179.2113636732        503588413.27607298     
   3382441900.5570259        2498094.6917998791        692418609.11733365     
   3240509311.3623037        3891781.4298874140        679499543.98128104     
   3098386109.9161029        4650093.9963716269        671412819.45624161     
   2956072296.2184105        4773032.3912270069        668158435.54222083     
   2813567870.2692399        4260596.6144869328        669736392.23921275     
   3753715806.3148246       -4541394.9938497543       -5081865.5064937677     
   3577153529.4471288        366738.15204954147       -7671021.3035423839     
   3399405336.2046227        1321816.7152271271       -5702789.7490534978     
   3220471226.5872879       -1676159.3043466806        822829.15698185842     
   3040351200.5951276       -8627189.9066721201        11905835.414570089     
   3525225757.2999468       -376816.59281444550        166179284.40321428     
   3359846967.3887877        4106301.8734223843        160722456.06718093     
   3193711725.3140473        6067913.1277393103        159409002.96454537     
   3026820031.0757494        5508017.1701594591        162238925.09530315     
   2859171884.6738567        2426614.0006309748        169212222.45946515     
   3292371084.9540596        2478374.8089251518        335736043.99741054     
   3136992890.2333078        6181611.0656502247        327912584.70216495     
   2981287707.5602331        8794887.4812815189        323818488.52218515     
   2825255536.9348259        10318204.055817366        323453755.45746577     
   2668896378.3571024        10751560.789289117        326818385.50800127     
   3055151789.2771587        4024179.2113636732        503588413.27607298     
   2908591297.9806986        6592665.7287273407        493899364.60142064     
   2762133282.9431682        9502739.7758607864        487525666.92387694     
   2615777744.1645517        12754401.352699876        484467320.24346250     
   2469524681.6448565        16347650.459286451        484724324.56016684     
   2813567870.2692399        4260596.6144869328        669736392.23921275     
   2674642190.6309662        5339465.8626911640        658682795.76493573     
   2536248451.4628501        8191470.0114367008        650530538.16963685     
   2398386652.7649093        12816609.060758233        645279619.45331383     
   2261056794.5371408        19214883.010656238        642930039.61597598     
   3040351200.5951276       -8627189.9066721201        11905835.414570089     
   2877068643.7547264       -11038627.794513583        8299899.1703523509     
   2714634652.9389739       -10621512.266904235        5057414.8073309837     
   2553049228.1479039       -7375843.3236737251        2178382.3255034233     
   2392312369.3814697       -1301620.9649697542       -337198.27514826326     
   2859171884.6738567        2426614.0006309748        169212222.45946515     
   2698084548.3332586        888056.53431308270        163575412.55858514     
   2537473182.4099822        936067.12571346760        159062347.98678765     
   2377337786.9040074        2570645.7747807503        155673028.74406308     
   2217678361.8153396        5791792.4815582037        153407454.83040437     
   2668896378.3571024        10751560.789289117        326818385.50800127     
   2512176529.5102744        10737563.842728496        318716007.07521355     
   2355560055.4734130        11068149.596044421        312497667.41939139     
   2199046956.2465000        11743318.049191833        308163366.54051989     
   2042637231.8295393        12763069.202185035        305713104.43861139     
   2469524681.6448565        16347650.459286451        484724324.56016684     
   2319344587.2857599        18509894.130689502        473721682.72022867     
   2168895272.1292620        19774735.144100785        465363373.10513091     
   2018176736.1753669        20142173.499508500        459649395.71487772     
   1867188979.4240575        19612209.196894169        456579750.54945350     
   2261056794.5371408        19214883.010656238        642930039.61597598     
   2119588721.6597147        24205047.398194671        628592439.49363554     
   1977478832.3775387        27055823.769900560        617659465.04401946     
   1834727126.6905980        27767212.125734925        610131116.26713085     
   1691333604.5989144        26339212.465738177        606007393.16296268     
   2392312369.3814697       -1301620.9649697542       -337198.27514826326     
   2249646514.2922063        6515262.5175334215       -6837334.2966977246     
   2103706616.2688038        3418669.5529279709       -11293498.019406309     
   1954492675.3112676       -10591399.858811140       -13705689.443245837     
   1802004691.4195964       -35514945.717644215       -14073908.568234241     
   2217678361.8153396        5791792.4815582037        153407454.83040437     
   2079015370.6855733        12774545.051014066        143193260.83955380     
   1938203448.0451281        12594192.584850430        134206712.42170322     
   1795242593.8939967        5250735.0830836296        126447809.57684748     
   1650132808.2321587       -9255827.4543610811        119916552.30499686     
   2042637231.8295393        12763069.202185035        305713104.43861139     
   1905644742.5854096        18211982.236445427        293097482.47247547     
   1767628433.2540379        20248161.646588564        280893179.35349101     
   1628588303.8354197        18871607.432559788        269100195.08164263     
   1488524354.3295527        14082319.594378352        257718529.65695328     
   1867188979.4240575        19612209.196894169        456579750.54945350     
   1729534629.9916945        22827574.073832989        442875330.60206991     
   1591981571.8955309        26380576.738094926        428765902.77596229     
   1454529805.1355469        30271217.189647138        414251467.07115746     
   1317179329.7117763        34499495.428556561        399332023.48763371     
   1691333604.5989144        26339212.465738177        606007393.16296268     
   1550685032.9044249        26621320.563127637        592526805.22832942     
   1411262863.9695835        30991437.859344184        577824882.68912590     
   1273067097.7943845        39449564.354358137        561901625.54536450     
   1136097734.3788300        51995700.048197269        544757033.79703689     
   1802004691.4195964       -35514945.717644215       -14073908.568234241     
   1771229993.8446634       -16673316.302586317       -8378117.1548596565     
   1748510343.1899245        29018469.513095856       -41491515.915529437     
   1733845739.4553905        101560411.72947228       -113414104.85027945     
   1727236182.6410429        200952510.34647077       -224145883.95907897     
   1650132808.2321587       -9255827.4543610811        119916552.30499686     
   1527560561.1616924       -13953352.563960314        135547582.85974076     
   1409146768.1406415       -4789364.1755082607        124806416.55921528     
   1294891429.1690097        18236137.710996389        87693053.403404996     
   1184794544.2467976        55123153.095566988        24207493.392322745     
   1488524354.3295527        14082319.594378352        257718529.65695328     
   1309688824.3886580       -3494080.0523666739        278738774.33714885     
   1131115155.6264009       -20197609.103652954        285823815.48085958     
   952803348.04278874       -36028267.559458256        278973653.08808666     
   774753401.63780820       -50986055.419819981        258188287.15883154     
   1317179329.7117763        34499495.428556561        399332023.48763371     
   1117614783.5255702        14704501.232217729        421195457.27737159     
   914415505.64722538       -17206265.271251321        441560680.84941649     
   707581496.07673883       -61232804.081848204        460427694.20376498     
   497112754.81410438       -117375115.19960469        477796497.34042472     
   1136097734.3788300        51995700.048197269        544757033.79703689     
   951338438.57242560        40642391.289791644        562917631.68040586     
   759047818.20309722        4184667.3216510415        592017012.66487360     
   559225873.27086043       -57377471.856193453        632055176.75043154     
   351872603.77569705       -144044026.24378708        683032123.93709099     
   1727236182.6410429        200952510.34647077       -224145883.95907897     
   1456681056.2584591        184595668.01910681       -96619102.520924583     
   1153961913.6761260        61025438.359245360        60092886.382468753     
   819078754.89407039       -169758178.63305795        245990082.75109464     
   452031579.91225380       -507755182.95783043        461072486.58493644     
   1184794544.2467976        55123153.095566988        24207493.392322745     
   977701578.86948812        11862080.747924566        155579658.78928182     
   732791304.32476795       -157456688.82444230        312792332.11435926     
   450063720.61262369       -452833155.62155092        495845513.36756158     
   129518827.73305166       -874267319.64342916        704739202.54889512     
   774753401.63780820       -50986055.419819981        258188287.15883154     
   621566312.87410331       -124018243.10512856        386810328.05225742     
   424908621.97527754       -341952437.90751815        537928177.33671129     
   184780328.94132149       -704788639.82699430        711541835.01217997     
  -98818566.227766037       -1212526848.8635924        907651301.07868755     
   497112754.81410438       -117375115.19960469        477796497.34042472     
   388275258.27228308       -223045303.54012558        597072905.26799774     
   230313866.62762648       -492461808.89005464        735500422.04951227     
   23228579.880151629       -925624631.24941456        893079047.68493879     
  -232980601.97015089       -1522533770.6181724        1069808782.1743137     
   351872603.77569705       -144044026.24378708        683032123.93709099     
   277828415.06402242       -285219100.55706811        786367390.43652642     
   149007038.28183898       -608984801.77204525        905509066.25278020     
  -34591526.570865154       -1115341129.8887556        1040457151.3858702     
  -272967279.49409759       -1804288084.9072211        1191211645.8357837     
   4566555238.4557819        45079671.109624386        902547573.40146232     
   4404322662.2825260        27752953.353261471        824160653.22191918     
   4243004768.5324984        13475177.007629156        767148429.59566689     
   4082601557.2056832        2246342.0727248192        731510902.52271235     
   3923113028.3020911       -5933551.4514498711        717248072.00304949     
   4023838839.0302596       -18736685.620779991        903399315.02460897     
   3911741162.2652049       -19177808.228738070        859681021.80226398     
   3800120511.4561667       -18028844.316626072        829256663.46022177     
   3688976886.6031551       -15289793.884424210        812126239.99847698     
   3578310287.7061701       -10960656.932143688        808289751.41702652     
   3589400090.7642031       -50069747.003346443        905216019.84051538     
   3504349422.9130526       -40551641.611190319        895655754.36364937     
   3419338124.5507407       -30902304.589600801        891308662.09408331     
   3334366195.6772547       -21121735.938584805        892174743.03181899     
   3249433636.2925944       -11209935.658139229        898253997.17685890     
   3263238993.6575937       -48919513.038075924        907997687.84919786     
   3182147444.2260866       -36368546.794080973        932084850.90607440     
   3100657607.8162160       -25145203.811307788        953304425.49725831     
   3018769484.4279804       -15249484.089759469        971656411.62274921     
   2936483074.0613804       -6681387.6294250488        987140809.28254259     
   3045355547.7104354       -15285983.724973679        911744319.05063617     
   2945135226.2042937       -6628523.7774262428        968968311.42953420     
   2844078961.2525964       -757541.98174822330        1015243953.6697456     
   2742186752.8553352        2326961.6620573997        1050571245.7712580     
   2639458601.0125155        2624987.1539974213        1074950187.7340860     
   3923113028.3020911       -5933551.4514498711        717248072.00304949     
   3787548575.6611214       -5147875.5979759693        702870914.55123937     
   3652248570.1566176       -3480709.2896215916        693940284.91968048     
   3517213011.7885909       -932052.52635169029        690456183.10837853     
   3382441900.5570259        2498094.6917998791        692418609.11733365     
   3578310287.7061701       -10960656.932143688        808289751.41702652     
   3456190314.7639141       -9036735.3244469166        799352271.06331754     
   3334272962.1528993       -6437412.6126244068        795047498.25277436     
   3212558229.8731155       -3162688.7967008352        795375432.98539996     
   3091046117.9245648        787436.12334871292        800336075.26118600     
   3249433636.2925944       -11209935.658139229        898253997.17685890     
   3138432942.2573767       -8845328.5337044001        894684062.64848077     
   3027573041.7481565       -6011409.6559419632        894933015.38617659     
   2916853934.7649403       -2708179.0248401165        899000855.38995183     
   2806275621.3077192        1064363.3595870733        906887582.65979838     
   2936483074.0613804       -6681387.6294250488        987140809.28254259     
   2834276458.1415057       -4573655.2257665396        988866289.30672252     
   2732148808.9423947       -2202700.4195629358        993596836.31988680     
   2630100126.4640541        431476.78919839859        1001332450.3220394     
   2528130410.7064762        3328876.4005119801        1012073131.3131707     
   2639458601.0125155        2624987.1539974213        1074950187.7340860     
   2543720862.4162979        3778284.5993688107        1081898951.0380487     
   2448000263.7356148        4988715.0965113640        1091038961.0539093     
   2352296804.9704614        6256278.6454224586        1102370217.7816637     
   2256610486.1208396        7580975.2461054325        1115892721.2213104     
   3382441900.5570259        2498094.6917998791        692418609.11733365     
   3240509311.3623037        3891781.4298874140        679499543.98128104     
   3098386109.9161029        4650093.9963716269        671412819.45624161     
   2956072296.2184105        4773032.3912270069        668158435.54222083     
   2813567870.2692399        4260596.6144869328        669736392.23921275     
   3091046117.9245648        787436.12334871292        800336075.26118600     
   2961336314.0506215        2512940.1178584099        789427182.71399069     
   2831578628.2973590        4078837.8479676247        783011518.89720762     
   2701773060.6647849        5485129.3137055635        781089083.81082880     
   2571919611.1528959        6731814.5150598288        783659877.45485818     
   2806275621.3077192        1064363.3595870733        906887582.65979838     
   2687819711.6670918        2831017.2842587233        898155381.46899474     
   2569458650.5193272        4913832.8517779112        893577297.12799525     
   2451192437.8644099        7312810.0621426105        893153329.63679194     
   2333021073.7023540        10027948.915364981        896883478.99539411     
   2528130410.7064762        3328876.4005119801        1012073131.3131707     
   2419959504.2117248        4846012.9291126728        1005684140.2462922     
   2312026176.5819969        7155079.0077900887        1003110154.1486059     
   2204330427.8172951        10256074.636556149        1004351173.0201130     
   2096872257.9176209        14148999.815413713        1009407196.8608091     
   2256610486.1208396        7580975.2461054325        1115892721.2213104     
   2157755691.6845179        8557927.0524230003        1112013459.0458853     
   2059281206.4853828        10802576.316034555        1111610089.9590383     
   1961187030.5234432        14314923.036962032        1114682613.9607861     
   1863473163.7986984        19094967.215205550        1121231031.0511167     
   2813567870.2692399        4260596.6144869328        669736392.23921275     
   2674642190.6309662        5339465.8626911640        658682795.76493573     
   2536248451.4628501        8191470.0114367008        650530538.16963685     
   2398386652.7649093        12816609.060758233        645279619.45331383     
   2261056794.5371408        19214883.010656238        642930039.61597598     
   2571919611.1528959        6731814.5150598288        783659877.45485818     
   2441169498.9547606        8239625.9473956823        774304424.31994760     
   2310816801.6272802        11072153.615247369        768237543.67905521     
   2180861519.1704435        15229397.518578172        765459235.53218210     
   2051303651.5842638        20711357.657432199        765969499.87933803     
   2333021073.7023540        10027948.915364981        896883478.99539411     
   2211552910.7016282        12296617.059030890        889069222.66707170     
   2090347636.9720340        15441582.773128629        884930772.44781661     
   1969405252.5135734        19462846.057673454        884468128.33762348     
   1848725757.3262477        24360406.912659764        887681290.33649564     
   2096872257.9176209        14148999.815413713        1009407196.8608091     
   1985792425.8715689        17510439.197583675        1002977190.8063109     
   1874840957.4971294        21299757.485122323        1000610224.4759235     
   1764017852.7943044        25516954.678044200        1002306297.8696361     
   1653323111.7630918        30162030.776345491        1008065410.9874554     
   1863473163.7986984        19094967.215205550        1121231031.0511167     
   1763888044.4645832        23881092.363065362        1116028328.7376688     
   1664296763.2025607        28646677.751216769        1115275899.7633703     
   1564699320.0126340        33391723.379702687        1118973744.1282201     
   1465095714.8948002        38116229.248497069        1127121861.8322194     
   2261056794.5371408        19214883.010656238        642930039.61597598     
   2119588721.6597147        24205047.398194671        628592439.49363554     
   1977478832.3775387        27055823.769900560        617659465.04401946     
   1834727126.6905980        27767212.125734925        610131116.26713085     
   1691333604.5989144        26339212.465738177        606007393.16296268     
   2051303651.5842638        20711357.657432199        765969499.87933803     
   1918550869.6551397        25206748.218491077        753530711.27631748     
   1785382148.4982870        28315674.687116861        744505545.53614676     
   1651797488.1137197        30038137.063352346        738894002.65883124     
   1517796888.5014119        30374135.347137034        736696082.64436817     
   1848725757.3262477        24360406.912659764        887681290.33649564     
   1724713972.6029401        28368735.524492025        877404836.62599409     
   1600512125.8289340        31743523.967335403        870551002.96847165     
   1476120217.0042291        34484772.241179287        867119789.36393487     
   1351538246.1288238        36592480.346013427        867111195.81237245     
   1653323111.7630918        30162030.776345491        1008065410.9874554     
   1538078030.5031097        33691009.316201091        1000214815.5426676     
   1422868764.3694656        37339371.610513031        995795837.34099376     
   1307695313.3621426        41107117.659224212        994808476.38241851     
   1192557677.4811459        44994247.462368011        997252732.66696656     
   1465095714.8948002        38116229.248497069        1127121861.8322194     
   1358643043.3556602        41173569.593637824        1121960648.0263433     
   1252452064.1198761        45103217.616639376        1120240048.6537018     
   1146522777.1874521        49905173.317505836        1121960063.7143099     
   1040855182.5583724        55579436.696187198        1127120693.2081501     
   1691333604.5989144        26339212.465738177        606007393.16296268     
   1550685032.9044249        26621320.563127637        592526805.22832942     
   1411262863.9695835        30991437.859344184        577824882.68912590     
   1273067097.7943845        39449564.354358137        561901625.54536450     
   1136097734.3788300        51995700.048197269        544757033.79703689     
   1517796888.5014119        30374135.347137034        736696082.64436817     
   1375502495.1199353        28094351.404138386        727555688.64748633     
   1233539880.0237360        26920495.078745067        718961818.42833221     
   1091909043.2128253        26852566.370970011        710914471.98692703     
   950609984.68719757        27890565.280812800        703413649.32325733     
   1351538246.1288238        36592480.346013427        867111195.81237245     
   1212649055.0097921        33266111.547433078        861267267.19981027     
   1073197017.7016841        28063588.785277247        857737720.74729788     
   933182134.20450747        20984912.059547484        856522556.45482481     
   792604404.51825345        12030081.370234758        857621774.32240176     
   1192557677.4811459        44994247.462368011        997252732.66696656     
   1062124712.5740070        42136600.993045270        993661540.88531828     
   930234277.00343442        34420718.978960454        994152589.64601648     
   796886370.76943469        21846601.420111865        998725878.94906688     
   662080993.87199676        4414248.3164763153        1007381408.7944708     
   1040855182.5583724        55579436.696187198        1127120693.2081501     
   923929467.81257045        54705819.740961969        1124738509.7039955     
   804651657.92897546        45991885.659762591        1128206425.1244855     
   683021752.90759778        29437634.452622503        1137524439.4696412     
   559039752.74842834        5043066.1195044219        1152692552.7394528     
   1136097734.3788300        51995700.048197269        544757033.79703689     
   951338438.57242560        40642391.289791644        562917631.68040586     
   759047818.20309722        4184667.3216510415        592017012.66487360     
   559225873.27086043       -57377471.856193453        632055176.75043154     
   351872603.77569705       -144044026.24378708        683032123.93709099     
   950609984.68719757        27890565.280812800        703413649.32325733     
   791516570.33088660        10979693.887790680        721329946.78478014     
   623776720.40117562       -34752629.416584015        749332961.33019102     
   447390434.89804828       -109306404.63234779        787422692.95949793     
   262357713.82151425       -212681631.75945619        835599141.67269802     
   792604404.51825345        12030081.370234758        857621774.32240176     
   656742397.27718413       -11168694.957862705        873992808.51649857     
   511118843.45221514       -66905959.898950666        899598493.77728927     
   355733743.04334021       -155181713.45305762        934438830.10476577     
   190587096.05057380       -275995955.62014598        978513817.49893999     
   662080993.87199676        4414248.3164763153        1007381408.7944708     
   547015919.41129601       -25802775.247166783        1020906216.8755714     
   421074187.35621077       -92275324.125430465        1042813610.0061587     
   284255797.70672768       -195003398.31834540        1073103588.1862372     
   136560750.46286580       -333986997.82585597        1111776151.4158075     
   559039752.74842834        5043066.1195044219        1152692552.7394528     
   462337136.73324239       -32922546.980120480        1162070171.8619883     
   353642752.11317652       -110860722.09600592        1178978310.0168140     
   232956598.88822722       -228771459.22817802        1203416967.2039275     
   100278677.05839509       -386654758.37661481        1235386143.4233260     
   351872603.77569705       -144044026.24378708        683032123.93709099     
   277828415.06402242       -285219100.55706811        786367390.43652642     
   149007038.28183898       -608984801.77204525        905509066.25278020     
  -34591526.570865154       -1115341129.8887556        1040457151.3858702     
  -272967279.49409759       -1804288084.9072211        1191211645.8357837     
   262357713.82151425       -212681631.75945619        835599141.67269802     
   223631226.41518167       -352363031.75782835        884994871.58786905     
   140673344.05105326       -639482414.94887865        945406960.65611744     
   13484066.729129314       -1074039781.3325734        1016835408.8774322     
  -157936605.55059803       -1656035130.9089351        1099280216.2518334     
   190587096.05057380       -275995955.62014598        978513817.49893999     
   173492452.33886215       -418289438.58683896        986273436.12801993     
   122712206.78205988       -672868261.03716755        1000259363.7464254     
   38246359.380186915       -1039732422.9710757        1020471600.3541546     
  -79905089.866762400       -1518881924.3885612        1046910145.9511991     
   136560750.46286580       -333986997.82585597        1111776151.4158075     
   127412092.83504891       -482998321.04411435        1090203084.0569849     
   95123626.474863529       -709142340.03693402        1070066275.5237299     
   39695351.382330477       -1012419054.8042436        1051365725.8160295     
  -38872732.442550123       -1392828465.3460615        1034101434.9339253     
   100278677.05839509       -386654758.37661481        1235386143.4233260     
   85390147.903763801       -546489679.12960470        1196783815.3747571     
   57907603.129469067       -748304651.94814479        1154827695.9880054     
   17831042.735554695       -992099676.83208382        1109517785.2630861     
  -34839533.277992606       -1277874753.7814715        1060854083.1999648     
   3045355547.7104354       -15285983.724973679        911744319.05063617     
   2945135226.2042937       -6628523.7774262428        968968311.42953420     
   2844078961.2525964       -757541.98174822330        1015243953.6697456     
   2742186752.8553352        2326961.6620573997        1050571245.7712580     
   2639458601.0125155        2624987.1539974213        1074950187.7340860     
   2833753982.7322459        53089551.194360971        1121514146.1629441     
   2710470990.7636461        43480978.350805879        1141258606.6301079     
   2587024692.5317717        33328051.296342850        1158426139.8320217     
   2463415088.0366278        22630770.030981779        1173016745.7686782     
   2339642177.2782154        11389134.554719090        1185030424.4400718     
   2504774281.5113173        86251645.240877151        1326527281.7192845     
   2382346970.1472039        65552544.926302195        1309576953.6540635     
   2260428989.7021098        46551214.341790676        1298421121.1970155     
   2139020340.1760323        29247653.487340212        1293059784.3481445     
   2018121021.5689745        13641862.362951875        1293492943.1074517     
   2058416444.0476375        84200298.414566278        1526783725.7196641     
   1960763164.3549666        59586175.949058771        1473923352.5013866     
   1864291852.7636030        38911947.154577851        1435228897.7647212     
   1769002509.2735481        22177612.031129956        1410700361.5096638     
   1674895133.8848038        9383170.5787090063        1400337743.7362154     
   1494680470.3412158        46935510.715432882        1722283478.1640790     
   1445719573.3869367        25581871.419079185        1634297803.1720893     
   1398613281.7162585        10410249.734722018        1568849469.5351403     
   1353361595.3291776        1420645.6623567343        1525938477.2532349     
   1309964514.2256939       -1386940.7980155349        1505564826.3263726     
   2639458601.0125155        2624987.1539974213        1074950187.7340860     
   2543720862.4162979        3778284.5993688107        1081898951.0380487     
   2448000263.7356148        4988715.0965113640        1091038961.0539093     
   2352296804.9704614        6256278.6454224586        1102370217.7816637     
   2256610486.1208396        7580975.2461054325        1115892721.2213104     
   2339642177.2782154        11389134.554719090        1185030424.4400718     
   2250626701.9910626        10492811.140409589        1185087018.5686314     
   2161720520.7170186        9960801.1031267643        1188596327.1906602     
   2072923633.4560850        9793104.4428763390        1195558350.3061485     
   1984236040.2082562        9989721.1596375704        1205973087.9151075     
   2018121021.5689745        13641862.362951875        1293492943.1074517     
   1939432003.2525198        11777176.187462568        1286764881.1744459     
   1860944433.0467463        10583983.714242339        1284751001.5164776     
   1782658310.9516582        10062284.943305254        1287451304.1335416     
   1704573636.9672508        10212079.874641299        1294865789.0256422     
   1674895133.8848038        9383170.5787090063        1400337743.7362154     
   1610136766.2006702        7631379.7405179143        1386932538.8554854     
   1545672000.7247994        6858262.9298606515        1379502984.0313613     
   1481500837.4571834        7063820.1467246413        1378049079.2638404     
   1417623276.3978269        8248051.3911187649        1382570824.5529273     
   1309964514.2256939       -1386940.7980155349        1505564826.3263726     
   1262740990.8355167       -1944578.2004095912        1485589991.6117558     
   1215903223.7511663       -1216361.2500493526        1472852274.7353117     
   1169451212.9726601        797710.05312895775        1467351675.6970468     
   1123384958.4999828        4097635.7090700269        1469088194.4969549     
   2256610486.1208396        7580975.2461054325        1115892721.2213104     
   2157755691.6845179        8557927.0524230003        1112013459.0458853     
   2059281206.4853828        10802576.316034555        1111610089.9590383     
   1961187030.5234432        14314923.036962032        1114682613.9607861     
   1863473163.7986984        19094967.215205550        1121231031.0511167     
   1984236040.2082562        9989721.1596375704        1205973087.9151075     
   1895055569.3263328        10620450.648339629        1200209919.1509035     
   1806149524.9118397        12165935.028481245        1198492542.1055665     
   1717517906.9647908        14626174.300092340        1200820956.7790892     
   1629160715.4851732        18001168.463156044        1207195163.1714756     
   1704573636.9672508        10212079.874641299        1294865789.0256422     
   1626695771.4405167        10985071.585969567        1287095183.7746172     
   1548986449.6114607        12319875.622886717        1283940268.8727314     
   1471445671.4800849        14216491.985409796        1285401044.3199821     
   1394073437.0463884        16674920.673525393        1291477510.1163764     
   1417623276.3978269        8248051.3911187649        1382570824.5529273     
   1352676298.0270724        9651789.8653064370        1372669252.9170294     
   1287791980.5842416        11264398.099237084        1367953270.2605429     
   1222970324.0693295        13085876.092894197        1368422876.5834730     
   1158211328.4823439        15116223.846315145        1374078071.8858218     
   1123384958.4999828        4097635.7090700269        1469088194.4969549     
   1072997149.0860018        6620605.4863652587        1456932126.5781326     
   1022566117.8301829        8999502.4575347900        1450531546.2689974     
   972091864.73253155        11234326.622598112        1449886453.5695608     
   921574389.79304385        13325077.981534898        1454996848.4798126     
   1863473163.7986984        19094967.215205550        1121231031.0511167     
   1763888044.4645832        23881092.363065362        1116028328.7376688     
   1664296763.2025607        28646677.751216769        1115275899.7633703     
   1564699320.0126340        33391723.379702687        1118973744.1282201     
   1465095714.8948002        38116229.248497069        1127121861.8322194     
   1629160715.4851732        18001168.463156044        1207195163.1714756     
   1541000434.6406071        21965886.203815401        1201800363.1413949     
   1452915606.7047081        26182113.640030444        1200933182.6273229     
   1364906231.6774681        30649850.771780014        1204593621.6292584     
   1276972309.5588980        35369097.599093556        1212781680.1472044     
   1394073437.0463884        16674920.673525393        1291477510.1163764     
   1317558983.7681196        19884527.730018795        1285985829.6789932     
   1241201598.2350903        23617693.937307835        1285099114.9344778     
   1165001280.4472921        27874419.295364261        1288817365.8828390     
   1088958030.4047275        32654703.804209590        1297140582.5240698     
   1158211328.4823439        15116223.846315145        1374078071.8858218     
   1093563691.8471267        17637016.941683888        1368584728.3504679     
   1029154737.7937144        20953418.643061221        1367773696.6848440     
   964984466.32210195        25065428.950449228        1371644976.8889582     
   901052877.43229532        29973047.863847017        1380198568.9628074     
   921574389.79304385        13325077.981534898        1454996848.4798126     
   869014558.87761509        15223353.838766754        1449597059.1558161     
   816775025.38057303        18189287.757281512        1448956927.8784220     
   764855789.30189395        22222879.737008095        1453076454.6476207     
   713256850.64159703        27324129.778011352        1461955639.4634159     
   1465095714.8948002        38116229.248497069        1127121861.8322194     
   1358643043.3556602        41173569.593637824        1121960648.0263433     
   1252452064.1198761        45103217.616639376        1120240048.6537018     
   1146522777.1874521        49905173.317505836        1121960063.7143099     
   1040855182.5583724        55579436.696187198        1127120693.2081501     
   1276972309.5588980        35369097.599093556        1212781680.1472044     
   1180082562.3547242        37645892.642936051        1208188756.3599753     
   1083278436.3576369        40208091.710395098        1207691439.6205564     
   986559931.56763411        43055694.801468253        1211289729.9289362     
   889927047.98471928        46188701.916181564        1218983627.2851226     
   1088958030.4047275        32654703.804209590        1297140582.5240698     
   1003502615.0057085        34712375.787797213        1292910532.4765122     
   917956749.71750569        36468548.140770793        1293431082.0913198     
   832320434.54012322        37923220.863146275        1298702231.3685043     
   746593669.47355998        39076393.954920739        1308723980.3080535     
   901052877.43229532        29973047.863847017        1380198568.9628074     
   828903201.30861795        32373019.028239161        1376125976.3759365     
   756487004.19948995        33884586.907787353        1377458976.0659993     
   683804286.10491395        34507751.502509803        1384197568.0330050     
   610855047.02488494        34242512.812396884        1396341752.2769434     
   713256850.64159703        27324129.778011352        1461955639.4634159     
   656284321.26345158        30627822.364251703        1457835088.0582542     
   598869199.80358589        32456208.011430800        1459775121.5445960     
   541011486.26200199        32809286.719547451        1467775739.9224417     
   482711180.63871288        31687058.488643944        1481836943.1917918     
   1040855182.5583724        55579436.696187198        1127120693.2081501     
   923929467.81257045        54705819.740961969        1124738509.7039955     
   804651657.92897546        45991885.659762591        1128206425.1244855     
   683021752.90759778        29437634.452622503        1137524439.4696412     
   559039752.74842834        5043066.1195044219        1152692552.7394528     
   889927047.98471928        46188701.916181564        1218983627.2851226     
   787912765.17836285        44344680.809974462        1216541333.1734829     
   683595756.68982089        34824907.429835439        1219943211.8177588     
   576976022.51911271        17629381.775803536        1229189263.2179410     
   468053562.66623926       -7241896.1521209180        1244279487.3740413     
   746593669.47355998        39076393.954920739        1308723980.3080535     
   659473886.69593275        36256889.124500245        1306279173.2871633     
   570100747.69175148        25926196.872226357        1309672612.8534327     
   478474252.46101880        8084317.1981150806        1318904299.0068672     
   384594401.00373149       -17268749.897845149        1333974231.7474658     
   610855047.02488494        34242512.812396884        1396341752.2769434     
   538612832.36530066        30442444.684582025        1393952030.0450089     
   464166630.93476915        19295753.986947134        1397394628.2314959     
   387516442.73330265        802440.71952672303        1406669546.8364015     
   308662267.76089972       -25037495.117681593        1421776785.8597245     
   482711180.63871288        31687058.488643944        1481836943.1917918     
   425329602.18645418        26901347.490186229        1479559903.4470415     
   365793406.41887355        14933578.773988932        1483109257.9519615     
   304102593.33597583       -4216247.6599360853        1492485006.7065582     
   240257162.93776062       -30548131.811583579        1507687149.7108252     
   559039752.74842834        5043066.1195044219        1152692552.7394528     
   462337136.73324239       -32922546.980120480        1162070171.8619883     
   353642752.11317652       -110860722.09600592        1178978310.0168140     
   232956598.88822722       -228771459.22817802        1203416967.2039275     
   100278677.05839509       -386654758.37661481        1235386143.4233260     
   468053562.66623926       -7241896.1521209180        1244279487.3740413     
   390462831.95886016       -41596508.938952446        1242780540.9414315     
   302724593.78912497       -109776146.60030690        1247619217.9488165     
   204838848.15701783       -211780809.13623446        1258795518.3962033     
   96805595.062557533       -347610496.54667002        1276309442.2835810     
   384594401.00373149       -17268749.897845149        1333974231.7474658     
   322707282.48333645       -49034844.308123469        1323750357.7593091     
   252516917.64309686       -108478426.45121416        1318671211.6188622     
   174023306.48301953       -195599496.32710761        1318736793.3261218     
   87226449.003085166       -310398053.93584555        1323947102.8810937     
   308662267.76089972       -25037495.117681593        1421776785.8597245     
   259070488.30666825       -55237553.087632880        1404979622.3156259     
   203019723.67509842       -106967561.64870916        1392134291.0269527     
   140509973.86621052       -180227520.80084735        1383240791.9936931     
   71541238.879983723       -275017430.54411483        1378299125.2158561     
   240257162.93776062       -30548131.811583579        1507687149.7108252     
   199552449.42885587       -60204635.277482197        1486468334.6103895     
   154233011.88513109       -105243552.19278654        1468008456.1730878     
   104298850.30660948       -165664882.55741093        1452307514.3989093     
   49749964.693265736       -241468626.37144250        1439365509.2878606     
   100278677.05839509       -386654758.37661481        1235386143.4233260     
   85390147.903763801       -546489679.12960470        1196783815.3747571     
   57907603.129469067       -748304651.94814479        1154827695.9880054     
   17831042.735554695       -992099676.83208382        1109517785.2630861     
  -34839533.277992606       -1277874753.7814715        1060854083.1999648     
   96805595.062557533       -347610496.54667002        1276309442.2835810     
   79848700.892369986       -488774866.80117965        1221986222.3592823     
   51506836.917726606       -667889136.40386426        1165117155.1846097     
   11780003.138644159       -884953305.35470271        1105702240.7595994     
  -39331800.444895148       -1139967373.6537056        1043741479.0842113     
   87226449.003085166       -310398053.93584555        1323947102.8810937     
   70509601.496852130       -432199350.18796515        1255313544.5320938     
   43616830.001351833       -587920393.07097423        1184942083.0205612     
   6548134.5165881515       -777561182.58485568        1112832718.3464954     
  -40696484.957451165       -1001121718.7296629        1038985450.5098815     
   71541238.879983723       -275017430.54411483        1378299125.2158561     
   57372849.717198342       -376763129.28999811        1296765781.8932102     
   34237582.380337447       -508398421.94946897        1214302479.4958487     
   2135436.8693847358       -669923308.52257764        1130909218.0237753     
  -38933586.815647870       -861337789.00929213        1046585997.4769906     
   49749964.693265736       -241468626.37144250        1439365509.2878606     
   40438445.553415433       -322466204.10726988        1346342934.4426117     
   23369094.054686040       -429323223.03935820        1253198344.6104741     
  -1458089.8029512465       -562039683.16781032        1159931739.7914519     
  -34043106.019499123       -720615584.49263096        1066543119.9855336     
   1494680470.3412158        46935510.715432882        1722283478.1640790     
   1445719573.3869367        25581871.419079185        1634297803.1720893     
   1398613281.7162585        10410249.734722018        1568849469.5351403     
   1353361595.3291776        1420645.6623567343        1525938477.2532349     
   1309964514.2256939       -1386940.7980155349        1505564826.3263726     
   923119516.51408851       -35226760.204391062        1594073444.4884918     
   927610315.28783846       -33738557.339143276        1548507034.4770286     
   933006112.98965490       -29233691.380348384        1516248777.7870955     
   939306909.61953747       -21712162.327994525        1497298674.4186950     
   946512705.17748535       -11173970.182094753        1491656724.3718305     
   481341676.61213171       -78454096.946658880        1469035168.4087057     
   512915062.44673836       -62034784.519968688        1464780149.2963111     
   544443840.85387969       -45764163.518164486        1464604095.4719386     
   575928011.83355355       -29642233.941250384        1468507006.9355919     
   607367575.38576090       -13668995.789225459        1476488883.6872652     
   169346950.63534588       -82746499.511377022        1347168649.9247203     
   201633814.86363742       -59306810.123389810        1383117147.6299405     
   232926465.30893242       -39181166.678731769        1413915422.5896769     
   263224901.97122633       -22369569.177408502        1439563474.8039238     
   292529124.85052228       -8872017.6194104105        1460061304.2726858     
  -12864661.416272765       -48103967.898546673        1228473889.0365336     
  -6233427.4614664316       -25554634.149418470        1303518029.4779172     
  -1546013.6451887593       -9484700.8620545603        1364182759.1403029     
   1197580.0325562002        105831.96353468264        1410468078.0236933     
   1997353.5717679672        3216964.3273466174        1442373986.1280859     
   1309964514.2256939       -1386940.7980155349        1505564826.3263726     
   1262740990.8355167       -1944578.2004095912        1485589991.6117558     
   1215903223.7511663       -1216361.2500493526        1472852274.7353117     
   1169451212.9726601        797710.05312895775        1467351675.6970468     
   1123384958.4999828        4097635.7090700269        1469088194.4969549     
   946512705.17748535       -11173970.182094753        1491656724.3718305     
   916871845.37447798       -9891690.4352146387        1479891053.6644194     
   887511536.67148566       -7674240.3549505472        1473988794.6899014     
   858431779.06851375       -4521619.9412854314        1473949947.4482737     
   829632572.56555653       -433829.19424080849        1479774511.9395401     
   607367575.38576090       -13668995.789225459        1476488883.6872652     
   591384504.58340085       -11724261.269023687        1472809637.5802760     
   575576779.67523909       -9195040.4348285496        1473620097.1008949     
   559944400.66127777       -6081333.2866301835        1478920262.2491233     
   544487367.54151404       -2383139.8244414032        1488710133.0249617     
   292529124.85052228       -8872017.6194104105        1460061304.2726858     
   286278968.46228451       -7442290.7018449306        1464345743.3593302     
   280098952.76242769       -5778761.4896758497        1471746181.9682994     
   273989077.75095272       -3881429.9828999192        1482262620.0995920     
   267949343.42785814       -1750296.1815235615        1495895057.7532117     
   1997353.5717679672        3216964.3273466174        1442373986.1280859     
   1555237.0111270717        2954221.2663181475        1454499371.0015767     
   1078055.9330514972        2574596.4805074148        1468367049.2921076     
   565810.33753685129        2078089.9698997769        1483977020.9996779     
   18500.224586428259        1464701.7345062159        1501329286.1242933     
   1123384958.4999828        4097635.7090700269        1469088194.4969549     
   1072997149.0860018        6620605.4863652587        1456932126.5781326     
   1022566117.8301829        8999502.4575347900        1450531546.2689974     
   972091864.73253155        11234326.622598112        1449886453.5695608     
   921574389.79304385        13325077.981534898        1454996848.4798126     
   829632572.56555653       -433829.19424080849        1479774511.9395401     
   793617181.27708387        1896124.4289882779        1470393271.9046924     
   757589602.61067855        4185453.4591133296        1466356792.6999421     
   721549836.56634521        6434157.8961417079        1467665074.3252940     
   685497883.14408100        8642237.7400683463        1474318116.7807395     
   544487367.54151404       -2383139.8244414032        1488710133.0249617     
   521670889.29399616       -598253.88064473867        1482139927.7486436     
   498873258.13245380        1249455.6830695271        1480503756.5228317     
   476094474.05688775        3159988.8667040467        1483801619.3475251     
   453334537.06729430        5133345.6702480018        1492033516.2227242     
   267949343.42785814       -1750296.1815235615        1495895057.7532117     
   257158273.13674313       -862529.44252645969        1492172094.1099813     
   246417084.39551368        191509.12942427397        1492972437.7376626     
   235725777.20415866        1411819.5342881829        1498296088.6362562     
   225084351.56268421        2798401.7720873058        1508143046.8057585     
   18500.224586428259        1464701.7345062159        1501329286.1242933     
   79332.805323918408        1103297.7433452809        1500489770.9887037     
   221081.39984842017        1011613.7981431335        1503762836.3444364     
   443746.00815725728        1189649.8988877293        1511148482.1914861     
   747326.63024912565        1637406.0455757631        1522646708.5298567     
   921574389.79304385        13325077.981534898        1454996848.4798126     
   869014558.87761509        15223353.838766754        1449597059.1558161     
   816775025.38057303        18189287.757281512        1448956927.8784220     
   764855789.30189395        22222879.737008095        1453076454.6476207     
   713256850.64159703        27324129.778011352        1461955639.4634159     
   685497883.14408100        8642237.7400683463        1474318116.7807395     
   645354170.54123044        9931666.3166807890        1470686705.4532473     
   605426300.14283013        11940568.908131570        1471986999.5382011     
   565714271.94886446        14668945.514364570        1478218999.0356042     
   526218085.95934474        18116796.135415882        1489382703.9454620     
   453334537.06729430        5133345.6702480018        1492033516.2227242     
   426098506.67946517        5961396.1369940490        1490048618.4754734     
   398973863.28214407        7160736.5720986724        1493167473.5065274     
   371960606.87533081        8731366.9755631089        1501390081.3158834     
   345058737.45902926        10673287.347398132        1514716441.9035490     
   225084351.56268421        2798401.7720873058        1508143046.8057585     
   211247567.29231372        3312543.2996814176        1507682798.2224956     
   197417714.79851645        3849790.7491866276        1512498349.7833910     
   183594794.08129844        4410144.1206220537        1522589701.4884484     
   169778805.14065236        4993603.4139636010        1537956853.3376594     
   747326.63024912565        1637406.0455757631        1522646708.5298567     
   801352.37977845408        1985107.8047536523        1523589244.6943245     
   757854.69194500474        2007731.4393889494        1529979628.3688040     
   616833.56675795082        1705276.9495129248        1541817859.5533025     
   378289.00421338051        1077744.3351104578        1559103938.2478120     
   713256850.64159703        27324129.778011352        1461955639.4634159     
   656284321.26345158        30627822.364251703        1457835088.0582542     
   598869199.80358589        32456208.011430800        1459775121.5445960     
   541011486.26200199        32809286.719547451        1467775739.9224417     
   482711180.63871288        31687058.488643944        1481836943.1917918     
   526218085.95934474        18116796.135415882        1489382703.9454620     
   484475590.76884484        20743640.524957508        1486754497.8668742     
   442420255.48079044        22327684.589318708        1489937313.5480552     
   400052080.09518737        22868928.328519985        1498931150.9890025     
   357371064.61202872        22367371.742532998        1513736010.1897197     
   345058737.45902926        10673287.347398132        1514716441.9035490     
   317833238.93693143        12409372.284457967        1513731958.4663877     
   290424652.30145025        13535163.510236576        1518308933.6572630     
   262832977.55257866        14050661.024717674        1528447367.4761758     
   235058214.69032565        13955864.827923074        1544147259.9231205     
   169778805.14065236        4993603.4139636010        1537956853.3376594     
   156357265.76771778        5625017.6427716836        1538767469.8567922     
   142882390.26557130        6078644.7742061168        1544889981.8722248     
   129354178.63419162        6354484.8081968278        1556324389.3839619     
   115772630.87359837        6452537.7448092215        1573070692.3919952     
   378289.00421338051        1077744.3351104578        1559103938.2478120     
   47671.261203731468        390576.59990194213        1561861032.0380929     
  -206530.62685641987       -41871.618808941916        1569680458.1929407     
  -384316.65998070739       -219600.32106625254        1582562216.7123590     
  -485686.83815330116       -142609.50681861141        1600506307.5963414     
   482711180.63871288        31687058.488643944        1481836943.1917918     
   425329602.18645418        26901347.490186229        1479559903.4470415     
   365793406.41887355        14933578.773988932        1483109257.9519615     
   304102593.33597583       -4216247.6599360853        1492485006.7065582     
   240257162.93776062       -30548131.811583579        1507687149.7108252     
   357371064.61202872        22367371.742532998        1513736010.1897197     
   315313103.77560598        19116781.807988718        1510205107.5783691     
   271632191.99766153        10456355.401706725        1512280950.1763151     
   226328329.27820796       -3613907.4762759358        1519963537.9835584     
   179401515.61722687       -23094006.826011375        1533252871.0000942     
   235058214.69032565        13955864.827923074        1544147259.9231205     
   207696302.78294915        12052125.351255290        1539982771.8812711     
   179243106.30785564        6510770.6488654986        1541205380.0083373     
   149698625.26504105       -2668199.2792623192        1547815084.3043296     
   119062859.65451664       -15484784.433088750        1559811884.7692361     
   115772630.87359837        6452537.7448092215        1573070692.3919952     
   102479199.20847771        5707378.1199741513        1568892896.3557494     
   88626149.349444240        3096824.5154297128        1569882547.4480405     
   74213481.296492249       -1379123.0688431859        1576039645.6688826     
   59241195.049629800       -7720464.6328174621        1587364191.0182652     
  -485686.83815330116       -142609.50681861141        1600506307.5963414     
  -338206.94780593284        82540.114146018343        1596935481.0017984     
  -218678.87757004553        214517.00140640538        1598312452.4954193     
  -127102.62745154108        253321.15494079510        1604637222.0772152     
  -63478.197436190909        198952.57480008554        1615909789.7471735     
   240257162.93776062       -30548131.811583579        1507687149.7108252     
   199552449.42885587       -60204635.277482197        1486468334.6103895     
   154233011.88513109       -105243552.19278654        1468008456.1730878     
   104298850.30660948       -165664882.55741093        1452307514.3989093     
   49749964.693265736       -241468626.37144250        1439365509.2878606     
   179401515.61722687       -23094006.826011375        1533252871.0000942     
   148224237.14108771       -45554943.096408941        1507581275.7783670     
   113589229.95189050       -79541641.743663803        1484819024.5659111     
   75496494.049630970       -125054102.76779184        1464966117.3627174     
   33946029.434307091       -182092326.16880655        1448022554.1687880     
   119062859.65451664       -15484784.433088750        1559811884.7692361     
   97842751.485817835       -30621232.925581165        1531037337.3016045     
   74321909.925816715       -53426792.722411849        1505322541.1893747     
   48500334.974501267       -83901463.823624983        1482667496.4325442     
   20378026.631880812       -122045246.22919092        1463072203.0311244     
   59241195.049629800       -7720464.6328174621        1587364191.0182652     
   48407992.463053934       -15403504.764977474        1556836519.1800988     
   36431051.806921244       -26899005.128995989        1529519006.0434690     
   23310373.081231758       -42206965.724869981        1505411651.6083817     
   9045956.2859795466       -61327386.552621111        1484514455.8748312     
  -63478.197436190909        198952.57480008554        1615909789.7471735     
  -80039.927223414648        98241.385335553583        1584978821.4138508     
  -83344.404801751793        41721.036566616393        1557408419.1282024     
  -73391.630196319617        29391.528409549730        1533198582.8902321     
  -50181.603395268598        61252.860906627466        1512349312.6999352     
   49749964.693265736       -241468626.37144250        1439365509.2878606     
   40438445.553415433       -322466204.10726988        1346342934.4426117     
   23369094.054686040       -429323223.03935820        1253198344.6104741     
  -1458089.8029512465       -562039683.16781032        1159931739.7914519     
  -34043106.019499123       -720615584.49263096        1066543119.9855336     
   33946029.434307091       -182092326.16880655        1448022554.1687880     
   29792782.860513628       -241982177.68830428        1347532777.3268964     
   19819818.715640798       -321271087.77806932        1246261903.7035451     
   4027136.9996884167       -419959056.43810499        1144209933.2987351     
  -17585262.287366718       -538046083.66847515        1041376866.1124961     
   20378026.631880812       -122045246.22919092        1463072203.0311244     
   19499961.782527186       -161392298.78489736        1357376358.1116874     
   14740294.149917990       -213678027.28479531        1250240334.6162436     
   6099023.7340401411       -278902431.72892249        1141664132.5447922     
  -6423849.4651015848       -357065512.11725271        1031647751.8973235     
   9045956.2859795466       -61327386.552621111        1484514455.8748312     
   9559982.3194766901       -80696567.396979690        1375873676.7969837     
   8130520.3575269952       -106544041.55949597        1265133637.3485715     
   4757570.4001228958       -138869809.04019573        1152294337.5295830     
  -558867.55271882564       -177673869.83901504        1037355777.3400415     
  -50181.603395268598        61252.860906627466        1512349312.6999352     
  -27155.528661898461        105016.47537157046        1403024733.3828073     
  -9502.6615495386577        130869.39776439732        1290941811.9005411     
   2776.9979282227796        138811.62804605957        1176100548.2531481     
   9683.4497918365123        128843.16627431786        1058500942.4406296     
  -12864661.416272765       -48103967.898546673        1228473889.0365336     
  -6233427.4614664316       -25554634.149418470        1303518029.4779172     
  -1546013.6451887593       -9484700.8620545603        1364182759.1403029     
   1197580.0325562002        105831.96353468264        1410468078.0236933     
   1997353.5717679672        3216964.3273466174        1442373986.1280859     
  -183294128.57804891        33787866.218491994        1368796228.7122786     
  -208579403.91622078        33398744.415500805        1399611676.4555569     
  -234860312.53456905        29690845.011926025        1425548863.7260308     
  -262136854.43309164        22664168.007766411        1446607790.5236967     
  -290409029.61178750        12318713.403029561        1462788456.8485601     
  -488765271.99778575        75167197.458145767        1503425650.6318371     
  -518820912.89696527        59983463.222619712        1491118623.6784310     
  -548924000.21796298        44641574.247699231        1483434486.5584080     
  -579074533.96077788        29141530.533388317        1480373239.2717700     
  -609272514.12540913        13483332.079689354        1481934881.8185196     
  -929278091.67548692        76034025.820408583        1632362154.7952168     
  -936957954.40369821        54199522.271942079        1578038871.1465380     
  -943737076.69537079        35367486.845269859        1537839627.6374369     
  -949615458.55050445        19537919.540397286        1511764424.2679117     
  -954593099.96909630        6710820.3573277593        1499813261.0379629     
  -1504832587.6111505        36388351.305282772        1755605741.2024105     
  -1462990528.4364192        16046921.563468039        1660372418.8598793     
  -1419299541.9667912        1868582.8046392202        1588764286.9631169     
  -1373759628.2022674       -6146664.9711998701        1540781345.5121207     
  -1326370787.1428456       -7998821.7640456557        1516423594.5068913     
   1997353.5717679672        3216964.3273466174        1442373986.1280859     
   1555237.0111270717        2954221.2663181475        1454499371.0015767     
   1078055.9330514972        2574596.4805074148        1468367049.2921076     
   565810.33753685129        2078089.9698997769        1483977020.9996779     
   18500.224586428259        1464701.7345062159        1501329286.1242933     
  -290409029.61178750        12318713.403029561        1462788456.8485601     
  -284797512.09705597        10494615.367511749        1466348159.7442575     
  -279274153.32773203        8376654.8473017812        1473182523.5057724     
  -273838953.30382013        5964831.8423850387        1483291548.1331098     
  -268491912.02531540        3259146.3527763039        1496675233.6262660     
  -609272514.12540913        13483332.079689354        1481934881.8185196     
  -593229169.82450652        11411336.882925123        1476866959.4704547     
  -577327078.49698508        8868498.4415553212        1476606065.4369867     
  -561566240.14284885        5854816.7555687726        1481152199.7181201     
  -545946654.76209557        2370291.8249711990        1490505362.3138499     
  -954593099.96909630        6710820.3573277593        1499813261.0379629     
  -923739736.17122316        5704385.8125619292        1486055770.1801670     
  -893080719.57471061        4050127.2632604241        1478637675.0857470     
  -862616050.17955065        1748044.7094489336        1477558975.7547073     
  -832345727.98574996       -1201861.8488903046        1482819672.1870470     
  -1326370787.1428456       -7998821.7640456557        1516423594.5068913     
  -1276329211.1372089       -6626237.8435886502        1493914591.8733947     
  -1226535076.5609019       -6078458.6875642538        1479277352.4520545     
  -1176988383.4139245       -6355484.2959700227        1472511876.2428718     
  -1127689131.6962788       -7457314.6688174605        1473618163.2458477     
   18500.224586428259        1464701.7345062159        1501329286.1242933     
   79332.805323918408        1103297.7433452809        1500489770.9887037     
   221081.39984842017        1011613.7981431335        1503762836.3444364     
   443746.00815725728        1189649.8988877293        1511148482.1914861     
   747326.63024912565        1637406.0455757631        1522646708.5298567     
  -268491912.02531540        3259146.3527763039        1496675233.6262660     
  -257433878.51897269        2150983.4256725162        1492962577.5412569     
  -246364021.50184441        1082232.2011864185        1493769055.2775393     
  -235282340.97392750        52892.679328456521        1499094666.8351045     
  -224188836.93522418       -937035.13990741968        1508939412.2139606     
  -545946654.76209557        2370291.8249711990        1490505362.3138499     
  -522729839.38738102        863844.24474292994        1483838957.3592589     
  -499570293.00487334       -833499.97617527843        1482098239.5559213     
  -476468015.61458164       -2721740.8378118575        1485283208.9038417     
  -453423007.21649557       -4800878.3401383758        1493393865.4030223     
  -832345727.98574996       -1201861.8488903046        1482819672.1870470     
  -795808549.79988992       -2758119.7994018197        1473118910.4427021     
  -759397733.10923839       -4735582.7339407504        1468750389.1795838     
  -723113277.91379666       -7134250.6525119245        1469714108.3976946     
  -686955184.21356201       -9954123.5551069677        1476010068.0970330     
  -1127689131.6962788       -7457314.6688174605        1473618163.2458477     
  -1076670009.7565067       -8714908.7067872882        1460802436.7915874     
  -1025846341.8149362       -10624016.072097778        1453725504.1485283     
  -975218127.87158012       -13184636.764787972        1452387365.3166647     
  -924785367.92642331       -16396770.784810781        1456788020.2959971     
   747326.63024912565        1637406.0455757631        1522646708.5298567     
   801352.37977845408        1985107.8047536523        1523589244.6943245     
   757854.69194500474        2007731.4393889494        1529979628.3688040     
   616833.56675795082        1705276.9495129248        1541817859.5533025     
   378289.00421338051        1077744.3351104578        1559103938.2478120     
  -224188836.93522418       -937035.13990741968        1508939412.2139606     
  -210375611.05339432       -1224017.7242027968        1508187795.1509676     
  -196648695.26563078       -1798700.6220524907        1512718796.2974541     
  -183008089.57194659       -2661083.8335003778        1522532415.6534193     
  -169453793.97233108       -3811167.3585099727        1537628653.2188704     
  -453423007.21649557       -4800878.3401383758        1493393865.4030223     
  -426322664.91816187       -5864170.3826110363        1490961177.3463953     
  -399297419.37062216       -7177784.9277323633        1493645878.1987166     
  -372347270.57386595       -8741721.9754649103        1501447967.9599833     
  -345472218.52790457       -10555981.525845781        1514367446.6302018     
  -686955184.21356201       -9954123.5551069677        1476010068.0970330     
  -647039809.21453905       -11935350.170522153        1471909391.2806025     
  -607188317.62302148       -14129521.477624416        1472760874.0725923     
  -567400709.43901026       -16536637.476413578        1478564516.4729974     
  -527676984.66250646       -19156698.166893423        1489320318.4818151     
  -924785367.92642331       -16396770.784810781        1456788020.2959971     
  -872527043.94251442       -19437557.087899446        1451032436.9535992     
  -820321390.02283537       -22653910.271749973        1450063783.9190834     
  -768168406.16736948       -26045830.336313993        1453882061.1924517     
  -716068092.37613106       -29613317.281634569        1462487268.7737002     
   378289.00421338051        1077744.3351104578        1559103938.2478120     
   47671.261203731468        390576.59990194213        1561861032.0380929     
  -206530.62685641987       -41871.618808941916        1569680458.1929407     
  -384316.65998070739       -219600.32106625254        1582562216.7123590     
  -485686.83815330116       -142609.50681861141        1600506307.5963414     
  -169453793.97233108       -3811167.3585099727        1537628653.2188704     
  -156425738.46994674       -5070403.4474717900        1538475815.9532449     
  -143279250.14916176       -5934863.4750981256        1544668564.5934446     
  -130014329.00996998       -6404547.4413688183        1556206899.1394844     
  -116630975.05238546       -6479455.3463297039        1573090819.5913517     
  -345472218.52790457       -10555981.525845781        1514367446.6302018     
  -318276193.94794059       -12144497.218905210        1513353698.0993643     
  -290919719.58611906       -13198180.305769593        1517968789.0156262     
  -263402795.44244009       -13717030.786445618        1528212719.3789828     
  -235725421.51690462       -13701048.660930239        1544085489.1894379     
  -527676984.66250646       -19156698.166893423        1489320318.4818151     
  -485503695.17277819       -20831704.714395046        1486494678.4764662     
  -443127938.93773341       -21831822.110841483        1489581131.4594798     
  -400549715.95737845       -22157050.356254563        1498579677.4308558     
  -357769026.23171312       -21807389.450632557        1513490316.3905909     
  -716068092.37613106       -29613317.281634569        1462487268.7737002     
  -658108242.14445412       -31132025.933929741        1457898757.0845413     
  -599903908.20400441       -31835788.890312046        1459505591.9250088     
  -541455090.55478346       -31724606.150792241        1467307773.2951024     
  -482761789.19679868       -30798477.715391338        1481305301.1948223     
  -485686.83815330116       -142609.50681861141        1600506307.5963414     
  -338206.94780593284        82540.114146018343        1596935481.0017984     
  -218678.87757004553        214517.00140640538        1598312452.4954193     
  -127102.62745154108        253321.15494079510        1604637222.0772152     
  -63478.197436190909        198952.57480008554        1615909789.7471735     
  -116630975.05238546       -6479455.3463297039        1573090819.5913517     
  -103123887.30553700       -5527504.9010537043        1568889716.1060059     
  -89082657.730843857       -2795081.6962975077        1569849712.6934204     
  -74507286.328331366        1717814.2678554989        1575970809.3536031     
  -59397773.097978994        8011182.9914789312        1587253006.0865364     
  -235725421.51690462       -13701048.660930239        1544085489.1894379     
  -208249291.67186007       -11839467.118822694        1539909884.7358966     
  -179676926.35103160       -6323767.3241022453        1541108682.3397064     
  -150008325.55442917        2846050.7231981531        1547681882.0008667     
  -119243489.28204508        15669987.023104116        1559629483.7193823     
  -357769026.23171312       -21807389.450632557        1513490316.3905909     
  -315714420.04677796       -18853346.539167643        1509995986.8914554     
  -272001484.73812312       -10371539.881971449        1512089361.4342666     
  -226630220.30574059        3638030.5209833682        1519770440.0190206     
  -179600626.74963591        23175364.669680215        1533039222.6457131     
  -482761789.19679868       -30798477.715391338        1481305301.1948223     
  -425519272.43029451       -26569143.162102163        1479148022.5726960     
  -366056332.89212114       -14938399.369917616        1482791749.9771047     
  -304372970.58226901        4093753.6611956060        1492236483.4080477     
  -240469185.50075519        30527315.931184441        1507482222.8655245     
  -63478.197436190909        198952.57480008554        1615909789.7471735     
  -80039.927223414648        98241.385335553583        1584978821.4138508     
  -83344.404801751793        41721.036566616393        1557408419.1282024     
  -73391.630196319617        29391.528409549730        1533198582.8902321     
  -50181.603395268598        61252.860906627466        1512349312.6999352     
  -59397773.097978994        8011182.9914789312        1587253006.0865364     
  -48569023.751282260        15586161.376420312        1556751103.0092034     
  -36582654.368815601        27019873.213926744        1529459867.8874032     
  -23438664.950614985        42312318.503880024        1505379300.7211270     
  -9137055.4966467768        61463497.246392645        1484509401.5103776     
  -119243489.28204508        15669987.023104116        1559629483.7193823     
  -97997709.122143522        30792170.903489321        1530891735.8121974     
  -74449946.142933324        53587630.848234892        1505214757.7683890     
  -48600200.344406396        84056366.857371762        1482598549.5879531     
  -20448471.726565741        122198378.93088509        1463043111.2708964     
  -179600626.74963591        23175364.669680215        1533039222.6457131     
  -148366096.03982431        45716269.966490000        1507400719.8228264     
  -113685219.72713891        79744993.939547062        1484673088.7711718     
  -75557997.811589718        125261536.58881605        1464856329.4907320     
  -33984430.293158457        182265897.91435874        1447950441.9815323     
  -240469185.50075519        30527315.931184441        1507482222.8655245     
  -199674184.50431260        60358458.565461740        1486278055.0410886     
  -154288475.12145576        105491962.48778257        1467834860.8957324     
  -104312057.35214880        165927827.69827342        1452152640.4294505     
  -49744931.196414530        241666054.19685340        1439231393.6422434     
  -50181.603395268598        61252.860906627466        1512349312.6999352     
  -27155.528661898461        105016.47537157046        1403024733.3828073     
  -9502.6615495386577        130869.39776439732        1290941811.9005411     
   2776.9979282227796        138811.62804605957        1176100548.2531481     
   9683.4497918365123        128843.16627431786        1058500942.4406296     
  -9137055.4966467768        61463497.246392645        1484509401.5103776     
  -9618770.4423502423        80878156.847794697        1375864034.2622645     
  -8160207.7235032246        106760408.66436298        1265118540.0896573     
  -4761367.3400963694        139110252.69613069        1152272918.9925604     
   577750.70785602927        177927688.94305232        1037327170.9709346     
  -20448471.726565741        122198378.93088509        1463043111.2708964     
  -19554312.719480835        161548119.01116517        1357346882.1093574     
  -14774225.175657436        213850954.21390808        1250208741.2639465     
  -6108209.0951010436        279106884.53909463        1141628688.7346671     
   6443735.5221941322        357315909.98673916        1031606724.5215319     
  -33984430.293158457        182265897.91435874        1447950441.9815323     
  -29833782.360047907        242114902.96550140        1347473276.9240906     
  -19851555.018019438        321402506.04636753        1246212415.4234321     
  -4037748.2670639753        420128707.15699112        1144167857.4795306     
   17607637.892791867        538293506.29728389        1041339603.0923907     
  -49744931.196414530        241666054.19685340        1439231393.6422434     
  -40457179.364048243        322578508.71081424        1346243218.7064717     
  -23392197.250578225        429415064.16178626        1253129562.5680983     
   1450015.1439968050        562175720.54977930        1159890425.2271149     
   34069457.819659233        720860477.87472284        1066525806.6835313     
  -1504832587.6111505        36388351.305282772        1755605741.2024105     
  -1462990528.4364192        16046921.563468039        1660372418.8598793     
  -1419299541.9667912        1868582.8046392202        1588764286.9631169     
  -1373759628.2022674       -6146664.9711998701        1540781345.5121207     
  -1326370787.1428456       -7998821.7640456557        1516423594.5068913     
  -2091190368.1804326       -50954188.048020244        1509163867.3992052     
  -1993088090.4533062       -46220696.983745217        1460503418.2181156     
  -1894277983.0731027       -39127773.742542028        1425708349.5993898     
  -1794760046.0398195       -29675418.324406028        1404778661.5430264     
  -1694534279.3534551       -17863630.729335785        1397714354.0490220     
  -2534801472.8921099       -95472724.644040108        1266540270.5179691     
  -2408324147.7080421       -74029864.102314949        1263121413.9162071     
  -2282280090.5127053       -54031230.189705133        1263808127.9933968     
  -2156669301.3061109       -35476822.906232119        1268600412.7495418     
  -2031491780.0882518       -18366642.251875401        1277498268.1846411     
  -2835665901.7461920       -97167258.482782125        1027734950.5587090     
  -2708698700.2006197       -67380579.792229772        1068226405.9541481     
  -2583305864.2856059       -42841786.536863804        1103063622.1451378     
  -2459487394.0011454       -23550878.716683626        1132246599.1316712     
  -2337243289.3472371       -9507856.3316748142        1155775336.9137526     
  -2993783654.7426705       -56037789.564243197        792747907.52142000     
  -2894211747.9310517       -26272844.053514004        875818394.33194363     
  -2797355304.3917971       -5559442.7840030193        943474832.05460691     
  -2703214324.1249208        6102414.2442440987        995717220.68941140     
  -2611788807.1304126        8712727.0312719345        1032545560.2363570     
  -1326370787.1428456       -7998821.7640456557        1516423594.5068913     
  -1276329211.1372089       -6626237.8435886502        1493914591.8733947     
  -1226535076.5609019       -6078458.6875642538        1479277352.4520545     
  -1176988383.4139245       -6355484.2959700227        1472511876.2428718     
  -1127689131.6962788       -7457314.6688174605        1473618163.2458477     
  -1694534279.3534551       -17863630.729335785        1397714354.0490220     
  -1626033637.4692416       -14867845.241705537        1384880613.2711704     
  -1557778274.4689646       -12689656.033857703        1377999805.7491815     
  -1489768190.3526211       -11329063.105795562        1377071931.4830558     
  -1422003385.1202178       -10786066.457524061        1382096990.4727867     
  -2031491780.0882518       -18366642.251875401        1277498268.1846411     
  -1950014443.6291680       -15392366.588188648        1274342312.2320669     
  -1868780223.5086262       -13228478.719637513        1275220459.5790575     
  -1787789119.7266240       -11874978.646219611        1280132710.2256112     
  -1707041132.2831597       -11331866.367929935        1289079064.1717346     
  -2337243289.3472371       -9507856.3316748142        1155775336.9137526     
  -2248271629.6169882       -8199801.8830443621        1162299688.7560825     
  -2159540923.6798811       -7694926.7448868752        1170939313.9416788     
  -2071051171.5359232       -7993230.9172276258        1181694212.4705455     
  -1982802373.1851046       -9094714.4000376463        1194564384.3426788     
  -2611788807.1304126        8712727.0312719345        1032545560.2363570     
  -2520805195.4326992        6709848.8737411499        1048752742.8432183     
  -2430060374.9827361        3910999.8903710842        1065156368.8370498     
  -2339554345.7805238        316180.08117020130        1081756438.2178552     
  -2249287107.8260574       -4074610.5538510084        1098552950.9856291     
  -1127689131.6962788       -7457314.6688174605        1473618163.2458477     
  -1076670009.7565067       -8714908.7067872882        1460802436.7915874     
  -1025846341.8149362       -10624016.072097778        1453725504.1485283     
  -975218127.87158012       -13184636.764787972        1452387365.3166647     
  -924785367.92642331       -16396770.784810781        1456788020.2959971     
  -1422003385.1202178       -10786066.457524061        1382096990.4727867     
  -1356734666.3793628       -11618506.895351171        1372008865.6008956     
  -1291633818.9558716       -13010518.391059637        1367045062.8570724     
  -1226700842.8497412       -14962100.944639742        1367205582.2413104     
  -1161935738.0609796       -17473254.556114495        1372490423.7536156     
  -1707041132.2831597       -11331866.367929935        1289079064.1717346     
  -1629278450.1215971       -12265843.219724178        1281750720.6765223     
  -1551656056.5965557       -13667448.859925330        1278932227.6262479     
  -1474173951.7080374       -15536683.288541734        1280623585.0209053     
  -1396832135.4560418       -17873546.505555093        1286824792.8604970     
  -1982802373.1851046       -9094714.4000376463        1194564384.3426788     
  -1894301360.9832087       -10656917.679909229        1190028002.0184669     
  -1805913054.7369945       -12594807.478722930        1189386998.4560587     
  -1717637454.4464614       -14908383.796470523        1192641373.6554532     
  -1629474560.1116042       -17597646.633146405        1199791127.6166480     
  -2249287107.8260574       -4074610.5538510084        1098552950.9856291     
  -2151803398.9642067       -6791730.2759201527        1096840709.6267314     
  -2054404813.3771944       -9792594.2474588156        1098409375.3465040     
  -1957091351.0650210       -13077202.468456626        1103258948.1449482     
  -1859863012.0276830       -16645554.938902736        1111389428.0220611     
  -924785367.92642331       -16396770.784810781        1456788020.2959971     
  -872527043.94251442       -19437557.087899446        1451032436.9535992     
  -820321390.02283537       -22653910.271749973        1450063783.9190834     
  -768168406.16736948       -26045830.336313993        1453882061.1924517     
  -716068092.37613106       -29613317.281634569        1462487268.7737002     
  -1161935738.0609796       -17473254.556114495        1372490423.7536156     
  -1097326540.1536107       -20460709.901908219        1367382980.1263728     
  -1032832677.3046427       -23832615.442375243        1366976971.2960753     
  -968454149.51407373       -27588971.177505672        1371272397.2627242     
  -904190956.78190649       -31729777.107305467        1380269258.0263128     
  -1396832135.4560418       -17873546.505555093        1286824792.8604970     
  -1320116336.5136073       -20880952.760583699        1282292379.7885394     
  -1243578537.6237488       -24481692.524190605        1282375906.0025866     
  -1167218738.7864707       -28675765.796401918        1287075371.5026381     
  -1091036940.0017657       -33463172.577194929        1296390776.2886963     
  -1629474560.1116042       -17597646.633146405        1199791127.6166480     
  -1540896433.0225041       -20698285.663914442        1195760635.9400978     
  -1452558970.9801588       -24601141.517206907        1196260588.0386195     
  -1364462173.9845657       -29306214.192999184        1201290983.9122005     
  -1276606042.0357265       -34813503.691311419        1210851823.5608521     
  -1859863012.0276830       -16645554.938902736        1111389428.0220611     
  -1759666829.6803105       -19912708.611941218        1107787748.5810494     
  -1659773977.3738635       -24190962.421395838        1108631017.4041672     
  -1560184455.1083570       -29480316.367319822        1113919234.4914098     
  -1460898262.8837779       -35780770.449668407        1123652399.8427782     
  -716068092.37613106       -29613317.281634569        1462487268.7737002     
  -658108242.14445412       -31132025.933929741        1457898757.0845413     
  -599903908.20400441       -31835788.890312046        1459505591.9250088     
  -541455090.55478346       -31724606.150792241        1467307773.2951024     
  -482761789.19679868       -30798477.715391338        1481305301.1948223     
  -904190956.78190649       -31729777.107305467        1380269258.0263128     
  -831101837.64208734       -33132352.813124835        1375982541.4749358     
  -757837744.56363451       -33951682.056835175        1377111577.6433158     
  -684398677.54655397       -34187764.838446707        1383656366.5314522     
  -610784636.59084725       -33840601.157974839        1395616908.1393471     
  -1091036940.0017657       -33463172.577194929        1296390776.2886963     
  -1005045962.8391522       -35417838.602146029        1292324760.1432717     
  -918949521.50804329       -37020957.398791075        1292894902.9077368     
  -832747616.00844562       -38272528.967137307        1298101204.5820889     
  -746440246.34035683       -39172553.307179987        1307943665.1663234     
  -1276606042.0357265       -34813503.691311419        1210851823.5608521     
  -1179940617.7356565       -37988483.301004052        1206925413.0895519     
  -1083239239.0372338       -41043614.916185319        1206855567.7182689     
  -986501905.94046485       -43978898.536872923        1210642287.4470072     
  -889728618.44533026       -46794334.163022608        1218285572.2757545     
  -1460898262.8837779       -35780770.449668407        1123652399.8427782     
  -1355785802.3315942       -40844286.909688771        1119784500.3137755     
  -1250706897.1512017       -46019654.609011054        1118993572.0749149     
  -1145661547.3425910       -51306873.547608554        1121279615.1262054     
  -1040649752.9057758       -56705943.725520253        1126642629.4676454     
  -482761789.19679868       -30798477.715391338        1481305301.1948223     
  -425519272.43029451       -26569143.162102163        1479148022.5726960     
  -366056332.89212114       -14938399.369917616        1482791749.9771047     
  -304372970.58226901        4093753.6611956060        1492236483.4080477     
  -240469185.50075519        30527315.931184441        1507482222.8655245     
  -610784636.59084725       -33840601.157974839        1395616908.1393471     
  -538644485.56013870       -30284376.099822581        1393392179.5629501     
  -464271905.15694439       -19286719.800057143        1396981496.5852108     
  -387666895.38127762       -847632.25871662796        1406384859.2061238     
  -308829456.23314351        25032886.524186566        1421602267.4256966     
  -746440246.34035683       -39172553.307179987        1307943665.1663234     
  -659365205.12509346       -36278260.968044519        1305665494.3366013     
  -570045727.93655276       -25902515.384646386        1309214408.6776488     
  -478481814.77472895       -8045316.5569685400        1318590408.1894765     
  -384673465.63962328        17293335.514971271        1333793492.8720729     
  -889728618.44533026       -46794334.163022608        1218285572.2757545     
  -787681431.12517846       -44550797.766824722        1215967966.8936448     
  -683377801.23094201       -34785786.123669446        1219490486.2544243     
  -576817728.76260984       -17499299.233539224        1228853130.3581014     
  -468001213.72020048        7308662.9035283923        1244055899.2046754     
  -1040649752.9057758       -56705943.725520253        1126642629.4676454     
  -923593163.56038737       -55101986.496135384        1124299597.2340806     
  -804268125.04010820       -45936532.017117232        1127809729.3155363     
  -682674637.34493458       -29209580.288447648        1137173025.7120011     
  -558812700.47487295       -4921131.3101563752        1152389486.4234867     
  -240469185.50075519        30527315.931184441        1507482222.8655245     
  -199674184.50431260        60358458.565461740        1486278055.0410886     
  -154288475.12145576        105491962.48778257        1467834860.8957324     
  -104312057.35214880        165927827.69827342        1452152640.4294505     
  -49744931.196414530        241666054.19685340        1439231393.6422434     
  -308829456.23314351        25032886.524186566        1421602267.4256966     
  -259173036.98280808        55323986.930280983        1404812064.1885717     
  -203068901.43953699        107107474.97949192        1391971218.7511065     
  -140517049.60334423        180383350.67177770        1383079731.1132946     
  -71517481.474223897        275151614.00715256        1378137601.2751296     
  -384673465.63962328        17293335.514971271        1333793492.8720729     
  -322760244.93373328        49063008.653421313        1323583763.4465134     
  -252542300.02842215        108515095.78994179        1318511775.9411855     
  -174019630.92368209        195649596.92455295        1318577530.3560936     
  -87192237.619524464        310466512.05723429        1323781026.6912203     
  -468001213.72020048        7308662.9035283923        1244055899.2046754     
  -390435808.35710764        41575523.734811887        1242593152.8149154     
  -302708670.88810611        109714824.91913785        1247456532.4659722     
  -204819801.31317219        211726566.45656902        1258646038.1578343     
  -96769199.632322386        347610748.34704524        1276161669.8904939     
  -558812700.47487295       -4921131.3101563752        1152389486.4234867     
  -462199727.25293839        32861532.174445540        1161840232.2937846     
  -353568014.01857477        110706662.36713846        1178805488.3254590     
  -232917560.77180818        228614259.26784298        1203285254.5185306     
  -100248367.51261640        386584322.87663394        1235279530.8729765     
  -49744931.196414530        241666054.19685340        1439231393.6422434     
  -40457179.364048243        322578508.71081424        1346243218.7064717     
  -23392197.250578225        429415064.16178626        1253129562.5680983     
   1450015.1439968050        562175720.54977930        1159890425.2271149     
   34069457.819659233        720860477.87472284        1066525806.6835313     
  -71517481.474223897        275151614.00715256        1378137601.2751296     
  -57367121.237345055        376858635.67674279        1296653054.1454284     
  -34240177.929515749        508487600.91616321        1214235709.9551189     
  -2136651.5507516861        670038509.72537398        1130885568.7041974     
   38943457.898979932        861511362.10447657        1046602630.3926661     
  -87192237.619524464        310466512.05723429        1323781026.6912203     
  -70485885.715303749        432276115.86125612        1255199352.2890720     
  -43603597.950280130        588005505.86795962        1184877564.9683125     
  -6545374.3244540393        777654682.07733595        1112815664.7289422     
   40688785.162173927        1001223644.4893789        1039013651.5709474     
  -96769199.632322386        347610748.34704524        1276161669.8904939     
  -79813472.797917902        488830949.26437449        1221882113.1374056     
  -51482457.312848270        667968779.01723778        1165055127.6076918     
  -11776153.177132308        885024237.60559177        1105680713.3013616     
   39305439.609228909        1139997325.0294464        1043758870.2184185     
  -100248367.51261640        386584322.87663394        1235279530.8729765     
  -85349882.485184550        546523135.88609719        1196701336.6904311     
  -57876756.017240554        748377420.36394548        1154768397.8732574     
  -17828988.108791471        992147176.31013417        1109480714.4214659     
   34793421.240161300        1277832403.7246771        1060838286.3350409     
  -2993783654.7426705       -56037789.564243197        792747907.52142000     
  -2894211747.9310517       -26272844.053514004        875818394.33194363     
  -2797355304.3917971       -5559442.7840030193        943474832.05460691     
  -2703214324.1249208        6102414.2442440987        995717220.68941140     
  -2611788807.1304126        8712727.0312719345        1032545560.2363570     
  -3146001575.0359693        44400058.781098843        887931734.82336450     
  -3080420862.8244905        44213951.799275398        915451948.94453704     
  -3015959755.7944164        40295827.546090484        939150920.72866762     
  -2952618253.9457498        32645686.021552205        959028650.17575145     
  -2890396357.2784929        21263527.225654960        975085137.28579581     
  -3467103931.9008522        94172576.154968739        974587070.24691451     
  -3402392109.2871776        73972108.181277275        948418846.11819839     
  -3337204033.7639589        55359149.906103611        930022186.40325177     
  -3271539705.3311753        38333701.329466343        919397091.10207891     
  -3205399123.9888334        22895762.451358318        916543560.21467793     
  -3957090725.3373079        93279762.557366848        1052713913.7920753     
  -3860125487.3191252        63001625.092504025        974719085.85292733     
  -3761088138.3004198        39630524.296051264        916088629.07836449     
  -3659978678.2811890        23166460.168009996        876822543.46839178     
  -3556797107.2614369        13609432.708378315        856920829.02300644     
  -4615961955.3453484        41721617.988286257        1122312265.4588418     
  -4453620996.9203176        11302502.532954216        994352668.14872062     
  -4287612069.4038048       -6890049.2840917110        897350248.75400388     
  -4117935172.7957978       -12856037.462827444        831305007.27468848     
  -3944590307.0963006       -6595462.0032694340        796216943.71077752     
  -2611788807.1304126        8712727.0312719345        1032545560.2363570     
  -2520805195.4326992        6709848.8737411499        1048752742.8432183     
  -2430060374.9827361        3910999.8903710842        1065156368.8370498     
  -2339554345.7805238        316180.08117020130        1081756438.2178552     
  -2249287107.8260574       -4074610.5538510084        1098552950.9856291     
  -2890396357.2784929        21263527.225654960        975085137.28579581     
  -2796666192.3799887        17276940.713068843        979365496.34503031     
  -2703172625.4996834        12501694.139825583        986019924.09983301     
  -2609915656.6375637        6937787.5059503317        995048420.55020797     
  -2516895285.7936492        585220.81140851974        1006450985.6961539     
  -3205399123.9888334        22895762.451358318        916543560.21467793     
  -3102700619.2935400        18792003.562522411        908899654.49409723     
  -3000236519.3868899        13906895.378211379        905807442.77768755     
  -2898006824.2688799        8240437.8984377384        907266925.06544912     
  -2796011533.9395123        1792631.1231815815        913278101.35737872     
  -3556797107.2614369        13609432.708378315        856920829.02300644     
  -3438908476.1733603        11255037.422088146        837355217.29042470     
  -3321252056.6443691        8126603.6055142879        824518924.87060976     
  -3203827848.6744637        4224131.2586431503        818411951.76356876     
  -3086635852.2636504       -452379.61852693558        819034297.96929181     
  -3944590307.0963006       -6595462.0032694340        796216943.71077752     
  -3805289763.0194411       -5333957.7082147598        764732184.73400676     
  -3666219237.2721143       -4839181.1782681942        742154370.37860382     
  -3527378729.8543186       -5111132.4134273529        728483500.64457071     
  -3388768240.7660604       -6149811.4137139320        723719575.53190672     
  -2249287107.8260574       -4074610.5538510084        1098552950.9856291     
  -2151803398.9642067       -6791730.2759201527        1096840709.6267314     
  -2054404813.3771944       -9792594.2474588156        1098409375.3465040     
  -1957091351.0650210       -13077202.468456626        1103258948.1449482     
  -1859863012.0276830       -16645554.938902736        1111389428.0220611     
  -2516895285.7936492        585220.81140851974        1006450985.6961539     
  -2410233745.4539590       -2152462.8398224115        1000867039.4443674     
  -2303650421.0337095       -5150866.2225241661        999066802.00359082     
  -2197145312.5329037       -8409989.3367016315        1001050273.3738285     
  -2090718419.9515398       -11929832.182354808        1006817453.5550717     
  -2796011533.9395123        1792631.1231815815        913278101.35737872     
  -2678735585.7438655       -534643.54376256466        903830508.79399693     
  -2561530946.1122665       -3099613.4242022038        898669426.77396655     
  -2444397615.0447130       -5902278.5181277990        897794855.29728603     
  -2327335592.5412064       -8942638.8255383968        901206794.36395907     
  -3086635852.2636504       -452379.61852693558        819034297.96929181     
  -2957308919.8339343       -1938272.3877590895        805731117.67561221     
  -2828046388.6128650       -3638835.8524907827        797217249.65762317     
  -2698848258.6004534       -5554070.0127348900        793492693.91532922     
  -2569714529.7966776       -7683974.8684623241        794557450.44872308     
  -3388768240.7660604       -6149811.4137139320        723719575.53190672     
  -3245953747.7241554       -6363349.3717944622        706568866.08922231     
  -3103196748.5355067       -6768533.5073984861        694710270.65457046     
  -2960497243.2001157       -7365363.8205209970        688143789.22794926     
  -2817855231.7179742       -8153840.3111438751        686869421.80936325     
  -1859863012.0276830       -16645554.938902736        1111389428.0220611     
  -1759666829.6803105       -19912708.611941218        1107787748.5810494     
  -1659773977.3738635       -24190962.421395838        1108631017.4041672     
  -1560184455.1083570       -29480316.367319822        1113919234.4914098     
  -1460898262.8837779       -35780770.449668407        1123652399.8427782     
  -2090718419.9515398       -11929832.182354808        1006817453.5550717     
  -1979261401.8211172       -14485765.817600012        1000662253.6911867     
  -1868085593.1257288       -17979064.236307025        998560159.23372960     
  -1757190993.8653984       -22409727.438520789        1000511170.1826911     
  -1646577604.0400963       -27777755.424186349        1006515286.5380793     
  -2327335592.5412064       -8942638.8255383968        901206794.36395907     
  -2205737289.6497412       -11123217.729592204        892523881.45073903     
  -2084398075.5874290       -14167426.064161539        887502231.08623922     
  -1963317950.3542781       -18075263.829266429        886141843.27045739     
  -1842496913.9502788       -22846731.024876833        888442718.00339472     
  -2569714529.7966776       -7683974.8684623241        794557450.44872308     
  -2439094493.1661882       -9825064.3479439020        783372631.85970223     
  -2308711424.7589588       -12756047.904965043        775457232.96170056     
  -2178565324.5750046       -16476925.539562583        770811253.75470948     
  -2048656192.6143126       -20987697.251709342        769434694.23873246     
  -2817855231.7179742       -8153840.3111438751        686869421.80936325     
  -2679333012.3704615       -10591305.672640204        673208504.91807568     
  -2541025640.6403313       -13744929.758732438        662425164.86010170     
  -2402933116.5275798       -17614712.569428086        654519401.63544035     
  -2265055440.0322084       -22200654.104713917        649491215.24408948     
  -1460898262.8837779       -35780770.449668407        1123652399.8427782     
  -1355785802.3315942       -40844286.909688771        1119784500.3137755     
  -1250706897.1512017       -46019654.609011054        1118993572.0749149     
  -1145661547.3425910       -51306873.547608554        1121279615.1262054     
  -1040649752.9057758       -56705943.725520253        1126642629.4676454     
  -1646577604.0400963       -27777755.424186349        1006515286.5380793     
  -1533066461.3882306       -32590207.497917295        999211511.85137570     
  -1419480977.3910034       -37154855.087101281        995233352.63129497     
  -1305821152.0484183       -41471698.191773832        994580808.87783110     
  -1192086985.3604674       -45540736.811883330        997253880.59098434     
  -1842496913.9502788       -22846731.024876833        888442718.00339472     
  -1719876677.2659516       -27194995.132469416        877828947.66233933     
  -1597074202.5191174       -30935799.031712711        870789436.96437049     
  -1474089489.7097723       -34069142.722580612        867324185.90949404     
  -1350922538.8379169       -36595026.205083728        867433194.49770570     
  -2048656192.6143126       -20987697.251709342        769434694.23873246     
  -1916216449.9647503       -24658649.813349009        755636807.74665725     
  -1783486572.5355315       -27362486.442793846        745661825.07414627     
  -1650466560.3266504       -29099207.140042841        739509746.22119617     
  -1517156413.3381178       -29868811.905111432        737180571.18780792     
  -2265055440.0322084       -22200654.104713917        649491215.24408948     
  -2122085779.4846253       -24981171.540534735        632635092.10433722     
  -1978718087.4402523       -26434917.320381880        619850516.96062219     
  -1834952363.8990622       -26561891.444172263        611137489.81294000     
  -1690788608.8610682       -25362093.911950529        606496010.66128886     
  -1040649752.9057758       -56705943.725520253        1126642629.4676454     
  -923593163.56038737       -55101986.496135384        1124299597.2340806     
  -804268125.04010820       -45936532.017117232        1127809729.3155363     
  -682674637.34493458       -29209580.288447648        1137173025.7120011     
  -558812700.47487295       -4921131.3101563752        1152389486.4234867     
  -1192086985.3604674       -45540736.811883330        997253880.59098434     
  -1061624762.2672635       -42329493.113627970        993588672.99679244     
  -929745540.69733107       -34394921.159602702        994011414.78539550     
  -796449320.65068126       -21737020.949850827        998522105.95679688     
  -661736102.12730527       -4355792.4843564630        1007120746.5109922     
  -1350922538.8379169       -36595026.205083728        867433194.49770570     
  -1212098153.2317910       -33289537.408369303        861452452.39501429     
  -1072708219.8471202       -28098889.349838853        857794444.74289787     
  -932752738.68390024       -21023082.029475927        856459171.54136169     
  -792231709.74213731       -12062115.447296441        857446632.79040146     
  -1517156413.3381178       -29868811.905111432        737180571.18780792     
  -1375013336.4539816       -27982119.380426228        727890935.42874813     
  -1233156162.4894776       -27048436.587838352        719158819.18804657     
  -1091584891.4446063       -27067763.527360380        710984222.46570146     
  -950299523.31934488       -28040100.198935747        703367145.26171660     
  -1690788608.8610682       -25362093.911950529        606496010.66128886     
  -1550370311.9338434       -26407239.029797792        592904122.09799075     
  -1411089368.6244164       -31243562.873640656        578104538.12083149     
  -1272945778.9327886       -39871065.443476379        562097258.72981477     
  -1135939542.8589582       -52289746.739310205        544882283.92493951     
  -558812700.47487295       -4921131.3101563752        1152389486.4234867     
  -462199727.25293839        32861532.174445540        1161840232.2937846     
  -353568014.01857477        110706662.36713846        1178805488.3254590     
  -232917560.77180818        228614259.26784298        1203285254.5185306     
  -100248367.51261640        386584322.87663394        1235279530.8729765     
  -661736102.12730527       -4355792.4843564630        1007120746.5109922     
  -546766775.89965129        25768355.232140571        1020714134.2375568     
  -420907138.07857567        92193541.593382984        1042680633.1382385     
  -284157188.66406250        194919766.59942502        1073020243.2130313     
  -136516927.65611464        333947030.25022727        1111732964.4619372     
  -792231709.74213731       -12062115.447296441        857446632.79040146     
  -656452884.75811756        11139460.226262957        873866162.55108762     
  -510912176.59965348        66880646.481324404        899517404.49862444     
  -355609585.26674664        155161443.31785160        934400358.63300133     
  -190545110.75938010        275981850.73591036        978515024.95422065     
  -950299523.31934488       -28040100.198935747        703367145.26171660     
  -791258053.82832003       -11025152.843122154        721296317.23438513     
  -623583129.58181608        34767977.030937076        749315802.40662241     
  -447274750.57985902        109339289.42318290        787425600.77842832     
  -262332916.82243508        212688784.33363998        835625712.34981453     
  -1135939542.8589582       -52289746.739310205        544882283.92493951     
  -951182283.11025107       -40725483.976022542        563004598.28742933     
  -758919997.02506471       -4144466.7577877343        592075826.86222696     
  -559152684.60340261        57453304.915352046        632095969.64931595     
  -351880345.84525096        144067831.04346800        683065026.64871812     
  -100248367.51261640        386584322.87663394        1235279530.8729765     
  -85349882.485184550        546523135.88609719        1196701336.6904311     
  -57876756.017240554        748377420.36394548        1154768397.8732574     
  -17828988.108791471        992147176.31013417        1109480714.4214659     
   34793421.240161300        1277832403.7246771        1060838286.3350409     
  -136516927.65611464        333947030.25022727        1111732964.4619372     
  -127370641.77025768        483019696.54550976        1090161264.9506052     
  -95096912.413363665        709183841.07759905        1070027113.8221105     
  -39695739.585422695        1012439463.8464838        1051330511.0764623     
   38832876.713554323        1392786564.8521833        1034071456.7136434     
  -190545110.75938010        275981850.73591036        978515024.95422065     
  -173458758.25092292        418296050.04623812        986261422.48305202     
  -122692160.24088463        672877734.36182499        1000237661.4121913     
  -38245316.729267359        1039726903.6826757        1020443741.7416284     
   79881772.283919275        1518843558.0087678        1046879663.4713920     
  -262332916.82243508        212688784.33363998        835625712.34981453     
  -223614231.92717227        352352196.38830787        885001809.28777397     
  -140662499.49981415        639459100.21663260        945400040.64350748     
  -13477719.540328324        1074009495.8187129        1016820406.4170089     
   157940107.95125449        1656003383.1944504        1099262906.6082938     
  -351880345.84525096        144067831.04346800        683065026.64871812     
  -277837062.79901433        285188135.57167983        786382425.36476994     
  -149007930.19014558        608927938.64200950        905514251.51605284     
   34607051.981393695        1115287240.2545495        1040460505.1025746     
   273007883.71556550        1804266040.4092257        1191221186.1243429     
  -4615961955.3453484        41721617.988286257        1122312265.4588418     
  -4453620996.9203176        11302502.532954216        994352668.14872062     
  -4287612069.4038048       -6890049.2840917110        897350248.75400388     
  -4117935172.7957978       -12856037.462827444        831305007.27468848     
  -3944590307.0963006       -6595462.0032694340        796216943.71077752     
  -5230066189.3047667       -97770851.230631351        590857087.26355815     
  -5002664853.1782980       -78061911.778331280        567226743.92383063     
  -4775144670.2048807       -57956816.169530153        551117654.38343108     
  -4547505640.3845205       -37455564.404250145        542529818.64235866     
  -4319747763.7172108       -16558156.482472420        541463236.70060909     
  -5518918308.7946186       -139687686.10868287        73245284.838058472     
  -5293416378.1555061       -89938626.705376387        149803552.85009173     
  -5071344722.9139795       -51623818.627380848        210447150.54537588     
  -4852703343.0700569       -24743261.874711990        255176077.92390868     
  -4637492238.6237268       -9296956.4473564625        283990334.98568952     
  -5482518313.8149233       -84028886.645869970       -430523141.81766003     
  -5325875571.8519535       -24327642.248196125       -257916905.07250011     
  -5176212227.5311136        12108943.342357635       -124661262.76016612     
  -5033528280.8524132        25280870.125777483       -30756214.880655527     
  -4897823731.8158522        15188138.102071285        23798238.566025730     
  -5120866204.3656778        69205547.157811403       -920448192.70360029     
  -5100042434.2676296        118771041.59321904       -655934629.84393847     
  -5089747184.0562658        133241469.73969674       -454207585.53318757     
  -5089980453.7315855        112616831.59722161       -315267059.77134311     
  -5100742243.2935801        56897127.165827990       -239113052.55839074     
  -3944590307.0963006       -6595462.0032694340        796216943.71077752     
  -3805289763.0194411       -5333957.7082147598        764732184.73400676     
  -3666219237.2721143       -4839181.1782681942        742154370.37860382     
  -3527378729.8543186       -5111132.4134273529        728483500.64457071     
  -3388768240.7660604       -6149811.4137139320        723719575.53190672     
  -4319747763.7172108       -16558156.482472420        541463236.70060909     
  -4161751559.1169424       -16032537.315724373        528452240.83430058     
  -4003507137.9360852       -14679529.547016144        521085397.31732035     
  -3845014500.1746416       -12499133.176353216        519362706.14966047     
  -3686273645.8326139       -9491348.2037389278        523284167.33132374     
  -4637492238.6237268       -9296956.4473564625        283990334.98568952     
  -4470122637.1344604       -12303901.499236107        290011042.95832413     
  -4302026584.1544895       -12889341.582097530        298413111.00823069     
  -4133204079.6838107       -11053276.695932865        309196539.13541996     
  -3963655123.7224197       -6795706.8407330513        322361327.33989191     
  -4897823731.8158522        15188138.102071285        23798238.566025730     
  -4730402997.0720015        5851949.7412338257        49408591.106064305     
  -4561777575.9273167        531382.71650242805        74137511.451343045     
  -4391947468.3818111       -773562.97216176987        97984999.601852223     
  -4220912674.4354706        1937112.6752960682        120951055.55760522     
  -5100742243.2935801        56897127.165827990       -239113052.55839074     
  -4942592638.9295540        38435016.405710697       -193355114.72246760     
  -4782760113.2545776        25582643.348755836       -151741401.35334480     
  -4621244666.2686548        18340007.994959116       -114271912.45103440     
  -4458046297.9717751        16707110.344349146       -80946648.015528962     
  -3388768240.7660604       -6149811.4137139320        723719575.53190672     
  -3245953747.7241554       -6363349.3717944622        706568866.08922231     
  -3103196748.5355067       -6768533.5073984861        694710270.65457046     
  -2960497243.2001157       -7365363.8205209970        688143789.22794926     
  -2817855231.7179742       -8153840.3111438751        686869421.80936325     
  -3686273645.8326139       -9491348.2037389278        523284167.33132374     
  -3530093959.8980560       -7334709.0362997055        512541519.79531842     
  -3374217080.8405242       -6187426.1256222725        506240711.90896970     
  -3218643008.6600194       -6049499.4717003107        504381743.67227972     
  -3063371743.3565450       -6920929.0745414495        506964615.08525014     
  -3963655123.7224197       -6795706.8407330513        322361327.33989191     
  -3796539600.2048459       -2997697.1406581402        317740543.18282896     
  -3629972196.5880694       -1026753.7765979767        316711324.31704664     
  -3463952912.8720965       -882876.74853491783        319273670.74255317     
  -3298481749.0569234       -2566066.0564763546        325427582.45933890     
  -4220912674.4354706        1937112.6752960682        120951055.55760522     
  -4045290668.6445222        6647686.3151140213        122165936.25174855     
  -3870462095.7781501        8713483.5396559238        126122107.87879679     
  -3696426955.8363409        8134504.3489854336        132819570.43876468     
  -3523185248.8191209        4910748.7430405617        142258323.93163520     
  -4458046297.9717751        16707110.344349146       -80946648.015528962     
  -4276347165.2170901        21601441.331005096       -74182300.997918457     
  -4095686778.4107480        23033285.823185682       -65526937.405768119     
  -3916065137.5527687        21002643.820827007       -54980557.239088669     
  -3737482242.6431222        15509515.324023008       -42543160.497859463     
  -2817855231.7179742       -8153840.3111438751        686869421.80936325     
  -2679333012.3704615       -10591305.672640204        673208504.91807568     
  -2541025640.6403313       -13744929.758732438        662425164.86010170     
  -2402933116.5275798       -17614712.569428086        654519401.63544035     
  -2265055440.0322084       -22200654.104713917        649491215.24408948     
  -3063371743.3565450       -6920929.0745414495        506964615.08525014     
  -2917221319.8845077       -10772807.828646898        497122912.44579333     
  -2770929098.2838960       -14152026.154181719        490597885.39018816     
  -2624495078.5547276       -17058584.051182270        487389533.91843504     
  -2477919260.6969786       -19492481.519595504        487497858.03053296     
  -3298481749.0569234       -2566066.0564763546        325427582.45933890     
  -3143448553.6016679       -7455987.8455862999        319821180.77531785     
  -2987916914.2718973       -10684430.052968621        317970553.42568982     
  -2831886831.0676150       -12251392.678641677        319875700.41045451     
  -2675358303.9888129       -12156875.722596169        325536621.72961307     
  -3523185248.8191209        4910748.7430405617        142258323.93163520     
  -3358014713.5219607       -640845.72346639633        141303309.90665188     
  -3191989088.6043391       -3342141.4551075697        144543168.96661013     
  -3025108374.0662484       -3193138.4518464804        151977901.11150169     
  -2857372569.9076948       -193836.71371471882        163607506.34132358     
  -3737482242.6431222        15509515.324023008       -42543160.497859463     
  -3560919799.6453671        9672618.5377128124       -38430700.160194762     
  -3383145621.2812080        7874839.6394402981       -29684267.987038024     
  -3204159707.5506301        10116178.629229546       -16303863.978419034     
  -3023962058.4536347        16396635.507056117        1710511.8656746985     
  -2265055440.0322084       -22200654.104713917        649491215.24408948     
  -2122085779.4846253       -24981171.540534735        632635092.10433722     
  -1978718087.4402523       -26434917.320381880        619850516.96062219     
  -1834952363.8990622       -26561891.444172263        611137489.81294000     
  -1690788608.8610682       -25362093.911950529        606496010.66128886     
  -2477919260.6969786       -19492481.519595504        487497858.03053296     
  -2325322745.5906577       -19766339.934343338        475667823.33682960     
  -2172634734.1871161       -19735210.691699386        466593053.61049229     
  -2019855226.4863458       -19399093.791634679        460273548.85152614     
  -1866984222.4883647       -18757989.234183431        456709309.05992085     
  -2675358303.9888129       -12156875.722596169        325536621.72961307     
  -2516895742.9770684       -11052317.712243676        318375051.08243340     
  -2358648220.8676949       -10664556.043117166        312652462.37395823     
  -2200615737.6606894       -10993590.715217948        308368855.60418564     
  -2042798293.3560441       -12039421.728531241        305524230.77310956     
  -2857372569.9076948       -193836.71371471882        163607506.34132358     
  -2696804771.6438718        1160895.1257338524        160756775.34116337     
  -2536758547.4819942        777046.62534856796        158028743.25102413     
  -2377233897.4220839       -1345382.2149119377        155423410.07092869     
  -2218230821.4641142       -5206391.3949894905        152940775.80086103     
  -3023962058.4536347        16396635.507056117        1710511.8656746985     
  -2865049831.5910654        16873298.579574347        2812996.1129954071     
  -2706965714.0300169        14589597.313690424        2721896.2416859674     
  -2549709705.7705259        9545531.7092816830        1437212.2517428570     
  -2393281806.8125653        1741101.7664376497       -1041055.8568284800     
  -1690788608.8610682       -25362093.911950529        606496010.66128886     
  -1550370311.9338434       -26407239.029797792        592904122.09799075     
  -1411089368.6244164       -31243562.873640656        578104538.12083149     
  -1272945778.9327886       -39871065.443476379        562097258.72981477     
  -1135939542.8589582       -52289746.739310205        544882283.92493951     
  -1866984222.4883647       -18757989.234183431        456709309.05992085     
  -1729484174.9910262       -22627220.102167487        442984106.68998647     
  -1592009062.3460164       -26579567.144571602        428873504.57633084     
  -1454558884.5533407       -30615030.361424088        414377502.71896654     
  -1317133641.6129882       -34733609.752681673        399496101.11788034     
  -2042798293.3560441       -12039421.728531241        305524230.77310956     
  -1905867079.0881813       -18027913.486528873        292963536.48958492     
  -1767848380.9071867       -20391458.867399573        280839738.13249546     
  -1628742198.8130419       -19130057.871116161        269152835.70183271     
  -1488548532.8057489       -14243710.497675776        257902829.19759417     
  -2218230821.4641142       -5206391.3949894905        152940775.80086103     
  -2079519024.2253261       -12609319.182900429        142842411.49680486     
  -1938607324.3079209       -12679238.042103648        134003238.78931330     
  -1795495721.7118955       -5416147.9725542068        126423257.67840654     
  -1650184216.4372489        9179951.0257132053        120102468.16406219     
  -2393281806.8125653        1741101.7664376497       -1041055.8568284800     
  -2250440010.4024258       -6371437.1912451982       -7379268.2883749418     
  -2104285892.5482132       -3442904.6686484814       -11635993.453200269     
  -1954819453.2498991        10526699.334272742       -13811231.351311671     
  -1802040692.5074990        35537374.817470789       -13904981.982699055     
  -1135939542.8589582       -52289746.739310205        544882283.92493951     
  -951182283.11025107       -40725483.976022542        563004598.28742933     
  -758919997.02506471       -4144466.7577877343        592075826.86222696     
  -559152684.60340261        57453304.915352046        632095969.64931595     
  -351880345.84525096        144067831.04346800        683065026.64871812     
  -1317133641.6129882       -34733609.752681673        399496101.11788034     
  -1117558191.7264950       -14765579.212589324        421307242.67936999     
  -914369973.24205351        17245013.320679784        441628746.80144089     
  -707568986.15967429        61298167.847062737        460460613.48409069     
  -497155230.47934568        117393884.36661839        477802842.72731340     
  -1488548532.8057489       -14243710.497675776        257902829.19759417     
  -1309693611.7864013        3466472.1177337170        278861830.59645754     
  -1131118179.9076281        20245024.264544129        285892642.90417188     
  -952822237.16944504        36091945.942723453        278995266.12074625     
  -774805783.57186627        51007237.152234375        258169700.24617383     
  -1650184216.4372489        9179951.0257132053        120102468.16406219     
  -1527588543.2899456        13970670.015004337        135668362.03866658     
  -1409164617.0217791        4855566.0738425255        124867515.17041141     
  -1294912437.6327176       -18165360.797666311        87699927.559290022     
  -1184832005.1228020       -55092110.599670768        24165599.205307409     
  -1802040692.5074990        35537374.817470789       -13904981.982699055     
  -1771242986.2371793        16747014.479101658       -8273162.9939756757     
  -1748509284.5845065       -28923361.251425266       -41446636.399837852     
  -1733839587.5494802       -101473752.37411797       -113425402.20026621     
  -1727233895.1321428       -200904158.88908416       -224209460.39530990     
  -351880345.84525096        144067831.04346800        683065026.64871812     
  -277837062.79901433        285188135.57167983        786382425.36476994     
  -149007930.19014558        608927938.64200950        905514251.51605284     
   34607051.981393695        1115287240.2545495        1040460505.1025746     
   273007883.71556550        1804266040.4092257        1191221186.1243429     
  -497155230.47934568        117393884.36661839        477802842.72731340     
  -388302220.63123310        223018056.45567891        597077311.57944739     
  -230316916.09370381        492416544.17610902        735505481.09913278     
  -23199316.866745114        925589347.52796757        893087351.28636873     
   233050577.04961011        1522536466.5111730        1069822922.1411674     
  -774805783.57186627        51007237.152234375        258169700.24617383     
  -621602266.25810993        123997511.00128391        386805425.21562648     
  -424920009.12817961        341916917.57090497        537934124.08493519     
  -184759012.18205148        704765456.86119854        711555796.85412633     
   98880724.580265582        1212543128.8721039        907670443.52317858     
  -1184832005.1228020       -55092110.599670768        24165599.205307409     
  -977737199.67963648       -11873500.791487694        155566766.27329656     
  -732817209.29354000        157429058.82647634        312800180.47346663     
  -450072033.96446997        452815568.25434101        495865841.80582660     
  -129501673.69246334        874286027.49200606        704763750.27035773     
  -1727233895.1321428       -200904158.88908416       -224209460.39530990     
  -1456707020.8958297       -184594978.92267269       -96638665.247535005     
  -1154008516.5898204       -61047032.057284951        60103650.264727987     
  -819138382.21405220        169739681.70729345        246017486.14149556     
  -452096617.76857626        507765162.37091970        461102842.38275027     
 </DataArray>
 <DataArray  type="Float64" Name="VM" NumberOfComponents="1" format="ascii">
   5613821830.1156645     
   5495083943.8044939     
   5392167498.5659428     
   5298892369.4423723     
   5210892403.6062450     
   5539908351.5819893     
   5379469216.0037479     
   5223225943.0983562     
   5068800051.2687178     
   4914415702.2807570     
   5376756988.5910664     
   5190786431.6679649     
   5004630307.9715471     
   4817881494.0892439     
   4630182012.1149635     
   5127015270.5182638     
   4932717354.3524561     
   4740510479.0909872     
   4550468406.0823507     
   4362772113.0901566     
   4805556833.6167221     
   4616743194.6637192     
   4439779943.3055248     
   4273616057.0219259     
   4117944077.2363567     
   5210892403.6062450     
   5028564238.3548422     
   4846868476.3371019     
   4665869127.9379969     
   4485667408.3733530     
   4914415702.2807570     
   4742284712.7414408     
   4571007595.5520182     
   4400675125.6578741     
   4231425558.6093030     
   4630182012.1149635     
   4468998651.2742548     
   4309093684.8233013     
   4150592168.6042047     
   3993680838.0745440     
   4362772113.0901566     
   4213287261.9562840     
   4065737576.2965779     
   3920289482.2393212     
   3777188639.6006269     
   4117944077.2363567     
   3980845527.0295081     
   3846596353.4243608     
   3715407876.4878573     
   3587589773.3324747     
   4485667408.3733530     
   4304210640.0067720     
   4122109894.4600410     
   3939364396.6828718     
   3755998876.6090512     
   4231425558.6093030     
   4057811652.1119032     
   3884186379.9369712     
   3710599958.9003978     
   3537144584.1490264     
   3993680838.0745440     
   3829380075.2535043     
   3665925293.4778647     
   3503439853.9045644     
   3342111585.1422100     
   3777188639.6006269     
   3623565517.2854218     
   3471885614.9425178     
   3322360659.9988132     
   3175291804.0995097     
   3587589773.3324747     
   3445789210.0126295     
   3307264102.7347050     
   3172315220.5362916     
   3041354195.2263613     
   3755998876.6090512     
   3576994850.8156190     
   3398758973.7510710     
   3221309948.5676532     
   3044743796.3328195     
   3537144584.1490264     
   3369315521.5477982     
   3202606115.2368326     
   3037097704.8031621     
   2872947959.2795300     
   3342111585.1422100     
   3184956973.8608274     
   3029275308.6975470     
   2875220121.4749665     
   2723023952.1776180     
   3175291804.0995097     
   3028626946.1296229     
   2883793780.5467839     
   2741025165.0748425     
   2600638668.6914978     
   3041354195.2263613     
   2905348046.8675799     
   2771537055.1141424     
   2640235023.5100460     
   2511847568.1430202     
   3044743796.3328195     
   2882639656.1236429     
   2719975068.4629250     
   2556747913.1827717     
   2392963516.6369524     
   2872947959.2795300     
   2712477781.2485299     
   2551920507.0072780     
   2391303523.9298382     
   2230669870.2529402     
   2723023952.1776180     
   2566887460.3939390     
   2411571762.1975555     
   2257214056.0691738     
   2104005927.5399826     
   2600638668.6914978     
   2451531726.4981685     
   2304625266.5317183     
   2160237320.4264345     
   2018800343.9154253     
   2511847568.1430202     
   2372197894.9488678     
   2236551335.3328109     
   2105428537.6796908     
   1979517517.6545944     
   2392963516.6369524     
   2246427185.0476999     
   2102090380.1144860     
   1959953608.3313422     
   1820185304.5152934     
   2230669870.2529402     
   2087444024.3712289     
   1945871382.4877305     
   1805952475.4323137     
   1667764143.4705157     
   2104005927.5399826     
   1963371181.3446181     
   1823686369.5472679     
   1684982690.3551004     
   1547319524.5524795     
   2018800343.9154253     
   1881686937.2897522     
   1744885230.0970497     
   1608525954.6832125     
   1472789114.0584223     
   1979517517.6545944     
   1848598260.1342027     
   1717710994.3912024     
   1587209649.5372245     
   1457611091.9844334     
   1820185304.5152934     
   1779684395.3478587     
   1735671638.1293859     
   1696771568.5444400     
   1681475074.7672024     
   1667764143.4705157     
   1552440013.9117916     
   1428004339.6512644     
   1294809934.4986882     
   1158975871.7263632     
   1547319524.5524795     
   1397483129.0133665     
   1244090439.2181101     
   1084868198.1750839     
   917784073.70539021     
   1472789114.0584223     
   1328556321.1408017     
   1198796460.1664321     
   1087993204.8393121     
   1002055464.6040418     
   1457611091.9844334     
   1348577302.1134994     
   1274538021.7996612     
   1243621308.0307350     
   1262872441.8353529     
   1681475074.7672024     
   1383872826.7289298     
   1129497514.6902161     
   1010092335.3610576     
   1153010306.2316575     
   1158975871.7263632     
   1008493233.4401679     
   985228768.36625767     
   1161467741.1180484     
   1544125831.0536554     
   917784073.70539021     
   963160141.24467087     
   1144935595.5295403     
   1476474592.5384855     
   1957462376.7977037     
   1002055464.6040418     
   1164730878.3885140     
   1425435549.6665461     
   1808754274.8605702     
   2334767804.3909469     
   1262872441.8353529     
   1446686404.3113086     
   1715706447.8271081     
   2110510438.0248637     
   2663533475.3999667     
   4805556833.6167221     
   4616743194.6637192     
   4439779943.3055248     
   4273616057.0219259     
   4117944077.2363567     
   4326131578.7147331     
   4194551192.7356105     
   4070964574.1006236     
   3955228821.8271384     
   3847550162.0254283     
   3940084830.7249827     
   3851079605.3004293     
   3765871344.5929966     
   3684670809.3428893     
   3607762643.4742093     
   3644741049.0182104     
   3584614569.8090510     
   3524066476.7706761     
   3462886797.2899156     
   3400873152.4312487     
   3437267583.2078524     
   3392651780.3180628     
   3344114393.5743270     
   3290032289.5324125     
   3228989589.7051110     
   4117944077.2363567     
   3980845527.0295081     
   3846596353.4243608     
   3715407876.4878573     
   3587589773.3324747     
   3847550162.0254283     
   3727392921.5097370     
   3610427023.3144855     
   3496936794.2584291     
   3387291871.3794675     
   3607762643.4742093     
   3504137377.3312602     
   3403990297.8810110     
   3307650402.8702297     
   3215514322.9994736     
   3400873152.4312487     
   3313559502.5912948     
   3229917040.8629560     
   3150284441.5138826     
   3075047103.8137789     
   3228989589.7051110     
   3157916278.2978520     
   3090568854.8014541     
   3027256689.9065685     
   2968314461.9202552     
   3587589773.3324747     
   3445789210.0126295     
   3307264102.7347050     
   3172315220.5362916     
   3041354195.2263613     
   3387291871.3794675     
   3260623138.2022905     
   3137774008.9507856     
   3019120510.0010228     
   2905145526.1978345     
   3215514322.9994736     
   3104323246.8300524     
   2997491813.1633668     
   2895451838.7696719     
   2798730497.6788712     
   3075047103.8137789     
   2979715103.9402070     
   2889232328.9175920     
   2804056682.9002290     
   2724722643.1791701     
   2968314461.9202552     
   2889158830.2832308     
   2815233776.6064734     
   2746986937.3390250     
   2684919173.0809288     
   3041354195.2263613     
   2905348046.8675799     
   2771537055.1141424     
   2640235023.5100460     
   2511847568.1430202     
   2905145526.1978345     
   2781708848.0072007     
   2661762186.0749288     
   2545772813.3365154     
   2434320885.1717148     
   2798730497.6788712     
   2689842953.1213808     
   2585888788.3834944     
   2487459995.6351151     
   2395261752.5332122     
   2724722643.1791701     
   2631880660.7501588     
   2545429453.3215981     
   2466019359.3318486     
   2394390756.7266932     
   2684919173.0809288     
   2608889698.3783274     
   2540580400.7891250     
   2480616391.6488533     
   2429675997.0941997     
   2511847568.1430202     
   2372197894.9488678     
   2236551335.3328109     
   2105428537.6796908     
   1979517517.6545944     
   2434320885.1717148     
   2310094800.9560685     
   2191050527.8296318     
   2077886751.8620298     
   1971469393.4404666     
   2395261752.5332122     
   2288237937.7824693     
   2187559820.3297877     
   2094016860.5817890     
   2008527814.4372268     
   2394390756.7266932     
   2305707861.4741077     
   2224331084.3356318     
   2151030673.1075907     
   2086647813.9842846     
   2429675997.0941997     
   2359672241.0861158     
   2297606179.2609386     
   2244141426.1884046     
   2199959456.7371573     
   1979517517.6545944     
   1848598260.1342027     
   1717710994.3912024     
   1587209649.5372245     
   1457611091.9844334     
   1971469393.4404666     
   1855307089.5290549     
   1743518320.3706136     
   1637029021.8435574     
   1536976402.8595083     
   2008527814.4372268     
   1912231200.1197112     
   1824709192.3940210     
   1747163182.4928460     
   1680885687.0157657     
   2086647813.9842846     
   2011770326.4758718     
   1949235588.0891981     
   1900120008.5363371     
   1865449020.0689909     
   2199959456.7371573     
   2145041774.6328220     
   2105022876.4038398     
   2080664388.0631051     
   2072638889.5934951     
   1457611091.9844334     
   1348577302.1134994     
   1274538021.7996612     
   1243621308.0307350     
   1262872441.8353529     
   1536976402.8595083     
   1476102673.0964527     
   1447923576.7733834     
   1456403866.8584640     
   1504839356.8292282     
   1680885687.0157657     
   1652380270.8956554     
   1651589575.6708579     
   1680880428.0885291     
   1742861540.5453358     
   1865449020.0689909     
   1854927286.7394578     
   1867365427.4034111     
   1904970462.5963700     
   1970772513.7423854     
   2072638889.5934951     
   2069125924.4427726     
   2084832835.7831051     
   2122389259.6435626     
   2185604656.1497064     
   1262872441.8353529     
   1446686404.3113086     
   1715706447.8271081     
   2110510438.0248637     
   2663533475.3999667     
   1504839356.8292282     
   1613263083.5432227     
   1788873344.3984151     
   2066419231.9717000     
   2476105559.2315030     
   1742861540.5453358     
   1787691701.1540430     
   1884657930.7336369     
   2060669584.5475650     
   2340957771.5205221     
   1970772513.7423854     
   1968931014.5137563     
   2003624978.8465040     
   2093529570.3287082     
   2257307357.9225450     
   2185604656.1497064     
   2156265703.3658547     
   2146515011.2904589     
   2166877715.5243893     
   2228427983.3433528     
   3437267583.2078524     
   3392651780.3180628     
   3344114393.5743270     
   3290032289.5324125     
   3228989589.7051110     
   3414076646.4871860     
   3337379702.4614401     
   3260895642.5272288     
   3184506543.3959641     
   3108102323.1328773     
   3368132499.2236528     
   3266294645.0298743     
   3172408035.3179541     
   3087023312.6597657     
   3010787207.7756739     
   3326267322.9756832     
   3201352599.6516891     
   3095836073.3077374     
   3010125579.2490182     
   2944908031.8840375     
   3326394474.0250788     
   3172784775.7363453     
   3053773656.5976481     
   2969028744.8510485     
   2918561655.0241919     
   3228989589.7051110     
   3157916278.2978520     
   3090568854.8014541     
   3027256689.9065685     
   2968314461.9202552     
   3108102323.1328773     
   3042221059.4578600     
   2981591193.6638203     
   2926582861.3506131     
   2877600347.4006085     
   3010787207.7756739     
   2950590744.7466822     
   2897461890.2962708     
   2851776090.2369990     
   2813947505.3833547     
   2944908031.8840375     
   2889819489.3001909     
   2843876543.2882309     
   2807398683.4894214     
   2780744038.7807302     
   2918561655.0241919     
   2866689198.2660470     
   2826266543.7299604     
   2797507232.0528712     
   2780659580.5514202     
   2968314461.9202552     
   2889158830.2832308     
   2815233776.6064734     
   2746986937.3390250     
   2684919173.0809288     
   2877600347.4006085     
   2809400934.4950194     
   2747636027.3861914     
   2692744674.1509147     
   2645207433.9089198     
   2813947505.3833547     
   2756489156.7734823     
   2706646508.5255365     
   2664808287.9229770     
   2631390357.6419759     
   2780744038.7807302     
   2733026383.0813780     
   2694052211.6753521     
   2664126033.6275873     
   2643566878.8320646     
   2780659580.5514202     
   2740842295.3387961     
   2710838462.5891962     
   2690851201.9046712     
   2681090142.1389055     
   2684919173.0809288     
   2608889698.3783274     
   2540580400.7891250     
   2480616391.6488533     
   2429675997.0941997     
   2645207433.9089198     
   2583464290.0710430     
   2529887426.1837869     
   2484997312.2954497     
   2449339116.0268235     
   2631390357.6419759     
   2582912444.2009177     
   2542884993.2867160     
   2511708948.1720605     
   2489790632.2054577     
   2643566878.8320646     
   2606909643.0746064     
   2578846421.5682502     
   2559661183.4902430     
   2549633628.5445161     
   2681090142.1389055     
   2654464849.9579148     
   2636479522.5538106     
   2627316974.7376342     
   2627153534.8319411     
   2429675997.0941997     
   2359672241.0861158     
   2297606179.2609386     
   2244141426.1884046     
   2199959456.7371573     
   2449339116.0268235     
   2393480106.1923118     
   2346722851.6801453     
   2309620249.6528697     
   2282709403.8752656     
   2489790632.2054577     
   2447088356.0766883     
   2414412949.7244191     
   2392177598.3505731     
   2380762536.1236639     
   2549633628.5445161     
   2518424614.5084472     
   2497992633.1653972     
   2488612316.1861525     
   2490524060.0806789     
   2627153534.8319411     
   2605263143.3596797     
   2594820016.3080721     
   2595980844.4412184     
   2608877274.7676811     
   2199959456.7371573     
   2145041774.6328220     
   2105022876.4038398     
   2080664388.0631051     
   2072638889.5934951     
   2282709403.8752656     
   2242264855.4815640     
   2215737821.5791597     
   2203578709.6262507     
   2206175538.3419328     
   2380762536.1236639     
   2351894073.5806475     
   2335943823.0737276     
   2333165334.6132703     
   2343782046.2722688     
   2490524060.0806789     
   2470615433.5450635     
   2462722433.2649655     
   2466985269.5785246     
   2483540836.8198762     
   2608877274.7676811     
   2595665528.7673817     
   2593724047.8457251     
   2603135190.8030353     
   2623996517.6028028     
   2072638889.5934951     
   2069125924.4427726     
   2084832835.7831051     
   2122389259.6435626     
   2185604656.1497064     
   2206175538.3419328     
   2191790090.8173618     
   2192392770.5637436     
   2209952368.9982591     
   2247387905.7474051     
   2343782046.2722688     
   2319334675.3932400     
   2306427170.6768913     
   2306465333.6818538     
   2321537878.0017490     
   2483540836.8198762     
   2450792186.7021527     
   2426620952.0676384     
   2411973059.9974828     
   2408226164.4975681     
   2623996517.6028028     
   2585386642.2677860     
   2552693193.3658962     
   2526498191.0568576     
   2507611297.6551428     
   2185604656.1497064     
   2156265703.3658547     
   2146515011.2904589     
   2166877715.5243893     
   2228427983.3433528     
   2247387905.7474051     
   2182671690.0398355     
   2134390701.2353377     
   2112211686.7182584     
   2127069453.4381375     
   2321537878.0017490     
   2224787264.3046756     
   2141368548.5283284     
   2079645600.3401637     
   2049788053.3720872     
   2408226164.4975681     
   2282906601.9309959     
   2168095716.3997135     
   2070531177.3935163     
   1998977336.4689453     
   2507611297.6551428     
   2357239411.7014003     
   2215043049.6900516     
   2086000035.9724922     
   1976981649.2077901     
   3326394474.0250788     
   3172784775.7363453     
   3053773656.5976481     
   2969028744.8510485     
   2918561655.0241919     
   2917039512.1633425     
   2843680278.8930006     
   2792071148.2291217     
   2762041497.4792418     
   2753489933.4313455     
   2598037924.9729347     
   2595282529.6041818     
   2599735552.1062260     
   2611356355.9890594     
   2630103151.7532773     
   2343955706.5479841     
   2407316116.2589335     
   2462191442.4828157     
   2508526453.5709901     
   2546288350.0962110     
   2128216374.8347540     
   2257877401.7887087     
   2362850288.7907710     
   2443002643.4753704     
   2498266611.1611576     
   2918561655.0241919     
   2866689198.2660470     
   2826266543.7299604     
   2797507232.0528712     
   2780659580.5514202     
   2753489933.4313455     
   2723977575.3466163     
   2704158926.3862395     
   2694140384.1226244     
   2694039370.7326732     
   2630103151.7532773     
   2619983076.7876878     
   2617505339.3587055     
   2622707637.0121608     
   2635629591.3520932     
   2546288350.0962110     
   2552854671.7476125     
   2564803679.5979700     
   2582141741.7485857     
   2604875232.3910336     
   2498266611.1611576     
   2519268110.4644547     
   2543287319.5006995     
   2570324271.2466669     
   2600379009.8213682     
   2780659580.5514202     
   2740842295.3387961     
   2710838462.5891962     
   2690851201.9046712     
   2681090142.1389055     
   2694039370.7326732     
   2667301286.1259432     
   2649791576.4213252     
   2641619827.0457392     
   2642896049.5629497     
   2635629591.3520932     
   2619669685.7731314     
   2612264704.8157921     
   2613460008.7345195     
   2623300110.8238835     
   2604875232.3910336     
   2597322776.1106977     
   2597609347.9523516     
   2605745448.1748638     
   2621741266.5646963     
   2600379009.8213682     
   2598924738.1478939     
   2604593797.9851022     
   2617386156.0656090     
   2637301843.3446193     
   2681090142.1389055     
   2654464849.9579148     
   2636479522.5538106     
   2627316974.7376342     
   2627153534.8319411     
   2642896049.5629497     
   2626581306.1741819     
   2619101301.6039038     
   2620561697.6035295     
   2631061159.1033988     
   2623300110.8238835     
   2615299216.1335335     
   2616299253.6806674     
   2626347222.6837010     
   2645485633.7583523     
   2621741266.5646963     
   2619782243.0661039     
   2627010150.7998343     
   2643436213.6278739     
   2669070216.1827626     
   2637301843.3446193     
   2638934548.5806265     
   2650003032.7211337     
   2670507287.5192914     
   2700447401.3977952     
   2627153534.8319411     
   2605263143.3596797     
   2594820016.3080721     
   2595980844.4412184     
   2608877274.7676811     
   2631061159.1033988     
   2618475495.3898592     
   2616504458.8050857     
   2625223738.7582140     
   2644694888.1342955     
   2645485633.7583523     
   2640337322.3046231     
   2645068012.0234580     
   2659706691.2584991     
   2684276247.1045766     
   2669070216.1827626     
   2669647111.8617425     
   2679484831.8926659     
   2698589950.1069779     
   2726967568.5310431     
   2700447401.3977952     
   2705222687.0260863     
   2718766311.8147469     
   2741078185.8283687     
   2772158276.3133564     
   2608877274.7676811     
   2595665528.7673817     
   2593724047.8457251     
   2603135190.8030353     
   2623996517.6028028     
   2644694888.1342955     
   2633613189.8630447     
   2632875636.4777665     
   2642522085.6221566     
   2662602943.7513571     
   2684276247.1045766     
   2674961801.4305224     
   2675246818.6389270     
   2685146332.8946772     
   2704680896.7816992     
   2726967568.5310431     
   2719232324.3155775     
   2720511599.5680709     
   2730808449.2455621     
   2750127582.3309464     
   2772158276.3133564     
   2765973416.4593458     
   2768358399.5129857     
   2779313216.5971355     
   2798837866.3372097     
   2623996517.6028028     
   2585386642.2677860     
   2552693193.3658962     
   2526498191.0568576     
   2507611297.6551428     
   2662602943.7513571     
   2617097998.4015946     
   2577271244.3407474     
   2543453669.8396373     
   2516107949.1493030     
   2704680896.7816992     
   2654379949.1109571     
   2609662202.0465550     
   2570674950.7001715     
   2537624511.4716139     
   2750127582.3309464     
   2697136647.7793322     
   2649776576.7337255     
   2608083852.9390478     
   2572109475.0473642     
   2798837866.3372097     
   2745263851.9662027     
   2697510512.3202710     
   2655577845.2414331     
   2619465850.1717048     
   2507611297.6551428     
   2357239411.7014003     
   2215043049.6900516     
   2086000035.9724922     
   1976981649.2077901     
   2516107949.1493030     
   2348230411.3132396     
   2183914299.9766989     
   2026258170.6065547     
   1879824055.5752950     
   2537624511.4716139     
   2357326154.5565853     
   2176770069.5056219     
   1997427288.2093029     
   1821574748.0328360     
   2572109475.0473642     
   2384629931.5654230     
   2194076880.5364294     
   2000828543.9137843     
   1805488866.3566937     
   2619465850.1717048     
   2430110125.5024128     
   2235976811.9548697     
   2037065909.0208559     
   1833377416.3793409     
   2128216374.8347540     
   2257877401.7887087     
   2362850288.7907710     
   2443002643.4753704     
   2498266611.1611576     
   2379441283.6169510     
   2434815325.3749075     
   2481850680.9298596     
   2520554067.5583639     
   2550944301.4800582     
   2657469995.1888471     
   2640870704.9587407     
   2632403633.0720825     
   2632027060.1861649     
   2639697483.0838203     
   2988948696.8481641     
   2898660122.6430063     
   2831981691.0949202     
   2788727269.4345355     
   2768757587.5079241     
   3401037806.5128026     
   3230260824.1713352     
   3096705126.2165499     
   3000138450.3748493     
   2940635236.9084735     
   2498266611.1611576     
   2519268110.4644547     
   2543287319.5006995     
   2570324271.2466669     
   2600379009.8213682     
   2550944301.4800582     
   2556313630.3966260     
   2567333995.9853406     
   2584012036.5747418     
   2606354513.1360202     
   2639697483.0838203     
   2627209289.7925529     
   2622899473.4038677     
   2626806864.7255063     
   2638972551.2556839     
   2768757587.5079241     
   2735631967.9924054     
   2712993694.8556519     
   2700955197.2608461     
   2699641278.2936893     
   2940635236.9084735     
   2883738081.8561053     
   2839322851.5502124     
   2807620948.9020309     
   2788903069.2601185     
   2600379009.8213682     
   2598924738.1478939     
   2604593797.9851022     
   2617386156.0656090     
   2637301843.3446193     
   2606354513.1360202     
   2598777085.1615610     
   2599038475.4575372     
   2607148765.9674463     
   2623117589.6289663     
   2638972551.2556839     
   2622791059.6361246     
   2615148247.3527484     
   2616090783.4545717     
   2625664554.9045219     
   2699641278.2936893     
   2672332668.8033018     
   2654203132.6082997     
   2645366424.5473638     
   2645937572.2576261     
   2788903069.2601185     
   2748043386.9772143     
   2716896851.7309084     
   2695673109.1859031     
   2684590722.1313524     
   2637301843.3446193     
   2638934548.5806265     
   2650003032.7211337     
   2670507287.5192914     
   2700447401.3977952     
   2623117589.6289663     
   2620666550.4782977     
   2627408362.3521409     
   2643355237.6655111     
   2668518113.5077424     
   2625664554.9045219     
   2616902954.1491594     
   2617166006.7894263     
   2626499943.4157071     
   2644946497.4558415     
   2645937572.2576261     
   2628808111.8664665     
   2620567074.6343136     
   2621315168.7147717     
   2631145466.0718975     
   2684590722.1313524     
   2657293146.4337430     
   2638732996.6704121     
   2629082091.7397213     
   2628503822.2989702     
   2700447401.3977952     
   2705222687.0260863     
   2718766311.8147469     
   2741078185.8283687     
   2772158276.3133564     
   2668518113.5077424     
   2669161869.9251614     
   2679126116.2305970     
   2698416535.6418986     
   2727037447.9526634     
   2644946497.4558415     
   2639753807.9804921     
   2644552248.9772344     
   2659371811.6016207     
   2684236297.6066523     
   2631145466.0718975     
   2618211835.5375104     
   2616050563.3471541     
   2624743636.7069602     
   2644358342.4530993     
   2628503822.2989702     
   2605761649.9368072     
   2594661735.3593054     
   2595376450.7183952     
   2608052021.9457488     
   2772158276.3133564     
   2765973416.4593458     
   2768358399.5129857     
   2779313216.5971355     
   2798837866.3372097     
   2727037447.9526634     
   2719253554.8492885     
   2720474021.2718153     
   2730702153.6750102     
   2749942624.2966843     
   2684236297.6066523     
   2674884995.4987202     
   2675114103.2054777     
   2684938575.2126670     
   2704378945.6397309     
   2644358342.4530993     
   2633313959.9405055     
   2632586943.1379495     
   2642216030.2948680     
   2662251597.2737770     
   2608052021.9457488     
   2595015126.3822517     
   2593215421.1198936     
   2602732191.2261457     
   2623662741.6185951     
   2798837866.3372097     
   2745263851.9662027     
   2697510512.3202710     
   2655577845.2414331     
   2619465850.1717048     
   2749942624.2966843     
   2696994785.5525789     
   2649679090.9969640     
   2608032201.6201077     
   2572105622.2831059     
   2704378945.6397309     
   2654139746.0050640     
   2609486237.9216413     
   2570565693.8256168     
   2537584440.0172305     
   2662251597.2737770     
   2616802631.2011580     
   2577035498.7785826     
   2543280592.5883446     
   2515999095.5981903     
   2623662741.6185951     
   2585078784.1301899     
   2552415957.1506014     
   2526254776.4846601     
   2507400987.9764996     
   2619465850.1717048     
   2430110125.5024128     
   2235976811.9548697     
   2037065909.0208559     
   1833377416.3793409     
   2572105622.2831059     
   2384620990.3785005     
   2194062515.6078343     
   2000808668.4060762     
   1805463590.7001698     
   2537584440.0172305     
   2357288867.2066364     
   2176735096.5833373     
   1997396053.6789448     
   1821551820.3634605     
   2515999095.5981903     
   2348145136.1026940     
   2183852135.0420551     
   2026223350.5257111     
   1879828810.7167940     
   2507400987.9764996     
   2357086486.7394180     
   2214947077.4379382     
   2085968809.8367648     
   1977036448.7886810     
   3401037806.5128026     
   3230260824.1713352     
   3096705126.2165499     
   3000138450.3748493     
   2940635236.9084735     
   3331943173.8815341     
   3206497352.6148615     
   3100586085.5423179     
   3014795724.7440948     
   2949968007.4750338     
   3317333555.0724201     
   3227017947.0719647     
   3143253145.6446748     
   3066595885.8276205     
   2997664087.0843930     
   3308115186.4167390     
   3253059800.4390936     
   3196072469.8023939     
   3136503926.2773523     
   3073763866.6263428     
   3268556794.8954253     
   3256115217.5308671     
   3237299823.2806773     
   3209090121.1936827     
   3169025637.2417250     
   2940635236.9084735     
   2883738081.8561053     
   2839322851.5502124     
   2807620948.9020309     
   2788903069.2601185     
   2949968007.4750338     
   2893736989.7015319     
   2846702812.5942616     
   2809206515.0592413     
   2781626937.0154681     
   2997664087.0843930     
   2940173958.1830645     
   2889005894.5240817     
   2844524610.8056006     
   2807124574.6428828     
   3073763866.6263428     
   3014826508.2417064     
   2959789744.9883308     
   2908945872.9863787     
   2862604958.5408525     
   3169025637.2417250     
   3109833600.7184391     
   3052603308.3360043     
   2997473157.8765922     
   2944588236.9616961     
   2788903069.2601185     
   2748043386.9772143     
   2716896851.7309084     
   2695673109.1859031     
   2684590722.1313524     
   2781626937.0154681     
   2733555504.3649430     
   2694089638.8110371     
   2663534890.4808345     
   2642212532.1338644     
   2807124574.6428828     
   2750157990.8751445     
   2700670114.2332244     
   2659044330.9876542     
   2625689866.8226657     
   2862604958.5408525     
   2795854742.1524830     
   2735445075.2091775     
   2681804210.7683702     
   2635397190.4504771     
   2944588236.9616961     
   2867903093.5484719     
   2796438189.3614855     
   2730627255.7374907     
   2670948975.2183552     
   2684590722.1313524     
   2657293146.4337430     
   2638732996.6704121     
   2629082091.7397213     
   2628503822.2989702     
   2642212532.1338644     
   2606012421.1882176     
   2578482954.9589725     
   2559904275.5360904     
   2550550521.2635670     
   2625689866.8226657     
   2578448973.9082193     
   2539705872.3417854     
   2509868528.0941787     
   2489349104.7852650     
   2635397190.4504771     
   2575349843.6471300     
   2523473073.9627929     
   2480308194.9189711     
   2446421519.9565568     
   2670948975.2183552     
   2596799033.8735704     
   2530310559.3913689     
   2472144428.3448920     
   2423017969.3212247     
   2628503822.2989702     
   2605761649.9368072     
   2594661735.3593054     
   2595376450.7183952     
   2608052021.9457488     
   2550550521.2635670     
   2518784532.5390706     
   2497808997.7985663     
   2487908180.3751273     
   2489331918.8399024     
   2489349104.7852650     
   2446647729.4553552     
   2413824780.9593835     
   2391288822.6221657     
   2379415359.6408954     
   2446421519.9565568     
   2391419179.0811253     
   2345236204.9746637     
   2308397524.5129824     
   2281410018.5521779     
   2423017969.3212247     
   2355037000.7087970     
   2294617243.6384344     
   2242364018.1931882     
   2198892286.9371552     
   2608052021.9457488     
   2595015126.3822517     
   2593215421.1198936     
   2602732191.2261457     
   2623662741.6185951     
   2489331918.8399024     
   2469689820.8635168     
   2462039399.1033673     
   2466518367.6391969     
   2483262408.8943658     
   2379415359.6408954     
   2350839235.7342238     
   2335162640.5181365     
   2332638426.8098378     
   2343488909.0433302     
   2281410018.5521779     
   2241220485.3411279     
   2214929925.3681488     
   2202991388.9124508     
   2205793339.5366850     
   2198892286.9371552     
   2144135605.7131798     
   2104251993.0059206     
   2080010743.1562016     
   2072088426.2807739     
   2623662741.6185951     
   2585078784.1301899     
   2552415957.1506014     
   2526254776.4846601     
   2507400987.9764996     
   2483262408.8943658     
   2450522535.9928317     
   2426357518.7310534     
   2411712826.7088599     
   2407964089.3189459     
   2343488909.0433302     
   2319059912.9379306     
   2306160814.2285476     
   2306197861.8606553     
   2321260612.5089159     
   2205793339.5366850     
   2191463996.5343027     
   2192105132.5705061     
   2209686545.9469690     
   2247131804.6251965     
   2072088426.2807739     
   2068698923.3591030     
   2084503724.7028265     
   2122133256.0675752     
   2185405724.1936941     
   2507400987.9764996     
   2357086486.7394180     
   2214947077.4379382     
   2085968809.8367648     
   1977036448.7886810     
   2407964089.3189459     
   2282730851.7211151     
   2168005492.1496572     
   2070529960.4511800     
   1999074632.5045433     
   2321260612.5089159     
   2224607045.5902843     
   2141283595.4752409     
   2079652807.1939225     
   2049881434.1822391     
   2247131804.6251965     
   2182505184.0227232     
   2134310604.9494631     
   2112206968.8409681     
   2127117406.2854238     
   2185405724.1936941     
   2156130815.5193915     
   2146439446.5591609     
   2166842227.6449337     
   2228393969.2828240     
   3268556794.8954253     
   3256115217.5308671     
   3237299823.2806773     
   3209090121.1936827     
   3169025637.2417250     
   3521966528.4219952     
   3484437107.7245097     
   3444587196.1979847     
   3402149085.2669954     
   3356884915.5521789     
   3899441515.1715674     
   3812075678.4628859     
   3730893187.7538404     
   3655916407.0788813     
   3587290636.4308205     
   4400114130.2021942     
   4242400741.3674402     
   4100495529.3652782     
   3973313815.7989659     
   3860354490.3818135     
   5027940466.1899757     
   4780315520.8976507     
   4557393474.2156811     
   4356353874.6934872     
   4175608226.3335719     
   3169025637.2417250     
   3109833600.7184391     
   3052603308.3360043     
   2997473157.8765922     
   2944588236.9616961     
   3356884915.5521789     
   3278327080.4748907     
   3202779830.8881435     
   3130523755.7970963     
   3061872943.3896103     
   3587290636.4308205     
   3487650495.5732136     
   3391872332.4384108     
   3300271522.6998425     
   3213242381.1475005     
   3860354490.3818135     
   3737434214.3675661     
   3619014525.6406913     
   3505347127.5978060     
   3396818555.9030738     
   4175608226.3335719     
   4026711725.4760218     
   3882759938.8458686     
   3743856642.5381098     
   3610298851.3728166     
   2944588236.9616961     
   2867903093.5484719     
   2796438189.3614855     
   2730627255.7374907     
   2670948975.2183552     
   3061872943.3896103     
   2968037717.7838087     
   2879126503.5087414     
   2795593896.3164554     
   2717967635.3627429     
   3213242381.1475005     
   3102405715.1456399     
   2996052545.5408578     
   2894614625.1944780     
   2798620994.0060954     
   3396818555.9030738     
   3269182716.8239136     
   3145510268.6426301     
   3026171697.7649188     
   2911650874.0648460     
   3610298851.3728166     
   3466023625.7732129     
   3325167493.8946323     
   3188011709.5539150     
   3054957783.3912888     
   2670948975.2183552     
   2596799033.8735704     
   2530310559.3913689     
   2472144428.3448920     
   2423017969.3212247     
   2717967635.3627429     
   2625450295.6404629     
   2539261265.3966246     
   2460063417.5883765     
   2388612619.4834013     
   2798620994.0060954     
   2688989114.4585671     
   2584253495.3829226     
   2484994707.9615130     
   2391905769.2867870     
   2911650874.0648460     
   2786813997.9513130     
   2665494867.0923347     
   2548131132.9334006     
   2435266997.5023737     
   3054957783.3912888     
   2917222824.0714326     
   2781815110.2580018     
   2649010722.0968933     
   2519166492.9392333     
   2423017969.3212247     
   2355037000.7087970     
   2294617243.6384344     
   2242364018.1931882     
   2198892286.9371552     
   2388612619.4834013     
   2301447996.1151381     
   2221493731.0257673     
   2149489967.0252066     
   2086241291.6005991     
   2391905769.2867870     
   2285540264.1298709     
   2185639264.8449826     
   2092996248.2858372     
   2008535510.4958701     
   2435266997.5023737     
   2310455188.3524041     
   2191074417.9592991     
   2077855470.5668099     
   1971711351.2193723     
   2519166492.9392333     
   2377297079.6320267     
   2239723379.2377510     
   2107008068.5002887     
   1979909000.1873643     
   2198892286.9371552     
   2144135605.7131798     
   2104251993.0059206     
   2080010743.1562016     
   2072088426.2807739     
   2086241291.6005991     
   2011356814.9647672     
   1948796381.0127423     
   1899639642.4399595     
   1864914971.4678969     
   2008535510.4958701     
   1912129944.0065022     
   1824495681.3408616     
   1746833489.9794288     
   1680435887.0414805     
   1971711351.2193723     
   1855382582.8488882     
   1743450318.8767550     
   1636838162.7779572     
   1536679849.7045879     
   1979909000.1873643     
   1848786180.4409530     
   1717753322.8157792     
   1587163173.1864536     
   1457527008.8897812     
   2072088426.2807739     
   2068698923.3591030     
   2084503724.7028265     
   2122133256.0675752     
   2185405724.1936941     
   1864914971.4678969     
   1854529381.6401396     
   1867087597.2763305     
   1904795055.4344277     
   1970684517.0988777     
   1680435887.0414805     
   1652057268.5100408     
   1651383993.1177566     
   1680780246.7229800     
   1742852654.6066518     
   1536679849.7045879     
   1475903876.4530861     
   1447814895.2338133     
   1456376227.6304090     
   1504879178.1468556     
   1457527008.8897812     
   1348551621.1837044     
   1274555912.4861917     
   1243669458.1633708     
   1262934459.0430398     
   2185405724.1936941     
   2156130815.5193915     
   2146439446.5591609     
   2166842227.6449337     
   2228393969.2828240     
   1970684517.0988777     
   1968859717.4935219     
   2003571912.7996101     
   2093486681.0082002     
   2257252274.6372471     
   1742852654.6066518     
   1787666473.4103515     
   1884622182.9091661     
   2060625078.3234527     
   2340899405.2248645     
   1504879178.1468556     
   1613267171.9560800     
   1788850330.6666021     
   2066379554.0798454     
   2476061336.7355199     
   1262934459.0430398     
   1446704357.0943341     
   1715692241.8039863     
   2110483513.5244937     
   2663522881.1871152     
   5027940466.1899757     
   4780315520.8976507     
   4557393474.2156811     
   4356353874.6934872     
   4175608226.3335719     
   5281963626.6493826     
   5060382421.3134193     
   4841467281.6215439     
   4625353704.3765726     
   4412314037.4801521     
   5451893399.1479979     
   5255434008.9860401     
   5058879732.3738098     
   4860515893.1401014     
   4658890175.1836672     
   5491851102.5066175     
   5332498460.8739309     
   5186773506.0287285     
   5046497387.8462849     
   4905608614.5546227     
   5396677409.7328625     
   5284035149.3555307     
   5217313357.9019279     
   5176097081.6485109     
   5146120038.5695925     
   4175608226.3335719     
   4026711725.4760218     
   3882759938.8458686     
   3743856642.5381098     
   3610298851.3728166     
   4412314037.4801521     
   4253409803.6073532     
   4096840888.3750825     
   3942771391.8255534     
   3791463402.2027483     
   4658890175.1836672     
   4492156168.6466961     
   4326580604.8454437     
   4162285452.7707582     
   3999427803.9860749     
   4905608614.5546227     
   4734105244.6310759     
   4563850139.5394068     
   4394838893.0572615     
   4227075988.7397308     
   5146120038.5695925     
   4973210881.8366766     
   4802799264.7448559     
   4634670052.4914856     
   4468623286.1241713     
   3610298851.3728166     
   3466023625.7732129     
   3325167493.8946323     
   3188011709.5539150     
   3054957783.3912888     
   3791463402.2027483     
   3636457256.7460518     
   3483294482.1161470     
   3332181127.2061825     
   3183415197.7923737     
   3999427803.9860749     
   3834738348.9038916     
   3670679814.8865986     
   3507380696.3416324     
   3345031187.5643930     
   4227075988.7397308     
   4054144318.7083502     
   3880979042.1619883     
   3707644821.9883595     
   3534242801.8835268     
   4468623286.1241713     
   4289113661.7572055     
   4108819682.3286295     
   3927763177.5464506     
   3745985899.4354510     
   3054957783.3912888     
   2917222824.0714326     
   2781815110.2580018     
   2649010722.0968933     
   2519166492.9392333     
   3183415197.7923737     
   3036488628.0274849     
   2891555453.7200818     
   2748843559.7680101     
   2608663548.3951817     
   3345031187.5643930     
   3188219510.9032011     
   3033010595.5800009     
   2879583295.2264285     
   2728202360.9321232     
   3534242801.8835268     
   3366602312.9731917     
   3200127437.4165349     
   3034950267.8606534     
   2871293510.8620377     
   3745985899.4354510     
   3566387185.1028099     
   3387480111.2974529     
   3209353995.5045533     
   3032195073.1829991     
   2519166492.9392333     
   2377297079.6320267     
   2239723379.2377510     
   2107008068.5002887     
   1979909000.1873643     
   2608663548.3951817     
   2457708911.5644393     
   2308891724.5151992     
   2162536316.2585611     
   2019086738.6471381     
   2728202360.9321232     
   2571216992.5539446     
   2414836622.4459152     
   2259183894.3422265     
   2104426494.7064290     
   2871293510.8620377     
   2711718321.2876987     
   2551868915.6721106     
   2391759568.6217804     
   2231411828.5631304     
   3032195073.1829991     
   2873527766.6659389     
   2714294014.8684945     
   2554497060.5696735     
   2394153511.5419593     
   1979909000.1873643     
   1848786180.4409530     
   1717753322.8157792     
   1587163173.1864536     
   1457527008.8897812     
   2019086738.6471381     
   1881807333.3588064     
   1744901677.7448506     
   1608500422.3135383     
   1472783097.4180796     
   2104426494.7064290     
   1963613613.5033340     
   1823805794.8890340     
   1685033804.9092920     
   1547358643.4205337     
   2231411828.5631304     
   2087953282.8798170     
   1946188495.8093488     
   1806116848.6777825     
   1667817327.6912103     
   2394153511.5419593     
   2247297412.2831235     
   2102663145.7457211     
   1960249972.1144180     
   1820228942.6222227     
   1457527008.8897812     
   1348551621.1837044     
   1274555912.4861917     
   1243669458.1633708     
   1262934459.0430398     
   1472783097.4180796     
   1328590350.1162958     
   1198851955.3405776     
   1088051445.3571868     
   1002094955.8169184     
   1547358643.4205337     
   1397548264.3765492     
   1244162980.7720172     
   1084931854.2824805     
   917824179.90783441     
   1667817327.6912103     
   1552507998.7050424     
   1428070892.9634426     
   1294866588.3864431     
   1159025044.4663591     
   1820228942.6222227     
   1779733279.5682223     
   1735713681.5792446     
   1696806822.9483500     
   1681517345.4467583     
   1262934459.0430398     
   1446704357.0943341     
   1715692241.8039863     
   2110483513.5244937     
   2663522881.1871152     
   1002094955.8169184     
   1164739465.5560696     
   1425425106.0248718     
   1808740429.1951964     
   2334773032.9597311     
   917824179.90783441     
   963170392.46917236     
   1144932704.5634902     
   1476474506.2164469     
   1957482565.9600303     
   1159025044.4663591     
   1008516189.5330938     
   985242890.38966882     
   1161488354.4981534     
   1544164523.7112753     
   1681517345.4467583     
   1383902794.2794123     
   1129535722.2786877     
   1010155110.6120938     
   1153092892.2703111     
 </DataArray>
 <DataArray  type="Float64" Name="strain" NumberOfComponents="3" format="ascii">
   9.1946421335650674E-002  -3.0694517817822065E-002  -1.9286365427356289E-002
   9.0661653917331053E-002  -2.9458770673952972E-002  -1.2849990250596743E-002
   8.9376886499011432E-002  -2.8283858868045908E-002  -8.0060895557063638E-003
   8.8092119080691811E-002  -2.7169782400101108E-002  -4.7546633426850671E-003
   8.6807351662372190E-002  -2.6116541270118532E-002  -3.0957116115329919E-003
   9.2079521630540562E-002  -2.8541250448479549E-002  -4.3995872210600417E-003
   8.9517118646915750E-002  -2.7483844027679227E-002  -4.6165157977812177E-004
   8.6954715663291049E-002  -2.6460503540835068E-002   2.5134874127627493E-003
   8.4392312679666320E-002  -2.5471228987946543E-002   4.5258297565622940E-003
   8.1829909696041481E-002  -2.4516020369014235E-002   5.5753754516208454E-003
   8.9446794109347805E-002  -2.6387983079136923E-002   1.0295465560164196E-002
   8.6236433393546003E-002  -2.5508917381405649E-002   1.1761731069974524E-002
   8.3026072677743978E-002  -2.4637148213623977E-002   1.2894877764172114E-002
   7.9815711961942093E-002  -2.3772675575792192E-002   1.3694905642756272E-002
   7.6605351246140152E-002  -2.2915499467909828E-002   1.4161814705727194E-002
   8.4048238772072764E-002  -2.4234715709794352E-002   2.4798792916316412E-002
   8.0819598157221478E-002  -2.3533990735131918E-002   2.3820157698661831E-002
   7.7590957542370373E-002  -2.2813792886412956E-002   2.3138081498521999E-002
   7.4362316927519267E-002  -2.2074122163637567E-002   2.2752564315896954E-002
   7.1133676312668148E-002  -2.1314978566805642E-002   2.2663606150786664E-002
   7.5883855618714913E-002  -2.2081448340451837E-002   3.9110394847396701E-002
   7.3266612937942455E-002  -2.1559064088858271E-002   3.5713628306283163E-002
   7.0649370257170163E-002  -2.0990437559202005E-002   3.3243098615812233E-002
   6.8032127576397761E-002  -2.0375568751483001E-002   3.1698805775984204E-002
   6.5414884895625441E-002  -1.9714457665701290E-002   3.1080749786798811E-002
   8.6807351662372190E-002  -2.6116541270118532E-002  -3.0957116115329919E-003
   8.3794030410922815E-002  -2.5120400631369166E-002  -2.6987829617871606E-003
   8.0780709159473496E-002  -2.4177625637124445E-002  -2.1628778535031090E-003
   7.7767387908024205E-002  -2.3288216287384811E-002  -1.4879962866805319E-003
   7.4754066656574802E-002  -2.2452172582149599E-002  -6.7413826131945687E-004
   8.1829909696041481E-002  -2.4516020369014235E-002   5.5753754516208454E-003
   7.8967694871506400E-002  -2.3596185674761572E-002   5.6922938062173856E-003
   7.6105480046971319E-002  -2.2713032895912588E-002   5.9724485561037099E-003
   7.3243265222436182E-002  -2.1866562032467576E-002   6.4158397012800822E-003
   7.0381050397901157E-002  -2.1056773084425995E-002   7.0224672417462108E-003
   7.6605351246140152E-002  -2.2915499467909828E-002   1.4161814705727194E-002
   7.3918502785270790E-002  -2.2071970718153894E-002   1.4015406494275684E-002
   7.1231654324401414E-002  -2.1248440154700621E-002   1.4056494614865175E-002
   6.8544805863532093E-002  -2.0444907777550120E-002   1.4285079067496251E-002
   6.5857957402662676E-002  -1.9661373586702502E-002   1.4701159852168966E-002
   7.1133676312668148E-002  -2.1314978566805642E-002   2.2663606150786664E-002
   6.8646454152215958E-002  -2.0547755761546146E-002   2.2270555102387665E-002
   6.6159231991763753E-002  -1.9783847413488653E-002   2.2089260322781627E-002
   6.3672009831311591E-002  -1.9023253522632774E-002   2.2119721811968342E-002
   6.1184787670859435E-002  -1.8265974088978842E-002   2.2361939569948280E-002
   6.5414884895625441E-002  -1.9714457665701290E-002   3.1080749786798811E-002
   6.3151548972341903E-002  -1.9023540804938538E-002   3.0457739630553704E-002
   6.0888213049058407E-002  -1.8319254672276783E-002   3.0070745679852823E-002
   5.8624877125774945E-002  -1.7601599267715481E-002   2.9919767934696403E-002
   5.6361541202491428E-002  -1.6870574591255127E-002   3.0004806395084460E-002
   7.4754066656574802E-002  -2.2452172582149599E-002  -6.7413826131945687E-004
   7.1711709262485268E-002  -2.1619657942786696E-002  -7.4893945462584099E-004
   6.8669351868395567E-002  -2.0740835790664214E-002  -6.9821917083279228E-004
   6.5626994474306005E-002  -1.9815706125781263E-002  -5.2197740994044950E-004
   6.2584637080216332E-002  -1.8844268948138287E-002  -2.2021417194806325E-004
   7.0381050397901157E-002  -2.1056773084425995E-002   7.0224672417462108E-003
   6.7474699474583288E-002  -2.0249164340335191E-002   6.8473888156785900E-003
   6.4568348551265503E-002  -1.9409234088741567E-002   6.8188018540546735E-003
   6.1661997627947704E-002  -1.8536982329645749E-002   6.9367063568754328E-003
   5.8755646704629849E-002  -1.7632409063046639E-002   7.2011023241392857E-003
   6.5857957402662676E-002  -1.9661373586702502E-002   1.4701159852168966E-002
   6.3108582937461133E-002  -1.8878670737883380E-002   1.4411818188082542E-002
   6.0359208472259521E-002  -1.8077632386819253E-002   1.4289937975784886E-002
   5.7609834007057971E-002  -1.7258258533509457E-002   1.4335519215275441E-002
   5.4860459541856366E-002  -1.6420549177954880E-002   1.4548561906554458E-002
   6.1184787670859435E-002  -1.8265974088978842E-002   2.2361939569948280E-002
   5.8613359651118482E-002  -1.7508177135431721E-002   2.1944348662586044E-002
   5.6041931631377620E-002  -1.6746030684896662E-002   2.1715189194356617E-002
   5.3470503611636737E-002  -1.5979534737373888E-002   2.1674461165260117E-002
   5.0899075591895826E-002  -1.5208689292863065E-002   2.1822164575296496E-002
   5.6361541202491428E-002  -1.6870574591255127E-002   3.0004806395084460E-002
   5.3989029615555628E-002  -1.6137683532980063E-002   2.9444980239188845E-002
   5.1616518028619857E-002  -1.5414428982974321E-002   2.9094555509770470E-002
   4.9244006441684043E-002  -1.4700810941238270E-002   2.8953532206829571E-002
   4.6871494854748230E-002  -1.3996829407771416E-002   2.9021910330365885E-002
   6.2584637080216332E-002  -1.8844268948138287E-002  -2.2021417194806325E-004
   5.9617391800025232E-002  -1.7879655344701484E-002  -3.3241092315350329E-004
   5.6650146519834244E-002  -1.6974996402435993E-002  -2.4712088912565155E-004
   5.3682901239643199E-002  -1.6130292121342218E-002   3.5655930135880531E-005
   5.0715655959452155E-002  -1.5345542501420173E-002   5.1591953463137052E-004
   5.8755646704629849E-002  -1.7632409063046639E-002   7.2011023241392857E-003
   5.5976917947112681E-002  -1.6730796472386900E-002   6.9646397629111734E-003
   5.3198189189595430E-002  -1.5867426741107915E-002   6.9077234617969663E-003
   5.0419460432078358E-002  -1.5042299869209422E-002   7.0303534207964702E-003
   4.7640731674561121E-002  -1.4255415856692100E-002   7.3325296399101569E-003
   5.4860459541856366E-002  -1.6420549177954880E-002   1.4548561906554458E-002
   5.2252306781893548E-002  -1.5581937600072371E-002   1.4209545337093815E-002
   4.9644154021930814E-002  -1.4759857079779809E-002   1.4032134502628024E-002
   4.7036001261968011E-002  -1.3954307617077173E-002   1.4016329403156849E-002
   4.4427848502005263E-002  -1.3165289211964026E-002   1.4162130038680054E-002
   5.0899075591895826E-002  -1.5208689292863065E-002   2.1822164575296496E-002
   4.8443558304368001E-002  -1.4433078727758036E-002   2.1402305799394894E-002
   4.5988041016840168E-002  -1.3652287418451495E-002   2.1126112233368001E-002
   4.3532523729312364E-002  -1.2866315364944429E-002   2.0993583877216709E-002
   4.1077006441784511E-002  -1.2075162567236175E-002   2.1004720730940563E-002
   4.6871494854748230E-002  -1.3996829407771416E-002   2.9021910330365885E-002
   4.4550672514535983E-002  -1.3284219855443313E-002   2.8542921149813882E-002
   4.2229850174323652E-002  -1.2544717757123638E-002   2.8189656654017597E-002
   3.9909027834111363E-002  -1.1778323112811909E-002   2.7962116842976933E-002
   3.7588205493899074E-002  -1.0985035922508102E-002   2.7860301716692293E-002
   5.0715655959452155E-002  -1.5345542501420173E-002   5.1591953463137052E-004
   4.8006337201551341E-002  -1.4569320348682191E-002   3.5966229738193523E-004
   4.5297018443650749E-002  -1.3750198469143271E-002   2.1915464165100929E-004
   4.2587699685750102E-002  -1.2888176862800749E-002   9.4396567438481682E-005
   3.9878380927849344E-002  -1.1983255529656844E-002  -1.4611925256424740E-005
   4.7640731674561121E-002  -1.4255415856692100E-002   7.3325296399101569E-003
   4.4963635522882739E-002  -1.3475621799427739E-002   7.0882678775386898E-003
   4.2286539371204468E-002  -1.2671764793288021E-002   6.8927017460941320E-003
   3.9609443219526225E-002  -1.1843844838273693E-002   6.7458312455760672E-003
   3.6932347067847870E-002  -1.0991861934384062E-002   6.6476563759841900E-003
   4.4427848502005263E-002  -1.3165289211964026E-002   1.4162130038680054E-002
   4.1815921005957601E-002  -1.2381923250172566E-002   1.3811026973259255E-002
   3.9203993509909996E-002  -1.1593331117432992E-002   1.3541565588173626E-002
   3.6592066013862376E-002  -1.0799512813745971E-002   1.3353745883422530E-002
   3.3980138517814729E-002  -1.0000468339111279E-002   1.3247567859006493E-002
   4.1077006441784511E-002  -1.2075162567236175E-002   2.1004720730940563E-002
   3.8563193650775887E-002  -1.1288224700917310E-002   2.0527939584543242E-002
   3.6049380859767194E-002  -1.0514897441577964E-002   2.0165746167889007E-002
   3.3535568068758570E-002  -9.7551807892183595E-003   1.9918140480978036E-002
   3.1021755277749821E-002  -9.0090747438387186E-003   1.9785122523809651E-002
   3.7588205493899074E-002  -1.0985035922508102E-002   2.7860301716692293E-002
   3.5205453457337610E-002  -1.0194526151661998E-002   2.7239005711390873E-002
   3.2822701420776146E-002  -9.4364637657226857E-003   2.6765243485240842E-002
   3.0439949384214626E-002  -8.7108487646907415E-003   2.6439015038242336E-002
   2.8057197347653218E-002  -8.0176811485656030E-003   2.6260320370395052E-002
   3.9878380927849344E-002  -1.1983255529656844E-002  -1.4611925256424740E-005
   3.7461532258949104E-002  -1.1139644862835474E-002  -2.9628448619023473E-004
   3.5044683590048753E-002  -1.0461555255461885E-002  -4.8938491417427343E-004
   3.2627834921148513E-002  -9.9489867075365224E-003  -5.9391320920731960E-004
   3.0210986252248162E-002  -9.6019392190587194E-003  -6.0986937129015040E-004
   3.6932347067847870E-002  -1.0991861934384062E-002   6.6476563759841900E-003
   3.4586383452837821E-002  -1.0182167769244299E-002   6.2050413030473317E-003
   3.2240419837827883E-002  -9.4811140304781327E-003   5.8156242049404727E-003
   2.9894456222817861E-002  -8.8887007180852573E-003   5.4794050816633910E-003
   2.7548492607807784E-002  -8.4049278320668108E-003   5.1963839332165307E-003
   3.3980138517814729E-002  -1.0000468339111279E-002   1.3247567859006493E-002
   3.1669685798574598E-002  -9.2246906756529579E-003   1.2700890907140605E-002
   2.9359233079334357E-002  -8.5006728054937142E-003   1.2172037771984612E-002
   2.7048780360094199E-002  -7.8284147286344363E-003   1.1661008453537847E-002
   2.4738327640853985E-002  -7.2079164450747912E-003   1.1167802951801309E-002
   3.1021755277749821E-002  -9.0090747438387186E-003   1.9785122523809651E-002
   2.8711439296159075E-002  -8.2672135820612558E-003   1.9191264326089696E-002
   2.6401123314568377E-002  -7.5202315805094067E-003   1.8579855786958366E-002
   2.4090807332977547E-002  -6.7681287391836153E-003   1.7950896906416824E-002
   2.1780491351386821E-002  -6.0109050580829382E-003   1.7304387684464129E-002
   2.8057197347653218E-002  -8.0176811485656030E-003   2.6260320370395052E-002
   2.5711643945591445E-002  -7.3097364884699978E-003   2.5676161559894273E-002
   2.3366090543529672E-002  -6.5397903555255155E-003   2.5039078249862123E-002
   2.1020537141467954E-002  -5.7078427497326209E-003   2.4349070440299131E-002
   1.8674983739406181E-002  -4.8138936710908631E-003   2.3606138131204935E-002
   3.0210986252248162E-002  -9.6019392190587194E-003  -6.0986937129015040E-004
   2.9603866478923990E-002  -9.1340385742664232E-003  -3.6305174337725177E-004
   2.8996746705599930E-002  -8.2589105573980248E-003  -1.7979656896729423E-003
   2.8389626932275813E-002  -6.9765551684524141E-003  -4.9146112101787764E-003
   2.7782507158951697E-002  -5.2869724074307012E-003  -9.7129883048934218E-003
   2.7548492607807784E-002  -8.4049278320668108E-003   5.1963839332165307E-003
   2.5529109448848009E-002  -7.8703586818744675E-003   5.8737285905887671E-003
   2.3509726289888233E-002  -7.1255565769616780E-003   5.4082780508993289E-003
   2.1490343130928513E-002  -6.1705215173284422E-003   3.8000323141475500E-003
   1.9470959971968793E-002  -5.0052535029745382E-003   1.0489913803339856E-003
   2.4738327640853985E-002  -7.2079164450747912E-003   1.1167802951801309E-002
   2.1845617473406131E-002  -6.6066787894827339E-003   1.2078680221276450E-002
   1.8952907305958278E-002  -5.9922025965262193E-003   1.2385698670837247E-002
   1.6060197138510438E-002  -5.3644878662049145E-003   1.2088858300483757E-002
   1.3167486971062570E-002  -4.7235345985193744E-003   1.1188159110216034E-002
   2.1780491351386821E-002  -6.0109050580829382E-003   1.7304387684464129E-002
   1.8553390552598414E-002  -5.3429988970908893E-003   1.8251803148686102E-002
   1.5326289753810014E-002  -4.8588486160903166E-003   1.9134296170141382E-002
   1.2099188955021555E-002  -4.5584542150811647E-003   1.9951866748829816E-002
   8.8720881562330961E-003  -4.4418156940639331E-003   2.0704514884751737E-002
   1.8674983739406181E-002  -4.8138936710908631E-003   2.3606138131204935E-002
   1.5652428686424802E-002  -4.0793190046989336E-003   2.4393097372817585E-002
   1.2629873633443367E-002  -3.7254946356546359E-003   2.5654070548811192E-002
   9.6073185804619737E-003  -3.7524205639575259E-003   2.7389057659185367E-002
   6.5847635274805527E-003  -4.1600967896082697E-003   2.9598058703940611E-002
   2.7782507158951697E-002  -5.2869724074307012E-003  -9.7129883048934218E-003
   2.3355039264212119E-002  -4.2068108143071825E-003  -4.1868277759067318E-003
   1.8927571369472540E-002  -4.7527189290598737E-003   2.6040250765736461E-003
   1.4500103474733128E-002  -6.9246967516879837E-003   1.0659570252547435E-002
   1.0072635579993383E-002  -1.0722744282191776E-002   1.9979807752013912E-002
   1.9470959971968793E-002  -5.0052535029745382E-003   1.0489913803339856E-003
   1.6235715910751847E-002  -4.6908065485486983E-003   6.7417852142022117E-003
   1.3000471849535011E-002  -6.2882346686978785E-003   1.3554334391622236E-002
   9.7652277883181482E-003  -9.7975378634223009E-003   2.1486638912594336E-002
   6.5299837271013406E-003  -1.5218716132722410E-002   3.0538698777118789E-002
   1.3167486971062570E-002  -4.7235345985193744E-003   1.1188159110216034E-002
   1.0979529763427365E-002  -5.1748022827893259E-003   1.6761780882264488E-002
   8.7915725557922153E-003  -7.8237504083350229E-003   2.3310221017924154E-002
   6.6036153481569965E-003  -1.2670378975156514E-002   3.0833479517194465E-002
   4.4156581405218609E-003  -1.9714687983254375E-002   3.9331556380076460E-002
   8.8720881562330961E-003  -4.4418156940639331E-003   2.0704514884751737E-002
   7.5864808222386795E-003  -5.6587980170301755E-003   2.5873159228279902E-002
   6.3008734882440479E-003  -9.3592661479723754E-003   3.1871684955478867E-002
   5.0152661542496001E-003  -1.5543220086891001E-002   3.8700092066347350E-002
   3.7296588202550135E-003  -2.4210659833785453E-002   4.6358380560886925E-002
   6.5847635274805527E-003  -4.1600967896082697E-003   2.9598058703940611E-002
   6.0565690871857147E-003  -6.1427937512712472E-003   3.4075920252249481E-002
   5.5283746468908768E-003  -1.0894781887609950E-002   3.9238726204287144E-002
   5.0001802065960249E-003  -1.8416061198624933E-002   4.5086476560054378E-002
   4.4719857663011453E-003  -2.8706631684316530E-002   5.1619171319550627E-002
   7.5883855618714913E-002  -2.2081448340451837E-002   3.9110394847396701E-002
   7.3266612937942455E-002  -2.1559064088858271E-002   3.5713628306283163E-002
   7.0649370257170163E-002  -2.0990437559202005E-002   3.3243098615812233E-002
   6.8032127576397761E-002  -2.0375568751483001E-002   3.1698805775984204E-002
   6.5414884895625441E-002  -1.9714457665701290E-002   3.1080749786798811E-002
   6.7157664078608237E-002  -2.0431472288830965E-002   3.9147303651066390E-002
   6.5291575078897102E-002  -1.9878335948471659E-002   3.7252844278098107E-002
   6.3425486079185911E-002  -1.9301083295891266E-002   3.5934455416609612E-002
   6.1559397079474706E-002  -1.8699714331089513E-002   3.5192137066600668E-002
   5.9693308079763557E-002  -1.8074229054066582E-002   3.5025889228071150E-002
   6.0073683581086779E-002  -1.8781496237210121E-002   3.9226027526422333E-002
   5.8608581923273492E-002  -1.8197607808085103E-002   3.8811749355758138E-002
   5.7143480265460345E-002  -1.7611729032580382E-002   3.8623375357410276E-002
   5.5678378607647169E-002  -1.7023859910696021E-002   3.8660905531378825E-002
   5.4213276949833931E-002  -1.6434000442431956E-002   3.8924339877663888E-002
   5.4631914126150274E-002  -1.7131520185589236E-002   3.9346566473465239E-002
   5.3217633471071848E-002  -1.6516879667698450E-002   4.0390343539263227E-002
   5.1803352815993471E-002  -1.5922374769269543E-002   4.1309858438214525E-002
   5.0389072160915135E-002  -1.5348005490302560E-002   4.2105111170319134E-002
   4.8974791505836793E-002  -1.4793771830797317E-002   4.2776101735576846E-002
   5.0832355713798794E-002  -1.5481544133968406E-002   3.9508920492194233E-002
   4.9118729722292032E-002  -1.4836151527311908E-002   4.1988626828613151E-002
   4.7405103730785353E-002  -1.4233020505958788E-002   4.3993904659022309E-002
   4.5691477739278633E-002  -1.3672151069909051E-002   4.5524753983421179E-002
   4.3977851747771940E-002  -1.3153543219162622E-002   4.6581174801810399E-002
   6.5414884895625441E-002  -1.9714457665701290E-002   3.1080749786798811E-002
   6.3151548972341903E-002  -1.9023540804938538E-002   3.0457739630553704E-002
   6.0888213049058407E-002  -1.8319254672276783E-002   3.0070745679852823E-002
   5.8624877125774945E-002  -1.7601599267715481E-002   2.9919767934696403E-002
   5.6361541202491428E-002  -1.6870574591255127E-002   3.0004806395084460E-002
   5.9693308079763557E-002  -1.8074229054066582E-002   3.5025889228071150E-002
   5.7648355589354133E-002  -1.7431563829227018E-002   3.4638598412743762E-002
   5.5603403098944779E-002  -1.6778655020974906E-002   3.4452058257620224E-002
   5.3558450608535424E-002  -1.6115502629310590E-002   3.4466268762700668E-002
   5.1513498118126000E-002  -1.5442106654233678E-002   3.4681229927984725E-002
   5.4213276949833931E-002  -1.6434000442431956E-002   3.8924339877663888E-002
   5.2351442346958134E-002  -1.5839586853515289E-002   3.8769642714767502E-002
   5.0489607744082315E-002  -1.5238055369673147E-002   3.8780430666734318E-002
   4.8627773141206532E-002  -1.4629405990905368E-002   3.8956703733564579E-002
   4.6765938538330720E-002  -1.4013638717212146E-002   3.9298461915257932E-002
   4.8974791505836793E-002  -1.4793771830797317E-002   4.2776101735576846E-002
   4.7260809245153926E-002  -1.4247609877803637E-002   4.2850872536624646E-002
   4.5546826984471059E-002  -1.3697455718371356E-002   4.3055862907195097E-002
   4.3832844723788247E-002  -1.3143309352500299E-002   4.3391072847288374E-002
   4.2118862463105380E-002  -1.2585170780190516E-002   4.3856502356904060E-002
   4.3977851747771940E-002  -1.3153543219162622E-002   4.6581174801810399E-002
   4.2376456283941460E-002  -1.2655632902092012E-002   4.6882287878315443E-002
   4.0775060820111023E-002  -1.2156856067069552E-002   4.7278354979002735E-002
   3.9173665356280578E-002  -1.1657212714095266E-002   4.7769376103872094E-002
   3.7572269892450133E-002  -1.1156702843169108E-002   4.8355351252923451E-002
   5.6361541202491428E-002  -1.6870574591255127E-002   3.0004806395084460E-002
   5.3989029615555628E-002  -1.6137683532980063E-002   2.9444980239188845E-002
   5.1616518028619857E-002  -1.5414428982974321E-002   2.9094555509770470E-002
   4.9244006441684043E-002  -1.4700810941238270E-002   2.8953532206829571E-002
   4.6871494854748230E-002  -1.3996829407771416E-002   2.9021910330365885E-002
   5.1513498118126000E-002  -1.5442106654233678E-002   3.4681229927984725E-002
   4.9343040533587734E-002  -1.4764799234955467E-002   3.4208511250939599E-002
   4.7172582949049482E-002  -1.4089912510687336E-002   3.3930499152212329E-002
   4.5002125364511224E-002  -1.3417446481428834E-002   3.3847193631802580E-002
   4.2831667779972965E-002  -1.2747401147180148E-002   3.3958594689710520E-002
   4.6765938538330720E-002  -1.4013638717212146E-002   3.9298461915257932E-002
   4.4782840108030242E-002  -1.3391914936931149E-002   3.8920066530323108E-002
   4.2799741677729895E-002  -1.2765396038400337E-002   3.8721682875546462E-002
   4.0816643247429452E-002  -1.2134082021619672E-002   3.8703310950927654E-002
   3.8833544817129070E-002  -1.1497972886589020E-002   3.8864950756467079E-002
   4.2118862463105380E-002  -1.2585170780190516E-002   4.3856502356904060E-002
   4.0308428338883186E-002  -1.2019030638906747E-002   4.3579646077339329E-002
   3.8497994214660998E-002  -1.1440879566113484E-002   4.3468106679772925E-002
   3.6687560090438803E-002  -1.0850717561810540E-002   4.3521884164204896E-002
   3.4877125966216616E-002  -1.0248544625997877E-002   4.3740978530635063E-002
   3.7572269892450133E-002  -1.1156702843169108E-002   4.8355351252923451E-002
   3.5919805226146517E-002  -1.0646146340882207E-002   4.8187249891988360E-002
   3.4267340559842874E-002  -1.0116363093826339E-002   4.8169770564891662E-002
   3.2614875893539244E-002  -9.5673531020011825E-003   4.8302913271634065E-002
   3.0962411227235614E-002  -8.9991163654067341E-003   4.8586678012215057E-002
   4.6871494854748230E-002  -1.3996829407771416E-002   2.9021910330365885E-002
   4.4550672514535983E-002  -1.3284219855443313E-002   2.8542921149813882E-002
   4.2229850174323652E-002  -1.2544717757123638E-002   2.8189656654017597E-002
   3.9909027834111363E-002  -1.1778323112811909E-002   2.7962116842976933E-002
   3.7588205493899074E-002  -1.0985035922508102E-002   2.7860301716692293E-002
   4.2831667779972965E-002  -1.2747401147180148E-002   3.3958594689710520E-002
   4.0644960186175694E-002  -1.2068520395650539E-002   3.3553191720531061E-002
   3.8458252592378436E-002  -1.1369548114548947E-002   3.3290293559425727E-002
   3.6271544998581172E-002  -1.0650484303875916E-002   3.3169900206394556E-002
   3.4084837404783908E-002  -9.9113289636307833E-003   3.3192011661437981E-002
   3.8833544817129070E-002  -1.1497972886589020E-002   3.8864950756467079E-002
   3.6797732093065319E-002  -1.0852820935857627E-002   3.8526332982239772E-002
   3.4761919369001588E-002  -1.0194378471974692E-002   3.8347000139405389E-002
   3.2726106644937858E-002  -9.5226454949399759E-003   3.8326952227963687E-002
   3.0690293920874162E-002  -8.8376220047535758E-003   3.8466189247914812E-002
   3.4877125966216616E-002  -1.0248544625997877E-002   4.3740978530635063E-002
   3.3008988235204900E-002  -9.6371214760647833E-003   4.3462344934940139E-002
   3.1140850504193213E-002  -9.0192088294002749E-003   4.3359776393956689E-002
   2.9272712773181518E-002  -8.3948066860041193E-003   4.3433272907684228E-002
   2.7404575042169803E-002  -7.7639150458763684E-003   4.3682834476123068E-002
   3.0962411227235614E-002  -8.9991163654067341E-003   4.8586678012215057E-002
   2.9278728612594396E-002  -8.4214220162718290E-003   4.8361227578632315E-002
   2.7595045997953260E-002  -7.8440391868258574E-003   4.8328622323079384E-002
   2.5911363383312055E-002  -7.2669678770681256E-003   4.8488862245556208E-002
   2.4227680768670851E-002  -6.6902080869990499E-003   4.8841947346062842E-002
   3.7588205493899074E-002  -1.0985035922508102E-002   2.7860301716692293E-002
   3.5205453457337610E-002  -1.0194526151661998E-002   2.7239005711390873E-002
   3.2822701420776146E-002  -9.4364637657226857E-003   2.6765243485240842E-002
   3.0439949384214626E-002  -8.7108487646907415E-003   2.6439015038242336E-002
   2.8057197347653218E-002  -8.0176811485656030E-003   2.6260320370395052E-002
   3.4084837404783908E-002  -9.9113289636307833E-003   3.3192011661437981E-002
   3.1849814086493206E-002  -9.1726418779675134E-003   3.2652997488640423E-002
   2.9614790768202531E-002  -8.4549828310394870E-003   3.2261906973233029E-002
   2.7379767449911899E-002  -7.7583518228460588E-003   3.2018740115216021E-002
   2.5144744131621183E-002  -7.0827488533881100E-003   3.1923496914589289E-002
   3.0690293920874162E-002  -8.8376220047535758E-003   3.8466189247914812E-002
   2.8603389199093207E-002  -8.1507576042731678E-003   3.8020876253793079E-002
   2.6516484477312224E-002  -7.4735018963557470E-003   3.7723876795300440E-002
   2.4429579755531255E-002  -6.8058548810014906E-003   3.7575190872437179E-002
   2.2342675033750328E-002  -6.1478165582105615E-003   3.7574818485202804E-002
   2.7404575042169803E-002  -7.7639150458763684E-003   4.3682834476123068E-002
   2.5466178795137490E-002  -7.1288733305788637E-003   4.3342642006848932E-002
   2.3527782548105197E-002  -6.4920209616721111E-003   4.3151152951443061E-002
   2.1589386301072922E-002  -5.8533579391569762E-003   4.3108367309904805E-002
   1.9650990054040592E-002  -5.2128842630329297E-003   4.3214285082235217E-002
   2.4227680768670851E-002  -6.6902080869990499E-003   4.8841947346062842E-002
   2.2438182874626150E-002  -6.1069890568843377E-003   4.8618294747808211E-002
   2.0648684980581408E-002  -5.5105400269887250E-003   4.8543735441660407E-002
   1.8859187086536673E-002  -4.9008609973121633E-003   4.8618269427620098E-002
   1.7069689192491938E-002  -4.2779519678554090E-003   4.8841896705686505E-002
   2.8057197347653218E-002  -8.0176811485656030E-003   2.6260320370395052E-002
   2.5711643945591445E-002  -7.3097364884699978E-003   2.5676161559894273E-002
   2.3366090543529672E-002  -6.5397903555255155E-003   2.5039078249862123E-002
   2.1020537141467954E-002  -5.7078427497326209E-003   2.4349070440299131E-002
   1.8674983739406181E-002  -4.8138936710908631E-003   2.3606138131204935E-002
   2.5144744131621183E-002  -7.0827488533881100E-003   3.1923496914589289E-002
   2.2784569828311563E-002  -6.4092732855307033E-003   3.1527413174724406E-002
   2.0424395525001873E-002  -5.7190244821395952E-003   3.1155012131894394E-002
   1.8064221221692239E-002  -5.0120024432146262E-003   3.0806293786100170E-002
   1.5704046918382564E-002  -4.2882071687557755E-003   3.0481258137341150E-002
   2.2342675033750328E-002  -6.1478165582105615E-003   3.7574818485202804E-002
   2.0044487025759367E-002  -5.5088100825917419E-003   3.7321581578658447E-002
   1.7746299017768349E-002  -4.8982586087537999E-003   3.7168634565716244E-002
   1.5448111009777388E-002  -4.3161621366967461E-003   3.7115977446375743E-002
   1.3149923001786384E-002  -3.7625206664206878E-003   3.7163610220637411E-002
   1.9650990054040592E-002  -5.2128842630329297E-003   4.3214285082235217E-002
   1.7491395537934891E-002  -4.6083468796526139E-003   4.3058666771697125E-002
   1.5331801021829104E-002  -4.0774927353678311E-003   4.3079945551327381E-002
   1.3172206505723353E-002  -3.6203218301786421E-003   4.3278121421126234E-002
   1.1012611989617564E-002  -3.2368341640853782E-003   4.3653194381093732E-002
   1.7069689192491938E-002  -4.2779519678554090E-003   4.8841896705686505E-002
   1.5125295364838032E-002  -3.7078836767134860E-003   4.8738668753839809E-002
   1.3180901537184112E-002  -3.2567268619821677E-003   4.8888945088727709E-002
   1.1236507709530184E-002  -2.9244815236609475E-003   4.9292725710351121E-002
   9.2921138818762850E-003  -2.7111476617504016E-003   4.9950010618709628E-002
   1.8674983739406181E-002  -4.8138936710908631E-003   2.3606138131204935E-002
   1.5652428686424802E-002  -4.0793190046989336E-003   2.4393097372817585E-002
   1.2629873633443367E-002  -3.7254946356546359E-003   2.5654070548811192E-002
   9.6073185804619737E-003  -3.7524205639575259E-003   2.7389057659185367E-002
   6.5847635274805527E-003  -4.1600967896082697E-003   2.9598058703940611E-002
   1.5704046918382564E-002  -4.2882071687557755E-003   3.0481258137341150E-002
   1.3137044369409157E-002  -3.7745879535245885E-003   3.1257631027340471E-002
   1.0570041820435847E-002  -3.6980940922822780E-003   3.2471094990974947E-002
   8.0030392714625434E-003  -4.0587255850293713E-003   3.4121650028244910E-002
   5.4360367224891848E-003  -4.8564824317651745E-003   3.6209296139150249E-002
   1.3149923001786384E-002  -3.7625206664206878E-003   3.7163610220637411E-002
   1.1001550096075716E-002  -3.4698569023502990E-003   3.7873021702381604E-002
   8.8531771903650053E-003  -3.6706935489102532E-003   3.8982601397015870E-002
   6.7048042846542914E-003  -4.3650306061009947E-003   4.0492349304539849E-002
   4.5564313789436262E-003  -5.5528680739219682E-003   4.2402265424954066E-002
   1.1012611989617564E-002  -3.2368341640853782E-003   4.3653194381093732E-002
   9.2459458664241011E-003  -3.1651258511759262E-003   4.4239269397941428E-002
   7.4792797432306646E-003  -3.6432930055382284E-003   4.5188589766933546E-002
   5.7126136200371892E-003  -4.6713356271727291E-003   4.6501155488070281E-002
   3.9459474968437103E-003  -6.2492537160785955E-003   4.8176966561351661E-002
   9.2921138818762850E-003  -2.7111476617504016E-003   4.9950010618709628E-002
   7.8702316804546424E-003  -2.8603948000015533E-003   5.0356374114019498E-002
   6.4483494790329721E-003  -3.6158924621659816E-003   5.1089060100728612E-002
   5.0264672776113434E-003  -4.9776406482441027E-003   5.2148068578836859E-002
   3.6045850761896592E-003  -6.9456393582355558E-003   5.3533399548344129E-002
   6.5847635274805527E-003  -4.1600967896082697E-003   2.9598058703940611E-002
   6.0565690871857147E-003  -6.1427937512712472E-003   3.4075920252249481E-002
   5.5283746468908768E-003  -1.0894781887609950E-002   3.9238726204287144E-002
   5.0001802065960249E-003  -1.8416061198624933E-002   4.5086476560054378E-002
   4.4719857663011453E-003  -2.8706631684316530E-002   5.1619171319550627E-002
   5.4360367224891848E-003  -4.8564824317651745E-003   3.6209296139150249E-002
   5.4890022657088366E-003  -6.9908733280397151E-003   3.8349777768807658E-002
   5.5419678089286134E-003  -1.1361406969403243E-002   4.0967634961765087E-002
   5.5949333521483555E-003  -1.7968083355855202E-002   4.4062867718022064E-002
   5.6478988953680420E-003  -2.6810902487395927E-002   4.7635476037579449E-002
   4.5564313789436262E-003  -5.5528680739219682E-003   4.2402265424954066E-002
   4.9829880652485642E-003  -7.8389529048082940E-003   4.2738515565547530E-002
   5.4095447515535022E-003  -1.1828032051196424E-002   4.3344572429011768E-002
   5.8361014378584923E-003  -1.7520105513085527E-002   4.4220436015346698E-002
   6.2626581241634338E-003  -2.4915173290475545E-002   4.5366106324551958E-002
   3.9459474968437103E-003  -6.2492537160785955E-003   4.8176966561351661E-002
   4.5385264858047204E-003  -8.6870324815771505E-003   4.7242133642469347E-002
   5.1311054747657289E-003  -1.2294657132989883E-002   4.6369538606028299E-002
   5.7236844637267260E-003  -1.7072127670315712E-002   4.5559181452027947E-002
   6.3162634526878064E-003  -2.3019444093554942E-002   4.4811062180470096E-002
   3.6045850761896592E-003  -6.9456393582355558E-003   5.3533399548344129E-002
   4.1556175273774199E-003  -9.5351120583455629E-003   5.1860631999572804E-002
   4.7066499785652083E-003  -1.2761282214783093E-002   5.0042533492813568E-002
   5.2576824297529967E-003  -1.6624149827545835E-002   4.8079104028067060E-002
   5.8087148809408129E-003  -2.1123714896634560E-002   4.5970343605331809E-002
   5.0832355713798794E-002  -1.5481544133968406E-002   3.9508920492194233E-002
   4.9118729722292032E-002  -1.4836151527311908E-002   4.1988626828613151E-002
   4.7405103730785353E-002  -1.4233020505958788E-002   4.3993904659022309E-002
   4.5691477739278633E-002  -1.3672151069909051E-002   4.5524753983421179E-002
   4.3977851747771940E-002  -1.3153543219162622E-002   4.6581174801810399E-002
   4.6963785289565629E-002  -1.3283944060421882E-002   4.8598946333727577E-002
   4.4957111620973406E-002  -1.2827671981304800E-002   4.9454539620638005E-002
   4.2950437952381140E-002  -1.2379655941053141E-002   5.0198466059387603E-002
   4.0943764283788882E-002  -1.1939895939666774E-002   5.0830725649976052E-002
   3.8937090615196665E-002  -1.1508391977145760E-002   5.1351318392403117E-002
   4.1314979798984242E-002  -1.1086343986875302E-002   5.7482848874502335E-002
   3.9378020111155224E-002  -1.0819192435297650E-002   5.6748334658342753E-002
   3.7441060423326213E-002  -1.0526291376147370E-002   5.6264915251870676E-002
   3.5504100735497174E-002  -1.0207640809424493E-002   5.6032590655086263E-002
   3.3567141047668149E-002  -9.8632407351290086E-003   5.6051360867989578E-002
   3.3885939242054464E-002  -8.8887439133287505E-003   6.6160628114518782E-002
   3.2381455192837486E-002  -8.8107128892905215E-003   6.3870011941726756E-002
   3.0876971143620494E-002  -8.6729268112417171E-003   6.2193252236471250E-002
   2.9372487094403484E-002  -8.4753856791822419E-003   6.1130348998752096E-002
   2.7868003045186517E-002  -8.2180894931122017E-003   6.0681302228569337E-002
   2.4676663618776434E-002  -6.6911438397821987E-003   7.4632284053776754E-002
   2.3967416866020219E-002  -6.8022333432833648E-003   7.0819571470790543E-002
   2.3258170113264032E-002  -6.8195622463359251E-003   6.7983477013189408E-002
   2.2548923360507844E-002  -6.7431305489399421E-003   6.6124000680973516E-002
   2.1839676607751643E-002  -6.5729382510953949E-003   6.5241142474142810E-002
   4.3977851747771940E-002  -1.3153543219162622E-002   4.6581174801810399E-002
   4.2376456283941460E-002  -1.2655632902092012E-002   4.6882287878315443E-002
   4.0775060820111023E-002  -1.2156856067069552E-002   4.7278354979002735E-002
   3.9173665356280578E-002  -1.1657212714095266E-002   4.7769376103872094E-002
   3.7572269892450133E-002  -1.1156702843169108E-002   4.8355351252923451E-002
   3.8937090615196665E-002  -1.1508391977145760E-002   5.1351318392403117E-002
   3.7457980977482333E-002  -1.1078253324281820E-002   5.1353770804640694E-002
   3.5978871339768008E-002  -1.0642589251866313E-002   5.1505840844928610E-002
   3.4499761702053697E-002  -1.0201399759899150E-002   5.1807528513266442E-002
   3.3020652064339420E-002  -9.7546848483806570E-003   5.2258833809654653E-002
   3.3567141047668149E-002  -9.8632407351290086E-003   5.6051360867989578E-002
   3.2264980839938021E-002  -9.5008737464715581E-003   5.5759811517559321E-002
   3.0962820632207896E-002  -9.1283224366630264E-003   5.5672543399047363E-002
   2.9660660424477778E-002  -8.7455868057032034E-003   5.5789556512453473E-002
   2.8358500216747642E-002  -8.3526668535922333E-003   5.6110850857777825E-002
   2.7868003045186517E-002  -8.2180894931122017E-003   6.0681302228569337E-002
   2.6797455871308582E-002  -7.9234941686613866E-003   6.0100410017071039E-002
   2.5726908697430686E-002  -7.6140556214596526E-003   5.9778462641358991E-002
   2.4656361523552765E-002  -7.2897738515071723E-003   5.9715460101433082E-002
   2.3585814349674859E-002  -6.9506488588038234E-003   5.9911402397293520E-002
   2.1839676607751643E-002  -6.5729382510953949E-003   6.5241142474142810E-002
   2.1055406071593993E-002  -6.3461145908510763E-003   6.4375566303176091E-002
   2.0271135535436351E-002  -6.0997888062566535E-003   6.3823598571863510E-002
   1.9486864999278691E-002  -5.8339608973111516E-003   6.3585239280205361E-002
   1.8702594463121031E-002  -5.5486308640154136E-003   6.3660488428201378E-002
   3.7572269892450133E-002  -1.1156702843169108E-002   4.8355351252923451E-002
   3.5919805226146517E-002  -1.0646146340882207E-002   4.8187249891988360E-002
   3.4267340559842874E-002  -1.0116363093826339E-002   4.8169770564891662E-002
   3.2614875893539244E-002  -9.5673531020011825E-003   4.8302913271634065E-002
   3.0962411227235614E-002  -8.9991163654067341E-003   4.8586678012215057E-002
   3.3020652064339420E-002  -9.7546848483806570E-003   5.2258833809654653E-002
   3.1531157235530516E-002  -9.2982703358260033E-003   5.2009096496539148E-002
   3.0041662406721591E-002  -8.8279820407511783E-003   5.1934676824574547E-002
   2.8552167577912718E-002  -8.3438199631557484E-003   5.2035574793760538E-002
   2.7062672749103775E-002  -7.8457841030399322E-003   5.2311790404097280E-002
   2.8358500216747642E-002  -8.3526668535922333E-003   5.6110850857777825E-002
   2.7056670832745433E-002  -7.9503943307697583E-003   5.5774124630233415E-002
   2.5754841448743244E-002  -7.5396009876758582E-003   5.5637411651151693E-002
   2.4453012064741032E-002  -7.1202868243102607E-003   5.5700711920532553E-002
   2.3151182680738847E-002  -6.6924518406731859E-003   5.5964025438376308E-002
   2.3585814349674859E-002  -6.9506488588038234E-003   5.9911402397293520E-002
   2.2496346017791345E-002  -6.6025183257135897E-003   5.9482334293071273E-002
   2.1406877685907842E-002  -6.2512199346005902E-003   5.9277975044623524E-002
   2.0317409354024353E-002  -5.8967536854650773E-003   5.9298324651950493E-002
   1.9227941022140822E-002  -5.5391195783064673E-003   5.9543383115052279E-002
   1.8702594463121031E-002  -5.5486308640154136E-003   6.3660488428201378E-002
   1.7850182790668204E-002  -5.2546423206572546E-003   6.3133725485052417E-002
   1.6997771118215377E-002  -4.9628388815253360E-003   6.2856367004989894E-002
   1.6145359445762536E-002  -4.6732205466193562E-003   6.2828412988014296E-002
   1.5292947773309723E-002  -4.3857873159396377E-003   6.3049863434125220E-002
   3.0962411227235614E-002  -8.9991163654067341E-003   4.8586678012215057E-002
   2.9278728612594396E-002  -8.4214220162718290E-003   4.8361227578632315E-002
   2.7595045997953260E-002  -7.8440391868258574E-003   4.8328622323079384E-002
   2.5911363383312055E-002  -7.2669678770681256E-003   4.8488862245556208E-002
   2.4227680768670851E-002  -6.6902080869990499E-003   4.8841947346062842E-002
   2.7062672749103775E-002  -7.8457841030399322E-003   5.2311790404097280E-002
   2.5573511146324376E-002  -7.3389040698061125E-003   5.2078015736127109E-002
   2.4084349543544985E-002  -6.8282094728563669E-003   5.2040437913850657E-002
   2.2595187940765569E-002  -6.3137003121910076E-003   5.2199056937267868E-002
   2.1106026337986167E-002  -5.7953765878095975E-003   5.2553872806378854E-002
   2.3151182680738847E-002  -6.6924518406731859E-003   5.5964025438376308E-002
   2.1859893757485233E-002  -6.2563861233402851E-003   5.5726052619423039E-002
   2.0568604834231632E-002  -5.8123797588869874E-003   5.5687628313827370E-002
   1.9277315910978046E-002  -5.3604327473137231E-003   5.5848752521589690E-002
   1.7986026987724411E-002  -4.9005450886201452E-003   5.6209425242709693E-002
   1.9227941022140822E-002  -5.5391195783064673E-003   5.9543383115052279E-002
   1.8137876446077027E-002  -5.1738681768742356E-003   5.9305338228520278E-002
   1.7047811870013269E-002  -4.7965500449175524E-003   5.9270193523009912E-002
   1.5957747293949453E-002  -4.4071651824363553E-003   5.9437948998521527E-002
   1.4867682717885687E-002  -4.0057135894306928E-003   5.9808604655054991E-002
   1.5292947773309723E-002  -4.3857873159396377E-003   6.3049863434125220E-002
   1.4407459212099752E-002  -4.0913502304086302E-003   6.2815872563418695E-002
   1.3521970650889809E-002  -3.7807203309481729E-003   6.2788133541398283E-002
   1.2636482089679858E-002  -3.4538976175593344E-003   6.2966646368063567E-002
   1.1750993528469894E-002  -3.1108820902411294E-003   6.3351411043414685E-002
   2.4227680768670851E-002  -6.6902080869990499E-003   4.8841947346062842E-002
   2.2438182874626150E-002  -6.1069890568843377E-003   4.8618294747808211E-002
   2.0648684980581408E-002  -5.5105400269887250E-003   4.8543735441660407E-002
   1.8859187086536673E-002  -4.9008609973121633E-003   4.8618269427620098E-002
   1.7069689192491938E-002  -4.2779519678554090E-003   4.8841896705686505E-002
   2.1106026337986167E-002  -5.7953765878095975E-003   5.2553872806378854E-002
   1.9479813242697389E-002  -5.2729812677246857E-003   5.2354846108932263E-002
   1.7853600147408638E-002  -4.7462573199482661E-003   5.2333295716890771E-002
   1.6227387052119895E-002  -4.2152047444803664E-003   5.2489221630253907E-002
   1.4601173956831082E-002  -3.6798235413205704E-003   5.2822623849021977E-002
   1.7986026987724411E-002  -4.9005450886201452E-003   5.6209425242709693E-002
   1.6551481704489487E-002  -4.4389734785652557E-003   5.6026123073982192E-002
   1.5116936421254574E-002  -3.9819746129080152E-003   5.6048680223957190E-002
   1.3682391138019655E-002  -3.5295484916481774E-003   5.6277096692635191E-002
   1.2247845854784729E-002  -3.0816951147857874E-003   5.6711372480015648E-002
   1.4867682717885687E-002  -4.0057135894306928E-003   5.9808604655054991E-002
   1.3653188260002436E-002  -3.6049656894057702E-003   5.9632125642957251E-002
   1.2438693802119229E-002  -3.2176919058676604E-003   5.9689888962859969E-002
   1.1224199344236017E-002  -2.8438922388160735E-003   5.9981894614763547E-002
   1.0009704886352765E-002  -2.4835666882511431E-003   6.0508142598667554E-002
   1.1750993528469894E-002  -3.1108820902411294E-003   6.3351411043414685E-002
   1.0784932909236267E-002  -2.7709579002463958E-003   6.3172853815857688E-002
   9.8188722900026115E-003  -2.4534091988274165E-003   6.3256921933599164E-002
   8.8528116707689633E-003  -2.1582359859842193E-003   6.3603615396639140E-002
   7.8867510515353290E-003  -1.8854382617161658E-003   6.4212934204977645E-002
   1.7069689192491938E-002  -4.2779519678554090E-003   4.8841896705686505E-002
   1.5125295364838032E-002  -3.7078836767134860E-003   4.8738668753839809E-002
   1.3180901537184112E-002  -3.2567268619821677E-003   4.8888945088727709E-002
   1.1236507709530184E-002  -2.9244815236609475E-003   4.9292725710351121E-002
   9.2921138818762850E-003  -2.7111476617504016E-003   4.9950010618709628E-002
   1.4601173956831082E-002  -3.6798235413205704E-003   5.2822623849021977E-002
   1.2910156015589508E-002  -3.2004858123922397E-003   5.2716791104184257E-002
   1.1219138074347837E-002  -2.8375636596185139E-003   5.2864205845436218E-002
   9.5281201331061938E-003  -2.5910570829988377E-003   5.3264868072777444E-002
   7.8371021918645922E-003  -2.4609660825332114E-003   5.3918777786208461E-002
   1.2247845854784729E-002  -3.0816951147857874E-003   5.6711372480015648E-002
   1.0809946999309712E-002  -2.6930879480713266E-003   5.6605430842443738E-002
   9.3720481438347263E-003  -2.4184004572549850E-003   5.6752479890315413E-002
   7.9341492883597386E-003  -2.2576326423365094E-003   5.7152519623630917E-002
   6.4962504328847509E-003  -2.2107845033160767E-003   5.7805550042390186E-002
   1.0009704886352765E-002  -2.4835666882511431E-003   6.0508142598667554E-002
   8.8246683159987661E-003  -2.1856900837501358E-003   6.0404587968617057E-002
   7.6396317456447508E-003  -1.9992372548913936E-003   6.0553767223364821E-002
   6.4545951752907442E-003  -1.9242082016744013E-003   6.0955680362910734E-002
   5.2695586049367367E-003  -1.9606029240991918E-003   6.1610327387254735E-002
   7.8867510515353290E-003  -1.8854382617161658E-003   6.4212934204977645E-002
   6.9543199656566385E-003  -1.6782922194291672E-003   6.4114262482705131E-002
   6.0218888797779480E-003  -1.5800740525278856E-003   6.4268067844584997E-002
   5.0894577938992783E-003  -1.5907837610121475E-003   6.4674350290617522E-002
   4.1570267080205947E-003  -1.7104213448818628E-003   6.5333109820802426E-002
   9.2921138818762850E-003  -2.7111476617504016E-003   4.9950010618709628E-002
   7.8702316804546424E-003  -2.8603948000015533E-003   5.0356374114019498E-002
   6.4483494790329721E-003  -3.6158924621659816E-003   5.1089060100728612E-002
   5.0264672776113434E-003  -4.9776406482441027E-003   5.2148068578836859E-002
   3.6045850761896592E-003  -6.9456393582355558E-003   5.3533399548344129E-002
   7.8371021918645922E-003  -2.4609660825332114E-003   5.3918777786208461E-002
   6.7156964106757644E-003  -2.6455893087768412E-003   5.3853823440795368E-002
   5.5942906294869504E-003  -3.3432254122840732E-003   5.4063499444448715E-002
   4.4728848482981365E-003  -4.5538743930556638E-003   5.4547805797168808E-002
   3.3514790671093087E-003  -6.2775362510906207E-003   5.5306742498955175E-002
   6.4962504328847509E-003  -2.2107845033160767E-003   5.7805550042390186E-002
   5.6236289295962250E-003  -2.4307838175520735E-003   5.7362515502903388E-002
   4.7510074263076851E-003  -3.0705583624023869E-003   5.7142419170150699E-002
   3.8783859230191974E-003  -4.1301081378668919E-003   5.7145261044131951E-002
   3.0057644197306471E-003  -5.6094331439461853E-003   5.7371041124847394E-002
   5.2695586049367367E-003  -1.9606029240991918E-003   6.1610327387254735E-002
   4.5940292372159686E-003  -2.2159783263272226E-003   6.0882450300343789E-002
   3.9184998694951866E-003  -2.7978913125206450E-003   6.0325819277834619E-002
   3.2429705017744124E-003  -3.7063418826785086E-003   5.9940434319726697E-002
   2.5674411340536364E-003  -4.9413300368018331E-003   5.9726295426020433E-002
   4.1570267080205947E-003  -1.7104213448818628E-003   6.5333109820802426E-002
   3.6268973335350091E-003  -2.0011728351023161E-003   6.4413627833116882E-002
   3.0967679590494512E-003  -2.5252242626387644E-003   6.3613699767500476E-002
   2.5666385845638795E-003  -3.2825756274898962E-003   6.2933325623952735E-002
   2.0365092100783078E-003  -4.2732269296570369E-003   6.2372505402473966E-002
   3.6045850761896592E-003  -6.9456393582355558E-003   5.3533399548344129E-002
   4.1556175273774199E-003  -9.5351120583455629E-003   5.1860631999572804E-002
   4.7066499785652083E-003  -1.2761282214783093E-002   5.0042533492813568E-002
   5.2576824297529967E-003  -1.6624149827545835E-002   4.8079104028067060E-002
   5.8087148809408129E-003  -2.1123714896634560E-002   4.5970343605331809E-002
   3.3514790671093087E-003  -6.2775362510906207E-003   5.5306742498955175E-002
   3.7746860155453976E-003  -8.5454912844815101E-003   5.2952736302235570E-002
   4.1978929639814311E-003  -1.1389019791319704E-002   5.0488410057999755E-002
   4.6210999124175825E-003  -1.4808121771604933E-002   4.7913763766249312E-002
   5.0443068608536090E-003  -1.8802797225337287E-002   4.5228797426982492E-002
   3.0057644197306471E-003  -5.6094331439461853E-003   5.7371041124847394E-002
   3.3361567758873611E-003  -7.5558705106170132E-003   5.4396920263057397E-002
   3.6665491320440682E-003  -1.0016757367856330E-002   5.1347490264224319E-002
   3.9969414882007476E-003  -1.2992093715663868E-002   4.8222751128348139E-002
   4.3273338443574616E-003  -1.6481879554040457E-002   4.5022702855428198E-002
   2.5674411340536364E-003  -4.9413300368018331E-003   5.9726295426020433E-002
   2.8400298084032966E-003  -6.5662497367526274E-003   5.6193183882039109E-002
   3.1126184827529688E-003  -8.6444949443928373E-003   5.2619774111486772E-002
   3.3852071571026342E-003  -1.1176065659723218E-002   4.9006066114363603E-002
   3.6577958314523290E-003  -1.4160961882743295E-002   4.5352059890669594E-002
   2.0365092100783078E-003  -4.2732269296570369E-003   6.2372505402473966E-002
   2.2863051130932732E-003  -5.5766289628882415E-003   5.8341527159179840E-002
   2.5361010161082248E-003  -7.2722325209294003E-003   5.4305261599787213E-002
   2.7858969191231972E-003  -9.3600376037820815E-003   5.0263708724296252E-002
   3.0356928221381696E-003  -1.1840044211446354E-002   4.6216868532706457E-002
   2.4676663618776434E-002  -6.6911438397821987E-003   7.4632284053776754E-002
   2.3967416866020219E-002  -6.8022333432833648E-003   7.0819571470790543E-002
   2.3258170113264032E-002  -6.8195622463359251E-003   6.7983477013189408E-002
   2.2548923360507844E-002  -6.7431305489399421E-003   6.6124000680973516E-002
   2.1839676607751643E-002  -6.5729382510953949E-003   6.5241142474142810E-002
   1.5561459076256764E-002  -5.2027102526436275E-003   6.9076515927834647E-002
   1.5628864708159690E-002  -5.2003608654249134E-003   6.7101971494004570E-002
   1.5696270340062657E-002  -5.1522587546207477E-003   6.5704113704107475E-002
   1.5763675971965596E-002  -5.0584039202309292E-003   6.4882942558143447E-002
   1.5831081603868563E-002  -4.9187963622556730E-003   6.4638458056112652E-002
   8.4146317616021551E-003  -3.7142766655049730E-003   6.3658190631043915E-002
   8.8587582967121492E-003  -3.5984883875665036E-003   6.3473806469506816E-002
   9.3028848318221502E-003  -3.4849552629054731E-003   6.3466177470450677E-002
   9.7470113669321443E-003  -3.3736772915219405E-003   6.3635303633875651E-002
   1.0191137902042142E-002  -3.2646544734158955E-003   6.3981184959781487E-002
   3.2361816748126496E-003  -2.2258430783663463E-003   5.8377308163404550E-002
   3.6570976316775729E-003  -1.9966159097080174E-003   5.9935076397297428E-002
   4.0780135885425325E-003  -1.8176517711901916E-003   6.1269668312219333E-002
   4.4989295454074809E-003  -1.6889506628129398E-003   6.2381083908170029E-002
   4.9198455022724233E-003  -1.6105125845761181E-003   6.3269323185149717E-002
   2.6108815888187253E-005  -7.3740949122774735E-004   5.3233868524916461E-002
   2.3882713055985161E-005  -3.9474343184964233E-004   5.6485781277376412E-002
   2.1656610223793477E-005  -1.5034827947496554E-004   5.9114586229413124E-002
   1.9430507391596588E-005  -4.2240341038696227E-006   6.1120283381026708E-002
   1.7204404559399700E-005   4.3629304263603785E-005   6.2502872732217052E-002
   2.1839676607751643E-002  -6.5729382510953949E-003   6.5241142474142810E-002
   2.1055406071593993E-002  -6.3461145908510763E-003   6.4375566303176091E-002
   2.0271135535436351E-002  -6.0997888062566535E-003   6.3823598571863510E-002
   1.9486864999278691E-002  -5.8339608973111516E-003   6.3585239280205361E-002
   1.8702594463121031E-002  -5.5486308640154136E-003   6.3660488428201378E-002
   1.5831081603868563E-002  -4.9187963622556730E-003   6.4638458056112652E-002
   1.5330655875084039E-002  -4.7492207341259668E-003   6.4128612325458176E-002
   1.4830230146299514E-002  -4.5654616892732702E-003   6.3872847769895727E-002
   1.4329804417514989E-002  -4.3675192276973265E-003   6.3871164389425195E-002
   1.3829378688730479E-002  -4.1553933493984618E-003   6.4123562184046745E-002
   1.0191137902042142E-002  -3.2646544734158955E-003   6.3981184959781487E-002
   9.9150297160684672E-003  -3.1523268774007324E-003   6.3821750961811960E-002
   9.6389215300947944E-003  -3.0311345722900049E-003   6.3856870874372113E-002
   9.3628133441211146E-003  -2.9010775580835587E-003   6.4086544697462014E-002
   9.0867051581474401E-003  -2.7621558347815933E-003   6.4510772431081678E-002
   4.9198455022724233E-003  -1.6105125845761181E-003   6.3269323185149717E-002
   4.8085275945473002E-003  -1.5554330206755049E-003   6.3454982212237637E-002
   4.6972096868221746E-003  -1.4968074553067361E-003   6.3775667885292972E-002
   4.5858917790970446E-003  -1.4346358884697622E-003   6.4231380204315652E-002
   4.4745738713719199E-003  -1.3689183201646832E-003   6.4822119169305845E-002
   1.7204404559399700E-005   4.3629304263603785E-005   6.2502872732217052E-002
   1.1149510520527123E-005   4.1460836049667105E-005   6.3028306076734986E-002
   5.0946164816545458E-006   3.7519661676532756E-005   6.3629238802658000E-002
  -9.6027755721803110E-007   3.1805781143978695E-005   6.4305670909986040E-002
  -7.0151715960906080E-006   2.4319194452171455E-005   6.5057602398719383E-002
   1.8702594463121031E-002  -5.5486308640154136E-003   6.3660488428201378E-002
   1.7850182790668204E-002  -5.2546423206572546E-003   6.3133725485052417E-002
   1.6997771118215377E-002  -4.9628388815253360E-003   6.2856367004989894E-002
   1.6145359445762536E-002  -4.6732205466193562E-003   6.2828412988014296E-002
   1.5292947773309723E-002  -4.3857873159396377E-003   6.3049863434125220E-002
   1.3829378688730479E-002  -4.1553933493984618E-003   6.4123562184046745E-002
   1.3217472399139792E-002  -3.9364838325689488E-003   6.3717041782536676E-002
   1.2605566109549077E-002  -3.7181904554015044E-003   6.3542127683664157E-002
   1.1993659819958379E-002  -3.5005132178960313E-003   6.3598819887429409E-002
   1.1381753530367675E-002  -3.2834521200525990E-003   6.3887118393832043E-002
   9.0867051581474401E-003  -2.7621558347815933E-003   6.4510772431081678E-002
   8.6975060909698261E-003  -2.6183253444807264E-003   6.4226063535774564E-002
   8.3083070237922156E-003  -2.4735420292777768E-003   6.4155162782656039E-002
   7.9191079566146086E-003  -2.3278058891727047E-003   6.4298070171726091E-002
   7.5299088894369981E-003  -2.1811169241656714E-003   6.4654785702984718E-002
   4.4745738713719199E-003  -1.3689183201646832E-003   6.4822119169305845E-002
   4.2902838661583514E-003  -1.3001668563924901E-003   6.4660790744765856E-002
   4.1059938609447734E-003  -1.2288936031538307E-003   6.4695472301965373E-002
   3.9217038557312033E-003  -1.1550985604493235E-003   6.4926163840904438E-002
   3.7374138505176339E-003  -1.0787817282786327E-003   6.5352865361582871E-002
  -7.0151715960906080E-006   2.4319194452171455E-005   6.5057602398719383E-002
  -4.1942752946610984E-006   1.7991631695801757E-005   6.5021223409510498E-002
  -1.3733789932419971E-006   1.5754822969810123E-005   6.5163056241592243E-002
   1.4475173081823084E-006   1.7608768274009201E-005   6.5483100894964397E-002
   4.2684136096066139E-006   2.3553467608350420E-005   6.5981357369627125E-002
   1.5292947773309723E-002  -4.3857873159396377E-003   6.3049863434125220E-002
   1.4407459212099752E-002  -4.0913502304086302E-003   6.2815872563418695E-002
   1.3521970650889809E-002  -3.7807203309481729E-003   6.2788133541398283E-002
   1.2636482089679858E-002  -3.4538976175593344E-003   6.2966646368063567E-002
   1.1750993528469894E-002  -3.1108820902411294E-003   6.3351411043414685E-002
   1.1381753530367675E-002  -3.2834521200525990E-003   6.3887118393832043E-002
   1.0706244510770437E-002  -3.0612430807614721E-003   6.3729757236307388E-002
   1.0030735491173177E-002  -2.8281220189119577E-003   6.3786103313322046E-002
   9.3552264715759184E-003  -2.5840889345049127E-003   6.4056156624876182E-002
   8.6797174519786663E-003  -2.3291438275397924E-003   6.4539917170970018E-002
   7.5299088894369981E-003  -2.1811169241656714E-003   6.4654785702984718E-002
   7.0718347973061160E-003  -2.0311359311140920E-003   6.4568773467270510E-002
   6.6137607051752409E-003  -1.8755237068757424E-003   6.4703923851949521E-002
   6.1556866130443640E-003  -1.7142802514506020E-003   6.5060236857021614E-002
   5.6976125209134976E-003  -1.5474055648385110E-003   6.5637712482487121E-002
   3.7374138505176339E-003  -1.0787817282786327E-003   6.5352865361582871E-002
   3.5042300717068216E-003  -1.0010287814668783E-003   6.5332921256308144E-002
   3.2710462928960075E-003  -9.2292539483947167E-004   6.5541595157280280E-002
   3.0378625140851973E-003  -8.4447156839612472E-004   6.5978887064499434E-002
   2.8046787352743879E-003  -7.6566730213720180E-004   6.6644796977965243E-002
   4.2684136096066139E-006   2.3553467608350420E-005   6.5981357369627125E-002
   3.4303339725393067E-006   2.9078368180335268E-005   6.6022200603420733E-002
   2.5922543354719996E-006   2.9672917196757465E-005   6.6299117229314836E-002
   1.7541746984012230E-006   2.5337114658092325E-005   6.6812107247309779E-002
   9.1609506133738527E-007   1.6070960564107395E-005   6.7561170657405190E-002
   1.1750993528469894E-002  -3.1108820902411294E-003   6.3351411043414685E-002
   1.0784932909236267E-002  -2.7709579002463958E-003   6.3172853815857688E-002
   9.8188722900026115E-003  -2.4534091988274165E-003   6.3256921933599164E-002
   8.8528116707689633E-003  -2.1582359859842193E-003   6.3603615396639140E-002
   7.8867510515353290E-003  -1.8854382617161658E-003   6.4212934204977645E-002
   8.6797174519786663E-003  -2.3291438275397924E-003   6.4539917170970018E-002
   7.9708749768559600E-003  -2.0766506117615990E-003   6.4426028240897881E-002
   7.2620325017332468E-003  -1.8399732009153069E-003   6.4563950253749058E-002
   6.5531900266105232E-003  -1.6191115950006038E-003   6.4953683209523438E-002
   5.8443475514878135E-003  -1.4140657940179269E-003   6.5595227108221188E-002
   5.6976125209134976E-003  -1.5474055648385110E-003   6.5637712482487121E-002
   5.2351737875265675E-003  -1.3823433232770244E-003   6.5595051533543475E-002
   4.7727350541396547E-003  -1.2265372030033084E-003   6.5793387125148067E-002
   4.3102963207527229E-003  -1.0799872040175990E-003   6.6232719257300954E-002
   3.8478575873658119E-003  -9.4269332631957692E-004   6.6913047930001884E-002
   2.8046787352743879E-003  -7.6566730213720180E-004   6.6644796977965243E-002
   2.5778293412481047E-003  -6.8803603479239417E-004   6.6679923693794330E-002
   2.3509799472218240E-003  -6.1310120509108779E-004   6.6945232547796413E-002
   2.1241305531955429E-003  -5.4086281303434430E-004   6.7440723539971686E-002
   1.8972811591692600E-003  -4.7132085862117146E-004   6.8166396670319790E-002
   9.1609506133738527E-007   1.6070960564107395E-005   6.7561170657405190E-002
  -1.1583619794475197E-006   6.2712536923470452E-006   6.7680644721650696E-002
  -3.2328190202289553E-006   3.3479282079973416E-007   6.8019486521694095E-002
  -5.3072760610138603E-006  -1.7384220512006721E-006   6.8577696057535553E-002
  -7.3817331017952958E-006   5.1609077122982683E-008   6.9355273329174794E-002
   7.8867510515353290E-003  -1.8854382617161658E-003   6.4212934204977645E-002
   6.9543199656566385E-003  -1.6782922194291672E-003   6.4114262482705131E-002
   6.0218888797779480E-003  -1.5800740525278856E-003   6.4268067844584997E-002
   5.0894577938992783E-003  -1.5907837610121475E-003   6.4674350290617522E-002
   4.1570267080205947E-003  -1.7104213448818628E-003   6.5333109820802426E-002
   5.8443475514878135E-003  -1.4140657940179269E-003   6.5595227108221188E-002
   5.1596344872201563E-003  -1.2579524887448845E-003   6.5442221328396000E-002
   4.4749214229524922E-003  -1.1838883699598624E-003   6.5532174507640317E-002
   3.7902083586848455E-003  -1.1918734376623052E-003   6.5865086645954196E-002
   3.1054952944171710E-003  -1.2819076918529904E-003   6.6440957743337414E-002
   3.8478575873658119E-003  -9.4269332631957692E-004   6.6913047930001884E-002
   3.4013444196262094E-003  -8.3761275806049085E-004   6.6732586781521747E-002
   2.9548312518865999E-003  -7.8770268739151994E-004   6.6785566467027949E-002
   2.5083180841469956E-003  -7.9296311431291053E-004   6.7071986986520948E-002
   2.0618049164073879E-003  -8.5339403882406240E-004   6.7591848340000232E-002
   1.8972811591692600E-003  -4.7132085862117146E-004   6.8166396670319790E-002
   1.6794497628747577E-003  -4.1727302737615268E-004   6.7985358842082469E-002
   1.4616183665802553E-003  -3.9151700482339263E-004   6.8028243722748419E-002
   1.2437869702857534E-003  -3.9405279096318101E-004   6.8295051312318250E-002
   1.0259555739912506E-003  -4.2488038579510667E-004   6.8785781610791491E-002
  -7.3817331017952958E-006   5.1609077122982683E-008   6.9355273329174794E-002
  -6.0494830341623063E-006   3.0667033081299699E-006   6.9200537510077931E-002
  -4.7172329665327861E-006   4.6686777446236505E-006   6.9260206274801506E-002
  -3.3849828988963271E-006   4.8575323862709574E-006   6.9534279623345990E-002
  -2.0527328312702764E-006   3.6332672338490468E-006   7.0022757555710857E-002
   4.1570267080205947E-003  -1.7104213448818628E-003   6.5333109820802426E-002
   3.6268973335350091E-003  -2.0011728351023161E-003   6.4413627833116882E-002
   3.0967679590494512E-003  -2.5252242626387644E-003   6.3613699767500476E-002
   2.5666385845638795E-003  -3.2825756274898962E-003   6.2933325623952735E-002
   2.0365092100783078E-003  -4.2732269296570369E-003   6.2372505402473966E-002
   3.1054952944171710E-003  -1.2819076918529904E-003   6.6440957743337414E-002
   2.6981786678335062E-003  -1.5003702373122541E-003   6.5328521950395901E-002
   2.2908620412498276E-003  -1.8936401788205159E-003   6.4342157731189481E-002
   1.8835454146661421E-003  -2.4617175163780189E-003   6.3481865085717751E-002
   1.4762287880824843E-003  -3.2046022499849780E-003   6.2747644013980808E-002
   2.0618049164073879E-003  -8.5339403882406240E-004   6.7591848340000232E-002
   1.7838186893915364E-003  -9.9956763952210870E-004   6.6344951283069525E-002
   1.5058324623756711E-003  -1.2620560950026144E-003   6.5230643451539574E-002
   1.2278462353598127E-003  -1.6408594052662560E-003   6.4248924845410255E-002
   9.4986000834396817E-004  -2.1359775703125861E-003   6.3399795464682052E-002
   1.0259555739912506E-003  -4.2488038579510667E-004   6.8785781610791491E-002
   8.8381739820911961E-004  -4.9876504173156089E-004   6.7462915831137615E-002
   7.4167922242700073E-004  -6.3047201118453938E-004   6.6279156928550326E-002
   5.9954104664487924E-004  -8.2000129415399185E-004   6.5234504903029872E-002
   4.5740287086276470E-004  -1.0673528906402496E-003   6.4328959754576018E-002
  -2.0527328312702764E-006   3.6332672338490468E-006   7.0022757555710857E-002
  -1.8252057137346789E-006   2.0375560583762997E-006   6.8682415594600199E-002
  -1.5976785961956119E-006   1.1120726334523656E-006   6.7487698162222109E-002
  -1.3701514786530755E-006   8.5681695780742695E-007   6.6438605258576727E-002
  -1.1426243611209475E-006   1.2717890320868008E-006   6.5535136883663858E-002
   2.0365092100783078E-003  -4.2732269296570369E-003   6.2372505402473966E-002
   2.2863051130932732E-003  -5.5766289628882415E-003   5.8341527159179840E-002
   2.5361010161082248E-003  -7.2722325209294003E-003   5.4305261599787213E-002
   2.7858969191231972E-003  -9.3600376037820815E-003   5.0263708724296252E-002
   3.0356928221381696E-003  -1.1840044211446354E-002   4.6216868532706457E-002
   1.4762287880824843E-003  -3.2046022499849780E-003   6.2747644013980808E-002
   1.7064572694500818E-003  -4.1820002091076391E-003   5.8393087017498846E-002
   1.9366857508176932E-003  -5.4536172232126923E-003   5.4004682493820289E-002
   2.1669142321853324E-003  -7.0194532923001929E-003   4.9582430442945191E-002
   2.3971427135529300E-003  -8.8795084163710847E-003   4.5126330864874831E-002
   9.4986000834396817E-004  -2.1359775703125861E-003   6.3399795464682052E-002
   1.1319608569666066E-003  -2.7873714553275919E-003   5.8819642184839788E-002
   1.3140617055892763E-003  -3.6350019254961785E-003   5.4177081166703889E-002
   1.4961625542119477E-003  -4.6788689808189080E-003   4.9472112410274327E-002
   1.6782634028345705E-003  -5.9189726212953708E-003   4.4704735915550686E-002
   4.5740287086276470E-004  -1.0673528906402496E-003   6.4328959754576018E-002
   5.6281587564284332E-004  -1.3927427015470450E-003   5.9621192661202624E-002
   6.6822888042292975E-004  -1.8163866277792345E-003   5.4822457618438104E-002
   7.7364188520302702E-004  -2.3382846693372102E-003   4.9932754626281925E-002
   8.7905488998309481E-004  -2.9584368262199900E-003   4.4952083684735133E-002
  -1.1426243611209475E-006   1.2717890320868008E-006   6.5535136883663858E-002
  -9.7767452122282661E-007   1.8860522328356666E-006   6.0797738446588312E-002
  -8.1272468131429743E-007   2.2286699371543151E-006   5.5940811849023442E-002
  -6.4777484142658492E-007   2.2996421444598791E-006   5.0964357090969747E-002
  -4.8282500150764740E-007   2.0989688556127817E-006   4.5868374172427284E-002
   2.6108815888187253E-005  -7.3740949122774735E-004   5.3233868524916461E-002
   2.3882713055985161E-005  -3.9474343184964233E-004   5.6485781277376412E-002
   2.1656610223793477E-005  -1.5034827947496554E-004   5.9114586229413124E-002
   1.9430507391596588E-005  -4.2240341038696227E-006   6.1120283381026708E-002
   1.7204404559399700E-005   4.3629304263603785E-005   6.2502872732217052E-002
  -3.2238414740599422E-003   1.4796017465317779E-003   5.9314503244198735E-002
  -3.6433171206811839E-003   1.5995427598394507E-003   6.0649839313074133E-002
  -4.0627927673024481E-003   1.6691489795382791E-003   6.1773784094794670E-002
  -4.4822684139236933E-003   1.6884204056282319E-003   6.2686337589360194E-002
  -4.9017440605449401E-003   1.6573570381094305E-003   6.3387499796770941E-002
  -8.5219238539204923E-003   3.6966129842913587E-003   6.5148444860712945E-002
  -8.9469325310625198E-003   3.5938289515284882E-003   6.4615140359398679E-002
  -9.3719412082045456E-003   3.4886462385514683E-003   6.4282161084197681E-002
  -9.7969498853465731E-003   3.3810648453603612E-003   6.4149507035110034E-002
  -1.0221958562488599E-002   3.2710847719552016E-003   6.4217178212135850E-002
  -1.5868138323693493E-002   5.9136242220509116E-003   7.0735693374459396E-002
  -1.5886963518088014E-002   5.5881151432175258E-003   6.8381684416349980E-002
  -1.5905788712482528E-002   5.3081434975646852E-003   6.6639717197622267E-002
  -1.5924613906877060E-002   5.0737092850924766E-003   6.5509791718276172E-002
  -1.5943439101271578E-002   4.8848125058009451E-003   6.4991907978311725E-002
  -2.5262484883378920E-002   8.1306354598104646E-003   7.6076248785437783E-002
  -2.4463410081757661E-002   7.5824013349065633E-003   7.1949471483928107E-002
  -2.3664335280136384E-002   7.1276407565779437E-003   6.8846452435068400E-002
  -2.2865260478515122E-002   6.7663537248246718E-003   6.6767191638858567E-002
  -2.2066185676893862E-002   6.4985402396467995E-003   6.5711689095298620E-002
   1.7204404559399700E-005   4.3629304263603785E-005   6.2502872732217052E-002
   1.1149510520527123E-005   4.1460836049667105E-005   6.3028306076734986E-002
   5.0946164816545458E-006   3.7519661676532756E-005   6.3629238802658000E-002
  -9.6027755721803110E-007   3.1805781143978695E-005   6.4305670909986040E-002
  -7.0151715960906080E-006   2.4319194452171455E-005   6.5057602398719383E-002
  -4.9017440605449401E-003   1.6573570381094305E-003   6.3387499796770941E-002
  -4.7990982784551581E-003   1.5988978166104756E-003   6.3541753588917824E-002
  -4.6964524963653762E-003   1.5359816807603566E-003   6.3837909351916799E-002
  -4.5938067142755942E-003   1.4686086305588514E-003   6.4275967085768090E-002
  -4.4911609321858052E-003   1.3967786660061821E-003   6.4855926790471530E-002
  -1.0221958562488599E-002   3.2710847719552016E-003   6.4217178212135850E-002
  -9.9442095148230669E-003   3.1563347971712841E-003   6.3997568243719702E-002
  -9.6664604671575279E-003   3.0344436998441804E-003   6.3986262835602756E-002
  -9.3887114194919925E-003   2.9054114799737241E-003   6.4183261987785206E-002
  -9.1109623718264501E-003   2.7692381375599984E-003   6.4588565700266831E-002
  -1.5943439101271578E-002   4.8848125058009451E-003   6.4991907978311725E-002
  -1.5424184198583197E-002   4.7137717777321481E-003   6.4395750041140565E-002
  -1.4904929295894813E-002   4.5329057189278932E-003   6.4074299253715702E-002
  -1.4385674393206422E-002   4.3422143293885690E-003   6.4027555616037318E-002
  -1.3866419490518048E-002   4.1416976091139118E-003   6.4255519128105371E-002
  -2.2066185676893862E-002   6.4985402396467995E-003   6.5711689095298620E-002
  -2.1239022329735541E-002   6.2712087582929010E-003   6.4736298981180440E-002
  -2.0411858982577212E-002   6.0313677380117725E-003   6.4102018606255695E-002
  -1.9584695635418890E-002   5.7790171788034556E-003   6.3808847970524440E-002
  -1.8757532288260562E-002   5.5141570806677698E-003   6.3856787073986732E-002
  -7.0151715960906080E-006   2.4319194452171455E-005   6.5057602398719383E-002
  -4.1942752946610984E-006   1.7991631695801757E-005   6.5021223409510498E-002
  -1.3733789932419971E-006   1.5754822969810123E-005   6.5163056241592243E-002
   1.4475173081823084E-006   1.7608768274009201E-005   6.5483100894964397E-002
   4.2684136096066139E-006   2.3553467608350420E-005   6.5981357369627125E-002
  -4.4911609321858052E-003   1.3967786660061821E-003   6.4855926790471530E-002
  -4.3013195591112413E-003   1.3230191163560723E-003   6.4695045026787801E-002
  -4.1114781860366722E-003   1.2498573108623290E-003   6.4729992395360036E-002
  -3.9216368129621005E-003   1.1772932495251118E-003   6.4960768896187862E-002
  -3.7317954398875322E-003   1.1053269323443304E-003   6.5387374529271625E-002
  -9.1109623718264501E-003   2.7692381375599984E-003   6.4588565700266831E-002
  -8.7164832110133983E-003   2.6280466010159542E-003   6.4299688152234552E-002
  -8.3220040502003448E-003   2.4839597987547785E-003   6.4224257047423253E-002
  -7.9275248893873017E-003   2.3369777307760443E-003   6.4362272385833141E-002
  -7.5330457285742343E-003   2.1871003970801717E-003   6.4713734167464301E-002
  -1.3866419490518048E-002   4.1416976091139118E-003   6.4255519128105371E-002
  -1.3249685231001156E-002   3.9330740856760860E-003   6.3835152785850419E-002
  -1.2632950971484268E-002   3.7180622866471794E-003   6.3645850197781961E-002
  -1.2016216711967384E-002   3.4966622120271174E-003   6.3687611363900096E-002
  -1.1399482452450498E-002   3.2688738618160268E-003   6.3960436284204766E-002
  -1.8757532288260562E-002   5.5141570806677698E-003   6.3856787073986732E-002
  -1.7900925619074508E-002   5.2381015703360789E-003   6.3301438927635456E-002
  -1.7044318949888448E-002   4.9521647745397190E-003   6.2994771846436232E-002
  -1.6187712280702395E-002   4.6563466932781003E-003   6.2936785830388808E-002
  -1.5331105611516335E-002   4.3506473265519374E-003   6.3127480879493214E-002
   4.2684136096066139E-006   2.3553467608350420E-005   6.5981357369627125E-002
   3.4303339725393067E-006   2.9078368180335268E-005   6.6022200603420733E-002
   2.5922543354719996E-006   2.9672917196757465E-005   6.6299117229314836E-002
   1.7541746984012230E-006   2.5337114658092325E-005   6.6812107247309779E-002
   9.1609506133738527E-007   1.6070960564107395E-005   6.7561170657405190E-002
  -3.7317954398875322E-003   1.1053269323443304E-003   6.5387374529271625E-002
  -3.5001400956022246E-003   1.0314777598635916E-003   6.5354804456541932E-002
  -3.2684847513169170E-003   9.5326513262727897E-004   6.5551147839556345E-002
  -3.0368294070316076E-003   8.7068905063472646E-004   6.5976404678314837E-002
  -2.8051740627463018E-003   7.8374951388648917E-004   6.6630574972817713E-002
  -7.5330457285742343E-003   2.1871003970801717E-003   6.4713734167464301E-002
  -7.0760568967229761E-003   2.0338771515472920E-003   6.4608317685010463E-002
  -6.6190680648717075E-003   1.8768573480575715E-003   6.4724654721944386E-002
  -6.1620792330204406E-003   1.7160409866115809E-003   6.5062745278265943E-002
  -5.7050904011691807E-003   1.5514280672087599E-003   6.5622589353975413E-002
  -1.1399482452450498E-002   3.2688738618160268E-003   6.3960436284204766E-002
  -1.0724320069389707E-002   3.0362765432306593E-003   6.3782740288826106E-002
  -1.0049157686328903E-002   2.8004495634880340E-003   6.3819637876478999E-002
  -9.3739953032681046E-003   2.5613929225881587E-003   6.4071129047163222E-002
  -8.6988329202073063E-003   2.3191066205309752E-003   6.4537213800878651E-002
  -1.5331105611516335E-002   4.3506473265519374E-003   6.3127480879493214E-002
  -1.4444929613602411E-002   4.0386759349142487E-003   6.2878072267989304E-002
  -1.3558753615688507E-002   3.7240417789183439E-003   6.2836097303160282E-002
  -1.2672577617774589E-002   3.4067448585649480E-003   6.3001555985006244E-002
  -1.1786401619860679E-002   3.0867851738534124E-003   6.3374448313527010E-002
   9.1609506133738527E-007   1.6070960564107395E-005   6.7561170657405190E-002
  -1.1583619794475197E-006   6.2712536923470452E-006   6.7680644721650696E-002
  -3.2328190202289553E-006   3.3479282079973416E-007   6.8019486521694095E-002
  -5.3072760610138603E-006  -1.7384220512006721E-006   6.8577696057535553E-002
  -7.3817331017952958E-006   5.1609077122982683E-008   6.9355273329174794E-002
  -2.8051740627463018E-003   7.8374951388648917E-004   6.6630574972817713E-002
  -2.5817436239284203E-003   6.9762196822520384E-004   6.6667285357973949E-002
  -2.3583131851105388E-003   6.1748185949417334E-004   6.6935637799049263E-002
  -2.1348827462926556E-003   5.4332918769370298E-004   6.7435632296044323E-002
  -1.9114523074747758E-003   4.7516395282309887E-004   6.8167268848958573E-002
  -5.7050904011691807E-003   1.5514280672087599E-003   6.5622589353975413E-002
  -5.2438807463711509E-003   1.3889726827579496E-003   6.5578660250972448E-002
  -4.7826710915731367E-003   1.2346289261677690E-003   6.5778647524010470E-002
  -4.3214614367751069E-003   1.0883967974381070E-003   6.6222551173089256E-002
  -3.8602517819770928E-003   9.5027629656901924E-004   6.6910371198208973E-002
  -8.6988329202073063E-003   2.3191066205309752E-003   6.4537213800878651E-002
  -7.9875697293076611E-003   2.0803233972906399E-003   6.4414769400646874E-002
  -7.2763065384080158E-003   1.8517759928413091E-003   6.4548515696577463E-002
  -6.5650433475083689E-003   1.6334644071826498E-003   6.4938452688670420E-002
  -5.8537801566087228E-003   1.4253886403146898E-003   6.5584580376925605E-002
  -1.1786401619860679E-002   3.0867851738534124E-003   6.3374448313527010E-002
  -1.0812810572737919E-002   2.7716741118234411E-003   6.3175612806996795E-002
  -9.8392195256151796E-003   2.4689230595148215E-003   6.3245242316750383E-002
  -8.8656284784924301E-003   2.1785320169273800E-003   6.3583336842787774E-002
  -7.8920374313696876E-003   1.9005009840608045E-003   6.4189896385108969E-002
  -7.3817331017952958E-006   5.1609077122982683E-008   6.9355273329174794E-002
  -6.0494830341623063E-006   3.0667033081299699E-006   6.9200537510077931E-002
  -4.7172329665327861E-006   4.6686777446236505E-006   6.9260206274801506E-002
  -3.3849828988963271E-006   4.8575323862709574E-006   6.9534279623345990E-002
  -2.0527328312702764E-006   3.6332672338490468E-006   7.0022757555710857E-002
  -1.9114523074747758E-003   4.7516395282309887E-004   6.8167268848958573E-002
  -1.6910939305870148E-003   4.2349435484345666E-004   6.7985221031260257E-002
  -1.4707355536992435E-003   3.9882859371592749E-004   6.8026820883381550E-002
  -1.2503771768114669E-003   4.0116666943924850E-004   6.8292068405322801E-002
  -1.0300187999237112E-003   4.3050858201454378E-004   6.8780963597083244E-002
  -3.8602517819770928E-003   9.5027629656901924E-004   6.6910371198208973E-002
  -3.4116241922702208E-003   8.4392200637892212E-004   6.6729428338555524E-002
  -2.9629966025633489E-003   7.9298850968678725E-004   6.6781376234720607E-002
  -2.5143690128564770E-003   7.9747580649211502E-004   6.7066214886704223E-002
  -2.0657414231496050E-003   8.5738389679529403E-004   6.7583944294506565E-002
  -5.8537801566087228E-003   1.4253886403146898E-003   6.5584580376925605E-002
  -5.1676402680837950E-003   1.2643496579144292E-003   6.5433159431963067E-002
  -4.4815003795588611E-003   1.1871484256577580E-003   6.5523872328818220E-002
  -3.7953604910339269E-003   1.1937849435450926E-003   6.5856719067490896E-002
  -3.1092206025089995E-003   1.2842592115761831E-003   6.6431699647980902E-002
  -7.8920374313696876E-003   1.9005009840608045E-003   6.4189896385108969E-002
  -6.9591421580277313E-003   1.6847773094497698E-003   6.4096414311483496E-002
  -6.0262468846857646E-003   1.5813083416286455E-003   6.4254309165674539E-002
  -5.0933516113437945E-003   1.5900940805979383E-003   6.4663580947682070E-002
  -4.1604563380018417E-003   1.7111345263568500E-003   6.5324229657506061E-002
  -2.0527328312702764E-006   3.6332672338490468E-006   7.0022757555710857E-002
  -1.8252057137346789E-006   2.0375560583762997E-006   6.8682415594600199E-002
  -1.5976785961956119E-006   1.1120726334523656E-006   6.7487698162222109E-002
  -1.3701514786530755E-006   8.5681695780742695E-007   6.6438605258576727E-002
  -1.1426243611209475E-006   1.2717890320868008E-006   6.5535136883663858E-002
  -1.0300187999237112E-003   4.3050858201454378E-004   6.8780963597083244E-002
  -8.8741453607013923E-004   5.0261447503008316E-004   6.7459214463732153E-002
  -7.4481027221656032E-004   6.3324449207619038E-004   6.6276594275120809E-002
  -6.0220600836298314E-004   8.2239863315107520E-004   6.5233103031248837E-002
  -4.5960174450940944E-004   1.0700768982564446E-003   6.4328740732116363E-002
  -2.0657414231496050E-003   8.5738389679529403E-004   6.7583944294506565E-002
  -1.7872560065531722E-003   1.0031913940022064E-003   6.6338641885195226E-002
  -1.5087705899567297E-003   1.2653769115185814E-003   6.5225972836630189E-002
  -1.2302851733602986E-003   1.6439404493448946E-003   6.4245937148811300E-002
  -9.5179975676385441E-004   2.1388820074809134E-003   6.3398534821738850E-002
  -3.1092206025089995E-003   1.2842592115761831E-003   6.6431699647980902E-002
  -2.7013496171628551E-003   1.5037683129739549E-003   6.5320697858989141E-002
  -2.2934786318167168E-003   1.8975093309614791E-003   6.4335833846750776E-002
  -1.8856076464705757E-003   2.4654822655382162E-003   6.3477107611265057E-002
  -1.4777366611244346E-003   3.2076871167051046E-003   6.2744519152533068E-002
  -4.1604563380018417E-003   1.7111345263568500E-003   6.5324229657506061E-002
  -3.6296953678991856E-003   2.0043452319459254E-003   6.4405382385113841E-002
  -3.0989343977965086E-003   2.5296417504036550E-003   6.3606177305481737E-002
  -2.5681734276938473E-003   3.2870240817319679E-003   6.2926614418609528E-002
  -2.0374124575911756E-003   4.2764922259296290E-003   6.2366693724497213E-002
  -1.1426243611209475E-006   1.2717890320868008E-006   6.5535136883663858E-002
  -9.7767452122282661E-007   1.8860522328356666E-006   6.0797738446588312E-002
  -8.1272468131429743E-007   2.2286699371543151E-006   5.5940811849023442E-002
  -6.4777484142658492E-007   2.2996421444598791E-006   5.0964357090969747E-002
  -4.8282500150764740E-007   2.0989688556127817E-006   4.5868374172427284E-002
  -4.5960174450940944E-004   1.0700768982564446E-003   6.4328740732116363E-002
  -5.6470362494481091E-004   1.3960631330083295E-003   5.9620774818031463E-002
  -6.6980550538020198E-004   1.8201411830235659E-003   5.4821803403885150E-002
  -7.7490738581559304E-004   2.3423110483026602E-003   4.9931826489677616E-002
  -8.8000926625099452E-004   2.9625727288449255E-003   4.4950844075407170E-002
  -9.5179975676385441E-004   2.1388820074809134E-003   6.3398534821738850E-002
  -1.1336458070471730E-003   2.7902402137834903E-003   5.8818364891405489E-002
  -1.3154918573304976E-003   3.6380536961100884E-003   5.4175712121437680E-002
  -1.4973379076138240E-003   4.6823224544604164E-003   4.9470576511835576E-002
  -1.6791839578971270E-003   5.9230464888346823E-003   4.4702958062599718E-002
  -1.4777366611244346E-003   3.2076871167051046E-003   6.2744519152533068E-002
  -1.7078042208283051E-003   4.1844172945585956E-003   5.8390508666710590E-002
  -1.9378717805321616E-003   5.4559662091962224E-003   5.4002538001682060E-002
  -2.1679393402360219E-003   7.0223338606185057E-003   4.9580607157446326E-002
  -2.3980068999398885E-003   8.8835202488241061E-003   4.5124716134003595E-002
  -2.0374124575911756E-003   4.2764922259296290E-003   6.2366693724497213E-002
  -2.2871788662882087E-003   5.5785943753338119E-003   5.8337206143947107E-002
  -2.5369452749852348E-003   7.2738787222826617E-003   5.4302281044617595E-002
  -2.7867116836822834E-003   9.3623452667763382E-003   5.0261918426508317E-002
  -3.0364780923792939E-003   1.1843994008813752E-002   4.6216118289619690E-002
  -2.5262484883378920E-002   8.1306354598104646E-003   7.6076248785437783E-002
  -2.4463410081757661E-002   7.5824013349065633E-003   7.1949471483928107E-002
  -2.3664335280136384E-002   7.1276407565779437E-003   6.8846452435068400E-002
  -2.2865260478515122E-002   6.7663537248246718E-003   6.6767191638858567E-002
  -2.2066185676893862E-002   6.4985402396467995E-003   6.5711689095298620E-002
  -3.4598401862767109E-002   9.6067153734351596E-003   6.5397100920632223E-002
  -3.2987031355969705E-002   9.1950955025374426E-003   6.3288481456118345E-002
  -3.1375660849172336E-002   8.8192603529898134E-003   6.1780695149306897E-002
  -2.9764290342374961E-002   8.4792099247923310E-003   6.0873742000197809E-002
  -2.8152919835577574E-002   8.1749442179450127E-003   6.0567622008790956E-002
  -4.1769327591648302E-002   1.1082795287059882E-002   5.4883411722445333E-002
  -3.9768586474622461E-002   1.0807789670168294E-002   5.4735261269702309E-002
  -3.7767845357596558E-002   1.0510879949401773E-002   5.4765018879713863E-002
  -3.5767104240570689E-002   1.0192066124760020E-002   5.4972684552480139E-002
  -3.3766363123544821E-002   9.8513481962433369E-003   5.5358258288001116E-002
  -4.6775262070022625E-002   1.2558875200684591E-002   4.4535181190877390E-002
  -4.4808075437715852E-002   1.2420483837799270E-002   4.6289810924679750E-002
  -4.2840888805409115E-002   1.2202499545813632E-002   4.7799423626289306E-002
  -4.0873702173102336E-002   1.1904922324727667E-002   4.9064019295705752E-002
  -3.8906515540795578E-002   1.1527752174541606E-002   5.0083597932929283E-002
  -4.9616205297889959E-002   1.4034955114309300E-002   3.4352409325928202E-002
  -4.8105498245249956E-002   1.4033178005430025E-002   3.7952130421050889E-002
  -4.6594791192609938E-002   1.3894119142225603E-002   4.0883909389032969E-002
  -4.5084084139969900E-002   1.3617778524695340E-002   4.3147746229874495E-002
  -4.3573377087329904E-002   1.3204156152839930E-002   4.4743640943575469E-002
  -2.2066185676893862E-002   6.4985402396467995E-003   6.5711689095298620E-002
  -2.1239022329735541E-002   6.2712087582929010E-003   6.4736298981180440E-002
  -2.0411858982577212E-002   6.0313677380117725E-003   6.4102018606255695E-002
  -1.9584695635418890E-002   5.7790171788034556E-003   6.3808847970524440E-002
  -1.8757532288260562E-002   5.5141570806677698E-003   6.3856787073986732E-002
  -2.8152919835577574E-002   8.1749442179450127E-003   6.0567622008790956E-002
  -2.7026221398278837E-002   7.8823707666511172E-003   6.0011493241750716E-002
  -2.5899522960980123E-002   7.5773971051138617E-003   5.9713324915797866E-002
  -2.4772824523681375E-002   7.2600232333331800E-003   5.9673117030932421E-002
  -2.3646126086382675E-002   6.9302491513090203E-003   5.9890869587154089E-002
  -3.3766363123544821E-002   9.8513481962433369E-003   5.5358258288001116E-002
  -3.2423278894211857E-002   9.4935327750093612E-003   5.5221500196722895E-002
  -3.1080194664878914E-002   9.1234264722158398E-003   5.5259553248425825E-002
  -2.9737110435545968E-002   8.7410292878627935E-003   5.5472417443109823E-002
  -2.8394026206213011E-002   8.3463412219502986E-003   5.5860092780775167E-002
  -3.8906515540795578E-002   1.1527752174541606E-002   5.0083597932929283E-002
  -3.7430194817534582E-002   1.1104694783367536E-002   5.0366319846096907E-002
  -3.5953874094273586E-002   1.0669455839317957E-002   5.0740703604139410E-002
  -3.4477553371012583E-002   1.0222035342392490E-002   5.1206749207056979E-002
  -3.3001232647751559E-002   9.7624332925915630E-003   5.1764456654849418E-002
  -4.3573377087329904E-002   1.3204156152839930E-002   4.4743640943575469E-002
  -4.2046969168247031E-002   1.2715856791725849E-002   4.5445952189872796E-002
  -4.0520561249164123E-002   1.2215485206419865E-002   4.6156775982938825E-002
  -3.8994153330081244E-002   1.1703041396922121E-002   4.6876112322773722E-002
  -3.7467745410998371E-002   1.1178525363232772E-002   4.7603961209377266E-002
  -1.8757532288260562E-002   5.5141570806677698E-003   6.3856787073986732E-002
  -1.7900925619074508E-002   5.2381015703360789E-003   6.3301438927635456E-002
  -1.7044318949888448E-002   4.9521647745397190E-003   6.2994771846436232E-002
  -1.6187712280702395E-002   4.6563466932781003E-003   6.2936785830388808E-002
  -1.5331105611516335E-002   4.3506473265519374E-003   6.3127480879493214E-002
  -2.3646126086382675E-002   6.9302491513090203E-003   5.9890869587154089E-002
  -2.2554151905179294E-002   6.5900315503076290E-003   5.9453717509372145E-002
  -2.1462177723975896E-002   6.2413271215950306E-003   5.9238619390473132E-002
  -2.0370203542772490E-002   5.8841358651713777E-003   5.9245575230456780E-002
  -1.9278229361569088E-002   5.5184577810363233E-003   5.9474585029323346E-002
  -2.8394026206213011E-002   8.3463412219502986E-003   5.5860092780775167E-002
  -2.7093311619261328E-002   7.9419615302792484E-003   5.5542531229315961E-002
  -2.5792597032309635E-002   7.5304894686506890E-003   5.5420396530470747E-002
  -2.4491882445357917E-002   7.1119250370644919E-003   5.5493688684239227E-002
  -2.3191167858406258E-002   6.6862682355209591E-003   5.5762407690621532E-002
  -3.3001232647751559E-002   9.7624332925915630E-003   5.1764456654849418E-002
  -3.1518404761320597E-002   9.2938915102508887E-003   5.1567880087466905E-002
  -3.0035576874889627E-002   8.8196518157062573E-003   5.1540103266429216E-002
  -2.8552748988458672E-002   8.3397142089577988E-003   5.1681126191736301E-002
  -2.7069921102027671E-002   7.8540786900055809E-003   5.1990948863388078E-002
  -3.7467745410998371E-002   1.1178525363232772E-002   4.7603961209377266E-002
  -3.5829431331357173E-002   1.0645821490222362E-002   4.7529764083825032E-002
  -3.4191117251715947E-002   1.0108814162761659E-002   4.7597739598348510E-002
  -3.2552803172074735E-002   9.5675033808508281E-003   4.7807887752947753E-002
  -3.0914489092433536E-002   9.0218891444900362E-003   4.8160208547622652E-002
  -1.5331105611516335E-002   4.3506473265519374E-003   6.3127480879493214E-002
  -1.4444929613602411E-002   4.0386759349142487E-003   6.2878072267989304E-002
  -1.3558753615688507E-002   3.7240417789183439E-003   6.2836097303160282E-002
  -1.2672577617774589E-002   3.4067448585649480E-003   6.3001555985006244E-002
  -1.1786401619860679E-002   3.0867851738534124E-003   6.3374448313527010E-002
  -1.9278229361569088E-002   5.5184577810363233E-003   5.9474585029323346E-002
  -1.8186472119717304E-002   5.1456208690695837E-003   5.9253262472142826E-002
  -1.7094714877865499E-002   4.7669531291502920E-003   5.9235668756163262E-002
  -1.6002957636013702E-002   4.3824545612786078E-003   5.9421803881384710E-002
  -1.4911200394161914E-002   3.9921251654544410E-003   5.9811667847806893E-002
  -2.3191167858406258E-002   6.6862682355209591E-003   5.5762407690621532E-002
  -2.1897534178090535E-002   6.2525658032249742E-003   5.5566003124170038E-002
  -2.0603900497774857E-002   5.8098644793822332E-003   5.5569622593445424E-002
  -1.9310266817459169E-002   5.3581642639923214E-003   5.5773266098447655E-002
  -1.8016633137143457E-002   4.8974651570555805E-003   5.6176933639176835E-002
  -2.7069921102027671E-002   7.8540786900055809E-003   5.1990948863388078E-002
  -2.5578115788722166E-002   7.3595107373806146E-003   5.1816294224070907E-002
  -2.4086310475416612E-002   6.8527758296140114E-003   5.1837958815006850E-002
  -2.2594505162111096E-002   6.3338739667061746E-003   5.2055942636195354E-002
  -2.1102699848805553E-002   5.8028051486567755E-003   5.2470245687636925E-002
  -3.0914489092433536E-002   9.0218891444900362E-003   4.8160208547622652E-002
  -2.9228216951612138E-002   8.4664556715358663E-003   4.8004135771845480E-002
  -2.7541944810790746E-002   7.8956871798460532E-003   4.8040677420847250E-002
  -2.5855672669969351E-002   7.3095836694197884E-003   4.8269833494627754E-002
  -2.4169400529147955E-002   6.7081451402577486E-003   4.8691603993187060E-002
  -1.1786401619860679E-002   3.0867851738534124E-003   6.3374448313527010E-002
  -1.0812810572737919E-002   2.7716741118234411E-003   6.3175612806996795E-002
  -9.8392195256151796E-003   2.4689230595148215E-003   6.3245242316750383E-002
  -8.8656284784924301E-003   2.1785320169273800E-003   6.3583336842787774E-002
  -7.8920374313696876E-003   1.9005009840608045E-003   6.4189896385108969E-002
  -1.4911200394161914E-002   3.9921251654544410E-003   5.9811667847806893E-002
  -1.3686035529969165E-002   3.6033033079916899E-003   5.9625910130580551E-002
  -1.2460870665776400E-002   3.2233273552042530E-003   5.9674835031210349E-002
  -1.1235705801583666E-002   2.8521973070919915E-003   5.9958442549696261E-002
  -1.0010540937390913E-002   2.4899131636546556E-003   6.0476732686038370E-002
  -1.8016633137143457E-002   4.8974651570555805E-003   5.6176933639176835E-002
  -1.6573676854308474E-002   4.4349325041599941E-003   5.6000739606208438E-002
  -1.5130720571473433E-002   3.9777316508936983E-003   5.6025445792668591E-002
  -1.3687764288638406E-002   3.5258625972566064E-003   5.6251052198557187E-002
  -1.2244808005803381E-002   3.0793253432487844E-003   5.6677558823874014E-002
  -2.1102699848805553E-002   5.8028051486567755E-003   5.2470245687636925E-002
  -1.9475734545755921E-002   5.2665617003282150E-003   5.2300101233880583E-002
  -1.7848769242706307E-002   4.7321359465830812E-003   5.2297074601124982E-002
  -1.6221803939656717E-002   4.1995278874211086E-003   5.2461165789370309E-002
  -1.4594838636607058E-002   3.6687375228429409E-003   5.2792374798616030E-002
  -2.4169400529147955E-002   6.7081451402577486E-003   4.8691603993187060E-002
  -2.2392208604311459E-002   6.0981908964964915E-003   4.8523995013596943E-002
  -2.0615016679474976E-002   5.4865402422724918E-003   4.8489721456579649E-002
  -1.8837824754638473E-002   4.8731931775861451E-003   4.8588783322135565E-002
  -1.7060632829801997E-002   4.2581497024368753E-003   4.8821180610264636E-002
  -7.8920374313696876E-003   1.9005009840608045E-003   6.4189896385108969E-002
  -6.9591421580277313E-003   1.6847773094497698E-003   6.4096414311483496E-002
  -6.0262468846857646E-003   1.5813083416286455E-003   6.4254309165674539E-002
  -5.0933516113437945E-003   1.5900940805979383E-003   6.4663580947682070E-002
  -4.1604563380018417E-003   1.7111345263568500E-003   6.5324229657506061E-002
  -1.0010540937390913E-002   2.4899131636546556E-003   6.0476732686038370E-002
  -8.8259862121698660E-003   2.1884828261369837E-003   6.0380327781061172E-002
  -7.6414314869487875E-003   1.9999141957837696E-003   6.0535864852025806E-002
  -6.4568767617277107E-003   1.9242072725944442E-003   6.0943343898932037E-002
  -5.2723220365066582E-003   1.9613620565688272E-003   6.1602764921780184E-002
  -1.2244808005803381E-002   3.0793253432487844E-003   5.6677558823874014E-002
  -1.0808028780578002E-002   2.6921883428247251E-003   5.6578838087919386E-002
  -9.3712495553526474E-003   2.4185200499386578E-003   5.6732624376031451E-002
  -7.9344703301273065E-003   2.2583204645908357E-003   5.7138917688210646E-002
  -6.4976911049019117E-003   2.2115895867809710E-003   5.7797718024456490E-002
  -1.4594838636607058E-002   3.6687375228429409E-003   5.2792374798616030E-002
  -1.2905269863252185E-002   3.1958938595121472E-003   5.2691945232057946E-002
  -1.1215701089897353E-002   2.8371259040935529E-003   5.2844587737691726E-002
  -9.5261323165424672E-003   2.5924336565873955E-003   5.3250302315517729E-002
  -7.8365635431876506E-003   2.4618171169931424E-003   5.3909088965535937E-002
  -1.7060632829801997E-002   4.2581497024368753E-003   4.8821180610264636E-002
  -1.5117709460192447E-002   3.6995993761996804E-003   4.8719649213476823E-002
  -1.3174786090582882E-002   3.2557317582485867E-003   4.8871754937006573E-002
  -1.1231862720973339E-002   2.9265468485838789E-003   4.9277497780853385E-002
  -9.2889393513637675E-003   2.7120446472050919E-003   4.9936877745017760E-002
  -4.1604563380018417E-003   1.7111345263568500E-003   6.5324229657506061E-002
  -3.6296953678991856E-003   2.0043452319459254E-003   6.4405382385113841E-002
  -3.0989343977965086E-003   2.5296417504036550E-003   6.3606177305481737E-002
  -2.5681734276938473E-003   3.2870240817319679E-003   6.2926614418609528E-002
  -2.0374124575911756E-003   4.2764922259296290E-003   6.2366693724497213E-002
  -5.2723220365066582E-003   1.9613620565688272E-003   6.1602764921780184E-002
  -4.5961705510315400E-003   2.2179316337520572E-003   6.0875189448171441E-002
  -3.9200190655564095E-003   2.8004690901892171E-003   6.0318752812547949E-002
  -3.2438675800812921E-003   3.7089744258796825E-003   5.9933455014909431E-002
  -2.5677160946061608E-003   4.9434476408236616E-003   5.9719296055255611E-002
  -6.4976911049019117E-003   2.2115895867809710E-003   5.7797718024456490E-002
  -5.6246524588293278E-003   2.4315180355590216E-003   5.7355296416015583E-002
  -4.7516138127567447E-003   3.0712964299744738E-003   5.7135510290784702E-002
  -3.8785751666841326E-003   4.1309247700276261E-003   5.7138359648764056E-002
  -3.0055365206115795E-003   5.6104030557181939E-003   5.7363844489952881E-002
  -7.8365635431876506E-003   2.4618171169931424E-003   5.3909088965535937E-002
  -6.7151410912925195E-003   2.6451044373657362E-003   5.3845703288646338E-002
  -5.5937186393974579E-003   3.3421237697594947E-003   5.4056449740192129E-002
  -4.4722961875023814E-003   4.5528751141753442E-003   5.4541328320172819E-002
  -3.3508737356072655E-003   6.2773584706123653E-003   5.5300339028588073E-002
  -9.2889393513637675E-003   2.7120446472050919E-003   4.9936877745017760E-002
  -7.8676364484212002E-003   2.8586908391721177E-003   5.0346410066063996E-002
  -6.4463335454786053E-003   3.6129511095451816E-003   5.1081571160769890E-002
  -5.0250306425360172E-003   4.9748254583230900E-003   5.2142361029136330E-002
  -3.6037277395934431E-003   6.9443138855069808E-003   5.3528779671162319E-002
  -2.0374124575911756E-003   4.2764922259296290E-003   6.2366693724497213E-002
  -2.2871788662882087E-003   5.5785943753338119E-003   5.8337206143947107E-002
  -2.5369452749852348E-003   7.2738787222826617E-003   5.4302281044617595E-002
  -2.7867116836822834E-003   9.3623452667763382E-003   5.0261918426508317E-002
  -3.0364780923792939E-003   1.1843994008813752E-002   4.6216118289619690E-002
  -2.5677160946061608E-003   4.9434476408236616E-003   5.9719296055255611E-002
  -2.8404118656727984E-003   6.5678128674657721E-003   5.6188299012968568E-002
  -3.1131076367394116E-003   8.6459942382502986E-003   5.2616880764721818E-002
  -3.3858034078060647E-003   1.1177991753176658E-002   4.9005041310515224E-002
  -3.6584991788727178E-003   1.4163805412246377E-002   4.5352780650348867E-002
  -3.0055365206115795E-003   5.6104030557181939E-003   5.7363844489952881E-002
  -3.3361453412280098E-003   7.5570313595974548E-003   5.4391971932526456E-002
  -3.6667541618444670E-003   1.0018109754217394E-002   5.1344694481960204E-002
  -3.9973629824609138E-003   1.2993638239577870E-002   4.8222012138254160E-002
  -4.3279718030773302E-003   1.6483616815678781E-002   4.5023924901407719E-002
  -3.3508737356072655E-003   6.2773584706123653E-003   5.5300339028588073E-002
  -3.7743792929538379E-003   8.5462498517291652E-003   5.2948224902620911E-002
  -4.1978848503003265E-003   1.1390225270184871E-002   5.0485722196333307E-002
  -4.6213904076468299E-003   1.4809284725978858E-002   4.7912830909725666E-002
  -5.0448959649934165E-003   1.8803428219111296E-002   4.5229551042798133E-002
  -3.6037277395934431E-003   6.9443138855069808E-003   5.3528779671162319E-002
  -4.1551137208502287E-003   9.5354683438608756E-003   5.1857057923252015E-002
  -4.7064997021070698E-003   1.2762340786151960E-002   5.0039963907841156E-002
  -5.2578856833638624E-003   1.6624931212379526E-002   4.8077497624930188E-002
  -5.8092716646206966E-003   2.1123239622543810E-002   4.5969659074518443E-002
  -4.9616205297889959E-002   1.4034955114309300E-002   3.4352409325928202E-002
  -4.8105498245249956E-002   1.4033178005430025E-002   3.7952130421050889E-002
  -4.6594791192609938E-002   1.3894119142225603E-002   4.0883909389032969E-002
  -4.5084084139969900E-002   1.3617778524695340E-002   4.3147746229874495E-002
  -4.3573377087329904E-002   1.3204156152839930E-002   4.4743640943575469E-002
  -5.2655359877838315E-002   1.6470008854864826E-002   3.8477041842345794E-002
  -5.1561417472737889E-002   1.6139003510777045E-002   3.9669584454263274E-002
  -5.0467475067637393E-002   1.5751395904740256E-002   4.0696539898242262E-002
  -4.9373532662536926E-002   1.5307186036754621E-002   4.1557908174282565E-002
  -4.8279590257436493E-002   1.4806373906820047E-002   4.2253689282384488E-002
  -5.8255928412455714E-002   1.8905062595420408E-002   4.2232106377366296E-002
  -5.7076395695692679E-002   1.8244829016123842E-002   4.1098149998455263E-002
  -5.5896862978929832E-002   1.7608672667254854E-002   4.0300961410807579E-002
  -5.4717330262166922E-002   1.6996593548813652E-002   3.9840540614423423E-002
  -5.3537797545404012E-002   1.6408591660800137E-002   3.9716887609302712E-002
  -6.6417910901741969E-002   2.1340116335975989E-002   4.5617602930989931E-002
  -6.4650432914114611E-002   2.0350654521470696E-002   4.2237827053626852E-002
  -6.2882954926487253E-002   1.9465949429769619E-002   3.9697173926729126E-002
  -6.1115476938859867E-002   1.8686001060872780E-002   3.7995643550296977E-002
  -5.9347998951232508E-002   1.8010809414780157E-002   3.7133235924330280E-002
  -7.7141307345697241E-002   2.3775170076531515E-002   4.8633531503216476E-002
  -7.4283529128003400E-002   2.2456480026817494E-002   4.3088615619777892E-002
  -7.1425750910309616E-002   2.1323226192284161E-002   3.8885177446006836E-002
  -6.8567972692615831E-002   2.0375408572931866E-002   3.6023216981903167E-002
  -6.5710194474921990E-002   1.9613027168760344E-002   3.4502734227467025E-002
  -4.3573377087329904E-002   1.3204156152839930E-002   4.4743640943575469E-002
  -4.2046969168247031E-002   1.2715856791725849E-002   4.5445952189872796E-002
  -4.0520561249164123E-002   1.2215485206419865E-002   4.6156775982938825E-002
  -3.8994153330081244E-002   1.1703041396922121E-002   4.6876112322773722E-002
  -3.7467745410998371E-002   1.1178525363232772E-002   4.7603961209377266E-002
  -4.8279590257436493E-002   1.4806373906820047E-002   4.2253689282384488E-002
  -4.6697487909898493E-002   1.4271279973784426E-002   4.2439171508284648E-002
  -4.5115385562360513E-002   1.3724224696495507E-002   4.2727530044326098E-002
  -4.3533283214822485E-002   1.3165208074953659E-002   4.3118764890509011E-002
  -4.1951180867284533E-002   1.2594230109158389E-002   4.3612876046833338E-002
  -5.3537797545404012E-002   1.6408591660800137E-002   3.9716887609302712E-002
  -5.1805637006038276E-002   1.5826703155843072E-002   3.9385651694744214E-002
  -5.0073476466672560E-002   1.5232964186571309E-002   3.9251655853699795E-002
  -4.8341315927306852E-002   1.4627374752985029E-002   3.9314900086169460E-002
  -4.6609155387941116E-002   1.4009934855083922E-002   3.9575384392153079E-002
  -5.9347998951232508E-002   1.8010809414780157E-002   3.7133235924330280E-002
  -5.7371416456666442E-002   1.7382126337901600E-002   3.6285392749251737E-002
  -5.5394833962100390E-002   1.6741703676647086E-002   3.5729153411059755E-002
  -5.3418251467534275E-002   1.6089541431016371E-002   3.5464517909754648E-002
  -5.1441668972968209E-002   1.5425639601009469E-002   3.5491486245335976E-002
  -6.5710194474921990E-002   1.9613027168760344E-002   3.4502734227467025E-002
  -6.3394826261782944E-002   1.8937549519960295E-002   3.3138394671806959E-002
  -6.1079458048643898E-002   1.8250443166722766E-002   3.2160022716406167E-002
  -5.8764089835504837E-002   1.7551708109047801E-002   3.1567618361264732E-002
  -5.6448721622365777E-002   1.6841344346935072E-002   3.1361181606382627E-002
  -3.7467745410998371E-002   1.1178525363232772E-002   4.7603961209377266E-002
  -3.5829431331357173E-002   1.0645821490222362E-002   4.7529764083825032E-002
  -3.4191117251715947E-002   1.0108814162761659E-002   4.7597739598348510E-002
  -3.2552803172074735E-002   9.5675033808508281E-003   4.7807887752947753E-002
  -3.0914489092433536E-002   9.0218891444900362E-003   4.8160208547622652E-002
  -4.1951180867284533E-002   1.2594230109158389E-002   4.3612876046833338E-002
  -4.0159800110033533E-002   1.2015294346606087E-002   4.3370905042589253E-002
  -3.8368419352782540E-002   1.1432404334793145E-002   4.3292894753488936E-002
  -3.6577038595531554E-002   1.0845560073719493E-002   4.3378845179532569E-002
  -3.4785657838280554E-002   1.0254761563385117E-002   4.3628756320719775E-002
  -4.6609155387941116E-002   1.4009934855083922E-002   3.9575384392153079E-002
  -4.4642919878012277E-002   1.3384767202989950E-002   3.9165988714406533E-002
  -4.2676684368083431E-002   1.2755994506824631E-002   3.8942341826871882E-002
  -4.0710448858154578E-002   1.2123616766588102E-002   3.8904443729549064E-002
  -3.8744213348225753E-002   1.1487633982280393E-002   3.9052294422438225E-002
  -5.1441668972968209E-002   1.5425639601009469E-002   3.5491486245335976E-002
  -4.9278790635293446E-002   1.4754240059373688E-002   3.4915015099276532E-002
  -4.7115912297618627E-002   1.4079584678856144E-002   3.4546080818497006E-002
  -4.4953033959943878E-002   1.3401673459456684E-002   3.4384683402997600E-002
  -4.2790155622268983E-002   1.2720506401175682E-002   3.4430822852778001E-002
  -5.6448721622365777E-002   1.6841344346935072E-002   3.1361181606382627E-002
  -5.4067412381876956E-002   1.6123712915757538E-002   3.0617984197199632E-002
  -5.1686103141388121E-002   1.5403174850887560E-002   3.0104111728364719E-002
  -4.9304793900899320E-002   1.4679730152325227E-002   2.9819564199877802E-002
  -4.6923484660410519E-002   1.3953378820070805E-002   2.9764341611739076E-002
  -3.0914489092433536E-002   9.0218891444900362E-003   4.8160208547622652E-002
  -2.9228216951612138E-002   8.4664556715358663E-003   4.8004135771845480E-002
  -2.7541944810790746E-002   7.8956871798460532E-003   4.8040677420847250E-002
  -2.5855672669969351E-002   7.3095836694197884E-003   4.8269833494627754E-002
  -2.4169400529147955E-002   6.7081451402577486E-003   4.8691603993187060E-002
  -3.4785657838280554E-002   1.0254761563385117E-002   4.3628756320719775E-002
  -3.2915261201263958E-002   9.6548775788122543E-003   4.3362030993284756E-002
  -3.1044864564247279E-002   9.0407768950235279E-003   4.3270940233461619E-002
  -2.9174467927230704E-002   8.4124595120183138E-003   4.3355484041249948E-002
  -2.7304071290214005E-002   7.7699254297973752E-003   4.3615662416650103E-002
  -3.8744213348225753E-002   1.1487633982280393E-002   3.9052294422438225E-002
  -3.6706672072181062E-002   1.0843299486088837E-002   3.8676034862865361E-002
  -3.4669130796136344E-002   1.0185866610201121E-002   3.8458430013737034E-002
  -3.2631589520091639E-002   9.5153353546169519E-003   3.8399479875053155E-002
  -3.0594048244046927E-002   8.8317057193367798E-003   3.8499184446813772E-002
  -4.2790155622268983E-002   1.2720506401175682E-002   3.4430822852778001E-002
  -4.0602449564363423E-002   1.2031721393365211E-002   3.3946147380587099E-002
  -3.8414743506457821E-002   1.1330956325378710E-002   3.3603146761673690E-002
  -3.6227037448552261E-002   1.0618211197215646E-002   3.3401820996037411E-002
  -3.4039331390646660E-002   9.8934860088764065E-003   3.3342170083678409E-002
  -4.6923484660410519E-002   1.3953378820070805E-002   2.9764341611739076E-002
  -4.4602593677811164E-002   1.3220143300641640E-002   2.9172368546449945E-002
  -4.2281702695211865E-002   1.2476046040556119E-002   2.8705090477271072E-002
  -3.9960811712612523E-002   1.1721087039814098E-002   2.8362507404202417E-002
  -3.7639920730013238E-002   1.0955266298415811E-002   2.8144619327243880E-002
  -2.4169400529147955E-002   6.7081451402577486E-003   4.8691603993187060E-002
  -2.2392208604311459E-002   6.0981908964964915E-003   4.8523995013596943E-002
  -2.0615016679474976E-002   5.4865402422724918E-003   4.8489721456579649E-002
  -1.8837824754638473E-002   4.8731931775861451E-003   4.8588783322135565E-002
  -1.7060632829801997E-002   4.2581497024368753E-003   4.8821180610264636E-002
  -2.7304071290214005E-002   7.7699254297973752E-003   4.3615662416650103E-002
  -2.5388156652314260E-002   7.1221621819758663E-003   4.3299165513559612E-002
  -2.3472242014414550E-002   6.4781573021699956E-003   4.3126778614022782E-002
  -2.1556327376514771E-002   5.8379107903791944E-003   4.3098501718039348E-002
  -1.9640412738615040E-002   5.2014226466042812E-003   4.3214334825609324E-002
  -3.0594048244046927E-002   8.8317057193367798E-003   3.8499184446813772E-002
  -2.8528636312103513E-002   8.1461334674552688E-003   3.8039254398701372E-002
  -2.6463224380160060E-002   7.4697743620670415E-003   3.7734208935122721E-002
  -2.4397812448216635E-002   6.8026284031725177E-003   3.7584048056078075E-002
  -2.2332400516273193E-002   6.1446955907715206E-003   3.7588771761567247E-002
  -3.4039331390646660E-002   9.8934860088764065E-003   3.3342170083678409E-002
  -3.1813647583679092E-002   9.1701047529346019E-003   3.2744261669021814E-002
  -2.9587963776711558E-002   8.4613914219644273E-003   3.2312012419879674E-002
  -2.7362279969743959E-002   7.7673460159658706E-003   3.2045422336251836E-002
  -2.5136596162776408E-002   7.0879685349387322E-003   3.1944491418138342E-002
  -3.7639920730013238E-002   1.0955266298415811E-002   2.8144619327243880E-002
  -3.5243190467041080E-002   1.0194076038414213E-002   2.7414187324521277E-002
  -3.2846460204068964E-002   9.4530084818615634E-003   2.6860189068293627E-002
  -3.0449729941096841E-002   8.7320636287591055E-003   2.6482624558560736E-002
  -2.8052999678124718E-002   8.0312414791061659E-003   2.6281493795322519E-002
  -1.7060632829801997E-002   4.2581497024368753E-003   4.8821180610264636E-002
  -1.5117709460192447E-002   3.6995993761996804E-003   4.8719649213476823E-002
  -1.3174786090582882E-002   3.2557317582485867E-003   4.8871754937006573E-002
  -1.1231862720973339E-002   2.9265468485838789E-003   4.9277497780853385E-002
  -9.2889393513637675E-003   2.7120446472050919E-003   4.9936877745017760E-002
  -1.9640412738615040E-002   5.2014226466042812E-003   4.3214334825609324E-002
  -1.7482098572219586E-002   4.6026322594425184E-003   4.3055509163194339E-002
  -1.5323784405824173E-002   4.0754790174932776E-003   4.3073827974033807E-002
  -1.3165470239428767E-002   3.6199629207558925E-003   4.3269291258127868E-002
  -1.1007156073033306E-002   3.2360839692305854E-003   4.3641899015476326E-002
  -2.2332400516273193E-002   6.1446955907715206E-003   3.7588771761567247E-002
  -2.0035188200154673E-002   5.5056651426861336E-003   3.7329606270450622E-002
  -1.7737975884036142E-002   4.8952262767382876E-003   3.7171092605525577E-002
  -1.5440763567917624E-002   4.3133789929282358E-003   3.7113230766792342E-002
  -1.3143551251799140E-002   3.7601232912557458E-003   3.7156020754250729E-002
  -2.5136596162776408E-002   7.0879685349387322E-003   3.1944491418138342E-002
  -2.2776978343997563E-002   6.4086980259294712E-003   3.1541940535245755E-002
  -2.0417360525218767E-002   5.7149735359834156E-003   3.1163548831482018E-002
  -1.8057742706439971E-002   5.0067950651003588E-003   3.0809316306847065E-002
  -1.5698124887661070E-002   4.2841626132811284E-003   3.0479242961341052E-002
  -2.8052999678124718E-002   8.0312414791061659E-003   2.6281493795322519E-002
  -2.5707469003748401E-002   7.3117309091725868E-003   2.5692511957579600E-002
  -2.3361938329372070E-002   6.5347207952280717E-003   2.5051196651902696E-002
  -2.1016407654995760E-002   5.7002111372726691E-003   2.4357547878291974E-002
  -1.8670876980619422E-002   4.8082019353062888E-003   2.3611565636747378E-002
  -9.2889393513637675E-003   2.7120446472050919E-003   4.9936877745017760E-002
  -7.8676364484212002E-003   2.8586908391721177E-003   5.0346410066063996E-002
  -6.4463335454786053E-003   3.6129511095451816E-003   5.1081571160769890E-002
  -5.0250306425360172E-003   4.9748254583230900E-003   5.2142361029136330E-002
  -3.6037277395934431E-003   6.9443138855069808E-003   5.3528779671162319E-002
  -1.1007156073033306E-002   3.2360839692305854E-003   4.3641899015476326E-002
  -9.2416213744882236E-003   3.1633064667005995E-003   4.4230945816960798E-002
  -7.4760866759431763E-003   3.6410947169492613E-003   4.5182827435990336E-002
  -5.7105519773981671E-003   4.6694487199773968E-003   4.6497543872564689E-002
  -3.9450172788530469E-003   6.2483684757843605E-003   4.8175095126683942E-002
  -1.3143551251799140E-002   3.7601232912557458E-003   3.7156020754250729E-002
  -1.0996578713766608E-002   3.4679220942283040E-003   3.7867533710547130E-002
  -8.8496061757341801E-003   3.6692383243536741E-003   3.8979087528273726E-002
  -6.7026336377017017E-003   4.3640719816312595E-003   4.0490682207430059E-002
  -4.5556610996692198E-003   5.5524230660620733E-003   4.2402317748016227E-002
  -1.5698124887661070E-002   4.2841626132811284E-003   3.0479242961341052E-002
  -1.3132508466256389E-002   3.7725377217562306E-003   3.1256173746823358E-002
  -1.0566892044851620E-002   3.6973819317580314E-003   3.2470351437620303E-002
  -8.0012756234468987E-003   4.0586952432856774E-003   3.4121776033731892E-002
  -5.4356592020421181E-003   4.8564776563395085E-003   3.6210447535158632E-002
  -1.8670876980619422E-002   4.8082019353062888E-003   2.3611565636747378E-002
  -1.5649410631957406E-002   4.0771533492842127E-003   2.4396865925788602E-002
  -1.2627944283295472E-002   3.7255255391621944E-003   2.5656619164029837E-002
  -9.6064779346334700E-003   3.7533185049395471E-003   2.7390825351470360E-002
  -6.5850115859715230E-003   4.1605322466173877E-003   2.9599484488111116E-002
  -3.6037277395934431E-003   6.9443138855069808E-003   5.3528779671162319E-002
  -4.1551137208502287E-003   9.5354683438608756E-003   5.1857057923252015E-002
  -4.7064997021070698E-003   1.2762340786151960E-002   5.0039963907841156E-002
  -5.2578856833638624E-003   1.6624931212379526E-002   4.8077497624930188E-002
  -5.8092716646206966E-003   2.1123239622543810E-002   4.5969659074518443E-002
  -3.9450172788530469E-003   6.2483684757843605E-003   4.8175095126683942E-002
  -4.5379425122318434E-003   8.6871814846097850E-003   4.7240321481192893E-002
  -5.1308677456107232E-003   1.2295215246693469E-002   4.6367841598958126E-002
  -5.7237929789894643E-003   1.7072469762035178E-002   4.5557655479980030E-002
  -6.3167182123683441E-003   2.3018945030635285E-002   4.4809763124257884E-002
  -4.5556610996692198E-003   5.5524230660620733E-003   4.2402317748016227E-002
  -4.9824595544132391E-003   7.8388946253585834E-003   4.2737994974265586E-002
  -5.4092580091572029E-003   1.1828089707234840E-002   4.3343631994528287E-002
  -5.8360564639011684E-003   1.7520008311690934E-002   4.4219228808803898E-002
  -6.2628549186451860E-003   2.4914650438726538E-002   4.5364785417093656E-002
  -5.4356592020421181E-003   4.8564776563395085E-003   3.6210447535158632E-002
  -5.4886648473944106E-003   6.9906077661076593E-003   3.8350078402470206E-002
  -5.5416704927467317E-003   1.1360964167776280E-002   4.0967335094551992E-002
  -5.5946761380990372E-003   1.7967546861346859E-002   4.4062217611403720E-002
  -5.6476817834513436E-003   2.6810355846817902E-002   4.7634725953026064E-002
  -6.5850115859715230E-003   4.1605322466173877E-003   2.9599484488111116E-002
  -6.0565583911753040E-003   6.1423209068564022E-003   3.4076571765806696E-002
  -5.5281051963791406E-003   1.0893838628317554E-002   3.9238950899028957E-002
  -4.9996520015828522E-003   1.8415085411002188E-002   4.5086621887778233E-002
  -4.4711988067867026E-003   2.8706061254909265E-002   5.1619584732054857E-002
  -7.7141307345697241E-002   2.3775170076531515E-002   4.8633531503216476E-002
  -7.4283529128003400E-002   2.2456480026817494E-002   4.3088615619777892E-002
  -7.1425750910309616E-002   2.1323226192284161E-002   3.8885177446006836E-002
  -6.8567972692615831E-002   2.0375408572931866E-002   3.6023216981903167E-002
  -6.5710194474921990E-002   1.9613027168760344E-002   3.4502734227467025E-002
  -8.6678915565592957E-002   2.4520816759346642E-002   2.5603807114754185E-002
  -8.2987437994079982E-002   2.3712292402919305E-002   2.4579825570032660E-002
  -7.9295960422567022E-002   2.2909776414865565E-002   2.3881765023282014E-002
  -7.5604482851054089E-002   2.2113268795185100E-002   2.3509625474502208E-002
  -7.1913005279541156E-002   2.1322769543878184E-002   2.3463406923693059E-002
  -9.1283533382700233E-002   2.5266463442161713E-002   3.1739623429825337E-003
  -8.7773913169064882E-002   2.4968104779021255E-002   6.4914872901706416E-003
  -8.4264292955429421E-002   2.4496326637446886E-002   9.1193765236329549E-003
  -8.0754672741794056E-002   2.3851129017438417E-002   1.1057630043369376E-002
  -7.7245052528158664E-002   2.3032511918996024E-002   1.2306247849379878E-002
  -9.0955160797019374E-002   2.6012110124976784E-002  -1.8656002812098602E-002
  -8.8642954652958239E-002   2.6223917155123164E-002  -1.1176399219808338E-002
  -8.6330748508897007E-002   2.6082876860028192E-002  -5.4019880529405321E-003
  -8.4018542364835774E-002   2.5588989239691693E-002  -1.3327693114950729E-003
  -8.1706336220774556E-002   2.4742254294113780E-002   1.0312570045277816E-003
  -8.5693797808550354E-002   2.6757756807791910E-002  -3.9886088350489346E-002
  -8.5594562445759914E-002   2.7479729531225128E-002  -2.8423833959903999E-002
  -8.5495327082969585E-002   2.7669427082609610E-002  -1.9682328706438129E-002
  -8.5396091720179201E-002   2.7326849461944955E-002  -1.3661572590091535E-002
  -8.5296856357388817E-002   2.6451996669231703E-002  -1.0361565610863599E-002
  -6.5710194474921990E-002   1.9613027168760344E-002   3.4502734227467025E-002
  -6.3394826261782944E-002   1.8937549519960295E-002   3.3138394671806959E-002
  -6.1079458048643898E-002   1.8250443166722766E-002   3.2160022716406167E-002
  -5.8764089835504837E-002   1.7551708109047801E-002   3.1567618361264732E-002
  -5.6448721622365777E-002   1.6841344346935072E-002   3.1361181606382627E-002
  -7.1913005279541156E-002   2.1322769543878184E-002   2.3463406923693059E-002
  -6.9282363298703742E-002   2.0541548840322638E-002   2.2899597102819691E-002
  -6.6651721317866341E-002   1.9772876863896824E-002   2.2580367217083883E-002
  -6.4021079337028927E-002   1.9016753614600656E-002   2.2505717266485287E-002
  -6.1390437356191541E-002   1.8273179092434089E-002   2.2675647251024028E-002
  -7.7245052528158664E-002   2.3032511918996024E-002   1.2306247849379878E-002
  -7.4440524444744832E-002   2.2145548160685036E-002   1.2567145194860713E-002
  -7.1635996361331000E-002   2.1295310561070820E-002   1.2931234810356664E-002
  -6.8831468277917182E-002   2.0481799120153507E-002   1.3398516695868199E-002
  -6.6026940194503336E-002   1.9705013837933216E-002   1.3968990851395316E-002
  -8.1706336220774556E-002   2.4742254294113780E-002   1.0312570045277816E-003
  -7.8869309699906201E-002   2.3749547481047240E-002   2.1410389479294533E-003
  -7.6032283179037791E-002   2.2817744258244958E-002   3.2126254962248652E-003
  -7.3195256658169380E-002   2.1946844625706362E-002   4.2460166494135967E-003
  -7.0358230137300998E-002   2.1136848583432288E-002   5.2412124074962263E-003
  -8.5296856357388817E-002   2.6451996669231703E-002  -1.0361565610863599E-002
  -8.2568719064187779E-002   2.5353546801409610E-002  -8.3787216379735963E-003
  -7.9840581770986740E-002   2.4340177955418818E-002  -6.5754607253116076E-003
  -7.7112444477785702E-002   2.3411890131259258E-002  -4.9517828728781570E-003
  -7.4384307184584664E-002   2.2568683328931360E-002  -3.5076880806729216E-003
  -5.6448721622365777E-002   1.6841344346935072E-002   3.1361181606382627E-002
  -5.4067412381876956E-002   1.6123712915757538E-002   3.0617984197199632E-002
  -5.1686103141388121E-002   1.5403174850887560E-002   3.0104111728364719E-002
  -4.9304793900899320E-002   1.4679730152325227E-002   2.9819564199877802E-002
  -4.6923484660410519E-002   1.3953378820070805E-002   2.9764341611739076E-002
  -6.1390437356191541E-002   1.8273179092434089E-002   2.2675647251024028E-002
  -5.8798225786452774E-002   1.7528224648885288E-002   2.2210132524463799E-002
  -5.6206014216713965E-002   1.6767961635442252E-002   2.1937097516055354E-002
  -5.3613802646975156E-002   1.5992390052105093E-002   2.1856542225798789E-002
  -5.1021591077236375E-002   1.5201509898873700E-002   2.1968466653694174E-002
  -6.6026940194503336E-002   1.9705013837933216E-002   1.3968990851395316E-002
  -6.3260671517710809E-002   1.8932736382013260E-002   1.3768756871255922E-002
  -6.0494402840918171E-002   1.8132748419997048E-002   1.3724157387072021E-002
  -5.7728134164125602E-002   1.7305049951884900E-002   1.3835192398843971E-002
  -5.4961865487333006E-002   1.6449640977676677E-002   1.4101861906571353E-002
  -7.0358230137300998E-002   2.1136848583432288E-002   5.2412124074962263E-003
  -6.7454749575650938E-002   2.0337248115141177E-002   5.2938572375757706E-003
  -6.4551269014000781E-002   1.9497535204551681E-002   5.4652913414145275E-003
  -6.1647788452350610E-002   1.8617709851664794E-002   5.7555147190131361E-003
  -5.8744307890700551E-002   1.7697772056479613E-002   6.1645273703708585E-003
  -7.4384307184584664E-002   2.2568683328931360E-002  -3.5076880806729216E-003
  -7.1380459960273202E-002   2.1741759848268871E-002  -3.2145663765764665E-003
  -6.8376612735961739E-002   2.0862321989106841E-002  -2.8395006209166185E-003
  -6.5372765511650277E-002   1.9930369751444292E-002  -2.3824908136938425E-003
  -6.2368918287338815E-002   1.8945903135282660E-002  -1.8435369549072433E-003
  -4.6923484660410519E-002   1.3953378820070805E-002   2.9764341611739076E-002
  -4.4602593677811164E-002   1.3220143300641640E-002   2.9172368546449945E-002
  -4.2281702695211865E-002   1.2476046040556119E-002   2.8705090477271072E-002
  -3.9960811712612523E-002   1.1721087039814098E-002   2.8362507404202417E-002
  -3.7639920730013238E-002   1.0955266298415811E-002   2.8144619327243880E-002
  -5.1021591077236375E-002   1.5201509898873700E-002   2.1968466653694174E-002
  -4.8566491292265229E-002   1.4406559802278424E-002   2.1541992872651045E-002
  -4.6111391507294021E-002   1.3618778388849784E-002   2.1259241700241488E-002
  -4.3656291722322882E-002   1.2838165658587267E-002   2.1120213136465518E-002
  -4.1201191937351667E-002   1.2064721611491636E-002   2.1124907181323094E-002
  -5.4961865487333006E-002   1.6449640977676677E-002   1.4101861906571353E-002
  -5.2353529287466533E-002   1.5592976303915235E-002   1.3858917833597106E-002
  -4.9745193087600115E-002   1.4761510737143345E-002   1.3778723981779893E-002
  -4.7136856887733711E-002   1.3955244277360715E-002   1.3861280351119696E-002
  -4.4528520687867230E-002   1.3174176924567460E-002   1.4106586941616567E-002
  -5.8744307890700551E-002   1.7697772056479613E-002   6.1645273703708585E-003
  -5.5963707663415352E-002   1.6779392805552032E-002   6.1231434292882483E-003
  -5.3183107436130111E-002   1.5904243085436569E-002   6.2635373218864390E-003
  -5.0402507208844913E-002   1.5072322896133802E-002   6.5857090481650738E-003
  -4.7621906981559672E-002   1.4283632237643229E-002   7.0896586081240220E-003
  -6.2368918287338815E-002   1.8945903135282660E-002  -1.8435369549072433E-003
  -5.9397026420111354E-002   1.7965809307188718E-002  -1.6653303402751063E-003
  -5.6425134552884004E-002   1.7046975433730044E-002  -1.2863182794383143E-003
  -5.3453242685656654E-002   1.6189401514906977E-002  -7.0650077239815812E-004
  -5.0481350818429194E-002   1.5393087550719109E-002   7.4122180845903607E-005
  -3.7639920730013238E-002   1.0955266298415811E-002   2.8144619327243880E-002
  -3.5243190467041080E-002   1.0194076038414213E-002   2.7414187324521277E-002
  -3.2846460204068964E-002   9.4530084818615634E-003   2.6860189068293627E-002
  -3.0449729941096841E-002   8.7320636287591055E-003   2.6482624558560736E-002
  -2.8052999678124718E-002   8.0312414791061659E-003   2.6281493795322519E-002
  -4.1201191937351667E-002   1.2064721611491636E-002   2.1124907181323094E-002
  -3.8656547393505908E-002   1.1297174729047565E-002   2.0612272344595950E-002
  -3.6111902849660107E-002   1.0534253492740592E-002   2.0219032323121333E-002
  -3.3567258305814258E-002   9.7759579025711515E-003   1.9945187116899465E-002
  -3.1022613761968493E-002   9.0222879585387661E-003   1.9790736725929903E-002
  -4.4528520687867230E-002   1.3174176924567460E-002   1.4106586941616567E-002
  -4.1893000794389922E-002   1.2400273419681279E-002   1.3796252213572113E-002
  -3.9257480900912661E-002   1.1615498503619856E-002   1.3548273369538191E-002
  -3.6621961007435394E-002   1.0819852176383146E-002   1.3362650409514711E-002
  -3.3986441113958078E-002   1.0013334437971366E-002   1.3239383333501414E-002
  -4.7621906981559672E-002   1.4283632237643229E-002   7.0896586081240220E-003
  -4.4952550669693198E-002   1.3503372110314923E-002   6.9661269314504129E-003
  -4.2283194357826646E-002   1.2696743514499113E-002   6.8479122075443787E-003
  -3.9613838045960172E-002   1.1863746450195221E-002   6.7350144364069098E-003
  -3.6944481734093620E-002   1.1004380917404077E-002   6.6274336180373108E-003
  -5.0481350818429194E-002   1.5393087550719109E-002   7.4122180845903607E-005
  -4.7835197019415632E-002   1.4606470800948235E-002   1.2189649822980098E-004
  -4.5189043220402070E-002   1.3777988525378260E-002   1.1794883713972526E-004
  -4.2542889421388508E-002   1.2907640724007324E-002   6.2279197575523804E-005
  -3.9896735622374946E-002   1.1995427396836789E-002  -4.5112420462567471E-005
  -2.8052999678124718E-002   8.0312414791061659E-003   2.6281493795322519E-002
  -2.5707469003748401E-002   7.3117309091725868E-003   2.5692511957579600E-002
  -2.3361938329372070E-002   6.5347207952280717E-003   2.5051196651902696E-002
  -2.1016407654995760E-002   5.7002111372726691E-003   2.4357547878291974E-002
  -1.8670876980619422E-002   4.8082019353062888E-003   2.3611565636747378E-002
  -3.1022613761968493E-002   9.0222879585387661E-003   1.9790736725929903E-002
  -2.8711600149339600E-002   8.2703005399190066E-003   1.9195977956566079E-002
  -2.6400586536710749E-002   7.5170525259872223E-003   1.8584518531641003E-002
  -2.4089572924081891E-002   6.7625439167429691E-003   1.7956358451155216E-002
  -2.1778559311453061E-002   6.0067747121869131E-003   1.7311497715108148E-002
  -3.3986441113958078E-002   1.0013334437971366E-002   1.3239383333501414E-002
  -3.1674311750703711E-002   9.2288701706654264E-003   1.2695086581215348E-002
  -2.9362182387449452E-002   8.4993842567459427E-003   1.2169721985741469E-002
  -2.7050053024195116E-002   7.8248766962132725E-003   1.1663289547079417E-002
  -2.4737923660940769E-002   7.2053474890674818E-003   1.1175789265229080E-002
  -3.6944481734093620E-002   1.1004380917404077E-002   6.6274336180373108E-003
  -3.4595603807840936E-002   1.0187439801411624E-002   6.1898378315282110E-003
  -3.2246725881588167E-002   9.4817159875045451E-003   5.8068070142035765E-003
  -2.9897847955335486E-002   8.8872094756835742E-003   5.4783411660642833E-003
  -2.7548970029082718E-002   8.4039202659481338E-003   5.2044402871093617E-003
  -3.9896735622374946E-002   1.1995427396836789E-002  -4.5112420462567471E-005
  -3.7475476320750878E-002   1.1146009432158044E-002  -3.1976829249624750E-004
  -3.5054217019126976E-002   1.0464047718263592E-002  -5.0422638297201172E-004
  -3.2632957717503019E-002   9.9495422551540424E-003  -5.9848669189017240E-004
  -3.0211698415879007E-002   9.6024930428286748E-003  -6.0254921925029237E-004
  -1.8670876980619422E-002   4.8082019353062888E-003   2.3611565636747378E-002
  -1.5649410631957406E-002   4.0771533492842127E-003   2.4396865925788602E-002
  -1.2627944283295472E-002   3.7255255391621944E-003   2.5656619164029837E-002
  -9.6064779346334700E-003   3.7533185049395471E-003   2.7390825351470360E-002
  -6.5850115859715230E-003   4.1605322466173877E-003   2.9599484488111116E-002
  -2.1778559311453061E-002   6.0067747121869131E-003   1.7311497715108148E-002
  -1.8552141966045307E-002   5.3416979717559876E-003   1.8256647182772701E-002
  -1.5325724620637624E-002   4.8592667548882640E-003   1.9137245694729105E-002
  -1.2099307275229884E-002   4.5594810615827500E-003   1.9953293250977264E-002
  -8.8728899298221864E-003   4.4423408918403684E-003   2.0704789851516914E-002
  -2.4737923660940769E-002   7.2053474890674818E-003   1.1175789265229080E-002
  -2.1845559223695354E-002   6.6062425942275682E-003   1.2084012659179827E-002
  -1.8953194786449856E-002   5.9930079706138756E-003   1.2388681192514114E-002
  -1.6060830349204368E-002   5.3656436182259494E-003   1.2089794865232338E-002
  -1.3168465911958943E-002   4.7241495370632380E-003   1.1187353677334200E-002
  -2.7548970029082718E-002   8.4039202659481338E-003   5.2044402871093617E-003
  -2.5529662404907449E-002   7.8707872166998011E-003   5.8789623550088849E-003
  -2.3510354780732198E-002   7.1267491863396051E-003   5.4109256573844945E-003
  -2.1491047156556965E-002   6.1718061748691506E-003   3.8003301942359010E-003
  -1.9471739532381679E-002   5.0059581822861632E-003   1.0471759655633212E-003
  -3.0211698415879007E-002   9.6024930428286748E-003  -6.0254921925029237E-004
  -2.9604451509681828E-002   9.1353318391709237E-003  -3.5850372973894595E-004
  -2.8997204603484650E-002   8.2604904020654457E-003  -1.7960209106596403E-003
  -2.8389957697287416E-002   6.9779687315121020E-003  -4.9151007620115358E-003
  -2.7782710791090293E-002   5.2877668275093104E-003  -9.7157432837967628E-003
  -6.5850115859715230E-003   4.1605322466173877E-003   2.9599484488111116E-002
  -6.0565583911753040E-003   6.1423209068564022E-003   3.4076571765806696E-002
  -5.5281051963791406E-003   1.0893838628317554E-002   3.9238950899028957E-002
  -4.9996520015828522E-003   1.8415085411002188E-002   4.5086621887778233E-002
  -4.4711988067867026E-003   2.8706061254909265E-002   5.1619584732054857E-002
  -8.8728899298221864E-003   4.4423408918403684E-003   2.0704789851516914E-002
  -7.5867939594656125E-003   5.6584787107508139E-003   2.5873350168442721E-002
  -6.3006979891089415E-003   9.3585269834036700E-003   3.1871904180962418E-002
  -5.0146020187522566E-003   1.5542485709799853E-002   3.8700451889075976E-002
  -3.7285060483956967E-003   2.4210354889938168E-002   4.6358993292783923E-002
  -1.3168465911958943E-002   4.7241495370632380E-003   1.1187353677334200E-002
  -1.0980025325974918E-002   5.1746365146452811E-003   1.6761568426010481E-002
  -8.7915847399908514E-003   7.8232153384893144E-003   2.3310478710347193E-002
  -6.6031441540068507E-003   1.2669886008596899E-002   3.0834084530345474E-002
  -4.4147035680227598E-003   1.9714648524967071E-002   3.9332385886004406E-002
  -1.9471739532381679E-002   5.0059581822861632E-003   1.0471759655633212E-003
  -1.6236252490703169E-002   4.6907943185400536E-003   6.7412265385095177E-003
  -1.3000765449024716E-002   6.2879036935756388E-003   1.3554674487183553E-002
  -9.7652784073462041E-003   9.7972863073946988E-003   2.1487519811585819E-002
  -6.5297913656677531E-003   1.5218942159995752E-002   3.0539762511715501E-002
  -2.7782710791090293E-002   5.2877668275093104E-003  -9.7157432837967628E-003
  -2.3355475453650465E-002   4.2069521224346040E-003  -4.1876754940598504E-003
  -1.8928240116210582E-002   4.7525920486610196E-003   2.6044915114715461E-003
  -1.4501004778770671E-002   6.9246866061918183E-003   1.0660757732798141E-002
  -1.0073769441330871E-002   1.0723235795024877E-002   1.9981123169919179E-002
 </DataArray>
 </PointData>
 </Piece>
 </UnstructuredGrid>
 </VTKFile>
